!- Windows Line endings 

Version,
    23.1;                     !- Version Identifier

SimulationControl,
    Yes,                      !- Do Zone Sizing Calculation
    Yes,                      !- Do System Sizing Calculation
    Yes,                      !- Do Plant Sizing Calculation
    No,                       !- Run Simulation for Sizing Periods
    Yes,                      !- Run Simulation for Weather File Run Periods
    No,                       !- Do HVAC Sizing Simulation for Sizing Periods
    1;                        !- Maximum Number of HVAC Sizing Simulation Passes

Building,
    EU S2 Campaign,           !- Name
    0,                        !- North Axis
    City,                     !- Terrain
    ,                         !- Loads Convergence Tolerance Value
    ,                         !- Temperature Convergence Tolerance Value
    FullExterior,             !- Solar Distribution
    ,                         !- Maximum Number of Warmup Days
    ;                         !- Minimum Number of Warmup Days

ShadowCalculation,
    PolygonClipping,          !- Shading Calculation Method
    Periodic,                 !- Shading Calculation Update Frequency Method
    1;                        !- Shading Calculation Update Frequency

HeatBalanceAlgorithm,
    ConductionTransferFunction,    !- Algorithm
    200,                      !- Surface Temperature Upper Limit
    0.1,                      !- Minimum Surface Convection Heat Transfer Coefficient Value
    10000000;                 !- Maximum Surface Convection Heat Transfer Coefficient Value

Timestep,
    12;                       !- Number of Timesteps per Hour

Site:Location,
    London,                   !- Name
    51.5,                     !- Latitude
    -0.5,                     !- Longitude
    0,                        !- Time Zone
    25;                       !- Elevation

SizingPeriod:WeatherFileDays,
    AnnualSizingPeriod,       !- Name
    1,                        !- Begin Month
    1,                        !- Begin Day of Month
    12,                       !- End Month
    31,                       !- End Day of Month
    Monday,                   !- Day of Week for Start Day
    No,                       !- Use Weather File Daylight Saving Period
    No;                       !- Use Weather File Rain and Snow Indicators

RunPeriod,
    RunPeriod1,               !- Name
    1,                        !- Begin Month
    1,                        !- Begin Day of Month
    ,                         !- Begin Year
    12,                       !- End Month
    31,                       !- End Day of Month
    ,                         !- End Year
    Sunday,                   !- Day of Week for Start Day
    No,                       !- Use Weather File Holidays and Special Days
    No,                       !- Use Weather File Daylight Saving Period
    No,                       !- Apply Weekend Holiday Rule
    Yes,                      !- Use Weather File Rain Indicators
    Yes;                      !- Use Weather File Snow Indicators

ScheduleTypeLimits,
    Any Number;               !- Name

SCHEDULETYPELIMITS,
    EU_Step8_AnyNumber_Wm2,    !- Name
    ,                         !- Lower Limit Value
    ,                         !- Upper Limit Value
    Continuous,               !- Numeric Type
    Dimensionless;            !- Unit Type

SCHEDULE:CONSTANT,
    EU_AlwaysOn,              !- Name
    ,                         !- Schedule Type Limits Name
    1;                        !- Hourly Value

SCHEDULE:CONSTANT,
    EU_CoolingOff,            !- Name
    ,                         !- Schedule Type Limits Name
    0;                        !- Hourly Value

SCHEDULE:FILE,
    EU_Step8_GainSchedule_0abc57826ca5c996_F0_dwelling_0_f000,    !- Name
    EU_Step8_AnyNumber_Wm2,    !- Schedule Type Limits Name
    ../../schedules/0abc57826ca5c996/0abc57826ca5c996_F0_dwelling_0_f000_gain.csv,    !- File Name
    1,                        !- Column Number
    0,                        !- Rows to Skip at Top
    8760,                     !- Number of Hours of Data
    Comma,                    !- Column Separator
    No,                       !- Interpolate to Timestep
    60,                       !- Minutes per Item
    Yes;                      !- Adjust Schedule for Daylight Savings

MATERIAL,
    EU_InternalMass_Material,    !- Name
    MediumRough,              !- Roughness
    0.1,                      !- Thickness
    1,                        !- Conductivity
    1800,                     !- Density
    900,                      !- Specific Heat
    0.9,                      !- Thermal Absorptance
    0.7,                      !- Solar Absorptance
    0.7;                      !- Visible Absorptance

MATERIAL:NOMASS,
    EU_wall_NoMass,           !- Name
    MediumRough,              !- Roughness
    0.7247189243747139,       !- Thermal Resistance
    0.9,                      !- Thermal Absorptance
    0.7,                      !- Solar Absorptance
    0.7;                      !- Visible Absorptance

MATERIAL:NOMASS,
    EU_roof_NoMass,           !- Name
    MediumRough,              !- Roughness
    2.989465563045695,        !- Thermal Resistance
    0.9,                      !- Thermal Absorptance
    0.7,                      !- Solar Absorptance
    0.7;                      !- Visible Absorptance

MATERIAL:NOMASS,
    EU_floor_NoMass,          !- Name
    MediumRough,              !- Roughness
    2.3915724504365556,       !- Thermal Resistance
    0.9,                      !- Thermal Absorptance
    0.7,                      !- Solar Absorptance
    0.7;                      !- Visible Absorptance

CONSTRUCTION,
    EU_wall_Construction,     !- Name
    EU_wall_NoMass;           !- Outside Layer

CONSTRUCTION,
    EU_roof_Construction,     !- Name
    EU_roof_NoMass;           !- Outside Layer

CONSTRUCTION,
    EU_floor_Construction,    !- Name
    EU_floor_NoMass;          !- Outside Layer

CONSTRUCTION,
    EU_InternalMass_Construction,    !- Name
    EU_InternalMass_Material;    !- Outside Layer

GlobalGeometryRules,
    UpperLeftCorner,          !- Starting Vertex Position
    CounterClockWise,         !- Vertex Entry Direction
    World;                    !- Coordinate System

ZONE,
    0abc57826ca5c996_F0_dwelling_0,    !- Name
    0,                        !- Direction of Relative North
    0,                        !- X Origin
    0,                        !- Y Origin
    0,                        !- Z Origin
    1,                        !- Type
    1,                        !- Multiplier
    autocalculate,            !- Ceiling Height
    172.224609375,            !- Volume
    autocalculate,            !- Floor Area
    ,                         !- Zone Inside Convection Algorithm
    ,                         !- Zone Outside Convection Algorithm
    Yes;                      !- Part of Total Floor Area

BUILDINGSURFACE:DETAILED,
    Block 0abc57826ca5c996_0 Storey 0 Wall 0001,    !- Name
    wall,                     !- Surface Type
    EU_wall_Construction,     !- Construction Name
    0abc57826ca5c996_F0_dwelling_0,    !- Zone Name
    ,                         !- Space Name
    outdoors,                 !- Outside Boundary Condition
    ,                         !- Outside Boundary Condition Object
    SunExposed,               !- Sun Exposure
    WindExposed,              !- Wind Exposure
    autocalculate,            !- View Factor to Ground
    autocalculate,            !- Number of Vertices
    705459.247,               !- Vertex 1 Xcoordinate
    5711184.483,              !- Vertex 1 Ycoordinate
    6,                        !- Vertex 1 Zcoordinate
    705459.247,               !- Vertex 2 Xcoordinate
    5711184.483,              !- Vertex 2 Ycoordinate
    0,                        !- Vertex 2 Zcoordinate
    705459.739,               !- Vertex 3 Xcoordinate
    5711184.859,              !- Vertex 3 Ycoordinate
    0,                        !- Vertex 3 Zcoordinate
    705459.739,               !- Vertex 4 Xcoordinate
    5711184.859,              !- Vertex 4 Ycoordinate
    6;                        !- Vertex 4 Zcoordinate

BUILDINGSURFACE:DETAILED,
    Block 0abc57826ca5c996_0 Storey 0 Wall 0002,    !- Name
    wall,                     !- Surface Type
    EU_wall_Construction,     !- Construction Name
    0abc57826ca5c996_F0_dwelling_0,    !- Zone Name
    ,                         !- Space Name
    outdoors,                 !- Outside Boundary Condition
    ,                         !- Outside Boundary Condition Object
    SunExposed,               !- Sun Exposure
    WindExposed,              !- Wind Exposure
    autocalculate,            !- View Factor to Ground
    autocalculate,            !- Number of Vertices
    705459.739,               !- Vertex 1 Xcoordinate
    5711184.859,              !- Vertex 1 Ycoordinate
    6,                        !- Vertex 1 Zcoordinate
    705459.739,               !- Vertex 2 Xcoordinate
    5711184.859,              !- Vertex 2 Ycoordinate
    0,                        !- Vertex 2 Zcoordinate
    705460.335,               !- Vertex 3 Xcoordinate
    5711185.062,              !- Vertex 3 Ycoordinate
    0,                        !- Vertex 3 Zcoordinate
    705460.335,               !- Vertex 4 Xcoordinate
    5711185.062,              !- Vertex 4 Ycoordinate
    6;                        !- Vertex 4 Zcoordinate

BUILDINGSURFACE:DETAILED,
    Block 0abc57826ca5c996_0 Storey 0 Wall 0003,    !- Name
    wall,                     !- Surface Type
    EU_wall_Construction,     !- Construction Name
    0abc57826ca5c996_F0_dwelling_0,    !- Zone Name
    ,                         !- Space Name
    outdoors,                 !- Outside Boundary Condition
    ,                         !- Outside Boundary Condition Object
    SunExposed,               !- Sun Exposure
    WindExposed,              !- Wind Exposure
    autocalculate,            !- View Factor to Ground
    autocalculate,            !- Number of Vertices
    705460.335,               !- Vertex 1 Xcoordinate
    5711185.062,              !- Vertex 1 Ycoordinate
    6,                        !- Vertex 1 Zcoordinate
    705460.335,               !- Vertex 2 Xcoordinate
    5711185.062,              !- Vertex 2 Ycoordinate
    0,                        !- Vertex 2 Zcoordinate
    705460.877,               !- Vertex 3 Xcoordinate
    5711185.072,              !- Vertex 3 Ycoordinate
    0,                        !- Vertex 3 Zcoordinate
    705460.877,               !- Vertex 4 Xcoordinate
    5711185.072,              !- Vertex 4 Ycoordinate
    6;                        !- Vertex 4 Zcoordinate

BUILDINGSURFACE:DETAILED,
    Block 0abc57826ca5c996_0 Storey 0 Wall 0004,    !- Name
    wall,                     !- Surface Type
    EU_wall_Construction,     !- Construction Name
    0abc57826ca5c996_F0_dwelling_0,    !- Zone Name
    ,                         !- Space Name
    outdoors,                 !- Outside Boundary Condition
    ,                         !- Outside Boundary Condition Object
    SunExposed,               !- Sun Exposure
    WindExposed,              !- Wind Exposure
    autocalculate,            !- View Factor to Ground
    autocalculate,            !- Number of Vertices
    705460.877,               !- Vertex 1 Xcoordinate
    5711185.072,              !- Vertex 1 Ycoordinate
    6,                        !- Vertex 1 Zcoordinate
    705460.877,               !- Vertex 2 Xcoordinate
    5711185.072,              !- Vertex 2 Ycoordinate
    0,                        !- Vertex 2 Zcoordinate
    705464.172,               !- Vertex 3 Xcoordinate
    5711183.992,              !- Vertex 3 Ycoordinate
    0,                        !- Vertex 3 Zcoordinate
    705464.172,               !- Vertex 4 Xcoordinate
    5711183.992,              !- Vertex 4 Ycoordinate
    6;                        !- Vertex 4 Zcoordinate

BUILDINGSURFACE:DETAILED,
    Block 0abc57826ca5c996_0 Storey 0 Wall 0005,    !- Name
    wall,                     !- Surface Type
    EU_wall_Construction,     !- Construction Name
    0abc57826ca5c996_F0_dwelling_0,    !- Zone Name
    ,                         !- Space Name
    Adiabatic,                !- Outside Boundary Condition
    ,                         !- Outside Boundary Condition Object
    NoSun,                    !- Sun Exposure
    NoWind,                   !- Wind Exposure
    autocalculate,            !- View Factor to Ground
    autocalculate,            !- Number of Vertices
    705464.172,               !- Vertex 1 Xcoordinate
    5711183.992,              !- Vertex 1 Ycoordinate
    6,                        !- Vertex 1 Zcoordinate
    705464.172,               !- Vertex 2 Xcoordinate
    5711183.992,              !- Vertex 2 Ycoordinate
    0,                        !- Vertex 2 Zcoordinate
    705462.385,               !- Vertex 3 Xcoordinate
    5711178.029,              !- Vertex 3 Ycoordinate
    0,                        !- Vertex 3 Zcoordinate
    705462.385,               !- Vertex 4 Xcoordinate
    5711178.029,              !- Vertex 4 Ycoordinate
    6;                        !- Vertex 4 Zcoordinate

BUILDINGSURFACE:DETAILED,
    Block 0abc57826ca5c996_0 Storey 0 Wall 0006,    !- Name
    wall,                     !- Surface Type
    EU_wall_Construction,     !- Construction Name
    0abc57826ca5c996_F0_dwelling_0,    !- Zone Name
    ,                         !- Space Name
    outdoors,                 !- Outside Boundary Condition
    ,                         !- Outside Boundary Condition Object
    SunExposed,               !- Sun Exposure
    WindExposed,              !- Wind Exposure
    autocalculate,            !- View Factor to Ground
    autocalculate,            !- Number of Vertices
    705462.385,               !- Vertex 1 Xcoordinate
    5711178.029,              !- Vertex 1 Ycoordinate
    6,                        !- Vertex 1 Zcoordinate
    705462.385,               !- Vertex 2 Xcoordinate
    5711178.029,              !- Vertex 2 Ycoordinate
    0,                        !- Vertex 2 Zcoordinate
    705458.537,               !- Vertex 3 Xcoordinate
    5711179.198,              !- Vertex 3 Ycoordinate
    0,                        !- Vertex 3 Zcoordinate
    705458.537,               !- Vertex 4 Xcoordinate
    5711179.198,              !- Vertex 4 Ycoordinate
    6;                        !- Vertex 4 Zcoordinate

BUILDINGSURFACE:DETAILED,
    Block 0abc57826ca5c996_0 Storey 0 Wall 0007,    !- Name
    wall,                     !- Surface Type
    EU_wall_Construction,     !- Construction Name
    0abc57826ca5c996_F0_dwelling_0,    !- Zone Name
    ,                         !- Space Name
    outdoors,                 !- Outside Boundary Condition
    ,                         !- Outside Boundary Condition Object
    SunExposed,               !- Sun Exposure
    WindExposed,              !- Wind Exposure
    autocalculate,            !- View Factor to Ground
    autocalculate,            !- Number of Vertices
    705458.537,               !- Vertex 1 Xcoordinate
    5711179.198,              !- Vertex 1 Ycoordinate
    6,                        !- Vertex 1 Zcoordinate
    705458.537,               !- Vertex 2 Xcoordinate
    5711179.198,              !- Vertex 2 Ycoordinate
    0,                        !- Vertex 2 Zcoordinate
    705458.818,               !- Vertex 3 Xcoordinate
    5711183.92,               !- Vertex 3 Ycoordinate
    0,                        !- Vertex 3 Zcoordinate
    705458.818,               !- Vertex 4 Xcoordinate
    5711183.92,               !- Vertex 4 Ycoordinate
    6;                        !- Vertex 4 Zcoordinate

BUILDINGSURFACE:DETAILED,
    Block 0abc57826ca5c996_0 Storey 0 Wall 0008,    !- Name
    wall,                     !- Surface Type
    EU_wall_Construction,     !- Construction Name
    0abc57826ca5c996_F0_dwelling_0,    !- Zone Name
    ,                         !- Space Name
    outdoors,                 !- Outside Boundary Condition
    ,                         !- Outside Boundary Condition Object
    SunExposed,               !- Sun Exposure
    WindExposed,              !- Wind Exposure
    autocalculate,            !- View Factor to Ground
    autocalculate,            !- Number of Vertices
    705458.818,               !- Vertex 1 Xcoordinate
    5711183.92,               !- Vertex 1 Ycoordinate
    6,                        !- Vertex 1 Zcoordinate
    705458.818,               !- Vertex 2 Xcoordinate
    5711183.92,               !- Vertex 2 Ycoordinate
    0,                        !- Vertex 2 Zcoordinate
    705459.247,               !- Vertex 3 Xcoordinate
    5711184.483,              !- Vertex 3 Ycoordinate
    0,                        !- Vertex 3 Zcoordinate
    705459.247,               !- Vertex 4 Xcoordinate
    5711184.483,              !- Vertex 4 Ycoordinate
    6;                        !- Vertex 4 Zcoordinate

BUILDINGSURFACE:DETAILED,
    Block 0abc57826ca5c996_0 Storey 0 Floor 0001,    !- Name
    floor,                    !- Surface Type
    EU_floor_Construction,    !- Construction Name
    0abc57826ca5c996_F0_dwelling_0,    !- Zone Name
    ,                         !- Space Name
    ground,                   !- Outside Boundary Condition
    ,                         !- Outside Boundary Condition Object
    NoSun,                    !- Sun Exposure
    NoWind,                   !- Wind Exposure
    autocalculate,            !- View Factor to Ground
    autocalculate,            !- Number of Vertices
    705462.385,               !- Vertex 1 Xcoordinate
    5711178.029,              !- Vertex 1 Ycoordinate
    0,                        !- Vertex 1 Zcoordinate
    705464.172,               !- Vertex 2 Xcoordinate
    5711183.992,              !- Vertex 2 Ycoordinate
    0,                        !- Vertex 2 Zcoordinate
    705460.877,               !- Vertex 3 Xcoordinate
    5711185.072,              !- Vertex 3 Ycoordinate
    0,                        !- Vertex 3 Zcoordinate
    705460.335,               !- Vertex 4 Xcoordinate
    5711185.062,              !- Vertex 4 Ycoordinate
    0,                        !- Vertex 4 Zcoordinate
    705459.739,               !- Vertex 5 Xcoordinate
    5711184.859,              !- Vertex 5 Ycoordinate
    0,                        !- Vertex 5 Zcoordinate
    705459.247,               !- Vertex 6 Xcoordinate
    5711184.483,              !- Vertex 6 Ycoordinate
    0,                        !- Vertex 6 Zcoordinate
    705458.818,               !- Vertex 7 Xcoordinate
    5711183.92,               !- Vertex 7 Ycoordinate
    0,                        !- Vertex 7 Zcoordinate
    705458.537,               !- Vertex 8 Xcoordinate
    5711179.198,              !- Vertex 8 Ycoordinate
    0;                        !- Vertex 8 Zcoordinate

BUILDINGSURFACE:DETAILED,
    Block 0abc57826ca5c996_0 Storey 0 Roof 0001,    !- Name
    roof,                     !- Surface Type
    EU_roof_Construction,     !- Construction Name
    0abc57826ca5c996_F0_dwelling_0,    !- Zone Name
    ,                         !- Space Name
    outdoors,                 !- Outside Boundary Condition
    ,                         !- Outside Boundary Condition Object
    NoSun,                    !- Sun Exposure
    WindExposed,              !- Wind Exposure
    autocalculate,            !- View Factor to Ground
    autocalculate,            !- Number of Vertices
    705464.172,               !- Vertex 1 Xcoordinate
    5711183.992,              !- Vertex 1 Ycoordinate
    6,                        !- Vertex 1 Zcoordinate
    705462.385,               !- Vertex 2 Xcoordinate
    5711178.029,              !- Vertex 2 Ycoordinate
    6,                        !- Vertex 2 Zcoordinate
    705458.537,               !- Vertex 3 Xcoordinate
    5711179.198,              !- Vertex 3 Ycoordinate
    6,                        !- Vertex 3 Zcoordinate
    705458.818,               !- Vertex 4 Xcoordinate
    5711183.92,               !- Vertex 4 Ycoordinate
    6,                        !- Vertex 4 Zcoordinate
    705459.247,               !- Vertex 5 Xcoordinate
    5711184.483,              !- Vertex 5 Ycoordinate
    6,                        !- Vertex 5 Zcoordinate
    705459.739,               !- Vertex 6 Xcoordinate
    5711184.859,              !- Vertex 6 Ycoordinate
    6,                        !- Vertex 6 Zcoordinate
    705460.335,               !- Vertex 7 Xcoordinate
    5711185.062,              !- Vertex 7 Ycoordinate
    6,                        !- Vertex 7 Zcoordinate
    705460.877,               !- Vertex 8 Xcoordinate
    5711185.072,              !- Vertex 8 Ycoordinate
    6;                        !- Vertex 8 Zcoordinate

INTERNALMASS,
    0abc57826ca5c996_F0_dwelling_0_EU_InternalMass,    !- Name
    EU_InternalMass_Construction,    !- Construction Name
    0abc57826ca5c996_F0_dwelling_0,    !- Zone or ZoneList Name
    ,                         !- Space or SpaceList Name
    28.70385499996062;        !- Surface Area

SHADING:SITE:DETAILED,
    shade_way/892496589_1,    !- Name
    ,                         !- Transmittance Schedule Name
    autocalculate,            !- Number of Vertices
    705457.3680189075,        !- Vertex 1 Xcoordinate
    5711155.865321041,        !- Vertex 1 Ycoordinate
    6,                        !- Vertex 1 Zcoordinate
    705457.3680189075,        !- Vertex 2 Xcoordinate
    5711155.865321041,        !- Vertex 2 Ycoordinate
    0,                        !- Vertex 2 Zcoordinate
    705457.5793956817,        !- Vertex 3 Xcoordinate
    5711160.9312215885,       !- Vertex 3 Ycoordinate
    0,                        !- Vertex 3 Zcoordinate
    705457.5793956817,        !- Vertex 4 Xcoordinate
    5711160.9312215885,       !- Vertex 4 Ycoordinate
    6;                        !- Vertex 4 Zcoordinate

SHADING:SITE:DETAILED,
    shade_way/892496589_2,    !- Name
    ,                         !- Transmittance Schedule Name
    autocalculate,            !- Number of Vertices
    705457.5793956817,        !- Vertex 1 Xcoordinate
    5711160.9312215885,       !- Vertex 1 Ycoordinate
    6,                        !- Vertex 1 Zcoordinate
    705457.5793956817,        !- Vertex 2 Xcoordinate
    5711160.9312215885,       !- Vertex 2 Ycoordinate
    0,                        !- Vertex 2 Zcoordinate
    705468.3808960889,        !- Vertex 3 Xcoordinate
    5711160.480524564,        !- Vertex 3 Ycoordinate
    0,                        !- Vertex 3 Zcoordinate
    705468.3808960889,        !- Vertex 4 Xcoordinate
    5711160.480524564,        !- Vertex 4 Ycoordinate
    6;                        !- Vertex 4 Zcoordinate

SHADING:SITE:DETAILED,
    shade_way/892496589_3,    !- Name
    ,                         !- Transmittance Schedule Name
    autocalculate,            !- Number of Vertices
    705468.3808960889,        !- Vertex 1 Xcoordinate
    5711160.480524564,        !- Vertex 1 Ycoordinate
    6,                        !- Vertex 1 Zcoordinate
    705468.3808960889,        !- Vertex 2 Xcoordinate
    5711160.480524564,        !- Vertex 2 Ycoordinate
    0,                        !- Vertex 2 Zcoordinate
    705468.1695193147,        !- Vertex 3 Xcoordinate
    5711155.414624017,        !- Vertex 3 Ycoordinate
    0,                        !- Vertex 3 Zcoordinate
    705468.1695193147,        !- Vertex 4 Xcoordinate
    5711155.414624017,        !- Vertex 4 Ycoordinate
    6;                        !- Vertex 4 Zcoordinate

SHADING:SITE:DETAILED,
    shade_way/892496589_4,    !- Name
    ,                         !- Transmittance Schedule Name
    autocalculate,            !- Number of Vertices
    705468.1695193147,        !- Vertex 1 Xcoordinate
    5711155.414624017,        !- Vertex 1 Ycoordinate
    6,                        !- Vertex 1 Zcoordinate
    705468.1695193147,        !- Vertex 2 Xcoordinate
    5711155.414624017,        !- Vertex 2 Ycoordinate
    0,                        !- Vertex 2 Zcoordinate
    705457.3680189075,        !- Vertex 3 Xcoordinate
    5711155.865321041,        !- Vertex 3 Ycoordinate
    0,                        !- Vertex 3 Zcoordinate
    705457.3680189075,        !- Vertex 4 Xcoordinate
    5711155.865321041,        !- Vertex 4 Ycoordinate
    6;                        !- Vertex 4 Zcoordinate

SHADING:SITE:DETAILED,
    shade_way/892496590_1,    !- Name
    ,                         !- Transmittance Schedule Name
    autocalculate,            !- Number of Vertices
    705457.8388010911,        !- Vertex 1 Xcoordinate
    5711165.897198932,        !- Vertex 1 Ycoordinate
    6,                        !- Vertex 1 Zcoordinate
    705457.8388010911,        !- Vertex 2 Xcoordinate
    5711165.897198932,        !- Vertex 2 Ycoordinate
    0,                        !- Vertex 2 Zcoordinate
    705468.6913902856,        !- Vertex 3 Xcoordinate
    5711165.332066415,        !- Vertex 3 Ycoordinate
    0,                        !- Vertex 3 Zcoordinate
    705468.6913902856,        !- Vertex 4 Xcoordinate
    5711165.332066415,        !- Vertex 4 Ycoordinate
    6;                        !- Vertex 4 Zcoordinate

SHADING:SITE:DETAILED,
    shade_way/892496590_2,    !- Name
    ,                         !- Transmittance Schedule Name
    autocalculate,            !- Number of Vertices
    705468.6913902856,        !- Vertex 1 Xcoordinate
    5711165.332066415,        !- Vertex 1 Ycoordinate
    6,                        !- Vertex 1 Zcoordinate
    705468.6913902856,        !- Vertex 2 Xcoordinate
    5711165.332066415,        !- Vertex 2 Ycoordinate
    0,                        !- Vertex 2 Zcoordinate
    705468.429202802,         !- Vertex 3 Xcoordinate
    5711160.29711804,         !- Vertex 3 Ycoordinate
    0,                        !- Vertex 3 Zcoordinate
    705468.429202802,         !- Vertex 4 Xcoordinate
    5711160.29711804,         !- Vertex 4 Ycoordinate
    6;                        !- Vertex 4 Zcoordinate

SHADING:SITE:DETAILED,
    shade_way/892496590_3,    !- Name
    ,                         !- Transmittance Schedule Name
    autocalculate,            !- Number of Vertices
    705468.429202802,         !- Vertex 1 Xcoordinate
    5711160.29711804,         !- Vertex 1 Ycoordinate
    6,                        !- Vertex 1 Zcoordinate
    705468.429202802,         !- Vertex 2 Xcoordinate
    5711160.29711804,         !- Vertex 2 Ycoordinate
    0,                        !- Vertex 2 Zcoordinate
    705457.5765501964,        !- Vertex 3 Xcoordinate
    5711160.862220435,        !- Vertex 3 Ycoordinate
    0,                        !- Vertex 3 Zcoordinate
    705457.5765501964,        !- Vertex 4 Xcoordinate
    5711160.862220435,        !- Vertex 4 Ycoordinate
    6;                        !- Vertex 4 Zcoordinate

SHADING:SITE:DETAILED,
    shade_way/892496590_4,    !- Name
    ,                         !- Transmittance Schedule Name
    autocalculate,            !- Number of Vertices
    705457.5765501964,        !- Vertex 1 Xcoordinate
    5711160.862220435,        !- Vertex 1 Ycoordinate
    6,                        !- Vertex 1 Zcoordinate
    705457.5765501964,        !- Vertex 2 Xcoordinate
    5711160.862220435,        !- Vertex 2 Ycoordinate
    0,                        !- Vertex 2 Zcoordinate
    705457.8388010911,        !- Vertex 3 Xcoordinate
    5711165.897198932,        !- Vertex 3 Ycoordinate
    0,                        !- Vertex 3 Zcoordinate
    705457.8388010911,        !- Vertex 4 Xcoordinate
    5711165.897198932,        !- Vertex 4 Ycoordinate
    6;                        !- Vertex 4 Zcoordinate

SHADING:SITE:DETAILED,
    shade_way/1061147001_1,    !- Name
    ,                         !- Transmittance Schedule Name
    autocalculate,            !- Number of Vertices
    705480.0926637361,        !- Vertex 1 Xcoordinate
    5711169.156968092,        !- Vertex 1 Ycoordinate
    6,                        !- Vertex 1 Zcoordinate
    705480.0926637361,        !- Vertex 2 Xcoordinate
    5711169.156968092,        !- Vertex 2 Ycoordinate
    0,                        !- Vertex 2 Zcoordinate
    705482.7870981935,        !- Vertex 3 Xcoordinate
    5711178.341594772,        !- Vertex 3 Ycoordinate
    0,                        !- Vertex 3 Zcoordinate
    705482.7870981935,        !- Vertex 4 Xcoordinate
    5711178.341594772,        !- Vertex 4 Ycoordinate
    6;                        !- Vertex 4 Zcoordinate

SHADING:SITE:DETAILED,
    shade_way/1061147001_2,    !- Name
    ,                         !- Transmittance Schedule Name
    autocalculate,            !- Number of Vertices
    705482.7870981935,        !- Vertex 1 Xcoordinate
    5711178.341594772,        !- Vertex 1 Ycoordinate
    6,                        !- Vertex 1 Zcoordinate
    705482.7870981935,        !- Vertex 2 Xcoordinate
    5711178.341594772,        !- Vertex 2 Ycoordinate
    0,                        !- Vertex 2 Zcoordinate
    705487.5676172301,        !- Vertex 3 Xcoordinate
    5711176.939164859,        !- Vertex 3 Ycoordinate
    0,                        !- Vertex 3 Zcoordinate
    705487.5676172301,        !- Vertex 4 Xcoordinate
    5711176.939164859,        !- Vertex 4 Ycoordinate
    6;                        !- Vertex 4 Zcoordinate

SHADING:SITE:DETAILED,
    shade_way/1061147001_3,    !- Name
    ,                         !- Transmittance Schedule Name
    autocalculate,            !- Number of Vertices
    705487.5676172301,        !- Vertex 1 Xcoordinate
    5711176.939164859,        !- Vertex 1 Ycoordinate
    6,                        !- Vertex 1 Zcoordinate
    705487.5676172301,        !- Vertex 2 Xcoordinate
    5711176.939164859,        !- Vertex 2 Ycoordinate
    0,                        !- Vertex 2 Zcoordinate
    705484.8731827727,        !- Vertex 3 Xcoordinate
    5711167.7545381775,       !- Vertex 3 Ycoordinate
    0,                        !- Vertex 3 Zcoordinate
    705484.8731827727,        !- Vertex 4 Xcoordinate
    5711167.7545381775,       !- Vertex 4 Ycoordinate
    6;                        !- Vertex 4 Zcoordinate

SHADING:SITE:DETAILED,
    shade_way/1061147001_4,    !- Name
    ,                         !- Transmittance Schedule Name
    autocalculate,            !- Number of Vertices
    705484.8731827727,        !- Vertex 1 Xcoordinate
    5711167.7545381775,       !- Vertex 1 Ycoordinate
    6,                        !- Vertex 1 Zcoordinate
    705484.8731827727,        !- Vertex 2 Xcoordinate
    5711167.7545381775,       !- Vertex 2 Ycoordinate
    0,                        !- Vertex 2 Zcoordinate
    705480.0926637361,        !- Vertex 3 Xcoordinate
    5711169.156968092,        !- Vertex 3 Ycoordinate
    0,                        !- Vertex 3 Zcoordinate
    705480.0926637361,        !- Vertex 4 Xcoordinate
    5711169.156968092,        !- Vertex 4 Ycoordinate
    6;                        !- Vertex 4 Zcoordinate

SHADING:SITE:DETAILED,
    shade_way/1061147000_1,    !- Name
    ,                         !- Transmittance Schedule Name
    autocalculate,            !- Number of Vertices
    705475.2311444742,        !- Vertex 1 Xcoordinate
    5711170.728123765,        !- Vertex 1 Ycoordinate
    6,                        !- Vertex 1 Zcoordinate
    705475.2311444742,        !- Vertex 2 Xcoordinate
    5711170.728123765,        !- Vertex 2 Ycoordinate
    0,                        !- Vertex 2 Zcoordinate
    705477.9520889352,        !- Vertex 3 Xcoordinate
    5711179.83936627,         !- Vertex 3 Ycoordinate
    0,                        !- Vertex 3 Zcoordinate
    705477.9520889352,        !- Vertex 4 Xcoordinate
    5711179.83936627,         !- Vertex 4 Ycoordinate
    6;                        !- Vertex 4 Zcoordinate

SHADING:SITE:DETAILED,
    shade_way/1061147000_2,    !- Name
    ,                         !- Transmittance Schedule Name
    autocalculate,            !- Number of Vertices
    705477.9520889352,        !- Vertex 1 Xcoordinate
    5711179.83936627,         !- Vertex 1 Ycoordinate
    6,                        !- Vertex 1 Zcoordinate
    705477.9520889352,        !- Vertex 2 Xcoordinate
    5711179.83936627,         !- Vertex 2 Ycoordinate
    0,                        !- Vertex 2 Zcoordinate
    705482.8835768776,        !- Vertex 3 Xcoordinate
    5711178.366464181,        !- Vertex 3 Ycoordinate
    0,                        !- Vertex 3 Zcoordinate
    705482.8835768776,        !- Vertex 4 Xcoordinate
    5711178.366464181,        !- Vertex 4 Ycoordinate
    6;                        !- Vertex 4 Zcoordinate

SHADING:SITE:DETAILED,
    shade_way/1061147000_3,    !- Name
    ,                         !- Transmittance Schedule Name
    autocalculate,            !- Number of Vertices
    705482.8835768776,        !- Vertex 1 Xcoordinate
    5711178.366464181,        !- Vertex 1 Ycoordinate
    6,                        !- Vertex 1 Zcoordinate
    705482.8835768776,        !- Vertex 2 Xcoordinate
    5711178.366464181,        !- Vertex 2 Ycoordinate
    0,                        !- Vertex 2 Zcoordinate
    705480.1626531137,        !- Vertex 3 Xcoordinate
    5711169.2553831525,       !- Vertex 3 Ycoordinate
    0,                        !- Vertex 3 Zcoordinate
    705480.1626531137,        !- Vertex 4 Xcoordinate
    5711169.2553831525,       !- Vertex 4 Ycoordinate
    6;                        !- Vertex 4 Zcoordinate

SHADING:SITE:DETAILED,
    shade_way/1061147000_4,    !- Name
    ,                         !- Transmittance Schedule Name
    autocalculate,            !- Number of Vertices
    705480.1626531137,        !- Vertex 1 Xcoordinate
    5711169.2553831525,       !- Vertex 1 Ycoordinate
    6,                        !- Vertex 1 Zcoordinate
    705480.1626531137,        !- Vertex 2 Xcoordinate
    5711169.2553831525,       !- Vertex 2 Ycoordinate
    0,                        !- Vertex 2 Zcoordinate
    705475.2311444742,        !- Vertex 3 Xcoordinate
    5711170.728123765,        !- Vertex 3 Ycoordinate
    0,                        !- Vertex 3 Zcoordinate
    705475.2311444742,        !- Vertex 4 Xcoordinate
    5711170.728123765,        !- Vertex 4 Ycoordinate
    6;                        !- Vertex 4 Zcoordinate

SHADING:SITE:DETAILED,
    shade_way/1061146999_1,    !- Name
    ,                         !- Transmittance Schedule Name
    autocalculate,            !- Number of Vertices
    705470.7374369422,        !- Vertex 1 Xcoordinate
    5711172.125286368,        !- Vertex 1 Ycoordinate
    6,                        !- Vertex 1 Zcoordinate
    705470.7374369422,        !- Vertex 2 Xcoordinate
    5711172.125286368,        !- Vertex 2 Ycoordinate
    0,                        !- Vertex 2 Zcoordinate
    705473.4768334021,        !- Vertex 3 Xcoordinate
    5711181.191371796,        !- Vertex 3 Ycoordinate
    0,                        !- Vertex 3 Zcoordinate
    705473.4768334021,        !- Vertex 4 Xcoordinate
    5711181.191371796,        !- Vertex 4 Ycoordinate
    6;                        !- Vertex 4 Zcoordinate

SHADING:SITE:DETAILED,
    shade_way/1061146999_2,    !- Name
    ,                         !- Transmittance Schedule Name
    autocalculate,            !- Number of Vertices
    705473.4768334021,        !- Vertex 1 Xcoordinate
    5711181.191371796,        !- Vertex 1 Ycoordinate
    6,                        !- Vertex 1 Zcoordinate
    705473.4768334021,        !- Vertex 2 Xcoordinate
    5711181.191371796,        !- Vertex 2 Ycoordinate
    0,                        !- Vertex 2 Zcoordinate
    705478.0133687378,        !- Vertex 3 Xcoordinate
    5711179.820618238,        !- Vertex 3 Ycoordinate
    0,                        !- Vertex 3 Zcoordinate
    705478.0133687378,        !- Vertex 4 Xcoordinate
    5711179.820618238,        !- Vertex 4 Ycoordinate
    6;                        !- Vertex 4 Zcoordinate

SHADING:SITE:DETAILED,
    shade_way/1061146999_3,    !- Name
    ,                         !- Transmittance Schedule Name
    autocalculate,            !- Number of Vertices
    705478.0133687378,        !- Vertex 1 Xcoordinate
    5711179.820618238,        !- Vertex 1 Ycoordinate
    6,                        !- Vertex 1 Zcoordinate
    705478.0133687378,        !- Vertex 2 Xcoordinate
    5711179.820618238,        !- Vertex 2 Ycoordinate
    0,                        !- Vertex 2 Zcoordinate
    705475.273972278,         !- Vertex 3 Xcoordinate
    5711170.75453281,         !- Vertex 3 Ycoordinate
    0,                        !- Vertex 3 Zcoordinate
    705475.273972278,         !- Vertex 4 Xcoordinate
    5711170.75453281,         !- Vertex 4 Ycoordinate
    6;                        !- Vertex 4 Zcoordinate

SHADING:SITE:DETAILED,
    shade_way/1061146999_4,    !- Name
    ,                         !- Transmittance Schedule Name
    autocalculate,            !- Number of Vertices
    705475.273972278,         !- Vertex 1 Xcoordinate
    5711170.75453281,         !- Vertex 1 Ycoordinate
    6,                        !- Vertex 1 Zcoordinate
    705475.273972278,         !- Vertex 2 Xcoordinate
    5711170.75453281,         !- Vertex 2 Ycoordinate
    0,                        !- Vertex 2 Zcoordinate
    705470.7374369422,        !- Vertex 3 Xcoordinate
    5711172.125286368,        !- Vertex 3 Ycoordinate
    0,                        !- Vertex 3 Zcoordinate
    705470.7374369422,        !- Vertex 4 Xcoordinate
    5711172.125286368,        !- Vertex 4 Ycoordinate
    6;                        !- Vertex 4 Zcoordinate

SHADING:SITE:DETAILED,
    shade_way/1061146998_1,    !- Name
    ,                         !- Transmittance Schedule Name
    autocalculate,            !- Number of Vertices
    705466.1992138549,        !- Vertex 1 Xcoordinate
    5711173.478179951,        !- Vertex 1 Ycoordinate
    6,                        !- Vertex 1 Zcoordinate
    705466.1992138549,        !- Vertex 2 Xcoordinate
    5711173.478179951,        !- Vertex 2 Ycoordinate
    0,                        !- Vertex 2 Zcoordinate
    705468.9970158299,        !- Vertex 3 Xcoordinate
    5711182.550342145,        !- Vertex 3 Ycoordinate
    0,                        !- Vertex 3 Zcoordinate
    705468.9970158299,        !- Vertex 4 Xcoordinate
    5711182.550342145,        !- Vertex 4 Ycoordinate
    6;                        !- Vertex 4 Zcoordinate

SHADING:SITE:DETAILED,
    shade_way/1061146998_2,    !- Name
    ,                         !- Transmittance Schedule Name
    autocalculate,            !- Number of Vertices
    705468.9970158299,        !- Vertex 1 Xcoordinate
    5711182.550342145,        !- Vertex 1 Ycoordinate
    6,                        !- Vertex 1 Zcoordinate
    705468.9970158299,        !- Vertex 2 Xcoordinate
    5711182.550342145,        !- Vertex 2 Ycoordinate
    0,                        !- Vertex 2 Zcoordinate
    705473.5265856582,        !- Vertex 3 Xcoordinate
    5711181.153368924,        !- Vertex 3 Ycoordinate
    0,                        !- Vertex 3 Zcoordinate
    705473.5265856582,        !- Vertex 4 Xcoordinate
    5711181.153368924,        !- Vertex 4 Ycoordinate
    6;                        !- Vertex 4 Zcoordinate

SHADING:SITE:DETAILED,
    shade_way/1061146998_3,    !- Name
    ,                         !- Transmittance Schedule Name
    autocalculate,            !- Number of Vertices
    705473.5265856582,        !- Vertex 1 Xcoordinate
    5711181.153368924,        !- Vertex 1 Ycoordinate
    6,                        !- Vertex 1 Zcoordinate
    705473.5265856582,        !- Vertex 2 Xcoordinate
    5711181.153368924,        !- Vertex 2 Ycoordinate
    0,                        !- Vertex 2 Zcoordinate
    705470.7281146599,        !- Vertex 3 Xcoordinate
    5711172.081165668,        !- Vertex 3 Ycoordinate
    0,                        !- Vertex 3 Zcoordinate
    705470.7281146599,        !- Vertex 4 Xcoordinate
    5711172.081165668,        !- Vertex 4 Ycoordinate
    6;                        !- Vertex 4 Zcoordinate

SHADING:SITE:DETAILED,
    shade_way/1061146998_4,    !- Name
    ,                         !- Transmittance Schedule Name
    autocalculate,            !- Number of Vertices
    705470.7281146599,        !- Vertex 1 Xcoordinate
    5711172.081165668,        !- Vertex 1 Ycoordinate
    6,                        !- Vertex 1 Zcoordinate
    705470.7281146599,        !- Vertex 2 Xcoordinate
    5711172.081165668,        !- Vertex 2 Ycoordinate
    0,                        !- Vertex 2 Zcoordinate
    705466.1992138549,        !- Vertex 3 Xcoordinate
    5711173.478179951,        !- Vertex 3 Ycoordinate
    0,                        !- Vertex 3 Zcoordinate
    705466.1992138549,        !- Vertex 4 Xcoordinate
    5711173.478179951,        !- Vertex 4 Ycoordinate
    6;                        !- Vertex 4 Zcoordinate

SHADING:SITE:DETAILED,
    shade_way/397131471_1,    !- Name
    ,                         !- Transmittance Schedule Name
    autocalculate,            !- Number of Vertices
    705461.4922350909,        !- Vertex 1 Xcoordinate
    5711175.171107846,        !- Vertex 1 Ycoordinate
    6,                        !- Vertex 1 Zcoordinate
    705461.4922350909,        !- Vertex 2 Xcoordinate
    5711175.171107846,        !- Vertex 2 Ycoordinate
    0,                        !- Vertex 2 Zcoordinate
    705464.1790433519,        !- Vertex 3 Xcoordinate
    5711184.014458006,        !- Vertex 3 Ycoordinate
    0,                        !- Vertex 3 Zcoordinate
    705464.1790433519,        !- Vertex 4 Xcoordinate
    5711184.014458006,        !- Vertex 4 Ycoordinate
    6;                        !- Vertex 4 Zcoordinate

SHADING:SITE:DETAILED,
    shade_way/397131471_2,    !- Name
    ,                         !- Transmittance Schedule Name
    autocalculate,            !- Number of Vertices
    705464.1790433519,        !- Vertex 1 Xcoordinate
    5711184.014458006,        !- Vertex 1 Ycoordinate
    6,                        !- Vertex 1 Zcoordinate
    705464.1790433519,        !- Vertex 2 Xcoordinate
    5711184.014458006,        !- Vertex 2 Ycoordinate
    0,                        !- Vertex 2 Zcoordinate
    705468.9970158299,        !- Vertex 3 Xcoordinate
    5711182.550342145,        !- Vertex 3 Ycoordinate
    0,                        !- Vertex 3 Zcoordinate
    705468.9970158299,        !- Vertex 4 Xcoordinate
    5711182.550342145,        !- Vertex 4 Ycoordinate
    6;                        !- Vertex 4 Zcoordinate

SHADING:SITE:DETAILED,
    shade_way/397131471_3,    !- Name
    ,                         !- Transmittance Schedule Name
    autocalculate,            !- Number of Vertices
    705468.9970158299,        !- Vertex 1 Xcoordinate
    5711182.550342145,        !- Vertex 1 Ycoordinate
    6,                        !- Vertex 1 Zcoordinate
    705468.9970158299,        !- Vertex 2 Xcoordinate
    5711182.550342145,        !- Vertex 2 Ycoordinate
    0,                        !- Vertex 2 Zcoordinate
    705466.3104474691,        !- Vertex 3 Xcoordinate
    5711173.707226787,        !- Vertex 3 Ycoordinate
    0,                        !- Vertex 3 Zcoordinate
    705466.3104474691,        !- Vertex 4 Xcoordinate
    5711173.707226787,        !- Vertex 4 Ycoordinate
    6;                        !- Vertex 4 Zcoordinate

SHADING:SITE:DETAILED,
    shade_way/397131471_4,    !- Name
    ,                         !- Transmittance Schedule Name
    autocalculate,            !- Number of Vertices
    705466.3104474691,        !- Vertex 1 Xcoordinate
    5711173.707226787,        !- Vertex 1 Ycoordinate
    6,                        !- Vertex 1 Zcoordinate
    705466.3104474691,        !- Vertex 2 Xcoordinate
    5711173.707226787,        !- Vertex 2 Ycoordinate
    0,                        !- Vertex 2 Zcoordinate
    705461.4922350909,        !- Vertex 3 Xcoordinate
    5711175.171107846,        !- Vertex 3 Ycoordinate
    0,                        !- Vertex 3 Zcoordinate
    705461.4922350909,        !- Vertex 4 Xcoordinate
    5711175.171107846,        !- Vertex 4 Ycoordinate
    6;                        !- Vertex 4 Zcoordinate

SHADING:SITE:DETAILED,
    shade_way/892496599_1,    !- Name
    ,                         !- Transmittance Schedule Name
    autocalculate,            !- Number of Vertices
    705446.3965628826,        !- Vertex 1 Xcoordinate
    5711167.074921345,        !- Vertex 1 Ycoordinate
    6,                        !- Vertex 1 Zcoordinate
    705446.3965628826,        !- Vertex 2 Xcoordinate
    5711167.074921345,        !- Vertex 2 Ycoordinate
    0,                        !- Vertex 2 Zcoordinate
    705435.0128003313,        !- Vertex 3 Xcoordinate
    5711167.524798069,        !- Vertex 3 Ycoordinate
    0,                        !- Vertex 3 Zcoordinate
    705435.0128003313,        !- Vertex 4 Xcoordinate
    5711167.524798069,        !- Vertex 4 Ycoordinate
    6;                        !- Vertex 4 Zcoordinate

SHADING:SITE:DETAILED,
    shade_way/892496599_2,    !- Name
    ,                         !- Transmittance Schedule Name
    autocalculate,            !- Number of Vertices
    705435.0128003313,        !- Vertex 1 Xcoordinate
    5711167.524798069,        !- Vertex 1 Ycoordinate
    6,                        !- Vertex 1 Zcoordinate
    705435.0128003313,        !- Vertex 2 Xcoordinate
    5711167.524798069,        !- Vertex 2 Ycoordinate
    0,                        !- Vertex 2 Zcoordinate
    705435.2179756382,        !- Vertex 3 Xcoordinate
    5711172.716591424,        !- Vertex 3 Ycoordinate
    0,                        !- Vertex 3 Zcoordinate
    705435.2179756382,        !- Vertex 4 Xcoordinate
    5711172.716591424,        !- Vertex 4 Ycoordinate
    6;                        !- Vertex 4 Zcoordinate

SHADING:SITE:DETAILED,
    shade_way/892496599_3,    !- Name
    ,                         !- Transmittance Schedule Name
    autocalculate,            !- Number of Vertices
    705435.2179756382,        !- Vertex 1 Xcoordinate
    5711172.716591424,        !- Vertex 1 Ycoordinate
    6,                        !- Vertex 1 Zcoordinate
    705435.2179756382,        !- Vertex 2 Xcoordinate
    5711172.716591424,        !- Vertex 2 Ycoordinate
    0,                        !- Vertex 2 Zcoordinate
    705446.6018482473,        !- Vertex 3 Xcoordinate
    5711172.266820461,        !- Vertex 3 Ycoordinate
    0,                        !- Vertex 3 Zcoordinate
    705446.6018482473,        !- Vertex 4 Xcoordinate
    5711172.266820461,        !- Vertex 4 Ycoordinate
    6;                        !- Vertex 4 Zcoordinate

SHADING:SITE:DETAILED,
    shade_way/892496599_4,    !- Name
    ,                         !- Transmittance Schedule Name
    autocalculate,            !- Number of Vertices
    705446.6018482473,        !- Vertex 1 Xcoordinate
    5711172.266820461,        !- Vertex 1 Ycoordinate
    6,                        !- Vertex 1 Zcoordinate
    705446.6018482473,        !- Vertex 2 Xcoordinate
    5711172.266820461,        !- Vertex 2 Ycoordinate
    0,                        !- Vertex 2 Zcoordinate
    705446.3965628826,        !- Vertex 3 Xcoordinate
    5711167.074921345,        !- Vertex 3 Ycoordinate
    0,                        !- Vertex 3 Zcoordinate
    705446.3965628826,        !- Vertex 4 Xcoordinate
    5711167.074921345,        !- Vertex 4 Ycoordinate
    6;                        !- Vertex 4 Zcoordinate

SHADING:SITE:DETAILED,
    shade_way/892496591_1,    !- Name
    ,                         !- Transmittance Schedule Name
    autocalculate,            !- Number of Vertices
    705447.4646880752,        !- Vertex 1 Xcoordinate
    5711190.524749139,        !- Vertex 1 Ycoordinate
    6,                        !- Vertex 1 Zcoordinate
    705447.4646880752,        !- Vertex 2 Xcoordinate
    5711190.524749139,        !- Vertex 2 Ycoordinate
    0,                        !- Vertex 2 Zcoordinate
    705446.7468416961,        !- Vertex 3 Xcoordinate
    5711175.069662072,        !- Vertex 3 Ycoordinate
    0,                        !- Vertex 3 Zcoordinate
    705446.7468416961,        !- Vertex 4 Xcoordinate
    5711175.069662072,        !- Vertex 4 Ycoordinate
    6;                        !- Vertex 4 Zcoordinate

SHADING:SITE:DETAILED,
    shade_way/892496591_2,    !- Name
    ,                         !- Transmittance Schedule Name
    autocalculate,            !- Number of Vertices
    705446.7468416961,        !- Vertex 1 Xcoordinate
    5711175.069662072,        !- Vertex 1 Ycoordinate
    6,                        !- Vertex 1 Zcoordinate
    705446.7468416961,        !- Vertex 2 Xcoordinate
    5711175.069662072,        !- Vertex 2 Ycoordinate
    0,                        !- Vertex 2 Zcoordinate
    705441.482552511,         !- Vertex 3 Xcoordinate
    5711175.314173858,        !- Vertex 3 Ycoordinate
    0,                        !- Vertex 3 Zcoordinate
    705441.482552511,         !- Vertex 4 Xcoordinate
    5711175.314173858,        !- Vertex 4 Ycoordinate
    6;                        !- Vertex 4 Zcoordinate

SHADING:SITE:DETAILED,
    shade_way/892496591_3,    !- Name
    ,                         !- Transmittance Schedule Name
    autocalculate,            !- Number of Vertices
    705441.482552511,         !- Vertex 1 Xcoordinate
    5711175.314173858,        !- Vertex 1 Ycoordinate
    6,                        !- Vertex 1 Zcoordinate
    705441.482552511,         !- Vertex 2 Xcoordinate
    5711175.314173858,        !- Vertex 2 Ycoordinate
    0,                        !- Vertex 2 Zcoordinate
    705442.2003988902,        !- Vertex 3 Xcoordinate
    5711190.769260924,        !- Vertex 3 Ycoordinate
    0,                        !- Vertex 3 Zcoordinate
    705442.2003988902,        !- Vertex 4 Xcoordinate
    5711190.769260924,        !- Vertex 4 Ycoordinate
    6;                        !- Vertex 4 Zcoordinate

SHADING:SITE:DETAILED,
    shade_way/892496591_4,    !- Name
    ,                         !- Transmittance Schedule Name
    autocalculate,            !- Number of Vertices
    705442.2003988902,        !- Vertex 1 Xcoordinate
    5711190.769260924,        !- Vertex 1 Ycoordinate
    6,                        !- Vertex 1 Zcoordinate
    705442.2003988902,        !- Vertex 2 Xcoordinate
    5711190.769260924,        !- Vertex 2 Ycoordinate
    0,                        !- Vertex 2 Zcoordinate
    705447.4646880752,        !- Vertex 3 Xcoordinate
    5711190.524749139,        !- Vertex 3 Ycoordinate
    0,                        !- Vertex 3 Zcoordinate
    705447.4646880752,        !- Vertex 4 Xcoordinate
    5711190.524749139,        !- Vertex 4 Ycoordinate
    6;                        !- Vertex 4 Zcoordinate

SHADING:SITE:DETAILED,
    shade_way/1061203035_1,    !- Name
    ,                         !- Transmittance Schedule Name
    autocalculate,            !- Number of Vertices
    705442.9952467208,        !- Vertex 1 Xcoordinate
    5711191.532481003,        !- Vertex 1 Ycoordinate
    6,                        !- Vertex 1 Zcoordinate
    705442.9952467208,        !- Vertex 2 Xcoordinate
    5711191.532481003,        !- Vertex 2 Ycoordinate
    0,                        !- Vertex 2 Zcoordinate
    705441.7460921044,        !- Vertex 3 Xcoordinate
    5711180.990349349,        !- Vertex 3 Ycoordinate
    0,                        !- Vertex 3 Zcoordinate
    705441.7460921044,        !- Vertex 4 Xcoordinate
    5711180.990349349,        !- Vertex 4 Ycoordinate
    6;                        !- Vertex 4 Zcoordinate

SHADING:SITE:DETAILED,
    shade_way/1061203035_2,    !- Name
    ,                         !- Transmittance Schedule Name
    autocalculate,            !- Number of Vertices
    705441.7460921044,        !- Vertex 1 Xcoordinate
    5711180.990349349,        !- Vertex 1 Ycoordinate
    6,                        !- Vertex 1 Zcoordinate
    705441.7460921044,        !- Vertex 2 Xcoordinate
    5711180.990349349,        !- Vertex 2 Ycoordinate
    0,                        !- Vertex 2 Zcoordinate
    705437.1995087981,        !- Vertex 3 Xcoordinate
    5711181.529262993,        !- Vertex 3 Ycoordinate
    0,                        !- Vertex 3 Zcoordinate
    705437.1995087981,        !- Vertex 4 Xcoordinate
    5711181.529262993,        !- Vertex 4 Ycoordinate
    6;                        !- Vertex 4 Zcoordinate

SHADING:SITE:DETAILED,
    shade_way/1061203035_3,    !- Name
    ,                         !- Transmittance Schedule Name
    autocalculate,            !- Number of Vertices
    705437.1995087981,        !- Vertex 1 Xcoordinate
    5711181.529262993,        !- Vertex 1 Ycoordinate
    6,                        !- Vertex 1 Zcoordinate
    705437.1995087981,        !- Vertex 2 Xcoordinate
    5711181.529262993,        !- Vertex 2 Ycoordinate
    0,                        !- Vertex 2 Zcoordinate
    705438.4486278148,        !- Vertex 3 Xcoordinate
    5711192.071038761,        !- Vertex 3 Ycoordinate
    0,                        !- Vertex 3 Zcoordinate
    705438.4486278148,        !- Vertex 4 Xcoordinate
    5711192.071038761,        !- Vertex 4 Ycoordinate
    6;                        !- Vertex 4 Zcoordinate

SHADING:SITE:DETAILED,
    shade_way/1061203035_4,    !- Name
    ,                         !- Transmittance Schedule Name
    autocalculate,            !- Number of Vertices
    705438.4486278148,        !- Vertex 1 Xcoordinate
    5711192.071038761,        !- Vertex 1 Ycoordinate
    6,                        !- Vertex 1 Zcoordinate
    705438.4486278148,        !- Vertex 2 Xcoordinate
    5711192.071038761,        !- Vertex 2 Ycoordinate
    0,                        !- Vertex 2 Zcoordinate
    705442.9952467208,        !- Vertex 3 Xcoordinate
    5711191.532481003,        !- Vertex 3 Ycoordinate
    0,                        !- Vertex 3 Zcoordinate
    705442.9952467208,        !- Vertex 4 Xcoordinate
    5711191.532481003,        !- Vertex 4 Ycoordinate
    6;                        !- Vertex 4 Zcoordinate

SHADING:SITE:DETAILED,
    shade_way/892496600_1,    !- Name
    ,                         !- Transmittance Schedule Name
    autocalculate,            !- Number of Vertices
    705446.3325152032,        !- Vertex 1 Xcoordinate
    5711167.077562564,        !- Vertex 1 Ycoordinate
    6,                        !- Vertex 1 Zcoordinate
    705446.3325152032,        !- Vertex 2 Xcoordinate
    5711167.077562564,        !- Vertex 2 Ycoordinate
    0,                        !- Vertex 2 Zcoordinate
    705446.0920142441,        !- Vertex 3 Xcoordinate
    5711162.034243299,        !- Vertex 3 Ycoordinate
    0,                        !- Vertex 3 Zcoordinate
    705446.0920142441,        !- Vertex 4 Xcoordinate
    5711162.034243299,        !- Vertex 4 Ycoordinate
    6;                        !- Vertex 4 Zcoordinate

SHADING:SITE:DETAILED,
    shade_way/892496600_2,    !- Name
    ,                         !- Transmittance Schedule Name
    autocalculate,            !- Number of Vertices
    705446.0920142441,        !- Vertex 1 Xcoordinate
    5711162.034243299,        !- Vertex 1 Ycoordinate
    6,                        !- Vertex 1 Zcoordinate
    705446.0920142441,        !- Vertex 2 Xcoordinate
    5711162.034243299,        !- Vertex 2 Ycoordinate
    0,                        !- Vertex 2 Zcoordinate
    705434.5661363313,        !- Vertex 3 Xcoordinate
    5711162.583559191,        !- Vertex 3 Ycoordinate
    0,                        !- Vertex 3 Zcoordinate
    705434.5661363313,        !- Vertex 4 Xcoordinate
    5711162.583559191,        !- Vertex 4 Ycoordinate
    6;                        !- Vertex 4 Zcoordinate

SHADING:SITE:DETAILED,
    shade_way/892496600_3,    !- Name
    ,                         !- Transmittance Schedule Name
    autocalculate,            !- Number of Vertices
    705434.5661363313,        !- Vertex 1 Xcoordinate
    5711162.583559191,        !- Vertex 1 Ycoordinate
    6,                        !- Vertex 1 Zcoordinate
    705434.5661363313,        !- Vertex 2 Xcoordinate
    5711162.583559191,        !- Vertex 2 Ycoordinate
    0,                        !- Vertex 2 Zcoordinate
    705434.8066372903,        !- Vertex 3 Xcoordinate
    5711167.626878456,        !- Vertex 3 Ycoordinate
    0,                        !- Vertex 3 Zcoordinate
    705434.8066372903,        !- Vertex 4 Xcoordinate
    5711167.626878456,        !- Vertex 4 Ycoordinate
    6;                        !- Vertex 4 Zcoordinate

SHADING:SITE:DETAILED,
    shade_way/892496600_4,    !- Name
    ,                         !- Transmittance Schedule Name
    autocalculate,            !- Number of Vertices
    705434.8066372903,        !- Vertex 1 Xcoordinate
    5711167.626878456,        !- Vertex 1 Ycoordinate
    6,                        !- Vertex 1 Zcoordinate
    705434.8066372903,        !- Vertex 2 Xcoordinate
    5711167.626878456,        !- Vertex 2 Ycoordinate
    0,                        !- Vertex 2 Zcoordinate
    705446.3325152032,        !- Vertex 3 Xcoordinate
    5711167.077562564,        !- Vertex 3 Ycoordinate
    0,                        !- Vertex 3 Zcoordinate
    705446.3325152032,        !- Vertex 4 Xcoordinate
    5711167.077562564,        !- Vertex 4 Ycoordinate
    6;                        !- Vertex 4 Zcoordinate

SHADING:SITE:DETAILED,
    shade_way/397131462_1,    !- Name
    ,                         !- Transmittance Schedule Name
    autocalculate,            !- Number of Vertices
    705480.1910724061,        !- Vertex 1 Xcoordinate
    5711203.796538331,        !- Vertex 1 Ycoordinate
    6,                        !- Vertex 1 Zcoordinate
    705480.1910724061,        !- Vertex 2 Xcoordinate
    5711203.796538331,        !- Vertex 2 Ycoordinate
    0,                        !- Vertex 2 Zcoordinate
    705478.0154589958,        !- Vertex 3 Xcoordinate
    5711196.911682685,        !- Vertex 3 Ycoordinate
    0,                        !- Vertex 3 Zcoordinate
    705478.0154589958,        !- Vertex 4 Xcoordinate
    5711196.911682685,        !- Vertex 4 Ycoordinate
    6;                        !- Vertex 4 Zcoordinate

SHADING:SITE:DETAILED,
    shade_way/397131462_2,    !- Name
    ,                         !- Transmittance Schedule Name
    autocalculate,            !- Number of Vertices
    705478.0154589958,        !- Vertex 1 Xcoordinate
    5711196.911682685,        !- Vertex 1 Ycoordinate
    6,                        !- Vertex 1 Zcoordinate
    705478.0154589958,        !- Vertex 2 Xcoordinate
    5711196.911682685,        !- Vertex 2 Ycoordinate
    0,                        !- Vertex 2 Zcoordinate
    705471.3655356093,        !- Vertex 3 Xcoordinate
    5711199.013057531,        !- Vertex 3 Ycoordinate
    0,                        !- Vertex 3 Zcoordinate
    705471.3655356093,        !- Vertex 4 Xcoordinate
    5711199.013057531,        !- Vertex 4 Ycoordinate
    6;                        !- Vertex 4 Zcoordinate

SHADING:SITE:DETAILED,
    shade_way/397131462_3,    !- Name
    ,                         !- Transmittance Schedule Name
    autocalculate,            !- Number of Vertices
    705471.3655356093,        !- Vertex 1 Xcoordinate
    5711199.013057531,        !- Vertex 1 Ycoordinate
    6,                        !- Vertex 1 Zcoordinate
    705471.3655356093,        !- Vertex 2 Xcoordinate
    5711199.013057531,        !- Vertex 2 Ycoordinate
    0,                        !- Vertex 2 Zcoordinate
    705473.5407987289,        !- Vertex 3 Xcoordinate
    5711205.897731537,        !- Vertex 3 Ycoordinate
    0,                        !- Vertex 3 Zcoordinate
    705473.5407987289,        !- Vertex 4 Xcoordinate
    5711205.897731537,        !- Vertex 4 Ycoordinate
    6;                        !- Vertex 4 Zcoordinate

SHADING:SITE:DETAILED,
    shade_way/397131462_4,    !- Name
    ,                         !- Transmittance Schedule Name
    autocalculate,            !- Number of Vertices
    705473.5407987289,        !- Vertex 1 Xcoordinate
    5711205.897731537,        !- Vertex 1 Ycoordinate
    6,                        !- Vertex 1 Zcoordinate
    705473.5407987289,        !- Vertex 2 Xcoordinate
    5711205.897731537,        !- Vertex 2 Ycoordinate
    0,                        !- Vertex 2 Zcoordinate
    705480.1910724061,        !- Vertex 3 Xcoordinate
    5711203.796538331,        !- Vertex 3 Ycoordinate
    0,                        !- Vertex 3 Zcoordinate
    705480.1910724061,        !- Vertex 4 Xcoordinate
    5711203.796538331,        !- Vertex 4 Ycoordinate
    6;                        !- Vertex 4 Zcoordinate

SHADING:SITE:DETAILED,
    shade_way/1055232805_1,    !- Name
    ,                         !- Transmittance Schedule Name
    autocalculate,            !- Number of Vertices
    705481.6653702882,        !- Vertex 1 Xcoordinate
    5711208.641568547,        !- Vertex 1 Ycoordinate
    6,                        !- Vertex 1 Zcoordinate
    705481.6653702882,        !- Vertex 2 Xcoordinate
    5711208.641568547,        !- Vertex 2 Ycoordinate
    0,                        !- Vertex 2 Zcoordinate
    705486.2628162656,        !- Vertex 3 Xcoordinate
    5711207.210959683,        !- Vertex 3 Ycoordinate
    0,                        !- Vertex 3 Zcoordinate
    705486.2628162656,        !- Vertex 4 Xcoordinate
    5711207.210959683,        !- Vertex 4 Ycoordinate
    6;                        !- Vertex 4 Zcoordinate

SHADING:SITE:DETAILED,
    shade_way/1055232805_2,    !- Name
    ,                         !- Transmittance Schedule Name
    autocalculate,            !- Number of Vertices
    705486.2628162656,        !- Vertex 1 Xcoordinate
    5711207.210959683,        !- Vertex 1 Ycoordinate
    6,                        !- Vertex 1 Zcoordinate
    705486.2628162656,        !- Vertex 2 Xcoordinate
    5711207.210959683,        !- Vertex 2 Ycoordinate
    0,                        !- Vertex 2 Zcoordinate
    705482.607127246,         !- Vertex 3 Xcoordinate
    5711195.462714835,        !- Vertex 3 Ycoordinate
    0,                        !- Vertex 3 Zcoordinate
    705482.607127246,         !- Vertex 4 Xcoordinate
    5711195.462714835,        !- Vertex 4 Ycoordinate
    6;                        !- Vertex 4 Zcoordinate

SHADING:SITE:DETAILED,
    shade_way/1055232805_3,    !- Name
    ,                         !- Transmittance Schedule Name
    autocalculate,            !- Number of Vertices
    705482.607127246,         !- Vertex 1 Xcoordinate
    5711195.462714835,        !- Vertex 1 Ycoordinate
    6,                        !- Vertex 1 Zcoordinate
    705482.607127246,         !- Vertex 2 Xcoordinate
    5711195.462714835,        !- Vertex 2 Ycoordinate
    0,                        !- Vertex 2 Zcoordinate
    705478.0096686694,        !- Vertex 3 Xcoordinate
    5711196.89350022,         !- Vertex 3 Ycoordinate
    0,                        !- Vertex 3 Zcoordinate
    705478.0096686694,        !- Vertex 4 Xcoordinate
    5711196.89350022,         !- Vertex 4 Ycoordinate
    6;                        !- Vertex 4 Zcoordinate

SHADING:SITE:DETAILED,
    shade_way/1055232805_4,    !- Name
    ,                         !- Transmittance Schedule Name
    autocalculate,            !- Number of Vertices
    705478.0096686694,        !- Vertex 1 Xcoordinate
    5711196.89350022,         !- Vertex 1 Ycoordinate
    6,                        !- Vertex 1 Zcoordinate
    705478.0096686694,        !- Vertex 2 Xcoordinate
    5711196.89350022,         !- Vertex 2 Ycoordinate
    0,                        !- Vertex 2 Zcoordinate
    705481.6653702882,        !- Vertex 3 Xcoordinate
    5711208.641568547,        !- Vertex 3 Ycoordinate
    0,                        !- Vertex 3 Zcoordinate
    705481.6653702882,        !- Vertex 4 Xcoordinate
    5711208.641568547,        !- Vertex 4 Ycoordinate
    6;                        !- Vertex 4 Zcoordinate

SHADING:SITE:DETAILED,
    shade_way/1055232804_1,    !- Name
    ,                         !- Transmittance Schedule Name
    autocalculate,            !- Number of Vertices
    705454.8351099686,        !- Vertex 1 Xcoordinate
    5711203.533892787,        !- Vertex 1 Ycoordinate
    6,                        !- Vertex 1 Zcoordinate
    705454.8351099686,        !- Vertex 2 Xcoordinate
    5711203.533892787,        !- Vertex 2 Ycoordinate
    0,                        !- Vertex 2 Zcoordinate
    705457.011436368,         !- Vertex 3 Xcoordinate
    5711211.041761581,        !- Vertex 3 Ycoordinate
    0,                        !- Vertex 3 Zcoordinate
    705457.011436368,         !- Vertex 4 Xcoordinate
    5711211.041761581,        !- Vertex 4 Ycoordinate
    6;                        !- Vertex 4 Zcoordinate

SHADING:SITE:DETAILED,
    shade_way/1055232804_2,    !- Name
    ,                         !- Transmittance Schedule Name
    autocalculate,            !- Number of Vertices
    705457.011436368,         !- Vertex 1 Xcoordinate
    5711211.041761581,        !- Vertex 1 Ycoordinate
    6,                        !- Vertex 1 Zcoordinate
    705457.011436368,         !- Vertex 2 Xcoordinate
    5711211.041761581,        !- Vertex 2 Ycoordinate
    0,                        !- Vertex 2 Zcoordinate
    705463.2669764515,        !- Vertex 3 Xcoordinate
    5711209.228451122,        !- Vertex 3 Ycoordinate
    0,                        !- Vertex 3 Zcoordinate
    705463.2669764515,        !- Vertex 4 Xcoordinate
    5711209.228451122,        !- Vertex 4 Ycoordinate
    6;                        !- Vertex 4 Zcoordinate

SHADING:SITE:DETAILED,
    shade_way/1055232804_3,    !- Name
    ,                         !- Transmittance Schedule Name
    autocalculate,            !- Number of Vertices
    705463.2669764515,        !- Vertex 1 Xcoordinate
    5711209.228451122,        !- Vertex 1 Ycoordinate
    6,                        !- Vertex 1 Zcoordinate
    705463.2669764515,        !- Vertex 2 Xcoordinate
    5711209.228451122,        !- Vertex 2 Ycoordinate
    0,                        !- Vertex 2 Zcoordinate
    705461.090650052,         !- Vertex 3 Xcoordinate
    5711201.720582328,        !- Vertex 3 Ycoordinate
    0,                        !- Vertex 3 Zcoordinate
    705461.090650052,         !- Vertex 4 Xcoordinate
    5711201.720582328,        !- Vertex 4 Ycoordinate
    6;                        !- Vertex 4 Zcoordinate

SHADING:SITE:DETAILED,
    shade_way/1055232804_4,    !- Name
    ,                         !- Transmittance Schedule Name
    autocalculate,            !- Number of Vertices
    705461.090650052,         !- Vertex 1 Xcoordinate
    5711201.720582328,        !- Vertex 1 Ycoordinate
    6,                        !- Vertex 1 Zcoordinate
    705461.090650052,         !- Vertex 2 Xcoordinate
    5711201.720582328,        !- Vertex 2 Ycoordinate
    0,                        !- Vertex 2 Zcoordinate
    705454.8351099686,        !- Vertex 3 Xcoordinate
    5711203.533892787,        !- Vertex 3 Ycoordinate
    0,                        !- Vertex 3 Zcoordinate
    705454.8351099686,        !- Vertex 4 Xcoordinate
    5711203.533892787,        !- Vertex 4 Ycoordinate
    6;                        !- Vertex 4 Zcoordinate

SHADING:SITE:DETAILED,
    shade_way/1055232803_1,    !- Name
    ,                         !- Transmittance Schedule Name
    autocalculate,            !- Number of Vertices
    705449.681569829,         !- Vertex 1 Xcoordinate
    5711205.17661729,         !- Vertex 1 Ycoordinate
    6,                        !- Vertex 1 Zcoordinate
    705449.681569829,         !- Vertex 2 Xcoordinate
    5711205.17661729,         !- Vertex 2 Ycoordinate
    0,                        !- Vertex 2 Zcoordinate
    705453.2925136337,        !- Vertex 3 Xcoordinate
    5711217.071563289,        !- Vertex 3 Ycoordinate
    0,                        !- Vertex 3 Zcoordinate
    705453.2925136337,        !- Vertex 4 Xcoordinate
    5711217.071563289,        !- Vertex 4 Ycoordinate
    6;                        !- Vertex 4 Zcoordinate

SHADING:SITE:DETAILED,
    shade_way/1055232803_2,    !- Name
    ,                         !- Transmittance Schedule Name
    autocalculate,            !- Number of Vertices
    705453.2925136337,        !- Vertex 1 Xcoordinate
    5711217.071563289,        !- Vertex 1 Ycoordinate
    6,                        !- Vertex 1 Zcoordinate
    705453.2925136337,        !- Vertex 2 Xcoordinate
    5711217.071563289,        !- Vertex 2 Ycoordinate
    0,                        !- Vertex 2 Zcoordinate
    705458.4668851639,        !- Vertex 3 Xcoordinate
    5711215.501105198,        !- Vertex 3 Ycoordinate
    0,                        !- Vertex 3 Zcoordinate
    705458.4668851639,        !- Vertex 4 Xcoordinate
    5711215.501105198,        !- Vertex 4 Ycoordinate
    6;                        !- Vertex 4 Zcoordinate

SHADING:SITE:DETAILED,
    shade_way/1055232803_3,    !- Name
    ,                         !- Transmittance Schedule Name
    autocalculate,            !- Number of Vertices
    705458.4668851639,        !- Vertex 1 Xcoordinate
    5711215.501105198,        !- Vertex 1 Ycoordinate
    6,                        !- Vertex 1 Zcoordinate
    705458.4668851639,        !- Vertex 2 Xcoordinate
    5711215.501105198,        !- Vertex 2 Ycoordinate
    0,                        !- Vertex 2 Zcoordinate
    705454.8559413588,        !- Vertex 3 Xcoordinate
    5711203.606159198,        !- Vertex 3 Ycoordinate
    0,                        !- Vertex 3 Zcoordinate
    705454.8559413588,        !- Vertex 4 Xcoordinate
    5711203.606159198,        !- Vertex 4 Ycoordinate
    6;                        !- Vertex 4 Zcoordinate

SHADING:SITE:DETAILED,
    shade_way/1055232803_4,    !- Name
    ,                         !- Transmittance Schedule Name
    autocalculate,            !- Number of Vertices
    705454.8559413588,        !- Vertex 1 Xcoordinate
    5711203.606159198,        !- Vertex 1 Ycoordinate
    6,                        !- Vertex 1 Zcoordinate
    705454.8559413588,        !- Vertex 2 Xcoordinate
    5711203.606159198,        !- Vertex 2 Ycoordinate
    0,                        !- Vertex 2 Zcoordinate
    705449.681569829,         !- Vertex 3 Xcoordinate
    5711205.17661729,         !- Vertex 3 Ycoordinate
    0,                        !- Vertex 3 Zcoordinate
    705449.681569829,         !- Vertex 4 Xcoordinate
    5711205.17661729,         !- Vertex 4 Ycoordinate
    6;                        !- Vertex 4 Zcoordinate

OTHEREQUIPMENT,
    EU_Step8_InternalGain_0abc57826ca5c996_F0_dwelling_0_f000,    !- Name
    Electricity,              !- Fuel Type
    0abc57826ca5c996_F0_dwelling_0,    !- Zone or ZoneList or Space or SpaceList Name
    EU_Step8_GainSchedule_0abc57826ca5c996_F0_dwelling_0_f000,    !- Schedule Name
    Watts/Area,               !- Design Level Calculation Method
    ,                         !- Design Level
    1,                        !- Power per Zone Floor Area
    ,                         !- Power per Person
    0,                        !- Fraction Latent
    0,                        !- Fraction Radiant
    0,                        !- Fraction Lost
    0,                        !- Carbon Dioxide Generation Rate
    EU_Step8_InternalGains;    !- EndUse Subcategory

ZONEVENTILATION:DESIGNFLOWRATE,
    EU_ConstantAir_0abc57826ca5c996_F0_dwelling_0,    !- Name
    0abc57826ca5c996_F0_dwelling_0,    !- Zone or ZoneList or Space or SpaceList Name
    EU_AlwaysOn,              !- Schedule Name
    AirChanges/Hour,          !- Design Flow Rate Calculation Method
    ,                         !- Design Flow Rate
    ,                         !- Flow Rate per Floor Area
    ,                         !- Flow Rate per Person
    0.418134938716768,        !- Air Changes per Hour
    Natural,                  !- Ventilation Type
    0,                        !- Fan Pressure Rise
    1,                        !- Fan Total Efficiency
    1,                        !- Constant Term Coefficient
    0,                        !- Temperature Term Coefficient
    0,                        !- Velocity Term Coefficient
    0,                        !- Velocity Squared Term Coefficient
    -100,                     !- Minimum Indoor Temperature
    ,                         !- Minimum Indoor Temperature Schedule Name
    100,                      !- Maximum Indoor Temperature
    ,                         !- Maximum Indoor Temperature Schedule Name
    -100,                     !- Delta Temperature
    ,                         !- Delta Temperature Schedule Name
    -100,                     !- Minimum Outdoor Temperature
    ,                         !- Minimum Outdoor Temperature Schedule Name
    100,                      !- Maximum Outdoor Temperature
    ,                         !- Maximum Outdoor Temperature Schedule Name
    40;                       !- Maximum Wind Speed

HVACTEMPLATE:THERMOSTAT,
    EU_HeatOnly_0abc57826ca5c996_F0_dwelling_0,    !- Name
    ,                         !- Heating Setpoint Schedule Name
    20,                       !- Constant Heating Setpoint
    ,                         !- Cooling Setpoint Schedule Name
    50;                       !- Constant Cooling Setpoint

HVACTEMPLATE:ZONE:IDEALLOADSAIRSYSTEM,
    0abc57826ca5c996_F0_dwelling_0,    !- Zone Name
    EU_HeatOnly_0abc57826ca5c996_F0_dwelling_0,    !- Template Thermostat Name
    EU_AlwaysOn,              !- System Availability Schedule Name
    50,                       !- Maximum Heating Supply Air Temperature
    13,                       !- Minimum Cooling Supply Air Temperature
    0.0156,                   !- Maximum Heating Supply Air Humidity Ratio
    0.0077,                   !- Minimum Cooling Supply Air Humidity Ratio
    NoLimit,                  !- Heating Limit
    ,                         !- Maximum Heating Air Flow Rate
    ,                         !- Maximum Sensible Heating Capacity
    NoLimit,                  !- Cooling Limit
    ,                         !- Maximum Cooling Air Flow Rate
    ,                         !- Maximum Total Cooling Capacity
    EU_AlwaysOn,              !- Heating Availability Schedule Name
    EU_CoolingOff,            !- Cooling Availability Schedule Name
    ConstantSensibleHeatRatio,    !- Dehumidification Control Type
    0.7,                      !- Cooling Sensible Heat Ratio
    60,                       !- Dehumidification Setpoint
    None,                     !- Humidification Control Type
    30,                       !- Humidification Setpoint
    None,                     !- Outdoor Air Method
    0.00944,                  !- Outdoor Air Flow Rate per Person
    0.0,                      !- Outdoor Air Flow Rate per Zone Floor Area
    0,                        !- Outdoor Air Flow Rate per Zone
    ,                         !- Design Specification Outdoor Air Object Name
    None,                     !- Demand Controlled Ventilation Type
    NoEconomizer,             !- Outdoor Air Economizer Type
    None,                     !- Heat Recovery Type
    0.70,                     !- Sensible Heat Recovery Effectiveness
    0.65;                     !- Latent Heat Recovery Effectiveness

SIZING:ZONE,
    0abc57826ca5c996_F0_dwelling_0,    !- Zone or ZoneList Name
    SupplyAirTemperature,     !- Zone Cooling Design Supply Air Temperature Input Method
    13,                       !- Zone Cooling Design Supply Air Temperature
    ,                         !- Zone Cooling Design Supply Air Temperature Difference
    SupplyAirTemperature,     !- Zone Heating Design Supply Air Temperature Input Method
    50,                       !- Zone Heating Design Supply Air Temperature
    ,                         !- Zone Heating Design Supply Air Temperature Difference
    0.008,                    !- Zone Cooling Design Supply Air Humidity Ratio
    0.008,                    !- Zone Heating Design Supply Air Humidity Ratio
    ,                         !- Design Specification Outdoor Air Object Name
    ,                         !- Zone Heating Sizing Factor
    ,                         !- Zone Cooling Sizing Factor
    DesignDay,                !- Cooling Design Air Flow Method
    0,                        !- Cooling Design Air Flow Rate
    0.000762,                 !- Cooling Minimum Air Flow per Zone Floor Area
    0,                        !- Cooling Minimum Air Flow
    0.2,                      !- Cooling Minimum Air Flow Fraction
    DesignDay,                !- Heating Design Air Flow Method
    0,                        !- Heating Design Air Flow Rate
    0.002032,                 !- Heating Maximum Air Flow per Zone Floor Area
    0.1415762,                !- Heating Maximum Air Flow
    0.3,                      !- Heating Maximum Air Flow Fraction
    ,                         !- Design Specification Zone Air Distribution Object Name
    No,                       !- Account for Dedicated Outdoor Air System
    NeutralSupplyAir,         !- Dedicated Outdoor Air System Control Strategy
    autosize,                 !- Dedicated Outdoor Air Low Setpoint Temperature for Design
    autosize,                 !- Dedicated Outdoor Air High Setpoint Temperature for Design
    Sensible Load Only No Latent Load,    !- Zone Load Sizing Method
    HumidityRatioDifference,    !- Zone Latent Cooling Design Supply Air Humidity Ratio Input Method
    ,                         !- Zone Dehumidification Design Supply Air Humidity Ratio
    0.005,                    !- Zone Cooling Design Supply Air Humidity Ratio Difference
    HumidityRatioDifference,    !- Zone Latent Heating Design Supply Air Humidity Ratio Input Method
    ,                         !- Zone Humidification Design Supply Air Humidity Ratio
    0.005;                    !- Zone Humidification Design Supply Air Humidity Ratio Difference

OUTPUT:VARIABLE,
    *,                        !- Key Value
    Zone Ideal Loads Zone Total Heating Energy,    !- Variable Name
    Hourly;                   !- Reporting Frequency

OUTPUT:SQLITE,
    SimpleAndTabular,         !- Option Type
    UseOutputControlTableStyle;    !- Unit Conversion for Tabular Data