!- Windows Line endings 

Version,
    23.1;                     !- Version Identifier

SimulationControl,
    Yes,                      !- Do Zone Sizing Calculation
    Yes,                      !- Do System Sizing Calculation
    Yes,                      !- Do Plant Sizing Calculation
    No,                       !- Run Simulation for Sizing Periods
    Yes,                      !- Run Simulation for Weather File Run Periods
    No,                       !- Do HVAC Sizing Simulation for Sizing Periods
    1;                        !- Maximum Number of HVAC Sizing Simulation Passes

Building,
    EU S2 Campaign,           !- Name
    0,                        !- North Axis
    City,                     !- Terrain
    ,                         !- Loads Convergence Tolerance Value
    ,                         !- Temperature Convergence Tolerance Value
    FullExterior,             !- Solar Distribution
    ,                         !- Maximum Number of Warmup Days
    ;                         !- Minimum Number of Warmup Days

ShadowCalculation,
    PolygonClipping,          !- Shading Calculation Method
    Periodic,                 !- Shading Calculation Update Frequency Method
    1;                        !- Shading Calculation Update Frequency

HeatBalanceAlgorithm,
    ConductionTransferFunction,    !- Algorithm
    200,                      !- Surface Temperature Upper Limit
    0.1,                      !- Minimum Surface Convection Heat Transfer Coefficient Value
    10000000;                 !- Maximum Surface Convection Heat Transfer Coefficient Value

Timestep,
    12;                       !- Number of Timesteps per Hour

Site:Location,
    London,                   !- Name
    51.5,                     !- Latitude
    -0.5,                     !- Longitude
    0,                        !- Time Zone
    25;                       !- Elevation

SizingPeriod:WeatherFileDays,
    AnnualSizingPeriod,       !- Name
    1,                        !- Begin Month
    1,                        !- Begin Day of Month
    12,                       !- End Month
    31,                       !- End Day of Month
    Monday,                   !- Day of Week for Start Day
    No,                       !- Use Weather File Daylight Saving Period
    No;                       !- Use Weather File Rain and Snow Indicators

RunPeriod,
    RunPeriod1,               !- Name
    1,                        !- Begin Month
    1,                        !- Begin Day of Month
    ,                         !- Begin Year
    12,                       !- End Month
    31,                       !- End Day of Month
    ,                         !- End Year
    Sunday,                   !- Day of Week for Start Day
    No,                       !- Use Weather File Holidays and Special Days
    No,                       !- Use Weather File Daylight Saving Period
    No,                       !- Apply Weekend Holiday Rule
    Yes,                      !- Use Weather File Rain Indicators
    Yes;                      !- Use Weather File Snow Indicators

ScheduleTypeLimits,
    Any Number;               !- Name

SCHEDULETYPELIMITS,
    EU_Step8_AnyNumber_Wm2,    !- Name
    ,                         !- Lower Limit Value
    ,                         !- Upper Limit Value
    Continuous,               !- Numeric Type
    Dimensionless;            !- Unit Type

SCHEDULE:CONSTANT,
    EU_AlwaysOn,              !- Name
    ,                         !- Schedule Type Limits Name
    1;                        !- Hourly Value

SCHEDULE:CONSTANT,
    EU_CoolingOff,            !- Name
    ,                         !- Schedule Type Limits Name
    0;                        !- Hourly Value

SCHEDULE:FILE,
    EU_Step8_GainSchedule_608543157199ae85_F0_dwelling_0_f000,    !- Name
    EU_Step8_AnyNumber_Wm2,    !- Schedule Type Limits Name
    ../../schedules/608543157199ae85/608543157199ae85_F0_dwelling_0_f000_gain.csv,    !- File Name
    1,                        !- Column Number
    0,                        !- Rows to Skip at Top
    8760,                     !- Number of Hours of Data
    Comma,                    !- Column Separator
    No,                       !- Interpolate to Timestep
    60,                       !- Minutes per Item
    Yes;                      !- Adjust Schedule for Daylight Savings

MATERIAL,
    EU_InternalMass_Material,    !- Name
    MediumRough,              !- Roughness
    0.1,                      !- Thickness
    1,                        !- Conductivity
    1800,                     !- Density
    900,                      !- Specific Heat
    0.9,                      !- Thermal Absorptance
    0.7,                      !- Solar Absorptance
    0.7;                      !- Visible Absorptance

MATERIAL:NOMASS,
    EU_wall_NoMass,           !- Name
    MediumRough,              !- Roughness
    0.7247189243747139,       !- Thermal Resistance
    0.9,                      !- Thermal Absorptance
    0.7,                      !- Solar Absorptance
    0.7;                      !- Visible Absorptance

MATERIAL:NOMASS,
    EU_roof_NoMass,           !- Name
    MediumRough,              !- Roughness
    2.989465563045695,        !- Thermal Resistance
    0.9,                      !- Thermal Absorptance
    0.7,                      !- Solar Absorptance
    0.7;                      !- Visible Absorptance

MATERIAL:NOMASS,
    EU_floor_NoMass,          !- Name
    MediumRough,              !- Roughness
    2.3915724504365556,       !- Thermal Resistance
    0.9,                      !- Thermal Absorptance
    0.7,                      !- Solar Absorptance
    0.7;                      !- Visible Absorptance

CONSTRUCTION,
    EU_wall_Construction,     !- Name
    EU_wall_NoMass;           !- Outside Layer

CONSTRUCTION,
    EU_roof_Construction,     !- Name
    EU_roof_NoMass;           !- Outside Layer

CONSTRUCTION,
    EU_floor_Construction,    !- Name
    EU_floor_NoMass;          !- Outside Layer

CONSTRUCTION,
    EU_InternalMass_Construction,    !- Name
    EU_InternalMass_Material;    !- Outside Layer

GlobalGeometryRules,
    UpperLeftCorner,          !- Starting Vertex Position
    CounterClockWise,         !- Vertex Entry Direction
    World;                    !- Coordinate System

ZONE,
    608543157199ae85_F0_dwelling_0,    !- Name
    0,                        !- Direction of Relative North
    0,                        !- X Origin
    0,                        !- Y Origin
    0,                        !- Z Origin
    1,                        !- Type
    1,                        !- Multiplier
    autocalculate,            !- Ceiling Height
    264.65771484375,          !- Volume
    autocalculate,            !- Floor Area
    ,                         !- Zone Inside Convection Algorithm
    ,                         !- Zone Outside Convection Algorithm
    Yes;                      !- Part of Total Floor Area

BUILDINGSURFACE:DETAILED,
    Block 608543157199ae85_0 Storey 0 Wall 0001,    !- Name
    wall,                     !- Surface Type
    EU_wall_Construction,     !- Construction Name
    608543157199ae85_F0_dwelling_0,    !- Zone Name
    ,                         !- Space Name
    outdoors,                 !- Outside Boundary Condition
    ,                         !- Outside Boundary Condition Object
    SunExposed,               !- Sun Exposure
    WindExposed,              !- Wind Exposure
    autocalculate,            !- View Factor to Ground
    autocalculate,            !- Number of Vertices
    705205.332,               !- Vertex 1 Xcoordinate
    5711953.565,              !- Vertex 1 Ycoordinate
    6,                        !- Vertex 1 Zcoordinate
    705205.332,               !- Vertex 2 Xcoordinate
    5711953.565,              !- Vertex 2 Ycoordinate
    0,                        !- Vertex 2 Zcoordinate
    705210.895,               !- Vertex 3 Xcoordinate
    5711955.661,              !- Vertex 3 Ycoordinate
    0,                        !- Vertex 3 Zcoordinate
    705210.895,               !- Vertex 4 Xcoordinate
    5711955.661,              !- Vertex 4 Ycoordinate
    6;                        !- Vertex 4 Zcoordinate

BUILDINGSURFACE:DETAILED,
    Block 608543157199ae85_0 Storey 0 Wall 0002,    !- Name
    wall,                     !- Surface Type
    EU_wall_Construction,     !- Construction Name
    608543157199ae85_F0_dwelling_0,    !- Zone Name
    ,                         !- Space Name
    Adiabatic,                !- Outside Boundary Condition
    ,                         !- Outside Boundary Condition Object
    NoSun,                    !- Sun Exposure
    NoWind,                   !- Wind Exposure
    autocalculate,            !- View Factor to Ground
    autocalculate,            !- Number of Vertices
    705210.895,               !- Vertex 1 Xcoordinate
    5711955.661,              !- Vertex 1 Ycoordinate
    6,                        !- Vertex 1 Zcoordinate
    705210.895,               !- Vertex 2 Xcoordinate
    5711955.661,              !- Vertex 2 Ycoordinate
    0,                        !- Vertex 2 Zcoordinate
    705213.517,               !- Vertex 3 Xcoordinate
    5711948.718,              !- Vertex 3 Ycoordinate
    0,                        !- Vertex 3 Zcoordinate
    705213.517,               !- Vertex 4 Xcoordinate
    5711948.718,              !- Vertex 4 Ycoordinate
    6;                        !- Vertex 4 Zcoordinate

BUILDINGSURFACE:DETAILED,
    Block 608543157199ae85_0 Storey 0 Wall 0003,    !- Name
    wall,                     !- Surface Type
    EU_wall_Construction,     !- Construction Name
    608543157199ae85_F0_dwelling_0,    !- Zone Name
    ,                         !- Space Name
    outdoors,                 !- Outside Boundary Condition
    ,                         !- Outside Boundary Condition Object
    SunExposed,               !- Sun Exposure
    WindExposed,              !- Wind Exposure
    autocalculate,            !- View Factor to Ground
    autocalculate,            !- Number of Vertices
    705213.517,               !- Vertex 1 Xcoordinate
    5711948.718,              !- Vertex 1 Ycoordinate
    6,                        !- Vertex 1 Zcoordinate
    705213.517,               !- Vertex 2 Xcoordinate
    5711948.718,              !- Vertex 2 Ycoordinate
    0,                        !- Vertex 2 Zcoordinate
    705207.975,               !- Vertex 3 Xcoordinate
    5711946.612,              !- Vertex 3 Ycoordinate
    0,                        !- Vertex 3 Zcoordinate
    705207.975,               !- Vertex 4 Xcoordinate
    5711946.612,              !- Vertex 4 Ycoordinate
    6;                        !- Vertex 4 Zcoordinate

BUILDINGSURFACE:DETAILED,
    Block 608543157199ae85_0 Storey 0 Wall 0004,    !- Name
    wall,                     !- Surface Type
    EU_wall_Construction,     !- Construction Name
    608543157199ae85_F0_dwelling_0,    !- Zone Name
    ,                         !- Space Name
    Adiabatic,                !- Outside Boundary Condition
    ,                         !- Outside Boundary Condition Object
    NoSun,                    !- Sun Exposure
    NoWind,                   !- Wind Exposure
    autocalculate,            !- View Factor to Ground
    autocalculate,            !- Number of Vertices
    705207.975,               !- Vertex 1 Xcoordinate
    5711946.612,              !- Vertex 1 Ycoordinate
    6,                        !- Vertex 1 Zcoordinate
    705207.975,               !- Vertex 2 Xcoordinate
    5711946.612,              !- Vertex 2 Ycoordinate
    0,                        !- Vertex 2 Zcoordinate
    705205.332,               !- Vertex 3 Xcoordinate
    5711953.565,              !- Vertex 3 Ycoordinate
    0,                        !- Vertex 3 Zcoordinate
    705205.332,               !- Vertex 4 Xcoordinate
    5711953.565,              !- Vertex 4 Ycoordinate
    6;                        !- Vertex 4 Zcoordinate

BUILDINGSURFACE:DETAILED,
    Block 608543157199ae85_0 Storey 0 Floor 0001,    !- Name
    floor,                    !- Surface Type
    EU_floor_Construction,    !- Construction Name
    608543157199ae85_F0_dwelling_0,    !- Zone Name
    ,                         !- Space Name
    ground,                   !- Outside Boundary Condition
    ,                         !- Outside Boundary Condition Object
    NoSun,                    !- Sun Exposure
    NoWind,                   !- Wind Exposure
    autocalculate,            !- View Factor to Ground
    autocalculate,            !- Number of Vertices
    705213.517,               !- Vertex 1 Xcoordinate
    5711948.718,              !- Vertex 1 Ycoordinate
    0,                        !- Vertex 1 Zcoordinate
    705210.895,               !- Vertex 2 Xcoordinate
    5711955.661,              !- Vertex 2 Ycoordinate
    0,                        !- Vertex 2 Zcoordinate
    705205.332,               !- Vertex 3 Xcoordinate
    5711953.565,              !- Vertex 3 Ycoordinate
    0,                        !- Vertex 3 Zcoordinate
    705207.975,               !- Vertex 4 Xcoordinate
    5711946.612,              !- Vertex 4 Ycoordinate
    0;                        !- Vertex 4 Zcoordinate

BUILDINGSURFACE:DETAILED,
    Block 608543157199ae85_0 Storey 0 Roof 0001,    !- Name
    roof,                     !- Surface Type
    EU_roof_Construction,     !- Construction Name
    608543157199ae85_F0_dwelling_0,    !- Zone Name
    ,                         !- Space Name
    outdoors,                 !- Outside Boundary Condition
    ,                         !- Outside Boundary Condition Object
    NoSun,                    !- Sun Exposure
    WindExposed,              !- Wind Exposure
    autocalculate,            !- View Factor to Ground
    autocalculate,            !- Number of Vertices
    705210.895,               !- Vertex 1 Xcoordinate
    5711955.661,              !- Vertex 1 Ycoordinate
    6,                        !- Vertex 1 Zcoordinate
    705213.517,               !- Vertex 2 Xcoordinate
    5711948.718,              !- Vertex 2 Ycoordinate
    6,                        !- Vertex 2 Zcoordinate
    705207.975,               !- Vertex 3 Xcoordinate
    5711946.612,              !- Vertex 3 Ycoordinate
    6,                        !- Vertex 3 Zcoordinate
    705205.332,               !- Vertex 4 Xcoordinate
    5711953.565,              !- Vertex 4 Ycoordinate
    6;                        !- Vertex 4 Zcoordinate

INTERNALMASS,
    608543157199ae85_F0_dwelling_0_EU_InternalMass,    !- Name
    EU_InternalMass_Construction,    !- Construction Name
    608543157199ae85_F0_dwelling_0,    !- Zone or ZoneList Name
    ,                         !- Space or SpaceList Name
    44.10965249873706;        !- Surface Area

SHADING:SITE:DETAILED,
    shade_way/298782434_1,    !- Name
    ,                         !- Transmittance Schedule Name
    autocalculate,            !- Number of Vertices
    705233.9252772679,        !- Vertex 1 Xcoordinate
    5711978.452221742,        !- Vertex 1 Ycoordinate
    9,                        !- Vertex 1 Zcoordinate
    705233.9252772679,        !- Vertex 2 Xcoordinate
    5711978.452221742,        !- Vertex 2 Ycoordinate
    0,                        !- Vertex 2 Zcoordinate
    705241.1843552955,        !- Vertex 3 Xcoordinate
    5711945.688594571,        !- Vertex 3 Ycoordinate
    0,                        !- Vertex 3 Zcoordinate
    705241.1843552955,        !- Vertex 4 Xcoordinate
    5711945.688594571,        !- Vertex 4 Ycoordinate
    9;                        !- Vertex 4 Zcoordinate

SHADING:SITE:DETAILED,
    shade_way/298782434_2,    !- Name
    ,                         !- Transmittance Schedule Name
    autocalculate,            !- Number of Vertices
    705241.1843552955,        !- Vertex 1 Xcoordinate
    5711945.688594571,        !- Vertex 1 Ycoordinate
    9,                        !- Vertex 1 Zcoordinate
    705241.1843552955,        !- Vertex 2 Xcoordinate
    5711945.688594571,        !- Vertex 2 Ycoordinate
    0,                        !- Vertex 2 Zcoordinate
    705225.1353168278,        !- Vertex 3 Xcoordinate
    5711942.132784892,        !- Vertex 3 Ycoordinate
    0,                        !- Vertex 3 Zcoordinate
    705225.1353168278,        !- Vertex 4 Xcoordinate
    5711942.132784892,        !- Vertex 4 Ycoordinate
    9;                        !- Vertex 4 Zcoordinate

SHADING:SITE:DETAILED,
    shade_way/298782434_3,    !- Name
    ,                         !- Transmittance Schedule Name
    autocalculate,            !- Number of Vertices
    705225.1353168278,        !- Vertex 1 Xcoordinate
    5711942.132784892,        !- Vertex 1 Ycoordinate
    9,                        !- Vertex 1 Zcoordinate
    705225.1353168278,        !- Vertex 2 Xcoordinate
    5711942.132784892,        !- Vertex 2 Ycoordinate
    0,                        !- Vertex 2 Zcoordinate
    705217.8762388002,        !- Vertex 3 Xcoordinate
    5711974.896412062,        !- Vertex 3 Ycoordinate
    0,                        !- Vertex 3 Zcoordinate
    705217.8762388002,        !- Vertex 4 Xcoordinate
    5711974.896412062,        !- Vertex 4 Ycoordinate
    9;                        !- Vertex 4 Zcoordinate

SHADING:SITE:DETAILED,
    shade_way/298782434_4,    !- Name
    ,                         !- Transmittance Schedule Name
    autocalculate,            !- Number of Vertices
    705217.8762388002,        !- Vertex 1 Xcoordinate
    5711974.896412062,        !- Vertex 1 Ycoordinate
    9,                        !- Vertex 1 Zcoordinate
    705217.8762388002,        !- Vertex 2 Xcoordinate
    5711974.896412062,        !- Vertex 2 Ycoordinate
    0,                        !- Vertex 2 Zcoordinate
    705233.9252772679,        !- Vertex 3 Xcoordinate
    5711978.452221742,        !- Vertex 3 Ycoordinate
    0,                        !- Vertex 3 Zcoordinate
    705233.9252772679,        !- Vertex 4 Xcoordinate
    5711978.452221742,        !- Vertex 4 Ycoordinate
    9;                        !- Vertex 4 Zcoordinate

SHADING:SITE:DETAILED,
    shade_way/298846070_1,    !- Name
    ,                         !- Transmittance Schedule Name
    autocalculate,            !- Number of Vertices
    705198.4495017689,        !- Vertex 1 Xcoordinate
    5711925.156523839,        !- Vertex 1 Ycoordinate
    6,                        !- Vertex 1 Zcoordinate
    705198.4495017689,        !- Vertex 2 Xcoordinate
    5711925.156523839,        !- Vertex 2 Ycoordinate
    0,                        !- Vertex 2 Zcoordinate
    705206.0632370883,        !- Vertex 3 Xcoordinate
    5711928.140158073,        !- Vertex 3 Ycoordinate
    0,                        !- Vertex 3 Zcoordinate
    705206.0632370883,        !- Vertex 4 Xcoordinate
    5711928.140158073,        !- Vertex 4 Ycoordinate
    6;                        !- Vertex 4 Zcoordinate

SHADING:SITE:DETAILED,
    shade_way/298846070_2,    !- Name
    ,                         !- Transmittance Schedule Name
    autocalculate,            !- Number of Vertices
    705206.0632370883,        !- Vertex 1 Xcoordinate
    5711928.140158073,        !- Vertex 1 Ycoordinate
    6,                        !- Vertex 1 Zcoordinate
    705206.0632370883,        !- Vertex 2 Xcoordinate
    5711928.140158073,        !- Vertex 2 Ycoordinate
    0,                        !- Vertex 2 Zcoordinate
    705208.6408404105,        !- Vertex 3 Xcoordinate
    5711921.559729279,        !- Vertex 3 Ycoordinate
    0,                        !- Vertex 3 Zcoordinate
    705208.6408404105,        !- Vertex 4 Xcoordinate
    5711921.559729279,        !- Vertex 4 Ycoordinate
    6;                        !- Vertex 4 Zcoordinate

SHADING:SITE:DETAILED,
    shade_way/298846070_3,    !- Name
    ,                         !- Transmittance Schedule Name
    autocalculate,            !- Number of Vertices
    705208.6408404105,        !- Vertex 1 Xcoordinate
    5711921.559729279,        !- Vertex 1 Ycoordinate
    6,                        !- Vertex 1 Zcoordinate
    705208.6408404105,        !- Vertex 2 Xcoordinate
    5711921.559729279,        !- Vertex 2 Ycoordinate
    0,                        !- Vertex 2 Zcoordinate
    705201.0293507979,        !- Vertex 3 Xcoordinate
    5711918.576670046,        !- Vertex 3 Ycoordinate
    0,                        !- Vertex 3 Zcoordinate
    705201.0293507979,        !- Vertex 4 Xcoordinate
    5711918.576670046,        !- Vertex 4 Ycoordinate
    6;                        !- Vertex 4 Zcoordinate

SHADING:SITE:DETAILED,
    shade_way/298846070_4,    !- Name
    ,                         !- Transmittance Schedule Name
    autocalculate,            !- Number of Vertices
    705201.0293507979,        !- Vertex 1 Xcoordinate
    5711918.576670046,        !- Vertex 1 Ycoordinate
    6,                        !- Vertex 1 Zcoordinate
    705201.0293507979,        !- Vertex 2 Xcoordinate
    5711918.576670046,        !- Vertex 2 Ycoordinate
    0,                        !- Vertex 2 Zcoordinate
    705198.4495017689,        !- Vertex 3 Xcoordinate
    5711925.156523839,        !- Vertex 3 Ycoordinate
    0,                        !- Vertex 3 Zcoordinate
    705198.4495017689,        !- Vertex 4 Xcoordinate
    5711925.156523839,        !- Vertex 4 Ycoordinate
    6;                        !- Vertex 4 Zcoordinate

SHADING:SITE:DETAILED,
    shade_way/1430536876_1,    !- Name
    ,                         !- Transmittance Schedule Name
    autocalculate,            !- Number of Vertices
    705195.9801877212,        !- Vertex 1 Xcoordinate
    5711927.807288824,        !- Vertex 1 Ycoordinate
    6,                        !- Vertex 1 Zcoordinate
    705195.9801877212,        !- Vertex 2 Xcoordinate
    5711927.807288824,        !- Vertex 2 Ycoordinate
    0,                        !- Vertex 2 Zcoordinate
    705189.590124607,         !- Vertex 3 Xcoordinate
    5711925.366119879,        !- Vertex 3 Ycoordinate
    0,                        !- Vertex 3 Zcoordinate
    705189.590124607,         !- Vertex 4 Xcoordinate
    5711925.366119879,        !- Vertex 4 Ycoordinate
    6;                        !- Vertex 4 Zcoordinate

SHADING:SITE:DETAILED,
    shade_way/1430536876_2,    !- Name
    ,                         !- Transmittance Schedule Name
    autocalculate,            !- Number of Vertices
    705189.590124607,         !- Vertex 1 Xcoordinate
    5711925.366119879,        !- Vertex 1 Ycoordinate
    6,                        !- Vertex 1 Zcoordinate
    705189.590124607,         !- Vertex 2 Xcoordinate
    5711925.366119879,        !- Vertex 2 Ycoordinate
    0,                        !- Vertex 2 Zcoordinate
    705186.9736775019,        !- Vertex 3 Xcoordinate
    5711932.214280384,        !- Vertex 3 Ycoordinate
    0,                        !- Vertex 3 Zcoordinate
    705186.9736775019,        !- Vertex 4 Xcoordinate
    5711932.214280384,        !- Vertex 4 Ycoordinate
    6;                        !- Vertex 4 Zcoordinate

SHADING:SITE:DETAILED,
    shade_way/1430536876_3,    !- Name
    ,                         !- Transmittance Schedule Name
    autocalculate,            !- Number of Vertices
    705186.9736775019,        !- Vertex 1 Xcoordinate
    5711932.214280384,        !- Vertex 1 Ycoordinate
    6,                        !- Vertex 1 Zcoordinate
    705186.9736775019,        !- Vertex 2 Xcoordinate
    5711932.214280384,        !- Vertex 2 Ycoordinate
    0,                        !- Vertex 2 Zcoordinate
    705193.3637406174,        !- Vertex 3 Xcoordinate
    5711934.655449326,        !- Vertex 3 Ycoordinate
    0,                        !- Vertex 3 Zcoordinate
    705193.3637406174,        !- Vertex 4 Xcoordinate
    5711934.655449326,        !- Vertex 4 Ycoordinate
    6;                        !- Vertex 4 Zcoordinate

SHADING:SITE:DETAILED,
    shade_way/1430536876_4,    !- Name
    ,                         !- Transmittance Schedule Name
    autocalculate,            !- Number of Vertices
    705193.3637406174,        !- Vertex 1 Xcoordinate
    5711934.655449326,        !- Vertex 1 Ycoordinate
    6,                        !- Vertex 1 Zcoordinate
    705193.3637406174,        !- Vertex 2 Xcoordinate
    5711934.655449326,        !- Vertex 2 Ycoordinate
    0,                        !- Vertex 2 Zcoordinate
    705195.9801877212,        !- Vertex 3 Xcoordinate
    5711927.807288824,        !- Vertex 3 Ycoordinate
    0,                        !- Vertex 3 Zcoordinate
    705195.9801877212,        !- Vertex 4 Xcoordinate
    5711927.807288824,        !- Vertex 4 Ycoordinate
    6;                        !- Vertex 4 Zcoordinate

SHADING:SITE:DETAILED,
    shade_way/298846080_1,    !- Name
    ,                         !- Transmittance Schedule Name
    autocalculate,            !- Number of Vertices
    705189.3550318457,        !- Vertex 1 Xcoordinate
    5711947.495423157,        !- Vertex 1 Ycoordinate
    6,                        !- Vertex 1 Zcoordinate
    705189.3550318457,        !- Vertex 2 Xcoordinate
    5711947.495423157,        !- Vertex 2 Ycoordinate
    0,                        !- Vertex 2 Zcoordinate
    705195.0951453489,        !- Vertex 3 Xcoordinate
    5711949.687579161,        !- Vertex 3 Ycoordinate
    0,                        !- Vertex 3 Zcoordinate
    705195.0951453489,        !- Vertex 4 Xcoordinate
    5711949.687579161,        !- Vertex 4 Ycoordinate
    6;                        !- Vertex 4 Zcoordinate

SHADING:SITE:DETAILED,
    shade_way/298846080_2,    !- Name
    ,                         !- Transmittance Schedule Name
    autocalculate,            !- Number of Vertices
    705195.0951453489,        !- Vertex 1 Xcoordinate
    5711949.687579161,        !- Vertex 1 Ycoordinate
    6,                        !- Vertex 1 Zcoordinate
    705195.0951453489,        !- Vertex 2 Xcoordinate
    5711949.687579161,        !- Vertex 2 Ycoordinate
    0,                        !- Vertex 2 Zcoordinate
    705197.7536143762,        !- Vertex 3 Xcoordinate
    5711942.723998671,        !- Vertex 3 Ycoordinate
    0,                        !- Vertex 3 Zcoordinate
    705197.7536143762,        !- Vertex 4 Xcoordinate
    5711942.723998671,        !- Vertex 4 Ycoordinate
    6;                        !- Vertex 4 Zcoordinate

SHADING:SITE:DETAILED,
    shade_way/298846080_3,    !- Name
    ,                         !- Transmittance Schedule Name
    autocalculate,            !- Number of Vertices
    705197.7536143762,        !- Vertex 1 Xcoordinate
    5711942.723998671,        !- Vertex 1 Ycoordinate
    6,                        !- Vertex 1 Zcoordinate
    705197.7536143762,        !- Vertex 2 Xcoordinate
    5711942.723998671,        !- Vertex 2 Ycoordinate
    0,                        !- Vertex 2 Zcoordinate
    705192.0135008736,        !- Vertex 3 Xcoordinate
    5711940.531842667,        !- Vertex 3 Ycoordinate
    0,                        !- Vertex 3 Zcoordinate
    705192.0135008736,        !- Vertex 4 Xcoordinate
    5711940.531842667,        !- Vertex 4 Ycoordinate
    6;                        !- Vertex 4 Zcoordinate

SHADING:SITE:DETAILED,
    shade_way/298846080_4,    !- Name
    ,                         !- Transmittance Schedule Name
    autocalculate,            !- Number of Vertices
    705192.0135008736,        !- Vertex 1 Xcoordinate
    5711940.531842667,        !- Vertex 1 Ycoordinate
    6,                        !- Vertex 1 Zcoordinate
    705192.0135008736,        !- Vertex 2 Xcoordinate
    5711940.531842667,        !- Vertex 2 Ycoordinate
    0,                        !- Vertex 2 Zcoordinate
    705189.3550318457,        !- Vertex 3 Xcoordinate
    5711947.495423157,        !- Vertex 3 Ycoordinate
    0,                        !- Vertex 3 Zcoordinate
    705189.3550318457,        !- Vertex 4 Xcoordinate
    5711947.495423157,        !- Vertex 4 Ycoordinate
    6;                        !- Vertex 4 Zcoordinate

SHADING:SITE:DETAILED,
    shade_way/1430549476_1,    !- Name
    ,                         !- Transmittance Schedule Name
    autocalculate,            !- Number of Vertices
    705200.2629149859,        !- Vertex 1 Xcoordinate
    5711951.657410767,        !- Vertex 1 Ycoordinate
    6,                        !- Vertex 1 Zcoordinate
    705200.2629149859,        !- Vertex 2 Xcoordinate
    5711951.657410767,        !- Vertex 2 Ycoordinate
    0,                        !- Vertex 2 Zcoordinate
    705202.9184046433,        !- Vertex 3 Xcoordinate
    5711944.692051325,        !- Vertex 3 Ycoordinate
    0,                        !- Vertex 3 Zcoordinate
    705202.9184046433,        !- Vertex 4 Xcoordinate
    5711944.692051325,        !- Vertex 4 Ycoordinate
    6;                        !- Vertex 4 Zcoordinate

SHADING:SITE:DETAILED,
    shade_way/1430549476_2,    !- Name
    ,                         !- Transmittance Schedule Name
    autocalculate,            !- Number of Vertices
    705202.9184046433,        !- Vertex 1 Xcoordinate
    5711944.692051325,        !- Vertex 1 Ycoordinate
    6,                        !- Vertex 1 Zcoordinate
    705202.9184046433,        !- Vertex 2 Xcoordinate
    5711944.692051325,        !- Vertex 2 Ycoordinate
    0,                        !- Vertex 2 Zcoordinate
    705197.7496275086,        !- Vertex 3 Xcoordinate
    5711942.721971752,        !- Vertex 3 Ycoordinate
    0,                        !- Vertex 3 Zcoordinate
    705197.7496275086,        !- Vertex 4 Xcoordinate
    5711942.721971752,        !- Vertex 4 Ycoordinate
    6;                        !- Vertex 4 Zcoordinate

SHADING:SITE:DETAILED,
    shade_way/1430549476_3,    !- Name
    ,                         !- Transmittance Schedule Name
    autocalculate,            !- Number of Vertices
    705197.7496275086,        !- Vertex 1 Xcoordinate
    5711942.721971752,        !- Vertex 1 Ycoordinate
    6,                        !- Vertex 1 Zcoordinate
    705197.7496275086,        !- Vertex 2 Xcoordinate
    5711942.721971752,        !- Vertex 2 Ycoordinate
    0,                        !- Vertex 2 Zcoordinate
    705195.0951453489,        !- Vertex 3 Xcoordinate
    5711949.687579161,        !- Vertex 3 Ycoordinate
    0,                        !- Vertex 3 Zcoordinate
    705195.0951453489,        !- Vertex 4 Xcoordinate
    5711949.687579161,        !- Vertex 4 Ycoordinate
    6;                        !- Vertex 4 Zcoordinate

SHADING:SITE:DETAILED,
    shade_way/1430549476_4,    !- Name
    ,                         !- Transmittance Schedule Name
    autocalculate,            !- Number of Vertices
    705195.0951453489,        !- Vertex 1 Xcoordinate
    5711949.687579161,        !- Vertex 1 Ycoordinate
    6,                        !- Vertex 1 Zcoordinate
    705195.0951453489,        !- Vertex 2 Xcoordinate
    5711949.687579161,        !- Vertex 2 Ycoordinate
    0,                        !- Vertex 2 Zcoordinate
    705200.2629149859,        !- Vertex 3 Xcoordinate
    5711951.657410767,        !- Vertex 3 Ycoordinate
    0,                        !- Vertex 3 Zcoordinate
    705200.2629149859,        !- Vertex 4 Xcoordinate
    5711951.657410767,        !- Vertex 4 Ycoordinate
    6;                        !- Vertex 4 Zcoordinate

SHADING:SITE:DETAILED,
    shade_way/1430549477_1,    !- Name
    ,                         !- Transmittance Schedule Name
    autocalculate,            !- Number of Vertices
    705205.3304555403,        !- Vertex 1 Xcoordinate
    5711953.569577111,        !- Vertex 1 Ycoordinate
    6,                        !- Vertex 1 Zcoordinate
    705205.3304555403,        !- Vertex 2 Xcoordinate
    5711953.569577111,        !- Vertex 2 Ycoordinate
    0,                        !- Vertex 2 Zcoordinate
    705207.9748156398,        !- Vertex 3 Xcoordinate
    5711946.611568728,        !- Vertex 3 Ycoordinate
    0,                        !- Vertex 3 Zcoordinate
    705207.9748156398,        !- Vertex 4 Xcoordinate
    5711946.611568728,        !- Vertex 4 Ycoordinate
    6;                        !- Vertex 4 Zcoordinate

SHADING:SITE:DETAILED,
    shade_way/1430549477_2,    !- Name
    ,                         !- Transmittance Schedule Name
    autocalculate,            !- Number of Vertices
    705207.9748156398,        !- Vertex 1 Xcoordinate
    5711946.611568728,        !- Vertex 1 Ycoordinate
    6,                        !- Vertex 1 Zcoordinate
    705207.9748156398,        !- Vertex 2 Xcoordinate
    5711946.611568728,        !- Vertex 2 Ycoordinate
    0,                        !- Vertex 2 Zcoordinate
    705202.9138228367,        !- Vertex 3 Xcoordinate
    5711944.687534415,        !- Vertex 3 Ycoordinate
    0,                        !- Vertex 3 Zcoordinate
    705202.9138228367,        !- Vertex 4 Xcoordinate
    5711944.687534415,        !- Vertex 4 Ycoordinate
    6;                        !- Vertex 4 Zcoordinate

SHADING:SITE:DETAILED,
    shade_way/1430549477_3,    !- Name
    ,                         !- Transmittance Schedule Name
    autocalculate,            !- Number of Vertices
    705202.9138228367,        !- Vertex 1 Xcoordinate
    5711944.687534415,        !- Vertex 1 Ycoordinate
    6,                        !- Vertex 1 Zcoordinate
    705202.9138228367,        !- Vertex 2 Xcoordinate
    5711944.687534415,        !- Vertex 2 Ycoordinate
    0,                        !- Vertex 2 Zcoordinate
    705200.2681155287,        !- Vertex 3 Xcoordinate
    5711951.645212485,        !- Vertex 3 Ycoordinate
    0,                        !- Vertex 3 Zcoordinate
    705200.2681155287,        !- Vertex 4 Xcoordinate
    5711951.645212485,        !- Vertex 4 Ycoordinate
    6;                        !- Vertex 4 Zcoordinate

SHADING:SITE:DETAILED,
    shade_way/1430549477_4,    !- Name
    ,                         !- Transmittance Schedule Name
    autocalculate,            !- Number of Vertices
    705200.2681155287,        !- Vertex 1 Xcoordinate
    5711951.645212485,        !- Vertex 1 Ycoordinate
    6,                        !- Vertex 1 Zcoordinate
    705200.2681155287,        !- Vertex 2 Xcoordinate
    5711951.645212485,        !- Vertex 2 Ycoordinate
    0,                        !- Vertex 2 Zcoordinate
    705205.3304555403,        !- Vertex 3 Xcoordinate
    5711953.569577111,        !- Vertex 3 Ycoordinate
    0,                        !- Vertex 3 Zcoordinate
    705205.3304555403,        !- Vertex 4 Xcoordinate
    5711953.569577111,        !- Vertex 4 Ycoordinate
    6;                        !- Vertex 4 Zcoordinate

SHADING:SITE:DETAILED,
    shade_way/1430549479_1,    !- Name
    ,                         !- Transmittance Schedule Name
    autocalculate,            !- Number of Vertices
    705213.5211853053,        !- Vertex 1 Xcoordinate
    5711948.709418409,        !- Vertex 1 Ycoordinate
    6,                        !- Vertex 1 Zcoordinate
    705213.5211853053,        !- Vertex 2 Xcoordinate
    5711948.709418409,        !- Vertex 2 Ycoordinate
    0,                        !- Vertex 2 Zcoordinate
    705210.8948203502,        !- Vertex 3 Xcoordinate
    5711955.660943159,        !- Vertex 3 Ycoordinate
    0,                        !- Vertex 3 Zcoordinate
    705210.8948203502,        !- Vertex 4 Xcoordinate
    5711955.660943159,        !- Vertex 4 Ycoordinate
    6;                        !- Vertex 4 Zcoordinate

SHADING:SITE:DETAILED,
    shade_way/1430549479_2,    !- Name
    ,                         !- Transmittance Schedule Name
    autocalculate,            !- Number of Vertices
    705210.8948203502,        !- Vertex 1 Xcoordinate
    5711955.660943159,        !- Vertex 1 Ycoordinate
    6,                        !- Vertex 1 Zcoordinate
    705210.8948203502,        !- Vertex 2 Xcoordinate
    5711955.660943159,        !- Vertex 2 Ycoordinate
    0,                        !- Vertex 2 Zcoordinate
    705216.5038260287,        !- Vertex 3 Xcoordinate
    5711957.779396843,        !- Vertex 3 Ycoordinate
    0,                        !- Vertex 3 Zcoordinate
    705216.5038260287,        !- Vertex 4 Xcoordinate
    5711957.779396843,        !- Vertex 4 Ycoordinate
    6;                        !- Vertex 4 Zcoordinate

SHADING:SITE:DETAILED,
    shade_way/1430549479_3,    !- Name
    ,                         !- Transmittance Schedule Name
    autocalculate,            !- Number of Vertices
    705216.5038260287,        !- Vertex 1 Xcoordinate
    5711957.779396843,        !- Vertex 1 Ycoordinate
    6,                        !- Vertex 1 Zcoordinate
    705216.5038260287,        !- Vertex 2 Xcoordinate
    5711957.779396843,        !- Vertex 2 Ycoordinate
    0,                        !- Vertex 2 Zcoordinate
    705219.128398112,         !- Vertex 3 Xcoordinate
    5711950.826809142,        !- Vertex 3 Ycoordinate
    0,                        !- Vertex 3 Zcoordinate
    705219.128398112,         !- Vertex 4 Xcoordinate
    5711950.826809142,        !- Vertex 4 Ycoordinate
    6;                        !- Vertex 4 Zcoordinate

SHADING:SITE:DETAILED,
    shade_way/1430549479_4,    !- Name
    ,                         !- Transmittance Schedule Name
    autocalculate,            !- Number of Vertices
    705219.128398112,         !- Vertex 1 Xcoordinate
    5711950.826809142,        !- Vertex 1 Ycoordinate
    6,                        !- Vertex 1 Zcoordinate
    705219.128398112,         !- Vertex 2 Xcoordinate
    5711950.826809142,        !- Vertex 2 Ycoordinate
    0,                        !- Vertex 2 Zcoordinate
    705213.5211853053,        !- Vertex 3 Xcoordinate
    5711948.709418409,        !- Vertex 3 Ycoordinate
    0,                        !- Vertex 3 Zcoordinate
    705213.5211853053,        !- Vertex 4 Xcoordinate
    5711948.709418409,        !- Vertex 4 Ycoordinate
    6;                        !- Vertex 4 Zcoordinate

SHADING:SITE:DETAILED,
    shade_way/1430549470_1,    !- Name
    ,                         !- Transmittance Schedule Name
    autocalculate,            !- Number of Vertices
    705179.9475930423,        !- Vertex 1 Xcoordinate
    5711950.797485679,        !- Vertex 1 Ycoordinate
    6,                        !- Vertex 1 Zcoordinate
    705179.9475930423,        !- Vertex 2 Xcoordinate
    5711950.797485679,        !- Vertex 2 Ycoordinate
    0,                        !- Vertex 2 Zcoordinate
    705177.4191022501,        !- Vertex 3 Xcoordinate
    5711957.46956302,         !- Vertex 3 Ycoordinate
    0,                        !- Vertex 3 Zcoordinate
    705177.4191022501,        !- Vertex 4 Xcoordinate
    5711957.46956302,         !- Vertex 4 Ycoordinate
    6;                        !- Vertex 4 Zcoordinate

SHADING:SITE:DETAILED,
    shade_way/1430549470_2,    !- Name
    ,                         !- Transmittance Schedule Name
    autocalculate,            !- Number of Vertices
    705177.4191022501,        !- Vertex 1 Xcoordinate
    5711957.46956302,         !- Vertex 1 Ycoordinate
    6,                        !- Vertex 1 Zcoordinate
    705177.4191022501,        !- Vertex 2 Xcoordinate
    5711957.46956302,         !- Vertex 2 Ycoordinate
    0,                        !- Vertex 2 Zcoordinate
    705183.8425968899,        !- Vertex 3 Xcoordinate
    5711959.904303747,        !- Vertex 3 Ycoordinate
    0,                        !- Vertex 3 Zcoordinate
    705183.8425968899,        !- Vertex 4 Xcoordinate
    5711959.904303747,        !- Vertex 4 Ycoordinate
    6;                        !- Vertex 4 Zcoordinate

SHADING:SITE:DETAILED,
    shade_way/1430549470_3,    !- Name
    ,                         !- Transmittance Schedule Name
    autocalculate,            !- Number of Vertices
    705183.8425968899,        !- Vertex 1 Xcoordinate
    5711959.904303747,        !- Vertex 1 Ycoordinate
    6,                        !- Vertex 1 Zcoordinate
    705183.8425968899,        !- Vertex 2 Xcoordinate
    5711959.904303747,        !- Vertex 2 Ycoordinate
    0,                        !- Vertex 2 Zcoordinate
    705186.3718533913,        !- Vertex 3 Xcoordinate
    5711953.232413353,        !- Vertex 3 Ycoordinate
    0,                        !- Vertex 3 Zcoordinate
    705186.3718533913,        !- Vertex 4 Xcoordinate
    5711953.232413353,        !- Vertex 4 Ycoordinate
    6;                        !- Vertex 4 Zcoordinate

SHADING:SITE:DETAILED,
    shade_way/1430549470_4,    !- Name
    ,                         !- Transmittance Schedule Name
    autocalculate,            !- Number of Vertices
    705186.3718533913,        !- Vertex 1 Xcoordinate
    5711953.232413353,        !- Vertex 1 Ycoordinate
    6,                        !- Vertex 1 Zcoordinate
    705186.3718533913,        !- Vertex 2 Xcoordinate
    5711953.232413353,        !- Vertex 2 Ycoordinate
    0,                        !- Vertex 2 Zcoordinate
    705179.9475930423,        !- Vertex 3 Xcoordinate
    5711950.797485679,        !- Vertex 3 Ycoordinate
    0,                        !- Vertex 3 Zcoordinate
    705179.9475930423,        !- Vertex 4 Xcoordinate
    5711950.797485679,        !- Vertex 4 Ycoordinate
    6;                        !- Vertex 4 Zcoordinate

OTHEREQUIPMENT,
    EU_Step8_InternalGain_608543157199ae85_F0_dwelling_0_f000,    !- Name
    Electricity,              !- Fuel Type
    608543157199ae85_F0_dwelling_0,    !- Zone or ZoneList or Space or SpaceList Name
    EU_Step8_GainSchedule_608543157199ae85_F0_dwelling_0_f000,    !- Schedule Name
    Watts/Area,               !- Design Level Calculation Method
    ,                         !- Design Level
    1,                        !- Power per Zone Floor Area
    ,                         !- Power per Person
    0,                        !- Fraction Latent
    0,                        !- Fraction Radiant
    0,                        !- Fraction Lost
    0,                        !- Carbon Dioxide Generation Rate
    EU_Step8_InternalGains;    !- EndUse Subcategory

ZONEVENTILATION:DESIGNFLOWRATE,
    EU_ConstantAir_608543157199ae85_F0_dwelling_0,    !- Name
    608543157199ae85_F0_dwelling_0,    !- Zone or ZoneList or Space or SpaceList Name
    EU_AlwaysOn,              !- Schedule Name
    AirChanges/Hour,          !- Design Flow Rate Calculation Method
    ,                         !- Design Flow Rate
    ,                         !- Flow Rate per Floor Area
    ,                         !- Flow Rate per Person
    0.418134938716768,        !- Air Changes per Hour
    Natural,                  !- Ventilation Type
    0,                        !- Fan Pressure Rise
    1,                        !- Fan Total Efficiency
    1,                        !- Constant Term Coefficient
    0,                        !- Temperature Term Coefficient
    0,                        !- Velocity Term Coefficient
    0,                        !- Velocity Squared Term Coefficient
    -100,                     !- Minimum Indoor Temperature
    ,                         !- Minimum Indoor Temperature Schedule Name
    100,                      !- Maximum Indoor Temperature
    ,                         !- Maximum Indoor Temperature Schedule Name
    -100,                     !- Delta Temperature
    ,                         !- Delta Temperature Schedule Name
    -100,                     !- Minimum Outdoor Temperature
    ,                         !- Minimum Outdoor Temperature Schedule Name
    100,                      !- Maximum Outdoor Temperature
    ,                         !- Maximum Outdoor Temperature Schedule Name
    40;                       !- Maximum Wind Speed

HVACTEMPLATE:THERMOSTAT,
    EU_HeatOnly_608543157199ae85_F0_dwelling_0,    !- Name
    ,                         !- Heating Setpoint Schedule Name
    20,                       !- Constant Heating Setpoint
    ,                         !- Cooling Setpoint Schedule Name
    50;                       !- Constant Cooling Setpoint

HVACTEMPLATE:ZONE:IDEALLOADSAIRSYSTEM,
    608543157199ae85_F0_dwelling_0,    !- Zone Name
    EU_HeatOnly_608543157199ae85_F0_dwelling_0,    !- Template Thermostat Name
    EU_AlwaysOn,              !- System Availability Schedule Name
    50,                       !- Maximum Heating Supply Air Temperature
    13,                       !- Minimum Cooling Supply Air Temperature
    0.0156,                   !- Maximum Heating Supply Air Humidity Ratio
    0.0077,                   !- Minimum Cooling Supply Air Humidity Ratio
    NoLimit,                  !- Heating Limit
    ,                         !- Maximum Heating Air Flow Rate
    ,                         !- Maximum Sensible Heating Capacity
    NoLimit,                  !- Cooling Limit
    ,                         !- Maximum Cooling Air Flow Rate
    ,                         !- Maximum Total Cooling Capacity
    EU_AlwaysOn,              !- Heating Availability Schedule Name
    EU_CoolingOff,            !- Cooling Availability Schedule Name
    ConstantSensibleHeatRatio,    !- Dehumidification Control Type
    0.7,                      !- Cooling Sensible Heat Ratio
    60,                       !- Dehumidification Setpoint
    None,                     !- Humidification Control Type
    30,                       !- Humidification Setpoint
    None,                     !- Outdoor Air Method
    0.00944,                  !- Outdoor Air Flow Rate per Person
    0.0,                      !- Outdoor Air Flow Rate per Zone Floor Area
    0,                        !- Outdoor Air Flow Rate per Zone
    ,                         !- Design Specification Outdoor Air Object Name
    None,                     !- Demand Controlled Ventilation Type
    NoEconomizer,             !- Outdoor Air Economizer Type
    None,                     !- Heat Recovery Type
    0.70,                     !- Sensible Heat Recovery Effectiveness
    0.65;                     !- Latent Heat Recovery Effectiveness

SIZING:ZONE,
    608543157199ae85_F0_dwelling_0,    !- Zone or ZoneList Name
    SupplyAirTemperature,     !- Zone Cooling Design Supply Air Temperature Input Method
    13,                       !- Zone Cooling Design Supply Air Temperature
    ,                         !- Zone Cooling Design Supply Air Temperature Difference
    SupplyAirTemperature,     !- Zone Heating Design Supply Air Temperature Input Method
    50,                       !- Zone Heating Design Supply Air Temperature
    ,                         !- Zone Heating Design Supply Air Temperature Difference
    0.008,                    !- Zone Cooling Design Supply Air Humidity Ratio
    0.008,                    !- Zone Heating Design Supply Air Humidity Ratio
    ,                         !- Design Specification Outdoor Air Object Name
    ,                         !- Zone Heating Sizing Factor
    ,                         !- Zone Cooling Sizing Factor
    DesignDay,                !- Cooling Design Air Flow Method
    0,                        !- Cooling Design Air Flow Rate
    0.000762,                 !- Cooling Minimum Air Flow per Zone Floor Area
    0,                        !- Cooling Minimum Air Flow
    0.2,                      !- Cooling Minimum Air Flow Fraction
    DesignDay,                !- Heating Design Air Flow Method
    0,                        !- Heating Design Air Flow Rate
    0.002032,                 !- Heating Maximum Air Flow per Zone Floor Area
    0.1415762,                !- Heating Maximum Air Flow
    0.3,                      !- Heating Maximum Air Flow Fraction
    ,                         !- Design Specification Zone Air Distribution Object Name
    No,                       !- Account for Dedicated Outdoor Air System
    NeutralSupplyAir,         !- Dedicated Outdoor Air System Control Strategy
    autosize,                 !- Dedicated Outdoor Air Low Setpoint Temperature for Design
    autosize,                 !- Dedicated Outdoor Air High Setpoint Temperature for Design
    Sensible Load Only No Latent Load,    !- Zone Load Sizing Method
    HumidityRatioDifference,    !- Zone Latent Cooling Design Supply Air Humidity Ratio Input Method
    ,                         !- Zone Dehumidification Design Supply Air Humidity Ratio
    0.005,                    !- Zone Cooling Design Supply Air Humidity Ratio Difference
    HumidityRatioDifference,    !- Zone Latent Heating Design Supply Air Humidity Ratio Input Method
    ,                         !- Zone Humidification Design Supply Air Humidity Ratio
    0.005;                    !- Zone Humidification Design Supply Air Humidity Ratio Difference

OUTPUT:VARIABLE,
    *,                        !- Key Value
    Zone Ideal Loads Zone Total Heating Energy,    !- Variable Name
    Hourly;                   !- Reporting Frequency

OUTPUT:SQLITE,
    SimpleAndTabular,         !- Option Type
    UseOutputControlTableStyle;    !- Unit Conversion for Tabular Data