!- Windows Line endings 

Version,
    23.1;                     !- Version Identifier

SimulationControl,
    Yes,                      !- Do Zone Sizing Calculation
    Yes,                      !- Do System Sizing Calculation
    Yes,                      !- Do Plant Sizing Calculation
    No,                       !- Run Simulation for Sizing Periods
    Yes,                      !- Run Simulation for Weather File Run Periods
    No,                       !- Do HVAC Sizing Simulation for Sizing Periods
    1;                        !- Maximum Number of HVAC Sizing Simulation Passes

Building,
    EU S2 Campaign,           !- Name
    0,                        !- North Axis
    City,                     !- Terrain
    ,                         !- Loads Convergence Tolerance Value
    ,                         !- Temperature Convergence Tolerance Value
    FullExterior,             !- Solar Distribution
    ,                         !- Maximum Number of Warmup Days
    ;                         !- Minimum Number of Warmup Days

ShadowCalculation,
    PolygonClipping,          !- Shading Calculation Method
    Periodic,                 !- Shading Calculation Update Frequency Method
    1;                        !- Shading Calculation Update Frequency

HeatBalanceAlgorithm,
    ConductionTransferFunction,    !- Algorithm
    200,                      !- Surface Temperature Upper Limit
    0.1,                      !- Minimum Surface Convection Heat Transfer Coefficient Value
    10000000;                 !- Maximum Surface Convection Heat Transfer Coefficient Value

Timestep,
    12;                       !- Number of Timesteps per Hour

Site:Location,
    London,                   !- Name
    51.5,                     !- Latitude
    -0.5,                     !- Longitude
    0,                        !- Time Zone
    25;                       !- Elevation

SizingPeriod:WeatherFileDays,
    AnnualSizingPeriod,       !- Name
    1,                        !- Begin Month
    1,                        !- Begin Day of Month
    12,                       !- End Month
    31,                       !- End Day of Month
    Monday,                   !- Day of Week for Start Day
    No,                       !- Use Weather File Daylight Saving Period
    No;                       !- Use Weather File Rain and Snow Indicators

RunPeriod,
    RunPeriod1,               !- Name
    1,                        !- Begin Month
    1,                        !- Begin Day of Month
    ,                         !- Begin Year
    12,                       !- End Month
    31,                       !- End Day of Month
    ,                         !- End Year
    Sunday,                   !- Day of Week for Start Day
    No,                       !- Use Weather File Holidays and Special Days
    No,                       !- Use Weather File Daylight Saving Period
    No,                       !- Apply Weekend Holiday Rule
    Yes,                      !- Use Weather File Rain Indicators
    Yes;                      !- Use Weather File Snow Indicators

ScheduleTypeLimits,
    Any Number;               !- Name

SCHEDULETYPELIMITS,
    EU_Step8_AnyNumber_Wm2,    !- Name
    ,                         !- Lower Limit Value
    ,                         !- Upper Limit Value
    Continuous,               !- Numeric Type
    Dimensionless;            !- Unit Type

SCHEDULE:CONSTANT,
    EU_AlwaysOn,              !- Name
    ,                         !- Schedule Type Limits Name
    1;                        !- Hourly Value

SCHEDULE:CONSTANT,
    EU_CoolingOff,            !- Name
    ,                         !- Schedule Type Limits Name
    0;                        !- Hourly Value

SCHEDULE:FILE,
    EU_Step8_GainSchedule_df70a629c7914610_F0_whole_f000,    !- Name
    EU_Step8_AnyNumber_Wm2,    !- Schedule Type Limits Name
    ../../schedules/df70a629c7914610/df70a629c7914610_F0_whole_f000_gain.csv,    !- File Name
    1,                        !- Column Number
    0,                        !- Rows to Skip at Top
    8760,                     !- Number of Hours of Data
    Comma,                    !- Column Separator
    No,                       !- Interpolate to Timestep
    60,                       !- Minutes per Item
    Yes;                      !- Adjust Schedule for Daylight Savings

SCHEDULE:FILE,
    EU_Step8_GainSchedule_df70a629c7914610_F1_whole_f000,    !- Name
    EU_Step8_AnyNumber_Wm2,    !- Schedule Type Limits Name
    ../../schedules/df70a629c7914610/df70a629c7914610_F1_whole_f000_gain.csv,    !- File Name
    1,                        !- Column Number
    0,                        !- Rows to Skip at Top
    8760,                     !- Number of Hours of Data
    Comma,                    !- Column Separator
    No,                       !- Interpolate to Timestep
    60,                       !- Minutes per Item
    Yes;                      !- Adjust Schedule for Daylight Savings

SCHEDULE:FILE,
    EU_Step8_GainSchedule_df70a629c7914610_F2_whole_f000,    !- Name
    EU_Step8_AnyNumber_Wm2,    !- Schedule Type Limits Name
    ../../schedules/df70a629c7914610/df70a629c7914610_F2_whole_f000_gain.csv,    !- File Name
    1,                        !- Column Number
    0,                        !- Rows to Skip at Top
    8760,                     !- Number of Hours of Data
    Comma,                    !- Column Separator
    No,                       !- Interpolate to Timestep
    60,                       !- Minutes per Item
    Yes;                      !- Adjust Schedule for Daylight Savings

MATERIAL,
    EU_InternalMass_Material,    !- Name
    MediumRough,              !- Roughness
    0.1,                      !- Thickness
    1,                        !- Conductivity
    1800,                     !- Density
    900,                      !- Specific Heat
    0.9,                      !- Thermal Absorptance
    0.7,                      !- Solar Absorptance
    0.7;                      !- Visible Absorptance

MATERIAL:NOMASS,
    EU_wall_NoMass,           !- Name
    MediumRough,              !- Roughness
    1.0467423948334633,       !- Thermal Resistance
    0.9,                      !- Thermal Absorptance
    0.7,                      !- Solar Absorptance
    0.7;                      !- Visible Absorptance

MATERIAL:NOMASS,
    EU_roof_NoMass,           !- Name
    MediumRough,              !- Roughness
    4.324420935091105,        !- Thermal Resistance
    0.9,                      !- Thermal Absorptance
    0.7,                      !- Solar Absorptance
    0.7;                      !- Visible Absorptance

MATERIAL:NOMASS,
    EU_floor_NoMass,          !- Name
    MediumRough,              !- Roughness
    2.046164069677634,        !- Thermal Resistance
    0.9,                      !- Thermal Absorptance
    0.7,                      !- Solar Absorptance
    0.7;                      !- Visible Absorptance

CONSTRUCTION,
    EU_wall_Construction,     !- Name
    EU_wall_NoMass;           !- Outside Layer

CONSTRUCTION,
    EU_roof_Construction,     !- Name
    EU_roof_NoMass;           !- Outside Layer

CONSTRUCTION,
    EU_floor_Construction,    !- Name
    EU_floor_NoMass;          !- Outside Layer

CONSTRUCTION,
    EU_InternalMass_Construction,    !- Name
    EU_InternalMass_Material;    !- Outside Layer

GlobalGeometryRules,
    UpperLeftCorner,          !- Starting Vertex Position
    CounterClockWise,         !- Vertex Entry Direction
    World;                    !- Coordinate System

ZONE,
    df70a629c7914610_F0_whole,    !- Name
    0,                        !- Direction of Relative North
    0,                        !- X Origin
    0,                        !- Y Origin
    0,                        !- Z Origin
    1,                        !- Type
    1,                        !- Multiplier
    autocalculate,            !- Ceiling Height
    353.24560546875,          !- Volume
    autocalculate,            !- Floor Area
    ,                         !- Zone Inside Convection Algorithm
    ,                         !- Zone Outside Convection Algorithm
    Yes;                      !- Part of Total Floor Area

ZONE,
    df70a629c7914610_F1_whole,    !- Name
    0,                        !- Direction of Relative North
    0,                        !- X Origin
    0,                        !- Y Origin
    0,                        !- Z Origin
    1,                        !- Type
    1,                        !- Multiplier
    autocalculate,            !- Ceiling Height
    353.244873046875,         !- Volume
    autocalculate,            !- Floor Area
    ,                         !- Zone Inside Convection Algorithm
    ,                         !- Zone Outside Convection Algorithm
    Yes;                      !- Part of Total Floor Area

ZONE,
    df70a629c7914610_F2_whole,    !- Name
    0,                        !- Direction of Relative North
    0,                        !- X Origin
    0,                        !- Y Origin
    0,                        !- Z Origin
    1,                        !- Type
    1,                        !- Multiplier
    autocalculate,            !- Ceiling Height
    353.244873046875,         !- Volume
    autocalculate,            !- Floor Area
    ,                         !- Zone Inside Convection Algorithm
    ,                         !- Zone Outside Convection Algorithm
    Yes;                      !- Part of Total Floor Area

BUILDINGSURFACE:DETAILED,
    Block df70a629c7914610_whole Storey 0 Wall 0001,    !- Name
    wall,                     !- Surface Type
    EU_wall_Construction,     !- Construction Name
    df70a629c7914610_F0_whole,    !- Zone Name
    ,                         !- Space Name
    Adiabatic,                !- Outside Boundary Condition
    ,                         !- Outside Boundary Condition Object
    NoSun,                    !- Sun Exposure
    NoWind,                   !- Wind Exposure
    autocalculate,            !- View Factor to Ground
    autocalculate,            !- Number of Vertices
    705279.965,               !- Vertex 1 Xcoordinate
    5711685.385,              !- Vertex 1 Ycoordinate
    3,                        !- Vertex 1 Zcoordinate
    705279.965,               !- Vertex 2 Xcoordinate
    5711685.385,              !- Vertex 2 Ycoordinate
    0,                        !- Vertex 2 Zcoordinate
    705290.19,                !- Vertex 3 Xcoordinate
    5711687.31,               !- Vertex 3 Ycoordinate
    0,                        !- Vertex 3 Zcoordinate
    705290.19,                !- Vertex 4 Xcoordinate
    5711687.31,               !- Vertex 4 Ycoordinate
    3;                        !- Vertex 4 Zcoordinate

BUILDINGSURFACE:DETAILED,
    Block df70a629c7914610_whole Storey 0 Wall 0002,    !- Name
    wall,                     !- Surface Type
    EU_wall_Construction,     !- Construction Name
    df70a629c7914610_F0_whole,    !- Zone Name
    ,                         !- Space Name
    outdoors,                 !- Outside Boundary Condition
    ,                         !- Outside Boundary Condition Object
    SunExposed,               !- Sun Exposure
    WindExposed,              !- Wind Exposure
    autocalculate,            !- View Factor to Ground
    autocalculate,            !- Number of Vertices
    705290.19,                !- Vertex 1 Xcoordinate
    5711687.31,               !- Vertex 1 Ycoordinate
    3,                        !- Vertex 1 Zcoordinate
    705290.19,                !- Vertex 2 Xcoordinate
    5711687.31,               !- Vertex 2 Ycoordinate
    0,                        !- Vertex 2 Zcoordinate
    705292.13,                !- Vertex 3 Xcoordinate
    5711675.945,              !- Vertex 3 Ycoordinate
    0,                        !- Vertex 3 Zcoordinate
    705292.13,                !- Vertex 4 Xcoordinate
    5711675.945,              !- Vertex 4 Ycoordinate
    3;                        !- Vertex 4 Zcoordinate

BUILDINGSURFACE:DETAILED,
    Block df70a629c7914610_whole Storey 0 Wall 0003,    !- Name
    wall,                     !- Surface Type
    EU_wall_Construction,     !- Construction Name
    df70a629c7914610_F0_whole,    !- Zone Name
    ,                         !- Space Name
    outdoors,                 !- Outside Boundary Condition
    ,                         !- Outside Boundary Condition Object
    SunExposed,               !- Sun Exposure
    WindExposed,              !- Wind Exposure
    autocalculate,            !- View Factor to Ground
    autocalculate,            !- Number of Vertices
    705292.13,                !- Vertex 1 Xcoordinate
    5711675.945,              !- Vertex 1 Ycoordinate
    3,                        !- Vertex 1 Zcoordinate
    705292.13,                !- Vertex 2 Xcoordinate
    5711675.945,              !- Vertex 2 Ycoordinate
    0,                        !- Vertex 2 Zcoordinate
    705282.215,               !- Vertex 3 Xcoordinate
    5711674.14,               !- Vertex 3 Ycoordinate
    0,                        !- Vertex 3 Zcoordinate
    705282.215,               !- Vertex 4 Xcoordinate
    5711674.14,               !- Vertex 4 Ycoordinate
    3;                        !- Vertex 4 Zcoordinate

BUILDINGSURFACE:DETAILED,
    Block df70a629c7914610_whole Storey 0 Wall 0004,    !- Name
    wall,                     !- Surface Type
    EU_wall_Construction,     !- Construction Name
    df70a629c7914610_F0_whole,    !- Zone Name
    ,                         !- Space Name
    outdoors,                 !- Outside Boundary Condition
    ,                         !- Outside Boundary Condition Object
    SunExposed,               !- Sun Exposure
    WindExposed,              !- Wind Exposure
    autocalculate,            !- View Factor to Ground
    autocalculate,            !- Number of Vertices
    705282.215,               !- Vertex 1 Xcoordinate
    5711674.14,               !- Vertex 1 Ycoordinate
    3,                        !- Vertex 1 Zcoordinate
    705282.215,               !- Vertex 2 Xcoordinate
    5711674.14,               !- Vertex 2 Ycoordinate
    0,                        !- Vertex 2 Zcoordinate
    705279.965,               !- Vertex 3 Xcoordinate
    5711685.385,              !- Vertex 3 Ycoordinate
    0,                        !- Vertex 3 Zcoordinate
    705279.965,               !- Vertex 4 Xcoordinate
    5711685.385,              !- Vertex 4 Ycoordinate
    3;                        !- Vertex 4 Zcoordinate

BUILDINGSURFACE:DETAILED,
    Block df70a629c7914610_whole Storey 0 Floor 0001,    !- Name
    floor,                    !- Surface Type
    EU_floor_Construction,    !- Construction Name
    df70a629c7914610_F0_whole,    !- Zone Name
    ,                         !- Space Name
    ground,                   !- Outside Boundary Condition
    ,                         !- Outside Boundary Condition Object
    NoSun,                    !- Sun Exposure
    NoWind,                   !- Wind Exposure
    autocalculate,            !- View Factor to Ground
    autocalculate,            !- Number of Vertices
    705292.13,                !- Vertex 1 Xcoordinate
    5711675.945,              !- Vertex 1 Ycoordinate
    0,                        !- Vertex 1 Zcoordinate
    705290.19,                !- Vertex 2 Xcoordinate
    5711687.31,               !- Vertex 2 Ycoordinate
    0,                        !- Vertex 2 Zcoordinate
    705279.965,               !- Vertex 3 Xcoordinate
    5711685.385,              !- Vertex 3 Ycoordinate
    0,                        !- Vertex 3 Zcoordinate
    705282.215,               !- Vertex 4 Xcoordinate
    5711674.14,               !- Vertex 4 Ycoordinate
    0;                        !- Vertex 4 Zcoordinate

BUILDINGSURFACE:DETAILED,
    Block df70a629c7914610_whole Storey 1 Wall 0001,    !- Name
    wall,                     !- Surface Type
    EU_wall_Construction,     !- Construction Name
    df70a629c7914610_F1_whole,    !- Zone Name
    ,                         !- Space Name
    Adiabatic,                !- Outside Boundary Condition
    ,                         !- Outside Boundary Condition Object
    NoSun,                    !- Sun Exposure
    NoWind,                   !- Wind Exposure
    autocalculate,            !- View Factor to Ground
    autocalculate,            !- Number of Vertices
    705279.965,               !- Vertex 1 Xcoordinate
    5711685.385,              !- Vertex 1 Ycoordinate
    6,                        !- Vertex 1 Zcoordinate
    705279.965,               !- Vertex 2 Xcoordinate
    5711685.385,              !- Vertex 2 Ycoordinate
    3,                        !- Vertex 2 Zcoordinate
    705290.19,                !- Vertex 3 Xcoordinate
    5711687.31,               !- Vertex 3 Ycoordinate
    3,                        !- Vertex 3 Zcoordinate
    705290.19,                !- Vertex 4 Xcoordinate
    5711687.31,               !- Vertex 4 Ycoordinate
    6;                        !- Vertex 4 Zcoordinate

BUILDINGSURFACE:DETAILED,
    Block df70a629c7914610_whole Storey 1 Wall 0002,    !- Name
    wall,                     !- Surface Type
    EU_wall_Construction,     !- Construction Name
    df70a629c7914610_F1_whole,    !- Zone Name
    ,                         !- Space Name
    outdoors,                 !- Outside Boundary Condition
    ,                         !- Outside Boundary Condition Object
    SunExposed,               !- Sun Exposure
    WindExposed,              !- Wind Exposure
    autocalculate,            !- View Factor to Ground
    autocalculate,            !- Number of Vertices
    705290.19,                !- Vertex 1 Xcoordinate
    5711687.31,               !- Vertex 1 Ycoordinate
    6,                        !- Vertex 1 Zcoordinate
    705290.19,                !- Vertex 2 Xcoordinate
    5711687.31,               !- Vertex 2 Ycoordinate
    3,                        !- Vertex 2 Zcoordinate
    705292.13,                !- Vertex 3 Xcoordinate
    5711675.945,              !- Vertex 3 Ycoordinate
    3,                        !- Vertex 3 Zcoordinate
    705292.13,                !- Vertex 4 Xcoordinate
    5711675.945,              !- Vertex 4 Ycoordinate
    6;                        !- Vertex 4 Zcoordinate

BUILDINGSURFACE:DETAILED,
    Block df70a629c7914610_whole Storey 1 Wall 0003,    !- Name
    wall,                     !- Surface Type
    EU_wall_Construction,     !- Construction Name
    df70a629c7914610_F1_whole,    !- Zone Name
    ,                         !- Space Name
    outdoors,                 !- Outside Boundary Condition
    ,                         !- Outside Boundary Condition Object
    SunExposed,               !- Sun Exposure
    WindExposed,              !- Wind Exposure
    autocalculate,            !- View Factor to Ground
    autocalculate,            !- Number of Vertices
    705292.13,                !- Vertex 1 Xcoordinate
    5711675.945,              !- Vertex 1 Ycoordinate
    6,                        !- Vertex 1 Zcoordinate
    705292.13,                !- Vertex 2 Xcoordinate
    5711675.945,              !- Vertex 2 Ycoordinate
    3,                        !- Vertex 2 Zcoordinate
    705282.215,               !- Vertex 3 Xcoordinate
    5711674.14,               !- Vertex 3 Ycoordinate
    3,                        !- Vertex 3 Zcoordinate
    705282.215,               !- Vertex 4 Xcoordinate
    5711674.14,               !- Vertex 4 Ycoordinate
    6;                        !- Vertex 4 Zcoordinate

BUILDINGSURFACE:DETAILED,
    Block df70a629c7914610_whole Storey 1 Wall 0004,    !- Name
    wall,                     !- Surface Type
    EU_wall_Construction,     !- Construction Name
    df70a629c7914610_F1_whole,    !- Zone Name
    ,                         !- Space Name
    outdoors,                 !- Outside Boundary Condition
    ,                         !- Outside Boundary Condition Object
    SunExposed,               !- Sun Exposure
    WindExposed,              !- Wind Exposure
    autocalculate,            !- View Factor to Ground
    autocalculate,            !- Number of Vertices
    705282.215,               !- Vertex 1 Xcoordinate
    5711674.14,               !- Vertex 1 Ycoordinate
    6,                        !- Vertex 1 Zcoordinate
    705282.215,               !- Vertex 2 Xcoordinate
    5711674.14,               !- Vertex 2 Ycoordinate
    3,                        !- Vertex 2 Zcoordinate
    705279.965,               !- Vertex 3 Xcoordinate
    5711685.385,              !- Vertex 3 Ycoordinate
    3,                        !- Vertex 3 Zcoordinate
    705279.965,               !- Vertex 4 Xcoordinate
    5711685.385,              !- Vertex 4 Ycoordinate
    6;                        !- Vertex 4 Zcoordinate

BUILDINGSURFACE:DETAILED,
    Block df70a629c7914610_whole Storey 2 Wall 0001,    !- Name
    wall,                     !- Surface Type
    EU_wall_Construction,     !- Construction Name
    df70a629c7914610_F2_whole,    !- Zone Name
    ,                         !- Space Name
    Adiabatic,                !- Outside Boundary Condition
    ,                         !- Outside Boundary Condition Object
    NoSun,                    !- Sun Exposure
    NoWind,                   !- Wind Exposure
    autocalculate,            !- View Factor to Ground
    autocalculate,            !- Number of Vertices
    705279.965,               !- Vertex 1 Xcoordinate
    5711685.385,              !- Vertex 1 Ycoordinate
    9,                        !- Vertex 1 Zcoordinate
    705279.965,               !- Vertex 2 Xcoordinate
    5711685.385,              !- Vertex 2 Ycoordinate
    6,                        !- Vertex 2 Zcoordinate
    705290.19,                !- Vertex 3 Xcoordinate
    5711687.31,               !- Vertex 3 Ycoordinate
    6,                        !- Vertex 3 Zcoordinate
    705290.19,                !- Vertex 4 Xcoordinate
    5711687.31,               !- Vertex 4 Ycoordinate
    9;                        !- Vertex 4 Zcoordinate

BUILDINGSURFACE:DETAILED,
    Block df70a629c7914610_whole Storey 2 Wall 0002,    !- Name
    wall,                     !- Surface Type
    EU_wall_Construction,     !- Construction Name
    df70a629c7914610_F2_whole,    !- Zone Name
    ,                         !- Space Name
    outdoors,                 !- Outside Boundary Condition
    ,                         !- Outside Boundary Condition Object
    SunExposed,               !- Sun Exposure
    WindExposed,              !- Wind Exposure
    autocalculate,            !- View Factor to Ground
    autocalculate,            !- Number of Vertices
    705290.19,                !- Vertex 1 Xcoordinate
    5711687.31,               !- Vertex 1 Ycoordinate
    9,                        !- Vertex 1 Zcoordinate
    705290.19,                !- Vertex 2 Xcoordinate
    5711687.31,               !- Vertex 2 Ycoordinate
    6,                        !- Vertex 2 Zcoordinate
    705292.13,                !- Vertex 3 Xcoordinate
    5711675.945,              !- Vertex 3 Ycoordinate
    6,                        !- Vertex 3 Zcoordinate
    705292.13,                !- Vertex 4 Xcoordinate
    5711675.945,              !- Vertex 4 Ycoordinate
    9;                        !- Vertex 4 Zcoordinate

BUILDINGSURFACE:DETAILED,
    Block df70a629c7914610_whole Storey 2 Wall 0003,    !- Name
    wall,                     !- Surface Type
    EU_wall_Construction,     !- Construction Name
    df70a629c7914610_F2_whole,    !- Zone Name
    ,                         !- Space Name
    outdoors,                 !- Outside Boundary Condition
    ,                         !- Outside Boundary Condition Object
    SunExposed,               !- Sun Exposure
    WindExposed,              !- Wind Exposure
    autocalculate,            !- View Factor to Ground
    autocalculate,            !- Number of Vertices
    705292.13,                !- Vertex 1 Xcoordinate
    5711675.945,              !- Vertex 1 Ycoordinate
    9,                        !- Vertex 1 Zcoordinate
    705292.13,                !- Vertex 2 Xcoordinate
    5711675.945,              !- Vertex 2 Ycoordinate
    6,                        !- Vertex 2 Zcoordinate
    705282.215,               !- Vertex 3 Xcoordinate
    5711674.14,               !- Vertex 3 Ycoordinate
    6,                        !- Vertex 3 Zcoordinate
    705282.215,               !- Vertex 4 Xcoordinate
    5711674.14,               !- Vertex 4 Ycoordinate
    9;                        !- Vertex 4 Zcoordinate

BUILDINGSURFACE:DETAILED,
    Block df70a629c7914610_whole Storey 2 Wall 0004,    !- Name
    wall,                     !- Surface Type
    EU_wall_Construction,     !- Construction Name
    df70a629c7914610_F2_whole,    !- Zone Name
    ,                         !- Space Name
    outdoors,                 !- Outside Boundary Condition
    ,                         !- Outside Boundary Condition Object
    SunExposed,               !- Sun Exposure
    WindExposed,              !- Wind Exposure
    autocalculate,            !- View Factor to Ground
    autocalculate,            !- Number of Vertices
    705282.215,               !- Vertex 1 Xcoordinate
    5711674.14,               !- Vertex 1 Ycoordinate
    9,                        !- Vertex 1 Zcoordinate
    705282.215,               !- Vertex 2 Xcoordinate
    5711674.14,               !- Vertex 2 Ycoordinate
    6,                        !- Vertex 2 Zcoordinate
    705279.965,               !- Vertex 3 Xcoordinate
    5711685.385,              !- Vertex 3 Ycoordinate
    6,                        !- Vertex 3 Zcoordinate
    705279.965,               !- Vertex 4 Xcoordinate
    5711685.385,              !- Vertex 4 Ycoordinate
    9;                        !- Vertex 4 Zcoordinate

BUILDINGSURFACE:DETAILED,
    Block df70a629c7914610_whole Storey 2 Roof 0001,    !- Name
    roof,                     !- Surface Type
    EU_roof_Construction,     !- Construction Name
    df70a629c7914610_F2_whole,    !- Zone Name
    ,                         !- Space Name
    outdoors,                 !- Outside Boundary Condition
    ,                         !- Outside Boundary Condition Object
    NoSun,                    !- Sun Exposure
    WindExposed,              !- Wind Exposure
    autocalculate,            !- View Factor to Ground
    autocalculate,            !- Number of Vertices
    705290.19,                !- Vertex 1 Xcoordinate
    5711687.31,               !- Vertex 1 Ycoordinate
    9,                        !- Vertex 1 Zcoordinate
    705292.13,                !- Vertex 2 Xcoordinate
    5711675.945,              !- Vertex 2 Ycoordinate
    9,                        !- Vertex 2 Zcoordinate
    705282.215,               !- Vertex 3 Xcoordinate
    5711674.14,               !- Vertex 3 Ycoordinate
    9,                        !- Vertex 3 Zcoordinate
    705279.965,               !- Vertex 4 Xcoordinate
    5711685.385,              !- Vertex 4 Ycoordinate
    9;                        !- Vertex 4 Zcoordinate

BUILDINGSURFACE:DETAILED,
    Block df70a629c7914610_whole Storey 0 Ceiling 0001_1,    !- Name
    ceiling,                  !- Surface Type
    EU_floor_Construction,    !- Construction Name
    df70a629c7914610_F0_whole,    !- Zone Name
    ,                         !- Space Name
    Surface,                  !- Outside Boundary Condition
    Block df70a629c7914610_whole Storey 1 Floor 0001_1,    !- Outside Boundary Condition Object
    NoSun,                    !- Sun Exposure
    NoWind,                   !- Wind Exposure
    autocalculate,            !- View Factor to Ground
    autocalculate,            !- Number of Vertices
    705290.19,                !- Vertex 1 Xcoordinate
    5711687.31,               !- Vertex 1 Ycoordinate
    3,                        !- Vertex 1 Zcoordinate
    705292.1299999999,        !- Vertex 2 Xcoordinate
    5711675.945,              !- Vertex 2 Ycoordinate
    3,                        !- Vertex 2 Zcoordinate
    705282.2149999999,        !- Vertex 3 Xcoordinate
    5711674.14,               !- Vertex 3 Ycoordinate
    3,                        !- Vertex 3 Zcoordinate
    705279.9649999999,        !- Vertex 4 Xcoordinate
    5711685.385,              !- Vertex 4 Ycoordinate
    3;                        !- Vertex 4 Zcoordinate

BUILDINGSURFACE:DETAILED,
    Block df70a629c7914610_whole Storey 1 Floor 0001_1,    !- Name
    floor,                    !- Surface Type
    EU_floor_Construction,    !- Construction Name
    df70a629c7914610_F1_whole,    !- Zone Name
    ,                         !- Space Name
    Surface,                  !- Outside Boundary Condition
    Block df70a629c7914610_whole Storey 0 Ceiling 0001_1,    !- Outside Boundary Condition Object
    NoSun,                    !- Sun Exposure
    NoWind,                   !- Wind Exposure
    autocalculate,            !- View Factor to Ground
    autocalculate,            !- Number of Vertices
    705292.1299999999,        !- Vertex 1 Xcoordinate
    5711675.945,              !- Vertex 1 Ycoordinate
    3,                        !- Vertex 1 Zcoordinate
    705290.19,                !- Vertex 2 Xcoordinate
    5711687.31,               !- Vertex 2 Ycoordinate
    3,                        !- Vertex 2 Zcoordinate
    705279.9649999999,        !- Vertex 3 Xcoordinate
    5711685.385,              !- Vertex 3 Ycoordinate
    3,                        !- Vertex 3 Zcoordinate
    705282.2149999999,        !- Vertex 4 Xcoordinate
    5711674.14,               !- Vertex 4 Ycoordinate
    3;                        !- Vertex 4 Zcoordinate

BUILDINGSURFACE:DETAILED,
    Block df70a629c7914610_whole Storey 1 Ceiling 0001_1,    !- Name
    ceiling,                  !- Surface Type
    EU_floor_Construction,    !- Construction Name
    df70a629c7914610_F1_whole,    !- Zone Name
    ,                         !- Space Name
    Surface,                  !- Outside Boundary Condition
    Block df70a629c7914610_whole Storey 2 Floor 0001_1,    !- Outside Boundary Condition Object
    NoSun,                    !- Sun Exposure
    NoWind,                   !- Wind Exposure
    autocalculate,            !- View Factor to Ground
    autocalculate,            !- Number of Vertices
    705290.19,                !- Vertex 1 Xcoordinate
    5711687.31,               !- Vertex 1 Ycoordinate
    6,                        !- Vertex 1 Zcoordinate
    705292.1299999999,        !- Vertex 2 Xcoordinate
    5711675.945,              !- Vertex 2 Ycoordinate
    6,                        !- Vertex 2 Zcoordinate
    705282.2149999999,        !- Vertex 3 Xcoordinate
    5711674.14,               !- Vertex 3 Ycoordinate
    6,                        !- Vertex 3 Zcoordinate
    705279.9649999999,        !- Vertex 4 Xcoordinate
    5711685.385,              !- Vertex 4 Ycoordinate
    6;                        !- Vertex 4 Zcoordinate

BUILDINGSURFACE:DETAILED,
    Block df70a629c7914610_whole Storey 2 Floor 0001_1,    !- Name
    floor,                    !- Surface Type
    EU_floor_Construction,    !- Construction Name
    df70a629c7914610_F2_whole,    !- Zone Name
    ,                         !- Space Name
    Surface,                  !- Outside Boundary Condition
    Block df70a629c7914610_whole Storey 1 Ceiling 0001_1,    !- Outside Boundary Condition Object
    NoSun,                    !- Sun Exposure
    NoWind,                   !- Wind Exposure
    autocalculate,            !- View Factor to Ground
    autocalculate,            !- Number of Vertices
    705292.1299999999,        !- Vertex 1 Xcoordinate
    5711675.945,              !- Vertex 1 Ycoordinate
    6,                        !- Vertex 1 Zcoordinate
    705290.19,                !- Vertex 2 Xcoordinate
    5711687.31,               !- Vertex 2 Ycoordinate
    6,                        !- Vertex 2 Zcoordinate
    705279.9649999999,        !- Vertex 3 Xcoordinate
    5711685.385,              !- Vertex 3 Ycoordinate
    6,                        !- Vertex 3 Zcoordinate
    705282.2149999999,        !- Vertex 4 Xcoordinate
    5711674.14,               !- Vertex 4 Ycoordinate
    6;                        !- Vertex 4 Zcoordinate

INTERNALMASS,
    df70a629c7914610_F0_whole_EU_InternalMass,    !- Name
    EU_InternalMass_Construction,    !- Construction Name
    df70a629c7914610_F0_whole,    !- Zone or ZoneList Name
    ,                         !- Space or SpaceList Name
    117.7485249976026;        !- Surface Area

INTERNALMASS,
    df70a629c7914610_F1_whole_EU_InternalMass,    !- Name
    EU_InternalMass_Construction,    !- Construction Name
    df70a629c7914610_F1_whole,    !- Zone or ZoneList Name
    ,                         !- Space or SpaceList Name
    117.7485249976026;        !- Surface Area

INTERNALMASS,
    df70a629c7914610_F2_whole_EU_InternalMass,    !- Name
    EU_InternalMass_Construction,    !- Construction Name
    df70a629c7914610_F2_whole,    !- Zone or ZoneList Name
    ,                         !- Space or SpaceList Name
    117.7485249976026;        !- Surface Area

SHADING:SITE:DETAILED,
    shade_way/398158953_1,    !- Name
    ,                         !- Transmittance Schedule Name
    autocalculate,            !- Number of Vertices
    705312.4477652496,        !- Vertex 1 Xcoordinate
    5711712.133491906,        !- Vertex 1 Ycoordinate
    9,                        !- Vertex 1 Zcoordinate
    705312.4477652496,        !- Vertex 2 Xcoordinate
    5711712.133491906,        !- Vertex 2 Ycoordinate
    0,                        !- Vertex 2 Zcoordinate
    705317.3227625948,        !- Vertex 3 Xcoordinate
    5711683.176115374,        !- Vertex 3 Ycoordinate
    0,                        !- Vertex 3 Zcoordinate
    705317.3227625948,        !- Vertex 4 Xcoordinate
    5711683.176115374,        !- Vertex 4 Ycoordinate
    9;                        !- Vertex 4 Zcoordinate

SHADING:SITE:DETAILED,
    shade_way/398158953_2,    !- Name
    ,                         !- Transmittance Schedule Name
    autocalculate,            !- Number of Vertices
    705317.3227625948,        !- Vertex 1 Xcoordinate
    5711683.176115374,        !- Vertex 1 Ycoordinate
    9,                        !- Vertex 1 Zcoordinate
    705317.3227625948,        !- Vertex 2 Xcoordinate
    5711683.176115374,        !- Vertex 2 Ycoordinate
    0,                        !- Vertex 2 Zcoordinate
    705306.9018135425,        !- Vertex 3 Xcoordinate
    5711681.42165322,         !- Vertex 3 Ycoordinate
    0,                        !- Vertex 3 Zcoordinate
    705306.9018135425,        !- Vertex 4 Xcoordinate
    5711681.42165322,         !- Vertex 4 Ycoordinate
    9;                        !- Vertex 4 Zcoordinate

SHADING:SITE:DETAILED,
    shade_way/398158953_3,    !- Name
    ,                         !- Transmittance Schedule Name
    autocalculate,            !- Number of Vertices
    705306.9018135425,        !- Vertex 1 Xcoordinate
    5711681.42165322,         !- Vertex 1 Ycoordinate
    9,                        !- Vertex 1 Zcoordinate
    705306.9018135425,        !- Vertex 2 Xcoordinate
    5711681.42165322,         !- Vertex 2 Ycoordinate
    0,                        !- Vertex 2 Zcoordinate
    705302.0268161942,        !- Vertex 3 Xcoordinate
    5711710.379029752,        !- Vertex 3 Ycoordinate
    0,                        !- Vertex 3 Zcoordinate
    705302.0268161942,        !- Vertex 4 Xcoordinate
    5711710.379029752,        !- Vertex 4 Ycoordinate
    9;                        !- Vertex 4 Zcoordinate

SHADING:SITE:DETAILED,
    shade_way/398158953_4,    !- Name
    ,                         !- Transmittance Schedule Name
    autocalculate,            !- Number of Vertices
    705302.0268161942,        !- Vertex 1 Xcoordinate
    5711710.379029752,        !- Vertex 1 Ycoordinate
    9,                        !- Vertex 1 Zcoordinate
    705302.0268161942,        !- Vertex 2 Xcoordinate
    5711710.379029752,        !- Vertex 2 Ycoordinate
    0,                        !- Vertex 2 Zcoordinate
    705312.4477652496,        !- Vertex 3 Xcoordinate
    5711712.133491906,        !- Vertex 3 Ycoordinate
    0,                        !- Vertex 3 Zcoordinate
    705312.4477652496,        !- Vertex 4 Xcoordinate
    5711712.133491906,        !- Vertex 4 Ycoordinate
    9;                        !- Vertex 4 Zcoordinate

SHADING:SITE:DETAILED,
    shade_way/656952075_1,    !- Name
    ,                         !- Transmittance Schedule Name
    autocalculate,            !- Number of Vertices
    705271.4008137591,        !- Vertex 1 Xcoordinate
    5711651.183228269,        !- Vertex 1 Ycoordinate
    6,                        !- Vertex 1 Zcoordinate
    705271.4008137591,        !- Vertex 2 Xcoordinate
    5711651.183228269,        !- Vertex 2 Ycoordinate
    0,                        !- Vertex 2 Zcoordinate
    705260.5698432031,        !- Vertex 3 Xcoordinate
    5711649.45321104,         !- Vertex 3 Ycoordinate
    0,                        !- Vertex 3 Zcoordinate
    705260.5698432031,        !- Vertex 4 Xcoordinate
    5711649.45321104,         !- Vertex 4 Ycoordinate
    6;                        !- Vertex 4 Zcoordinate

SHADING:SITE:DETAILED,
    shade_way/656952075_2,    !- Name
    ,                         !- Transmittance Schedule Name
    autocalculate,            !- Number of Vertices
    705260.5698432031,        !- Vertex 1 Xcoordinate
    5711649.45321104,         !- Vertex 1 Ycoordinate
    6,                        !- Vertex 1 Zcoordinate
    705260.5698432031,        !- Vertex 2 Xcoordinate
    5711649.45321104,         !- Vertex 2 Ycoordinate
    0,                        !- Vertex 2 Zcoordinate
    705258.561109449,         !- Vertex 3 Xcoordinate
    5711662.03199143,         !- Vertex 3 Ycoordinate
    0,                        !- Vertex 3 Zcoordinate
    705258.561109449,         !- Vertex 4 Xcoordinate
    5711662.03199143,         !- Vertex 4 Ycoordinate
    6;                        !- Vertex 4 Zcoordinate

SHADING:SITE:DETAILED,
    shade_way/656952075_3,    !- Name
    ,                         !- Transmittance Schedule Name
    autocalculate,            !- Number of Vertices
    705258.561109449,         !- Vertex 1 Xcoordinate
    5711662.03199143,         !- Vertex 1 Ycoordinate
    6,                        !- Vertex 1 Zcoordinate
    705258.561109449,         !- Vertex 2 Xcoordinate
    5711662.03199143,         !- Vertex 2 Ycoordinate
    0,                        !- Vertex 2 Zcoordinate
    705269.3920800046,        !- Vertex 3 Xcoordinate
    5711663.762008663,        !- Vertex 3 Ycoordinate
    0,                        !- Vertex 3 Zcoordinate
    705269.3920800046,        !- Vertex 4 Xcoordinate
    5711663.762008663,        !- Vertex 4 Ycoordinate
    6;                        !- Vertex 4 Zcoordinate

SHADING:SITE:DETAILED,
    shade_way/656952075_4,    !- Name
    ,                         !- Transmittance Schedule Name
    autocalculate,            !- Number of Vertices
    705269.3920800046,        !- Vertex 1 Xcoordinate
    5711663.762008663,        !- Vertex 1 Ycoordinate
    6,                        !- Vertex 1 Zcoordinate
    705269.3920800046,        !- Vertex 2 Xcoordinate
    5711663.762008663,        !- Vertex 2 Ycoordinate
    0,                        !- Vertex 2 Zcoordinate
    705271.4008137591,        !- Vertex 3 Xcoordinate
    5711651.183228269,        !- Vertex 3 Ycoordinate
    0,                        !- Vertex 3 Zcoordinate
    705271.4008137591,        !- Vertex 4 Xcoordinate
    5711651.183228269,        !- Vertex 4 Ycoordinate
    6;                        !- Vertex 4 Zcoordinate

SHADING:SITE:DETAILED,
    shade_way/656952074_1,    !- Name
    ,                         !- Transmittance Schedule Name
    autocalculate,            !- Number of Vertices
    705273.0533670752,        !- Vertex 1 Xcoordinate
    5711663.399717645,        !- Vertex 1 Ycoordinate
    9,                        !- Vertex 1 Zcoordinate
    705273.0533670752,        !- Vertex 2 Xcoordinate
    5711663.399717645,        !- Vertex 2 Ycoordinate
    0,                        !- Vertex 2 Zcoordinate
    705295.9007141714,        !- Vertex 3 Xcoordinate
    5711667.57692691,         !- Vertex 3 Ycoordinate
    0,                        !- Vertex 3 Zcoordinate
    705295.9007141714,        !- Vertex 4 Xcoordinate
    5711667.57692691,         !- Vertex 4 Ycoordinate
    9;                        !- Vertex 4 Zcoordinate

SHADING:SITE:DETAILED,
    shade_way/656952074_2,    !- Name
    ,                         !- Transmittance Schedule Name
    autocalculate,            !- Number of Vertices
    705295.9007141714,        !- Vertex 1 Xcoordinate
    5711667.57692691,         !- Vertex 1 Ycoordinate
    9,                        !- Vertex 1 Zcoordinate
    705295.9007141714,        !- Vertex 2 Xcoordinate
    5711667.57692691,         !- Vertex 2 Ycoordinate
    0,                        !- Vertex 2 Zcoordinate
    705298.1866427469,        !- Vertex 3 Xcoordinate
    5711655.07339773,         !- Vertex 3 Ycoordinate
    0,                        !- Vertex 3 Zcoordinate
    705298.1866427469,        !- Vertex 4 Xcoordinate
    5711655.07339773,         !- Vertex 4 Ycoordinate
    9;                        !- Vertex 4 Zcoordinate

SHADING:SITE:DETAILED,
    shade_way/656952074_3,    !- Name
    ,                         !- Transmittance Schedule Name
    autocalculate,            !- Number of Vertices
    705298.1866427469,        !- Vertex 1 Xcoordinate
    5711655.07339773,         !- Vertex 1 Ycoordinate
    9,                        !- Vertex 1 Zcoordinate
    705298.1866427469,        !- Vertex 2 Xcoordinate
    5711655.07339773,         !- Vertex 2 Ycoordinate
    0,                        !- Vertex 2 Zcoordinate
    705275.3392748075,        !- Vertex 3 Xcoordinate
    5711650.896508428,        !- Vertex 3 Ycoordinate
    0,                        !- Vertex 3 Zcoordinate
    705275.3392748075,        !- Vertex 4 Xcoordinate
    5711650.896508428,        !- Vertex 4 Ycoordinate
    9;                        !- Vertex 4 Zcoordinate

SHADING:SITE:DETAILED,
    shade_way/656952074_4,    !- Name
    ,                         !- Transmittance Schedule Name
    autocalculate,            !- Number of Vertices
    705275.3392748075,        !- Vertex 1 Xcoordinate
    5711650.896508428,        !- Vertex 1 Ycoordinate
    9,                        !- Vertex 1 Zcoordinate
    705275.3392748075,        !- Vertex 2 Xcoordinate
    5711650.896508428,        !- Vertex 2 Ycoordinate
    0,                        !- Vertex 2 Zcoordinate
    705273.0533670752,        !- Vertex 3 Xcoordinate
    5711663.399717645,        !- Vertex 3 Ycoordinate
    0,                        !- Vertex 3 Zcoordinate
    705273.0533670752,        !- Vertex 4 Xcoordinate
    5711663.399717645,        !- Vertex 4 Ycoordinate
    9;                        !- Vertex 4 Zcoordinate

SHADING:SITE:DETAILED,
    shade_way/398158969_1,    !- Name
    ,                         !- Transmittance Schedule Name
    autocalculate,            !- Number of Vertices
    705286.2187820538,        !- Vertex 1 Xcoordinate
    5711708.224211482,        !- Vertex 1 Ycoordinate
    9,                        !- Vertex 1 Zcoordinate
    705286.2187820538,        !- Vertex 2 Xcoordinate
    5711708.224211482,        !- Vertex 2 Ycoordinate
    0,                        !- Vertex 2 Zcoordinate
    705290.1914642008,        !- Vertex 3 Xcoordinate
    5711687.312214653,        !- Vertex 3 Ycoordinate
    0,                        !- Vertex 3 Zcoordinate
    705290.1914642008,        !- Vertex 4 Xcoordinate
    5711687.312214653,        !- Vertex 4 Ycoordinate
    9;                        !- Vertex 4 Zcoordinate

SHADING:SITE:DETAILED,
    shade_way/398158969_2,    !- Name
    ,                         !- Transmittance Schedule Name
    autocalculate,            !- Number of Vertices
    705290.1914642008,        !- Vertex 1 Xcoordinate
    5711687.312214653,        !- Vertex 1 Ycoordinate
    9,                        !- Vertex 1 Zcoordinate
    705290.1914642008,        !- Vertex 2 Xcoordinate
    5711687.312214653,        !- Vertex 2 Ycoordinate
    0,                        !- Vertex 2 Zcoordinate
    705279.9676074001,        !- Vertex 3 Xcoordinate
    5711685.369563933,        !- Vertex 3 Ycoordinate
    0,                        !- Vertex 3 Zcoordinate
    705279.9676074001,        !- Vertex 4 Xcoordinate
    5711685.369563933,        !- Vertex 4 Ycoordinate
    9;                        !- Vertex 4 Zcoordinate

SHADING:SITE:DETAILED,
    shade_way/398158969_3,    !- Name
    ,                         !- Transmittance Schedule Name
    autocalculate,            !- Number of Vertices
    705279.9676074001,        !- Vertex 1 Xcoordinate
    5711685.369563933,        !- Vertex 1 Ycoordinate
    9,                        !- Vertex 1 Zcoordinate
    705279.9676074001,        !- Vertex 2 Xcoordinate
    5711685.369563933,        !- Vertex 2 Ycoordinate
    0,                        !- Vertex 2 Zcoordinate
    705275.9940723357,        !- Vertex 3 Xcoordinate
    5711706.28182623,         !- Vertex 3 Ycoordinate
    0,                        !- Vertex 3 Zcoordinate
    705275.9940723357,        !- Vertex 4 Xcoordinate
    5711706.28182623,         !- Vertex 4 Ycoordinate
    9;                        !- Vertex 4 Zcoordinate

SHADING:SITE:DETAILED,
    shade_way/398158969_4,    !- Name
    ,                         !- Transmittance Schedule Name
    autocalculate,            !- Number of Vertices
    705275.9940723357,        !- Vertex 1 Xcoordinate
    5711706.28182623,         !- Vertex 1 Ycoordinate
    9,                        !- Vertex 1 Zcoordinate
    705275.9940723357,        !- Vertex 2 Xcoordinate
    5711706.28182623,         !- Vertex 2 Ycoordinate
    0,                        !- Vertex 2 Zcoordinate
    705286.2187820538,        !- Vertex 3 Xcoordinate
    5711708.224211482,        !- Vertex 3 Ycoordinate
    0,                        !- Vertex 3 Zcoordinate
    705286.2187820538,        !- Vertex 4 Xcoordinate
    5711708.224211482,        !- Vertex 4 Ycoordinate
    9;                        !- Vertex 4 Zcoordinate

OTHEREQUIPMENT,
    EU_Step8_InternalGain_df70a629c7914610_F0_whole_f000,    !- Name
    Electricity,              !- Fuel Type
    df70a629c7914610_F0_whole,    !- Zone or ZoneList or Space or SpaceList Name
    EU_Step8_GainSchedule_df70a629c7914610_F0_whole_f000,    !- Schedule Name
    Watts/Area,               !- Design Level Calculation Method
    ,                         !- Design Level
    1,                        !- Power per Zone Floor Area
    ,                         !- Power per Person
    0,                        !- Fraction Latent
    0,                        !- Fraction Radiant
    0,                        !- Fraction Lost
    0,                        !- Carbon Dioxide Generation Rate
    EU_Step8_InternalGains;    !- EndUse Subcategory

OTHEREQUIPMENT,
    EU_Step8_InternalGain_df70a629c7914610_F1_whole_f000,    !- Name
    Electricity,              !- Fuel Type
    df70a629c7914610_F1_whole,    !- Zone or ZoneList or Space or SpaceList Name
    EU_Step8_GainSchedule_df70a629c7914610_F1_whole_f000,    !- Schedule Name
    Watts/Area,               !- Design Level Calculation Method
    ,                         !- Design Level
    1,                        !- Power per Zone Floor Area
    ,                         !- Power per Person
    0,                        !- Fraction Latent
    0,                        !- Fraction Radiant
    0,                        !- Fraction Lost
    0,                        !- Carbon Dioxide Generation Rate
    EU_Step8_InternalGains;    !- EndUse Subcategory

OTHEREQUIPMENT,
    EU_Step8_InternalGain_df70a629c7914610_F2_whole_f000,    !- Name
    Electricity,              !- Fuel Type
    df70a629c7914610_F2_whole,    !- Zone or ZoneList or Space or SpaceList Name
    EU_Step8_GainSchedule_df70a629c7914610_F2_whole_f000,    !- Schedule Name
    Watts/Area,               !- Design Level Calculation Method
    ,                         !- Design Level
    1,                        !- Power per Zone Floor Area
    ,                         !- Power per Person
    0,                        !- Fraction Latent
    0,                        !- Fraction Radiant
    0,                        !- Fraction Lost
    0,                        !- Carbon Dioxide Generation Rate
    EU_Step8_InternalGains;    !- EndUse Subcategory

ZONEVENTILATION:DESIGNFLOWRATE,
    EU_ConstantAir_df70a629c7914610_F0_whole,    !- Name
    df70a629c7914610_F0_whole,    !- Zone or ZoneList or Space or SpaceList Name
    EU_AlwaysOn,              !- Schedule Name
    AirChanges/Hour,          !- Design Flow Rate Calculation Method
    ,                         !- Design Flow Rate
    ,                         !- Flow Rate per Floor Area
    ,                         !- Flow Rate per Person
    4.887194e-01,             !- Air Changes per Hour
    Natural,                  !- Ventilation Type
    0,                        !- Fan Pressure Rise
    1,                        !- Fan Total Efficiency
    1,                        !- Constant Term Coefficient
    0,                        !- Temperature Term Coefficient
    0,                        !- Velocity Term Coefficient
    0,                        !- Velocity Squared Term Coefficient
    -100,                     !- Minimum Indoor Temperature
    ,                         !- Minimum Indoor Temperature Schedule Name
    100,                      !- Maximum Indoor Temperature
    ,                         !- Maximum Indoor Temperature Schedule Name
    -100,                     !- Delta Temperature
    ,                         !- Delta Temperature Schedule Name
    -100,                     !- Minimum Outdoor Temperature
    ,                         !- Minimum Outdoor Temperature Schedule Name
    100,                      !- Maximum Outdoor Temperature
    ,                         !- Maximum Outdoor Temperature Schedule Name
    40;                       !- Maximum Wind Speed

ZONEVENTILATION:DESIGNFLOWRATE,
    EU_ConstantAir_df70a629c7914610_F1_whole,    !- Name
    df70a629c7914610_F1_whole,    !- Zone or ZoneList or Space or SpaceList Name
    EU_AlwaysOn,              !- Schedule Name
    AirChanges/Hour,          !- Design Flow Rate Calculation Method
    ,                         !- Design Flow Rate
    ,                         !- Flow Rate per Floor Area
    ,                         !- Flow Rate per Person
    4.887194e-01,             !- Air Changes per Hour
    Natural,                  !- Ventilation Type
    0,                        !- Fan Pressure Rise
    1,                        !- Fan Total Efficiency
    1,                        !- Constant Term Coefficient
    0,                        !- Temperature Term Coefficient
    0,                        !- Velocity Term Coefficient
    0,                        !- Velocity Squared Term Coefficient
    -100,                     !- Minimum Indoor Temperature
    ,                         !- Minimum Indoor Temperature Schedule Name
    100,                      !- Maximum Indoor Temperature
    ,                         !- Maximum Indoor Temperature Schedule Name
    -100,                     !- Delta Temperature
    ,                         !- Delta Temperature Schedule Name
    -100,                     !- Minimum Outdoor Temperature
    ,                         !- Minimum Outdoor Temperature Schedule Name
    100,                      !- Maximum Outdoor Temperature
    ,                         !- Maximum Outdoor Temperature Schedule Name
    40;                       !- Maximum Wind Speed

ZONEVENTILATION:DESIGNFLOWRATE,
    EU_ConstantAir_df70a629c7914610_F2_whole,    !- Name
    df70a629c7914610_F2_whole,    !- Zone or ZoneList or Space or SpaceList Name
    EU_AlwaysOn,              !- Schedule Name
    AirChanges/Hour,          !- Design Flow Rate Calculation Method
    ,                         !- Design Flow Rate
    ,                         !- Flow Rate per Floor Area
    ,                         !- Flow Rate per Person
    4.887194e-01,             !- Air Changes per Hour
    Natural,                  !- Ventilation Type
    0,                        !- Fan Pressure Rise
    1,                        !- Fan Total Efficiency
    1,                        !- Constant Term Coefficient
    0,                        !- Temperature Term Coefficient
    0,                        !- Velocity Term Coefficient
    0,                        !- Velocity Squared Term Coefficient
    -100,                     !- Minimum Indoor Temperature
    ,                         !- Minimum Indoor Temperature Schedule Name
    100,                      !- Maximum Indoor Temperature
    ,                         !- Maximum Indoor Temperature Schedule Name
    -100,                     !- Delta Temperature
    ,                         !- Delta Temperature Schedule Name
    -100,                     !- Minimum Outdoor Temperature
    ,                         !- Minimum Outdoor Temperature Schedule Name
    100,                      !- Maximum Outdoor Temperature
    ,                         !- Maximum Outdoor Temperature Schedule Name
    40;                       !- Maximum Wind Speed

HVACTEMPLATE:THERMOSTAT,
    EU_HeatOnly_df70a629c7914610_F0_whole,    !- Name
    ,                         !- Heating Setpoint Schedule Name
    20,                       !- Constant Heating Setpoint
    ,                         !- Cooling Setpoint Schedule Name
    50;                       !- Constant Cooling Setpoint

HVACTEMPLATE:THERMOSTAT,
    EU_HeatOnly_df70a629c7914610_F1_whole,    !- Name
    ,                         !- Heating Setpoint Schedule Name
    20,                       !- Constant Heating Setpoint
    ,                         !- Cooling Setpoint Schedule Name
    50;                       !- Constant Cooling Setpoint

HVACTEMPLATE:THERMOSTAT,
    EU_HeatOnly_df70a629c7914610_F2_whole,    !- Name
    ,                         !- Heating Setpoint Schedule Name
    20,                       !- Constant Heating Setpoint
    ,                         !- Cooling Setpoint Schedule Name
    50;                       !- Constant Cooling Setpoint

HVACTEMPLATE:ZONE:IDEALLOADSAIRSYSTEM,
    df70a629c7914610_F0_whole,    !- Zone Name
    EU_HeatOnly_df70a629c7914610_F0_whole,    !- Template Thermostat Name
    EU_AlwaysOn,              !- System Availability Schedule Name
    50,                       !- Maximum Heating Supply Air Temperature
    13,                       !- Minimum Cooling Supply Air Temperature
    0.0156,                   !- Maximum Heating Supply Air Humidity Ratio
    0.0077,                   !- Minimum Cooling Supply Air Humidity Ratio
    NoLimit,                  !- Heating Limit
    ,                         !- Maximum Heating Air Flow Rate
    ,                         !- Maximum Sensible Heating Capacity
    NoLimit,                  !- Cooling Limit
    ,                         !- Maximum Cooling Air Flow Rate
    ,                         !- Maximum Total Cooling Capacity
    EU_AlwaysOn,              !- Heating Availability Schedule Name
    EU_CoolingOff,            !- Cooling Availability Schedule Name
    ConstantSensibleHeatRatio,    !- Dehumidification Control Type
    0.7,                      !- Cooling Sensible Heat Ratio
    60,                       !- Dehumidification Setpoint
    None,                     !- Humidification Control Type
    30,                       !- Humidification Setpoint
    None,                     !- Outdoor Air Method
    0.00944,                  !- Outdoor Air Flow Rate per Person
    0.0,                      !- Outdoor Air Flow Rate per Zone Floor Area
    0,                        !- Outdoor Air Flow Rate per Zone
    ,                         !- Design Specification Outdoor Air Object Name
    None,                     !- Demand Controlled Ventilation Type
    NoEconomizer,             !- Outdoor Air Economizer Type
    None,                     !- Heat Recovery Type
    0.70,                     !- Sensible Heat Recovery Effectiveness
    0.65;                     !- Latent Heat Recovery Effectiveness

HVACTEMPLATE:ZONE:IDEALLOADSAIRSYSTEM,
    df70a629c7914610_F1_whole,    !- Zone Name
    EU_HeatOnly_df70a629c7914610_F1_whole,    !- Template Thermostat Name
    EU_AlwaysOn,              !- System Availability Schedule Name
    50,                       !- Maximum Heating Supply Air Temperature
    13,                       !- Minimum Cooling Supply Air Temperature
    0.0156,                   !- Maximum Heating Supply Air Humidity Ratio
    0.0077,                   !- Minimum Cooling Supply Air Humidity Ratio
    NoLimit,                  !- Heating Limit
    ,                         !- Maximum Heating Air Flow Rate
    ,                         !- Maximum Sensible Heating Capacity
    NoLimit,                  !- Cooling Limit
    ,                         !- Maximum Cooling Air Flow Rate
    ,                         !- Maximum Total Cooling Capacity
    EU_AlwaysOn,              !- Heating Availability Schedule Name
    EU_CoolingOff,            !- Cooling Availability Schedule Name
    ConstantSensibleHeatRatio,    !- Dehumidification Control Type
    0.7,                      !- Cooling Sensible Heat Ratio
    60,                       !- Dehumidification Setpoint
    None,                     !- Humidification Control Type
    30,                       !- Humidification Setpoint
    None,                     !- Outdoor Air Method
    0.00944,                  !- Outdoor Air Flow Rate per Person
    0.0,                      !- Outdoor Air Flow Rate per Zone Floor Area
    0,                        !- Outdoor Air Flow Rate per Zone
    ,                         !- Design Specification Outdoor Air Object Name
    None,                     !- Demand Controlled Ventilation Type
    NoEconomizer,             !- Outdoor Air Economizer Type
    None,                     !- Heat Recovery Type
    0.70,                     !- Sensible Heat Recovery Effectiveness
    0.65;                     !- Latent Heat Recovery Effectiveness

HVACTEMPLATE:ZONE:IDEALLOADSAIRSYSTEM,
    df70a629c7914610_F2_whole,    !- Zone Name
    EU_HeatOnly_df70a629c7914610_F2_whole,    !- Template Thermostat Name
    EU_AlwaysOn,              !- System Availability Schedule Name
    50,                       !- Maximum Heating Supply Air Temperature
    13,                       !- Minimum Cooling Supply Air Temperature
    0.0156,                   !- Maximum Heating Supply Air Humidity Ratio
    0.0077,                   !- Minimum Cooling Supply Air Humidity Ratio
    NoLimit,                  !- Heating Limit
    ,                         !- Maximum Heating Air Flow Rate
    ,                         !- Maximum Sensible Heating Capacity
    NoLimit,                  !- Cooling Limit
    ,                         !- Maximum Cooling Air Flow Rate
    ,                         !- Maximum Total Cooling Capacity
    EU_AlwaysOn,              !- Heating Availability Schedule Name
    EU_CoolingOff,            !- Cooling Availability Schedule Name
    ConstantSensibleHeatRatio,    !- Dehumidification Control Type
    0.7,                      !- Cooling Sensible Heat Ratio
    60,                       !- Dehumidification Setpoint
    None,                     !- Humidification Control Type
    30,                       !- Humidification Setpoint
    None,                     !- Outdoor Air Method
    0.00944,                  !- Outdoor Air Flow Rate per Person
    0.0,                      !- Outdoor Air Flow Rate per Zone Floor Area
    0,                        !- Outdoor Air Flow Rate per Zone
    ,                         !- Design Specification Outdoor Air Object Name
    None,                     !- Demand Controlled Ventilation Type
    NoEconomizer,             !- Outdoor Air Economizer Type
    None,                     !- Heat Recovery Type
    0.70,                     !- Sensible Heat Recovery Effectiveness
    0.65;                     !- Latent Heat Recovery Effectiveness

SIZING:ZONE,
    df70a629c7914610_F0_whole,    !- Zone or ZoneList Name
    SupplyAirTemperature,     !- Zone Cooling Design Supply Air Temperature Input Method
    13,                       !- Zone Cooling Design Supply Air Temperature
    ,                         !- Zone Cooling Design Supply Air Temperature Difference
    SupplyAirTemperature,     !- Zone Heating Design Supply Air Temperature Input Method
    50,                       !- Zone Heating Design Supply Air Temperature
    ,                         !- Zone Heating Design Supply Air Temperature Difference
    0.008,                    !- Zone Cooling Design Supply Air Humidity Ratio
    0.008,                    !- Zone Heating Design Supply Air Humidity Ratio
    ,                         !- Design Specification Outdoor Air Object Name
    ,                         !- Zone Heating Sizing Factor
    ,                         !- Zone Cooling Sizing Factor
    DesignDay,                !- Cooling Design Air Flow Method
    0,                        !- Cooling Design Air Flow Rate
    0.000762,                 !- Cooling Minimum Air Flow per Zone Floor Area
    0,                        !- Cooling Minimum Air Flow
    0.2,                      !- Cooling Minimum Air Flow Fraction
    DesignDay,                !- Heating Design Air Flow Method
    0,                        !- Heating Design Air Flow Rate
    0.002032,                 !- Heating Maximum Air Flow per Zone Floor Area
    0.1415762,                !- Heating Maximum Air Flow
    0.3,                      !- Heating Maximum Air Flow Fraction
    ,                         !- Design Specification Zone Air Distribution Object Name
    No,                       !- Account for Dedicated Outdoor Air System
    NeutralSupplyAir,         !- Dedicated Outdoor Air System Control Strategy
    autosize,                 !- Dedicated Outdoor Air Low Setpoint Temperature for Design
    autosize,                 !- Dedicated Outdoor Air High Setpoint Temperature for Design
    Sensible Load Only No Latent Load,    !- Zone Load Sizing Method
    HumidityRatioDifference,    !- Zone Latent Cooling Design Supply Air Humidity Ratio Input Method
    ,                         !- Zone Dehumidification Design Supply Air Humidity Ratio
    0.005,                    !- Zone Cooling Design Supply Air Humidity Ratio Difference
    HumidityRatioDifference,    !- Zone Latent Heating Design Supply Air Humidity Ratio Input Method
    ,                         !- Zone Humidification Design Supply Air Humidity Ratio
    0.005;                    !- Zone Humidification Design Supply Air Humidity Ratio Difference

SIZING:ZONE,
    df70a629c7914610_F1_whole,    !- Zone or ZoneList Name
    SupplyAirTemperature,     !- Zone Cooling Design Supply Air Temperature Input Method
    13,                       !- Zone Cooling Design Supply Air Temperature
    ,                         !- Zone Cooling Design Supply Air Temperature Difference
    SupplyAirTemperature,     !- Zone Heating Design Supply Air Temperature Input Method
    50,                       !- Zone Heating Design Supply Air Temperature
    ,                         !- Zone Heating Design Supply Air Temperature Difference
    0.008,                    !- Zone Cooling Design Supply Air Humidity Ratio
    0.008,                    !- Zone Heating Design Supply Air Humidity Ratio
    ,                         !- Design Specification Outdoor Air Object Name
    ,                         !- Zone Heating Sizing Factor
    ,                         !- Zone Cooling Sizing Factor
    DesignDay,                !- Cooling Design Air Flow Method
    0,                        !- Cooling Design Air Flow Rate
    0.000762,                 !- Cooling Minimum Air Flow per Zone Floor Area
    0,                        !- Cooling Minimum Air Flow
    0.2,                      !- Cooling Minimum Air Flow Fraction
    DesignDay,                !- Heating Design Air Flow Method
    0,                        !- Heating Design Air Flow Rate
    0.002032,                 !- Heating Maximum Air Flow per Zone Floor Area
    0.1415762,                !- Heating Maximum Air Flow
    0.3,                      !- Heating Maximum Air Flow Fraction
    ,                         !- Design Specification Zone Air Distribution Object Name
    No,                       !- Account for Dedicated Outdoor Air System
    NeutralSupplyAir,         !- Dedicated Outdoor Air System Control Strategy
    autosize,                 !- Dedicated Outdoor Air Low Setpoint Temperature for Design
    autosize,                 !- Dedicated Outdoor Air High Setpoint Temperature for Design
    Sensible Load Only No Latent Load,    !- Zone Load Sizing Method
    HumidityRatioDifference,    !- Zone Latent Cooling Design Supply Air Humidity Ratio Input Method
    ,                         !- Zone Dehumidification Design Supply Air Humidity Ratio
    0.005,                    !- Zone Cooling Design Supply Air Humidity Ratio Difference
    HumidityRatioDifference,    !- Zone Latent Heating Design Supply Air Humidity Ratio Input Method
    ,                         !- Zone Humidification Design Supply Air Humidity Ratio
    0.005;                    !- Zone Humidification Design Supply Air Humidity Ratio Difference

SIZING:ZONE,
    df70a629c7914610_F2_whole,    !- Zone or ZoneList Name
    SupplyAirTemperature,     !- Zone Cooling Design Supply Air Temperature Input Method
    13,                       !- Zone Cooling Design Supply Air Temperature
    ,                         !- Zone Cooling Design Supply Air Temperature Difference
    SupplyAirTemperature,     !- Zone Heating Design Supply Air Temperature Input Method
    50,                       !- Zone Heating Design Supply Air Temperature
    ,                         !- Zone Heating Design Supply Air Temperature Difference
    0.008,                    !- Zone Cooling Design Supply Air Humidity Ratio
    0.008,                    !- Zone Heating Design Supply Air Humidity Ratio
    ,                         !- Design Specification Outdoor Air Object Name
    ,                         !- Zone Heating Sizing Factor
    ,                         !- Zone Cooling Sizing Factor
    DesignDay,                !- Cooling Design Air Flow Method
    0,                        !- Cooling Design Air Flow Rate
    0.000762,                 !- Cooling Minimum Air Flow per Zone Floor Area
    0,                        !- Cooling Minimum Air Flow
    0.2,                      !- Cooling Minimum Air Flow Fraction
    DesignDay,                !- Heating Design Air Flow Method
    0,                        !- Heating Design Air Flow Rate
    0.002032,                 !- Heating Maximum Air Flow per Zone Floor Area
    0.1415762,                !- Heating Maximum Air Flow
    0.3,                      !- Heating Maximum Air Flow Fraction
    ,                         !- Design Specification Zone Air Distribution Object Name
    No,                       !- Account for Dedicated Outdoor Air System
    NeutralSupplyAir,         !- Dedicated Outdoor Air System Control Strategy
    autosize,                 !- Dedicated Outdoor Air Low Setpoint Temperature for Design
    autosize,                 !- Dedicated Outdoor Air High Setpoint Temperature for Design
    Sensible Load Only No Latent Load,    !- Zone Load Sizing Method
    HumidityRatioDifference,    !- Zone Latent Cooling Design Supply Air Humidity Ratio Input Method
    ,                         !- Zone Dehumidification Design Supply Air Humidity Ratio
    0.005,                    !- Zone Cooling Design Supply Air Humidity Ratio Difference
    HumidityRatioDifference,    !- Zone Latent Heating Design Supply Air Humidity Ratio Input Method
    ,                         !- Zone Humidification Design Supply Air Humidity Ratio
    0.005;                    !- Zone Humidification Design Supply Air Humidity Ratio Difference

OUTPUT:VARIABLE,
    *,                        !- Key Value
    Zone Ideal Loads Zone Total Heating Energy,    !- Variable Name
    Hourly;                   !- Reporting Frequency

OUTPUT:SQLITE,
    SimpleAndTabular,         !- Option Type
    UseOutputControlTableStyle;    !- Unit Conversion for Tabular Data