!- Windows Line endings 

Version,
    23.1;                     !- Version Identifier

SimulationControl,
    Yes,                      !- Do Zone Sizing Calculation
    Yes,                      !- Do System Sizing Calculation
    Yes,                      !- Do Plant Sizing Calculation
    No,                       !- Run Simulation for Sizing Periods
    Yes,                      !- Run Simulation for Weather File Run Periods
    No,                       !- Do HVAC Sizing Simulation for Sizing Periods
    1;                        !- Maximum Number of HVAC Sizing Simulation Passes

Building,
    EU S2 Campaign,           !- Name
    0,                        !- North Axis
    City,                     !- Terrain
    ,                         !- Loads Convergence Tolerance Value
    ,                         !- Temperature Convergence Tolerance Value
    FullExterior,             !- Solar Distribution
    ,                         !- Maximum Number of Warmup Days
    ;                         !- Minimum Number of Warmup Days

ShadowCalculation,
    PolygonClipping,          !- Shading Calculation Method
    Periodic,                 !- Shading Calculation Update Frequency Method
    1;                        !- Shading Calculation Update Frequency

HeatBalanceAlgorithm,
    ConductionTransferFunction,    !- Algorithm
    200,                      !- Surface Temperature Upper Limit
    0.1,                      !- Minimum Surface Convection Heat Transfer Coefficient Value
    10000000;                 !- Maximum Surface Convection Heat Transfer Coefficient Value

Timestep,
    12;                       !- Number of Timesteps per Hour

Site:Location,
    Madrid,                   !- Name
    40.5,                     !- Latitude
    -3.5,                     !- Longitude
    1,                        !- Time Zone
    609;                      !- Elevation

SizingPeriod:WeatherFileDays,
    AnnualSizingPeriod,       !- Name
    1,                        !- Begin Month
    1,                        !- Begin Day of Month
    12,                       !- End Month
    31,                       !- End Day of Month
    Monday,                   !- Day of Week for Start Day
    No,                       !- Use Weather File Daylight Saving Period
    No;                       !- Use Weather File Rain and Snow Indicators

RunPeriod,
    RunPeriod1,               !- Name
    1,                        !- Begin Month
    1,                        !- Begin Day of Month
    ,                         !- Begin Year
    12,                       !- End Month
    31,                       !- End Day of Month
    ,                         !- End Year
    Sunday,                   !- Day of Week for Start Day
    No,                       !- Use Weather File Holidays and Special Days
    No,                       !- Use Weather File Daylight Saving Period
    No,                       !- Apply Weekend Holiday Rule
    Yes,                      !- Use Weather File Rain Indicators
    Yes;                      !- Use Weather File Snow Indicators

ScheduleTypeLimits,
    Any Number;               !- Name

SCHEDULETYPELIMITS,
    EU_Step8_AnyNumber_Wm2,    !- Name
    ,                         !- Lower Limit Value
    ,                         !- Upper Limit Value
    Continuous,               !- Numeric Type
    Dimensionless;            !- Unit Type

SCHEDULE:CONSTANT,
    EU_AlwaysOn,              !- Name
    ,                         !- Schedule Type Limits Name
    1;                        !- Hourly Value

SCHEDULE:CONSTANT,
    EU_CoolingOff,            !- Name
    ,                         !- Schedule Type Limits Name
    0;                        !- Hourly Value

SCHEDULE:FILE,
    EU_Step8_GainSchedule_39c0751bdd33ba4f_F0_dwelling_0_f000,    !- Name
    EU_Step8_AnyNumber_Wm2,    !- Schedule Type Limits Name
    ../../schedules/39c0751bdd33ba4f/39c0751bdd33ba4f_F0_dwelling_0_f000_gain.csv,    !- File Name
    1,                        !- Column Number
    0,                        !- Rows to Skip at Top
    8760,                     !- Number of Hours of Data
    Comma,                    !- Column Separator
    No,                       !- Interpolate to Timestep
    60,                       !- Minutes per Item
    Yes;                      !- Adjust Schedule for Daylight Savings

SCHEDULE:FILE,
    EU_Step8_GainSchedule_39c0751bdd33ba4f_F1_dwelling_0_f000,    !- Name
    EU_Step8_AnyNumber_Wm2,    !- Schedule Type Limits Name
    ../../schedules/39c0751bdd33ba4f/39c0751bdd33ba4f_F1_dwelling_0_f000_gain.csv,    !- File Name
    1,                        !- Column Number
    0,                        !- Rows to Skip at Top
    8760,                     !- Number of Hours of Data
    Comma,                    !- Column Separator
    No,                       !- Interpolate to Timestep
    60,                       !- Minutes per Item
    Yes;                      !- Adjust Schedule for Daylight Savings

MATERIAL,
    EU_InternalMass_Material,    !- Name
    MediumRough,              !- Roughness
    0.1,                      !- Thickness
    1,                        !- Conductivity
    1800,                     !- Density
    900,                      !- Specific Heat
    0.9,                      !- Thermal Absorptance
    0.7,                      !- Solar Absorptance
    0.7;                      !- Visible Absorptance

MATERIAL:NOMASS,
    EU_wall_NoMass,           !- Name
    MediumRough,              !- Roughness
    1.6002158098852093,       !- Thermal Resistance
    0.9,                      !- Thermal Absorptance
    0.7,                      !- Solar Absorptance
    0.7;                      !- Visible Absorptance

MATERIAL:NOMASS,
    EU_roof_NoMass,           !- Name
    MediumRough,              !- Roughness
    1.5759701157960397,       !- Thermal Resistance
    0.9,                      !- Thermal Absorptance
    0.7,                      !- Solar Absorptance
    0.7;                      !- Visible Absorptance

MATERIAL:NOMASS,
    EU_floor_NoMass,          !- Name
    MediumRough,              !- Roughness
    0.4706517087897675,       !- Thermal Resistance
    0.9,                      !- Thermal Absorptance
    0.7,                      !- Solar Absorptance
    0.7;                      !- Visible Absorptance

CONSTRUCTION,
    EU_wall_Construction,     !- Name
    EU_wall_NoMass;           !- Outside Layer

CONSTRUCTION,
    EU_roof_Construction,     !- Name
    EU_roof_NoMass;           !- Outside Layer

CONSTRUCTION,
    EU_floor_Construction,    !- Name
    EU_floor_NoMass;          !- Outside Layer

CONSTRUCTION,
    EU_InternalMass_Construction,    !- Name
    EU_InternalMass_Material;    !- Outside Layer

GlobalGeometryRules,
    UpperLeftCorner,          !- Starting Vertex Position
    CounterClockWise,         !- Vertex Entry Direction
    World;                    !- Coordinate System

ZONE,
    39c0751bdd33ba4f_F0_dwelling_0,    !- Name
    0,                        !- Direction of Relative North
    0,                        !- X Origin
    0,                        !- Y Origin
    0,                        !- Z Origin
    1,                        !- Type
    1,                        !- Multiplier
    autocalculate,            !- Ceiling Height
    457.5252685546875,        !- Volume
    autocalculate,            !- Floor Area
    ,                         !- Zone Inside Convection Algorithm
    ,                         !- Zone Outside Convection Algorithm
    Yes;                      !- Part of Total Floor Area

ZONE,
    39c0751bdd33ba4f_F1_dwelling_0,    !- Name
    0,                        !- Direction of Relative North
    0,                        !- X Origin
    0,                        !- Y Origin
    0,                        !- Z Origin
    1,                        !- Type
    1,                        !- Multiplier
    autocalculate,            !- Ceiling Height
    1830.10107421875,         !- Volume
    autocalculate,            !- Floor Area
    ,                         !- Zone Inside Convection Algorithm
    ,                         !- Zone Outside Convection Algorithm
    Yes;                      !- Part of Total Floor Area

BUILDINGSURFACE:DETAILED,
    Block 39c0751bdd33ba4f_0 Storey 0 Wall 0001,    !- Name
    wall,                     !- Surface Type
    EU_wall_Construction,     !- Construction Name
    39c0751bdd33ba4f_F0_dwelling_0,    !- Zone Name
    ,                         !- Space Name
    outdoors,                 !- Outside Boundary Condition
    ,                         !- Outside Boundary Condition Object
    SunExposed,               !- Sun Exposure
    WindExposed,              !- Wind Exposure
    autocalculate,            !- View Factor to Ground
    autocalculate,            !- Number of Vertices
    440550.15,                !- Vertex 1 Xcoordinate
    4478955.809,              !- Vertex 1 Ycoordinate
    3,                        !- Vertex 1 Zcoordinate
    440550.15,                !- Vertex 2 Xcoordinate
    4478955.809,              !- Vertex 2 Ycoordinate
    0,                        !- Vertex 2 Zcoordinate
    440553.923,               !- Vertex 3 Xcoordinate
    4478962.15,               !- Vertex 3 Ycoordinate
    0,                        !- Vertex 3 Zcoordinate
    440553.923,               !- Vertex 4 Xcoordinate
    4478962.15,               !- Vertex 4 Ycoordinate
    3;                        !- Vertex 4 Zcoordinate

BUILDINGSURFACE:DETAILED,
    Block 39c0751bdd33ba4f_0 Storey 0 Wall 0002,    !- Name
    wall,                     !- Surface Type
    EU_wall_Construction,     !- Construction Name
    39c0751bdd33ba4f_F0_dwelling_0,    !- Zone Name
    ,                         !- Space Name
    Adiabatic,                !- Outside Boundary Condition
    ,                         !- Outside Boundary Condition Object
    NoSun,                    !- Sun Exposure
    NoWind,                   !- Wind Exposure
    autocalculate,            !- View Factor to Ground
    autocalculate,            !- Number of Vertices
    440553.923,               !- Vertex 1 Xcoordinate
    4478962.15,               !- Vertex 1 Ycoordinate
    3,                        !- Vertex 1 Zcoordinate
    440553.923,               !- Vertex 2 Xcoordinate
    4478962.15,               !- Vertex 2 Ycoordinate
    0,                        !- Vertex 2 Zcoordinate
    440559.345,               !- Vertex 3 Xcoordinate
    4478971.143,              !- Vertex 3 Ycoordinate
    0,                        !- Vertex 3 Zcoordinate
    440559.345,               !- Vertex 4 Xcoordinate
    4478971.143,              !- Vertex 4 Ycoordinate
    3;                        !- Vertex 4 Zcoordinate

BUILDINGSURFACE:DETAILED,
    Block 39c0751bdd33ba4f_0 Storey 0 Wall 0003,    !- Name
    wall,                     !- Surface Type
    EU_wall_Construction,     !- Construction Name
    39c0751bdd33ba4f_F0_dwelling_0,    !- Zone Name
    ,                         !- Space Name
    outdoors,                 !- Outside Boundary Condition
    ,                         !- Outside Boundary Condition Object
    SunExposed,               !- Sun Exposure
    WindExposed,              !- Wind Exposure
    autocalculate,            !- View Factor to Ground
    autocalculate,            !- Number of Vertices
    440559.345,               !- Vertex 1 Xcoordinate
    4478971.143,              !- Vertex 1 Ycoordinate
    3,                        !- Vertex 1 Zcoordinate
    440559.345,               !- Vertex 2 Xcoordinate
    4478971.143,              !- Vertex 2 Ycoordinate
    0,                        !- Vertex 2 Zcoordinate
    440564.021,               !- Vertex 3 Xcoordinate
    4478967.399,              !- Vertex 3 Ycoordinate
    0,                        !- Vertex 3 Zcoordinate
    440564.021,               !- Vertex 4 Xcoordinate
    4478967.399,              !- Vertex 4 Ycoordinate
    3;                        !- Vertex 4 Zcoordinate

BUILDINGSURFACE:DETAILED,
    Block 39c0751bdd33ba4f_0 Storey 0 Wall 0004,    !- Name
    wall,                     !- Surface Type
    EU_wall_Construction,     !- Construction Name
    39c0751bdd33ba4f_F0_dwelling_0,    !- Zone Name
    ,                         !- Space Name
    outdoors,                 !- Outside Boundary Condition
    ,                         !- Outside Boundary Condition Object
    SunExposed,               !- Sun Exposure
    WindExposed,              !- Wind Exposure
    autocalculate,            !- View Factor to Ground
    autocalculate,            !- Number of Vertices
    440564.021,               !- Vertex 1 Xcoordinate
    4478967.399,              !- Vertex 1 Ycoordinate
    3,                        !- Vertex 1 Zcoordinate
    440564.021,               !- Vertex 2 Xcoordinate
    4478967.399,              !- Vertex 2 Ycoordinate
    0,                        !- Vertex 2 Zcoordinate
    440567.442,               !- Vertex 3 Xcoordinate
    4478964.618,              !- Vertex 3 Ycoordinate
    0,                        !- Vertex 3 Zcoordinate
    440567.442,               !- Vertex 4 Xcoordinate
    4478964.618,              !- Vertex 4 Ycoordinate
    3;                        !- Vertex 4 Zcoordinate

BUILDINGSURFACE:DETAILED,
    Block 39c0751bdd33ba4f_0 Storey 0 Wall 0005,    !- Name
    wall,                     !- Surface Type
    EU_wall_Construction,     !- Construction Name
    39c0751bdd33ba4f_F0_dwelling_0,    !- Zone Name
    ,                         !- Space Name
    Adiabatic,                !- Outside Boundary Condition
    ,                         !- Outside Boundary Condition Object
    NoSun,                    !- Sun Exposure
    NoWind,                   !- Wind Exposure
    autocalculate,            !- View Factor to Ground
    autocalculate,            !- Number of Vertices
    440567.442,               !- Vertex 1 Xcoordinate
    4478964.618,              !- Vertex 1 Ycoordinate
    3,                        !- Vertex 1 Zcoordinate
    440567.442,               !- Vertex 2 Xcoordinate
    4478964.618,              !- Vertex 2 Ycoordinate
    0,                        !- Vertex 2 Zcoordinate
    440555.348,               !- Vertex 3 Xcoordinate
    4478951.505,              !- Vertex 3 Ycoordinate
    0,                        !- Vertex 3 Zcoordinate
    440555.348,               !- Vertex 4 Xcoordinate
    4478951.505,              !- Vertex 4 Ycoordinate
    3;                        !- Vertex 4 Zcoordinate

BUILDINGSURFACE:DETAILED,
    Block 39c0751bdd33ba4f_0 Storey 0 Wall 0006,    !- Name
    wall,                     !- Surface Type
    EU_wall_Construction,     !- Construction Name
    39c0751bdd33ba4f_F0_dwelling_0,    !- Zone Name
    ,                         !- Space Name
    outdoors,                 !- Outside Boundary Condition
    ,                         !- Outside Boundary Condition Object
    SunExposed,               !- Sun Exposure
    WindExposed,              !- Wind Exposure
    autocalculate,            !- View Factor to Ground
    autocalculate,            !- Number of Vertices
    440555.348,               !- Vertex 1 Xcoordinate
    4478951.505,              !- Vertex 1 Ycoordinate
    3,                        !- Vertex 1 Zcoordinate
    440555.348,               !- Vertex 2 Xcoordinate
    4478951.505,              !- Vertex 2 Ycoordinate
    0,                        !- Vertex 2 Zcoordinate
    440550.15,                !- Vertex 3 Xcoordinate
    4478955.809,              !- Vertex 3 Ycoordinate
    0,                        !- Vertex 3 Zcoordinate
    440550.15,                !- Vertex 4 Xcoordinate
    4478955.809,              !- Vertex 4 Ycoordinate
    3;                        !- Vertex 4 Zcoordinate

BUILDINGSURFACE:DETAILED,
    Block 39c0751bdd33ba4f_0 Storey 0 Floor 0001,    !- Name
    floor,                    !- Surface Type
    EU_floor_Construction,    !- Construction Name
    39c0751bdd33ba4f_F0_dwelling_0,    !- Zone Name
    ,                         !- Space Name
    ground,                   !- Outside Boundary Condition
    ,                         !- Outside Boundary Condition Object
    NoSun,                    !- Sun Exposure
    NoWind,                   !- Wind Exposure
    autocalculate,            !- View Factor to Ground
    autocalculate,            !- Number of Vertices
    440555.348,               !- Vertex 1 Xcoordinate
    4478951.505,              !- Vertex 1 Ycoordinate
    0,                        !- Vertex 1 Zcoordinate
    440567.442,               !- Vertex 2 Xcoordinate
    4478964.618,              !- Vertex 2 Ycoordinate
    0,                        !- Vertex 2 Zcoordinate
    440564.021,               !- Vertex 3 Xcoordinate
    4478967.399,              !- Vertex 3 Ycoordinate
    0,                        !- Vertex 3 Zcoordinate
    440559.345,               !- Vertex 4 Xcoordinate
    4478971.143,              !- Vertex 4 Ycoordinate
    0,                        !- Vertex 4 Zcoordinate
    440553.923,               !- Vertex 5 Xcoordinate
    4478962.15,               !- Vertex 5 Ycoordinate
    0,                        !- Vertex 5 Zcoordinate
    440550.15,                !- Vertex 6 Xcoordinate
    4478955.809,              !- Vertex 6 Ycoordinate
    0;                        !- Vertex 6 Zcoordinate

BUILDINGSURFACE:DETAILED,
    Block 39c0751bdd33ba4f_0 Storey 1 Wall 0001,    !- Name
    wall,                     !- Surface Type
    EU_wall_Construction,     !- Construction Name
    39c0751bdd33ba4f_F1_dwelling_0,    !- Zone Name
    ,                         !- Space Name
    outdoors,                 !- Outside Boundary Condition
    ,                         !- Outside Boundary Condition Object
    SunExposed,               !- Sun Exposure
    WindExposed,              !- Wind Exposure
    autocalculate,            !- View Factor to Ground
    autocalculate,            !- Number of Vertices
    440550.15,                !- Vertex 1 Xcoordinate
    4478955.809,              !- Vertex 1 Ycoordinate
    6,                        !- Vertex 1 Zcoordinate
    440550.15,                !- Vertex 2 Xcoordinate
    4478955.809,              !- Vertex 2 Ycoordinate
    3,                        !- Vertex 2 Zcoordinate
    440553.923,               !- Vertex 3 Xcoordinate
    4478962.15,               !- Vertex 3 Ycoordinate
    3,                        !- Vertex 3 Zcoordinate
    440553.923,               !- Vertex 4 Xcoordinate
    4478962.15,               !- Vertex 4 Ycoordinate
    6;                        !- Vertex 4 Zcoordinate

BUILDINGSURFACE:DETAILED,
    Block 39c0751bdd33ba4f_0 Storey 1 Wall 0002,    !- Name
    wall,                     !- Surface Type
    EU_wall_Construction,     !- Construction Name
    39c0751bdd33ba4f_F1_dwelling_0,    !- Zone Name
    ,                         !- Space Name
    Adiabatic,                !- Outside Boundary Condition
    ,                         !- Outside Boundary Condition Object
    NoSun,                    !- Sun Exposure
    NoWind,                   !- Wind Exposure
    autocalculate,            !- View Factor to Ground
    autocalculate,            !- Number of Vertices
    440553.923,               !- Vertex 1 Xcoordinate
    4478962.15,               !- Vertex 1 Ycoordinate
    6,                        !- Vertex 1 Zcoordinate
    440553.923,               !- Vertex 2 Xcoordinate
    4478962.15,               !- Vertex 2 Ycoordinate
    3,                        !- Vertex 2 Zcoordinate
    440559.345,               !- Vertex 3 Xcoordinate
    4478971.143,              !- Vertex 3 Ycoordinate
    3,                        !- Vertex 3 Zcoordinate
    440559.345,               !- Vertex 4 Xcoordinate
    4478971.143,              !- Vertex 4 Ycoordinate
    6;                        !- Vertex 4 Zcoordinate

BUILDINGSURFACE:DETAILED,
    Block 39c0751bdd33ba4f_0 Storey 1 Wall 0003,    !- Name
    wall,                     !- Surface Type
    EU_wall_Construction,     !- Construction Name
    39c0751bdd33ba4f_F1_dwelling_0,    !- Zone Name
    ,                         !- Space Name
    outdoors,                 !- Outside Boundary Condition
    ,                         !- Outside Boundary Condition Object
    SunExposed,               !- Sun Exposure
    WindExposed,              !- Wind Exposure
    autocalculate,            !- View Factor to Ground
    autocalculate,            !- Number of Vertices
    440559.345,               !- Vertex 1 Xcoordinate
    4478971.143,              !- Vertex 1 Ycoordinate
    6,                        !- Vertex 1 Zcoordinate
    440559.345,               !- Vertex 2 Xcoordinate
    4478971.143,              !- Vertex 2 Ycoordinate
    3,                        !- Vertex 2 Zcoordinate
    440564.021,               !- Vertex 3 Xcoordinate
    4478967.399,              !- Vertex 3 Ycoordinate
    3,                        !- Vertex 3 Zcoordinate
    440564.021,               !- Vertex 4 Xcoordinate
    4478967.399,              !- Vertex 4 Ycoordinate
    6;                        !- Vertex 4 Zcoordinate

BUILDINGSURFACE:DETAILED,
    Block 39c0751bdd33ba4f_0 Storey 1 Wall 0004,    !- Name
    wall,                     !- Surface Type
    EU_wall_Construction,     !- Construction Name
    39c0751bdd33ba4f_F1_dwelling_0,    !- Zone Name
    ,                         !- Space Name
    outdoors,                 !- Outside Boundary Condition
    ,                         !- Outside Boundary Condition Object
    SunExposed,               !- Sun Exposure
    WindExposed,              !- Wind Exposure
    autocalculate,            !- View Factor to Ground
    autocalculate,            !- Number of Vertices
    440564.021,               !- Vertex 1 Xcoordinate
    4478967.399,              !- Vertex 1 Ycoordinate
    6,                        !- Vertex 1 Zcoordinate
    440564.021,               !- Vertex 2 Xcoordinate
    4478967.399,              !- Vertex 2 Ycoordinate
    3,                        !- Vertex 2 Zcoordinate
    440567.442,               !- Vertex 3 Xcoordinate
    4478964.618,              !- Vertex 3 Ycoordinate
    3,                        !- Vertex 3 Zcoordinate
    440567.442,               !- Vertex 4 Xcoordinate
    4478964.618,              !- Vertex 4 Ycoordinate
    6;                        !- Vertex 4 Zcoordinate

BUILDINGSURFACE:DETAILED,
    Block 39c0751bdd33ba4f_0 Storey 1 Wall 0005,    !- Name
    wall,                     !- Surface Type
    EU_wall_Construction,     !- Construction Name
    39c0751bdd33ba4f_F1_dwelling_0,    !- Zone Name
    ,                         !- Space Name
    Adiabatic,                !- Outside Boundary Condition
    ,                         !- Outside Boundary Condition Object
    NoSun,                    !- Sun Exposure
    NoWind,                   !- Wind Exposure
    autocalculate,            !- View Factor to Ground
    autocalculate,            !- Number of Vertices
    440567.442,               !- Vertex 1 Xcoordinate
    4478964.618,              !- Vertex 1 Ycoordinate
    6,                        !- Vertex 1 Zcoordinate
    440567.442,               !- Vertex 2 Xcoordinate
    4478964.618,              !- Vertex 2 Ycoordinate
    3,                        !- Vertex 2 Zcoordinate
    440555.348,               !- Vertex 3 Xcoordinate
    4478951.505,              !- Vertex 3 Ycoordinate
    3,                        !- Vertex 3 Zcoordinate
    440555.348,               !- Vertex 4 Xcoordinate
    4478951.505,              !- Vertex 4 Ycoordinate
    6;                        !- Vertex 4 Zcoordinate

BUILDINGSURFACE:DETAILED,
    Block 39c0751bdd33ba4f_0 Storey 1 Wall 0006,    !- Name
    wall,                     !- Surface Type
    EU_wall_Construction,     !- Construction Name
    39c0751bdd33ba4f_F1_dwelling_0,    !- Zone Name
    ,                         !- Space Name
    outdoors,                 !- Outside Boundary Condition
    ,                         !- Outside Boundary Condition Object
    SunExposed,               !- Sun Exposure
    WindExposed,              !- Wind Exposure
    autocalculate,            !- View Factor to Ground
    autocalculate,            !- Number of Vertices
    440555.348,               !- Vertex 1 Xcoordinate
    4478951.505,              !- Vertex 1 Ycoordinate
    6,                        !- Vertex 1 Zcoordinate
    440555.348,               !- Vertex 2 Xcoordinate
    4478951.505,              !- Vertex 2 Ycoordinate
    3,                        !- Vertex 2 Zcoordinate
    440550.15,                !- Vertex 3 Xcoordinate
    4478955.809,              !- Vertex 3 Ycoordinate
    3,                        !- Vertex 3 Zcoordinate
    440550.15,                !- Vertex 4 Xcoordinate
    4478955.809,              !- Vertex 4 Ycoordinate
    6;                        !- Vertex 4 Zcoordinate

BUILDINGSURFACE:DETAILED,
    Block 39c0751bdd33ba4f_0 Storey 1 Roof 0001,    !- Name
    roof,                     !- Surface Type
    EU_roof_Construction,     !- Construction Name
    39c0751bdd33ba4f_F1_dwelling_0,    !- Zone Name
    ,                         !- Space Name
    outdoors,                 !- Outside Boundary Condition
    ,                         !- Outside Boundary Condition Object
    NoSun,                    !- Sun Exposure
    WindExposed,              !- Wind Exposure
    autocalculate,            !- View Factor to Ground
    autocalculate,            !- Number of Vertices
    440564.021,               !- Vertex 1 Xcoordinate
    4478967.399,              !- Vertex 1 Ycoordinate
    6,                        !- Vertex 1 Zcoordinate
    440567.442,               !- Vertex 2 Xcoordinate
    4478964.618,              !- Vertex 2 Ycoordinate
    6,                        !- Vertex 2 Zcoordinate
    440555.348,               !- Vertex 3 Xcoordinate
    4478951.505,              !- Vertex 3 Ycoordinate
    6,                        !- Vertex 3 Zcoordinate
    440550.15,                !- Vertex 4 Xcoordinate
    4478955.809,              !- Vertex 4 Ycoordinate
    6,                        !- Vertex 4 Zcoordinate
    440553.923,               !- Vertex 5 Xcoordinate
    4478962.15,               !- Vertex 5 Ycoordinate
    6,                        !- Vertex 5 Zcoordinate
    440559.345,               !- Vertex 6 Xcoordinate
    4478971.143,              !- Vertex 6 Ycoordinate
    6;                        !- Vertex 6 Zcoordinate

BUILDINGSURFACE:DETAILED,
    Block 39c0751bdd33ba4f_0 Storey 0 Ceiling 0001_1,    !- Name
    ceiling,                  !- Surface Type
    EU_floor_Construction,    !- Construction Name
    39c0751bdd33ba4f_F0_dwelling_0,    !- Zone Name
    ,                         !- Space Name
    Surface,                  !- Outside Boundary Condition
    Block 39c0751bdd33ba4f_0 Storey 1 Floor 0001_1,    !- Outside Boundary Condition Object
    NoSun,                    !- Sun Exposure
    NoWind,                   !- Wind Exposure
    autocalculate,            !- View Factor to Ground
    autocalculate,            !- Number of Vertices
    440564.0209999997,        !- Vertex 1 Xcoordinate
    4478967.399,              !- Vertex 1 Ycoordinate
    3,                        !- Vertex 1 Zcoordinate
    440567.4419999998,        !- Vertex 2 Xcoordinate
    4478964.618,              !- Vertex 2 Ycoordinate
    3,                        !- Vertex 2 Zcoordinate
    440555.34799999977,       !- Vertex 3 Xcoordinate
    4478951.505,              !- Vertex 3 Ycoordinate
    3,                        !- Vertex 3 Zcoordinate
    440550.1499999999,        !- Vertex 4 Xcoordinate
    4478955.809,              !- Vertex 4 Ycoordinate
    3,                        !- Vertex 4 Zcoordinate
    440553.92299999995,       !- Vertex 5 Xcoordinate
    4478962.15,               !- Vertex 5 Ycoordinate
    3,                        !- Vertex 5 Zcoordinate
    440559.34499999974,       !- Vertex 6 Xcoordinate
    4478971.143,              !- Vertex 6 Ycoordinate
    3;                        !- Vertex 6 Zcoordinate

BUILDINGSURFACE:DETAILED,
    Block 39c0751bdd33ba4f_0 Storey 1 Floor 0001_1,    !- Name
    floor,                    !- Surface Type
    EU_floor_Construction,    !- Construction Name
    39c0751bdd33ba4f_F1_dwelling_0,    !- Zone Name
    ,                         !- Space Name
    Surface,                  !- Outside Boundary Condition
    Block 39c0751bdd33ba4f_0 Storey 0 Ceiling 0001_1,    !- Outside Boundary Condition Object
    NoSun,                    !- Sun Exposure
    NoWind,                   !- Wind Exposure
    autocalculate,            !- View Factor to Ground
    autocalculate,            !- Number of Vertices
    440555.34799999977,       !- Vertex 1 Xcoordinate
    4478951.505,              !- Vertex 1 Ycoordinate
    3,                        !- Vertex 1 Zcoordinate
    440567.4419999998,        !- Vertex 2 Xcoordinate
    4478964.618,              !- Vertex 2 Ycoordinate
    3,                        !- Vertex 2 Zcoordinate
    440564.0209999997,        !- Vertex 3 Xcoordinate
    4478967.399,              !- Vertex 3 Ycoordinate
    3,                        !- Vertex 3 Zcoordinate
    440559.34499999974,       !- Vertex 4 Xcoordinate
    4478971.143,              !- Vertex 4 Ycoordinate
    3,                        !- Vertex 4 Zcoordinate
    440553.92299999995,       !- Vertex 5 Xcoordinate
    4478962.15,               !- Vertex 5 Ycoordinate
    3,                        !- Vertex 5 Zcoordinate
    440550.1499999999,        !- Vertex 6 Xcoordinate
    4478955.809,              !- Vertex 6 Ycoordinate
    3;                        !- Vertex 6 Zcoordinate

INTERNALMASS,
    39c0751bdd33ba4f_F0_dwelling_0_EU_InternalMass,    !- Name
    EU_InternalMass_Construction,    !- Construction Name
    39c0751bdd33ba4f_F0_dwelling_0,    !- Zone or ZoneList Name
    ,                         !- Space or SpaceList Name
    152.50838400504583;       !- Surface Area

INTERNALMASS,
    39c0751bdd33ba4f_F1_dwelling_0_EU_InternalMass,    !- Name
    EU_InternalMass_Construction,    !- Construction Name
    39c0751bdd33ba4f_F1_dwelling_0,    !- Zone or ZoneList Name
    ,                         !- Space or SpaceList Name
    152.50838400504583;       !- Surface Area

SHADING:SITE:DETAILED,
    shade_way/391662734_1,    !- Name
    ,                         !- Transmittance Schedule Name
    autocalculate,            !- Number of Vertices
    440566.14814914856,       !- Vertex 1 Xcoordinate
    4478942.442198123,        !- Vertex 1 Ycoordinate
    3,                        !- Vertex 1 Zcoordinate
    440566.14814914856,       !- Vertex 2 Xcoordinate
    4478942.442198123,        !- Vertex 2 Ycoordinate
    0,                        !- Vertex 2 Zcoordinate
    440602.1682581879,        !- Vertex 3 Xcoordinate
    4478918.461880821,        !- Vertex 3 Ycoordinate
    0,                        !- Vertex 3 Zcoordinate
    440602.1682581879,        !- Vertex 4 Xcoordinate
    4478918.461880821,        !- Vertex 4 Ycoordinate
    3;                        !- Vertex 4 Zcoordinate

SHADING:SITE:DETAILED,
    shade_way/391662734_2,    !- Name
    ,                         !- Transmittance Schedule Name
    autocalculate,            !- Number of Vertices
    440602.1682581879,        !- Vertex 1 Xcoordinate
    4478918.461880821,        !- Vertex 1 Ycoordinate
    3,                        !- Vertex 1 Zcoordinate
    440602.1682581879,        !- Vertex 2 Xcoordinate
    4478918.461880821,        !- Vertex 2 Ycoordinate
    0,                        !- Vertex 2 Zcoordinate
    440594.5715742814,        !- Vertex 3 Xcoordinate
    4478907.05113178,         !- Vertex 3 Ycoordinate
    0,                        !- Vertex 3 Zcoordinate
    440594.5715742814,        !- Vertex 4 Xcoordinate
    4478907.05113178,         !- Vertex 4 Ycoordinate
    3;                        !- Vertex 4 Zcoordinate

SHADING:SITE:DETAILED,
    shade_way/391662734_3,    !- Name
    ,                         !- Transmittance Schedule Name
    autocalculate,            !- Number of Vertices
    440594.5715742814,        !- Vertex 1 Xcoordinate
    4478907.05113178,         !- Vertex 1 Ycoordinate
    3,                        !- Vertex 1 Zcoordinate
    440594.5715742814,        !- Vertex 2 Xcoordinate
    4478907.05113178,         !- Vertex 2 Ycoordinate
    0,                        !- Vertex 2 Zcoordinate
    440558.5514384215,        !- Vertex 3 Xcoordinate
    4478931.031471012,        !- Vertex 3 Ycoordinate
    0,                        !- Vertex 3 Zcoordinate
    440558.5514384215,        !- Vertex 4 Xcoordinate
    4478931.031471012,        !- Vertex 4 Ycoordinate
    3;                        !- Vertex 4 Zcoordinate

SHADING:SITE:DETAILED,
    shade_way/391662734_4,    !- Name
    ,                         !- Transmittance Schedule Name
    autocalculate,            !- Number of Vertices
    440558.5514384215,        !- Vertex 1 Xcoordinate
    4478931.031471012,        !- Vertex 1 Ycoordinate
    3,                        !- Vertex 1 Zcoordinate
    440558.5514384215,        !- Vertex 2 Xcoordinate
    4478931.031471012,        !- Vertex 2 Ycoordinate
    0,                        !- Vertex 2 Zcoordinate
    440566.14814914856,       !- Vertex 3 Xcoordinate
    4478942.442198123,        !- Vertex 3 Ycoordinate
    0,                        !- Vertex 3 Zcoordinate
    440566.14814914856,       !- Vertex 4 Xcoordinate
    4478942.442198123,        !- Vertex 4 Ycoordinate
    3;                        !- Vertex 4 Zcoordinate

SHADING:SITE:DETAILED,
    shade_way/289510897_1,    !- Name
    ,                         !- Transmittance Schedule Name
    autocalculate,            !- Number of Vertices
    440595.2723792862,        !- Vertex 1 Xcoordinate
    4478982.0142847905,       !- Vertex 1 Ycoordinate
    9,                        !- Vertex 1 Zcoordinate
    440595.2723792862,        !- Vertex 2 Xcoordinate
    4478982.0142847905,       !- Vertex 2 Ycoordinate
    0,                        !- Vertex 2 Zcoordinate
    440605.05464252655,       !- Vertex 3 Xcoordinate
    4478974.199448631,        !- Vertex 3 Ycoordinate
    0,                        !- Vertex 3 Zcoordinate
    440605.05464252655,       !- Vertex 4 Xcoordinate
    4478974.199448631,        !- Vertex 4 Ycoordinate
    9;                        !- Vertex 4 Zcoordinate

SHADING:SITE:DETAILED,
    shade_way/289510897_2,    !- Name
    ,                         !- Transmittance Schedule Name
    autocalculate,            !- Number of Vertices
    440605.05464252655,       !- Vertex 1 Xcoordinate
    4478974.199448631,        !- Vertex 1 Ycoordinate
    9,                        !- Vertex 1 Zcoordinate
    440605.05464252655,       !- Vertex 2 Xcoordinate
    4478974.199448631,        !- Vertex 2 Ycoordinate
    0,                        !- Vertex 2 Zcoordinate
    440590.6748674172,        !- Vertex 3 Xcoordinate
    4478956.198859748,        !- Vertex 3 Ycoordinate
    0,                        !- Vertex 3 Zcoordinate
    440590.6748674172,        !- Vertex 4 Xcoordinate
    4478956.198859748,        !- Vertex 4 Ycoordinate
    9;                        !- Vertex 4 Zcoordinate

SHADING:SITE:DETAILED,
    shade_way/289510897_3,    !- Name
    ,                         !- Transmittance Schedule Name
    autocalculate,            !- Number of Vertices
    440590.6748674172,        !- Vertex 1 Xcoordinate
    4478956.198859748,        !- Vertex 1 Ycoordinate
    9,                        !- Vertex 1 Zcoordinate
    440590.6748674172,        !- Vertex 2 Xcoordinate
    4478956.198859748,        !- Vertex 2 Ycoordinate
    0,                        !- Vertex 2 Zcoordinate
    440580.8926041775,        !- Vertex 3 Xcoordinate
    4478964.013695908,        !- Vertex 3 Ycoordinate
    0,                        !- Vertex 3 Zcoordinate
    440580.8926041775,        !- Vertex 4 Xcoordinate
    4478964.013695908,        !- Vertex 4 Ycoordinate
    9;                        !- Vertex 4 Zcoordinate

SHADING:SITE:DETAILED,
    shade_way/289510897_4,    !- Name
    ,                         !- Transmittance Schedule Name
    autocalculate,            !- Number of Vertices
    440580.8926041775,        !- Vertex 1 Xcoordinate
    4478964.013695908,        !- Vertex 1 Ycoordinate
    9,                        !- Vertex 1 Zcoordinate
    440580.8926041775,        !- Vertex 2 Xcoordinate
    4478964.013695908,        !- Vertex 2 Ycoordinate
    0,                        !- Vertex 2 Zcoordinate
    440595.2723792862,        !- Vertex 3 Xcoordinate
    4478982.0142847905,       !- Vertex 3 Ycoordinate
    0,                        !- Vertex 3 Zcoordinate
    440595.2723792862,        !- Vertex 4 Xcoordinate
    4478982.0142847905,       !- Vertex 4 Ycoordinate
    9;                        !- Vertex 4 Zcoordinate

SHADING:SITE:DETAILED,
    shade_way/289510894_1,    !- Name
    ,                         !- Transmittance Schedule Name
    autocalculate,            !- Number of Vertices
    440578.924094656,         !- Vertex 1 Xcoordinate
    4478937.301797846,        !- Vertex 1 Ycoordinate
    9,                        !- Vertex 1 Zcoordinate
    440578.924094656,         !- Vertex 2 Xcoordinate
    4478937.301797846,        !- Vertex 2 Ycoordinate
    0,                        !- Vertex 2 Zcoordinate
    440569.4444006353,        !- Vertex 3 Xcoordinate
    4478945.17557584,         !- Vertex 3 Ycoordinate
    0,                        !- Vertex 3 Zcoordinate
    440569.4444006353,        !- Vertex 4 Xcoordinate
    4478945.17557584,         !- Vertex 4 Ycoordinate
    9;                        !- Vertex 4 Zcoordinate

SHADING:SITE:DETAILED,
    shade_way/289510894_2,    !- Name
    ,                         !- Transmittance Schedule Name
    autocalculate,            !- Number of Vertices
    440569.4444006353,        !- Vertex 1 Xcoordinate
    4478945.17557584,         !- Vertex 1 Ycoordinate
    9,                        !- Vertex 1 Zcoordinate
    440569.4444006353,        !- Vertex 2 Xcoordinate
    4478945.17557584,         !- Vertex 2 Ycoordinate
    0,                        !- Vertex 2 Zcoordinate
    440578.55867037346,       !- Vertex 3 Xcoordinate
    4478956.148769198,        !- Vertex 3 Ycoordinate
    0,                        !- Vertex 3 Zcoordinate
    440578.55867037346,       !- Vertex 4 Xcoordinate
    4478956.148769198,        !- Vertex 4 Ycoordinate
    9;                        !- Vertex 4 Zcoordinate

SHADING:SITE:DETAILED,
    shade_way/289510894_3,    !- Name
    ,                         !- Transmittance Schedule Name
    autocalculate,            !- Number of Vertices
    440578.55867037346,       !- Vertex 1 Xcoordinate
    4478956.148769198,        !- Vertex 1 Ycoordinate
    9,                        !- Vertex 1 Zcoordinate
    440578.55867037346,       !- Vertex 2 Xcoordinate
    4478956.148769198,        !- Vertex 2 Ycoordinate
    0,                        !- Vertex 2 Zcoordinate
    440588.03836439416,       !- Vertex 3 Xcoordinate
    4478948.274991203,        !- Vertex 3 Ycoordinate
    0,                        !- Vertex 3 Zcoordinate
    440588.03836439416,       !- Vertex 4 Xcoordinate
    4478948.274991203,        !- Vertex 4 Ycoordinate
    9;                        !- Vertex 4 Zcoordinate

SHADING:SITE:DETAILED,
    shade_way/289510894_4,    !- Name
    ,                         !- Transmittance Schedule Name
    autocalculate,            !- Number of Vertices
    440588.03836439416,       !- Vertex 1 Xcoordinate
    4478948.274991203,        !- Vertex 1 Ycoordinate
    9,                        !- Vertex 1 Zcoordinate
    440588.03836439416,       !- Vertex 2 Xcoordinate
    4478948.274991203,        !- Vertex 2 Ycoordinate
    0,                        !- Vertex 2 Zcoordinate
    440578.924094656,         !- Vertex 3 Xcoordinate
    4478937.301797846,        !- Vertex 3 Ycoordinate
    0,                        !- Vertex 3 Zcoordinate
    440578.924094656,         !- Vertex 4 Xcoordinate
    4478937.301797846,        !- Vertex 4 Ycoordinate
    9;                        !- Vertex 4 Zcoordinate

SHADING:SITE:DETAILED,
    shade_way/289510893_1,    !- Name
    ,                         !- Transmittance Schedule Name
    autocalculate,            !- Number of Vertices
    440553.4576903717,        !- Vertex 1 Xcoordinate
    4478949.4658420505,       !- Vertex 1 Ycoordinate
    9,                        !- Vertex 1 Zcoordinate
    440553.4576903717,        !- Vertex 2 Xcoordinate
    4478949.4658420505,       !- Vertex 2 Ycoordinate
    0,                        !- Vertex 2 Zcoordinate
    440568.3143969865,        !- Vertex 3 Xcoordinate
    4478965.564644279,        !- Vertex 3 Ycoordinate
    0,                        !- Vertex 3 Zcoordinate
    440568.3143969865,        !- Vertex 4 Xcoordinate
    4478965.564644279,        !- Vertex 4 Ycoordinate
    9;                        !- Vertex 4 Zcoordinate

SHADING:SITE:DETAILED,
    shade_way/289510893_2,    !- Name
    ,                         !- Transmittance Schedule Name
    autocalculate,            !- Number of Vertices
    440568.3143969865,        !- Vertex 1 Xcoordinate
    4478965.564644279,        !- Vertex 1 Ycoordinate
    9,                        !- Vertex 1 Zcoordinate
    440568.3143969865,        !- Vertex 2 Xcoordinate
    4478965.564644279,        !- Vertex 2 Ycoordinate
    0,                        !- Vertex 2 Zcoordinate
    440579.0856012512,        !- Vertex 3 Xcoordinate
    4478955.624244799,        !- Vertex 3 Ycoordinate
    0,                        !- Vertex 3 Zcoordinate
    440579.0856012512,        !- Vertex 4 Xcoordinate
    4478955.624244799,        !- Vertex 4 Ycoordinate
    9;                        !- Vertex 4 Zcoordinate

SHADING:SITE:DETAILED,
    shade_way/289510893_3,    !- Name
    ,                         !- Transmittance Schedule Name
    autocalculate,            !- Number of Vertices
    440579.0856012512,        !- Vertex 1 Xcoordinate
    4478955.624244799,        !- Vertex 1 Ycoordinate
    9,                        !- Vertex 1 Zcoordinate
    440579.0856012512,        !- Vertex 2 Xcoordinate
    4478955.624244799,        !- Vertex 2 Ycoordinate
    0,                        !- Vertex 2 Zcoordinate
    440564.2286144394,        !- Vertex 3 Xcoordinate
    4478939.525531652,        !- Vertex 3 Ycoordinate
    0,                        !- Vertex 3 Zcoordinate
    440564.2286144394,        !- Vertex 4 Xcoordinate
    4478939.525531652,        !- Vertex 4 Ycoordinate
    9;                        !- Vertex 4 Zcoordinate

SHADING:SITE:DETAILED,
    shade_way/289510893_4,    !- Name
    ,                         !- Transmittance Schedule Name
    autocalculate,            !- Number of Vertices
    440564.2286144394,        !- Vertex 1 Xcoordinate
    4478939.525531652,        !- Vertex 1 Ycoordinate
    9,                        !- Vertex 1 Zcoordinate
    440564.2286144394,        !- Vertex 2 Xcoordinate
    4478939.525531652,        !- Vertex 2 Ycoordinate
    0,                        !- Vertex 2 Zcoordinate
    440553.4576903717,        !- Vertex 3 Xcoordinate
    4478949.4658420505,       !- Vertex 3 Ycoordinate
    0,                        !- Vertex 3 Zcoordinate
    440553.4576903717,        !- Vertex 4 Xcoordinate
    4478949.4658420505,       !- Vertex 4 Ycoordinate
    9;                        !- Vertex 4 Zcoordinate

SHADING:SITE:DETAILED,
    shade_way/289362376_1,    !- Name
    ,                         !- Transmittance Schedule Name
    autocalculate,            !- Number of Vertices
    440479.31460205215,       !- Vertex 1 Xcoordinate
    4478999.431086179,        !- Vertex 1 Ycoordinate
    12,                       !- Vertex 1 Zcoordinate
    440479.31460205215,       !- Vertex 2 Xcoordinate
    4478999.431086179,        !- Vertex 2 Ycoordinate
    0,                        !- Vertex 2 Zcoordinate
    440552.0209391681,        !- Vertex 3 Xcoordinate
    4478947.923148342,        !- Vertex 3 Ycoordinate
    0,                        !- Vertex 3 Zcoordinate
    440552.0209391681,        !- Vertex 4 Xcoordinate
    4478947.923148342,        !- Vertex 4 Ycoordinate
    12;                       !- Vertex 4 Zcoordinate

SHADING:SITE:DETAILED,
    shade_way/289362376_2,    !- Name
    ,                         !- Transmittance Schedule Name
    autocalculate,            !- Number of Vertices
    440552.0209391681,        !- Vertex 1 Xcoordinate
    4478947.923148342,        !- Vertex 1 Ycoordinate
    12,                       !- Vertex 1 Zcoordinate
    440552.0209391681,        !- Vertex 2 Xcoordinate
    4478947.923148342,        !- Vertex 2 Ycoordinate
    0,                        !- Vertex 2 Zcoordinate
    440546.52506863413,       !- Vertex 3 Xcoordinate
    4478940.16666217,         !- Vertex 3 Ycoordinate
    0,                        !- Vertex 3 Zcoordinate
    440546.52506863413,       !- Vertex 4 Xcoordinate
    4478940.16666217,         !- Vertex 4 Ycoordinate
    12;                       !- Vertex 4 Zcoordinate

SHADING:SITE:DETAILED,
    shade_way/289362376_3,    !- Name
    ,                         !- Transmittance Schedule Name
    autocalculate,            !- Number of Vertices
    440546.52506863413,       !- Vertex 1 Xcoordinate
    4478940.16666217,         !- Vertex 1 Ycoordinate
    12,                       !- Vertex 1 Zcoordinate
    440546.52506863413,       !- Vertex 2 Xcoordinate
    4478940.16666217,         !- Vertex 2 Ycoordinate
    0,                        !- Vertex 2 Zcoordinate
    440473.8187315201,        !- Vertex 3 Xcoordinate
    4478991.674600024,        !- Vertex 3 Ycoordinate
    0,                        !- Vertex 3 Zcoordinate
    440473.8187315201,        !- Vertex 4 Xcoordinate
    4478991.674600024,        !- Vertex 4 Ycoordinate
    12;                       !- Vertex 4 Zcoordinate

SHADING:SITE:DETAILED,
    shade_way/289362376_4,    !- Name
    ,                         !- Transmittance Schedule Name
    autocalculate,            !- Number of Vertices
    440473.8187315201,        !- Vertex 1 Xcoordinate
    4478991.674600024,        !- Vertex 1 Ycoordinate
    12,                       !- Vertex 1 Zcoordinate
    440473.8187315201,        !- Vertex 2 Xcoordinate
    4478991.674600024,        !- Vertex 2 Ycoordinate
    0,                        !- Vertex 2 Zcoordinate
    440479.31460205215,       !- Vertex 3 Xcoordinate
    4478999.431086179,        !- Vertex 3 Ycoordinate
    0,                        !- Vertex 3 Zcoordinate
    440479.31460205215,       !- Vertex 4 Xcoordinate
    4478999.431086179,        !- Vertex 4 Ycoordinate
    12;                       !- Vertex 4 Zcoordinate

SHADING:SITE:DETAILED,
    shade_way/289364388_1,    !- Name
    ,                         !- Transmittance Schedule Name
    autocalculate,            !- Number of Vertices
    440553.9230234305,        !- Vertex 1 Xcoordinate
    4478962.150290485,        !- Vertex 1 Ycoordinate
    9,                        !- Vertex 1 Zcoordinate
    440553.9230234305,        !- Vertex 2 Xcoordinate
    4478962.150290485,        !- Vertex 2 Ycoordinate
    0,                        !- Vertex 2 Zcoordinate
    440538.8279273137,        !- Vertex 3 Xcoordinate
    4478973.615133017,        !- Vertex 3 Ycoordinate
    0,                        !- Vertex 3 Zcoordinate
    440538.8279273137,        !- Vertex 4 Xcoordinate
    4478973.615133017,        !- Vertex 4 Ycoordinate
    9;                        !- Vertex 4 Zcoordinate

SHADING:SITE:DETAILED,
    shade_way/289364388_2,    !- Name
    ,                         !- Transmittance Schedule Name
    autocalculate,            !- Number of Vertices
    440538.8279273137,        !- Vertex 1 Xcoordinate
    4478973.615133017,        !- Vertex 1 Ycoordinate
    9,                        !- Vertex 1 Zcoordinate
    440538.8279273137,        !- Vertex 2 Xcoordinate
    4478973.615133017,        !- Vertex 2 Ycoordinate
    0,                        !- Vertex 2 Zcoordinate
    440545.14281589026,       !- Vertex 3 Xcoordinate
    4478981.92975042,         !- Vertex 3 Ycoordinate
    0,                        !- Vertex 3 Zcoordinate
    440545.14281589026,       !- Vertex 4 Xcoordinate
    4478981.92975042,         !- Vertex 4 Ycoordinate
    9;                        !- Vertex 4 Zcoordinate

SHADING:SITE:DETAILED,
    shade_way/289364388_3,    !- Name
    ,                         !- Transmittance Schedule Name
    autocalculate,            !- Number of Vertices
    440545.14281589026,       !- Vertex 1 Xcoordinate
    4478981.92975042,         !- Vertex 1 Ycoordinate
    9,                        !- Vertex 1 Zcoordinate
    440545.14281589026,       !- Vertex 2 Xcoordinate
    4478981.92975042,         !- Vertex 2 Ycoordinate
    0,                        !- Vertex 2 Zcoordinate
    440560.23791200784,       !- Vertex 3 Xcoordinate
    4478970.464907887,        !- Vertex 3 Ycoordinate
    0,                        !- Vertex 3 Zcoordinate
    440560.23791200784,       !- Vertex 4 Xcoordinate
    4478970.464907887,        !- Vertex 4 Ycoordinate
    9;                        !- Vertex 4 Zcoordinate

SHADING:SITE:DETAILED,
    shade_way/289364388_4,    !- Name
    ,                         !- Transmittance Schedule Name
    autocalculate,            !- Number of Vertices
    440560.23791200784,       !- Vertex 1 Xcoordinate
    4478970.464907887,        !- Vertex 1 Ycoordinate
    9,                        !- Vertex 1 Zcoordinate
    440560.23791200784,       !- Vertex 2 Xcoordinate
    4478970.464907887,        !- Vertex 2 Ycoordinate
    0,                        !- Vertex 2 Zcoordinate
    440553.9230234305,        !- Vertex 3 Xcoordinate
    4478962.150290485,        !- Vertex 3 Ycoordinate
    0,                        !- Vertex 3 Zcoordinate
    440553.9230234305,        !- Vertex 4 Xcoordinate
    4478962.150290485,        !- Vertex 4 Ycoordinate
    9;                        !- Vertex 4 Zcoordinate

SHADING:SITE:DETAILED,
    shade_way/289362372_1,    !- Name
    ,                         !- Transmittance Schedule Name
    autocalculate,            !- Number of Vertices
    440528.5016045053,        !- Vertex 1 Xcoordinate
    4478980.1238088915,       !- Vertex 1 Ycoordinate
    12,                       !- Vertex 1 Zcoordinate
    440528.5016045053,        !- Vertex 2 Xcoordinate
    4478980.1238088915,       !- Vertex 2 Ycoordinate
    0,                        !- Vertex 2 Zcoordinate
    440538.00679238763,       !- Vertex 3 Xcoordinate
    4478972.354143169,        !- Vertex 3 Ycoordinate
    0,                        !- Vertex 3 Zcoordinate
    440538.00679238763,       !- Vertex 4 Xcoordinate
    4478972.354143169,        !- Vertex 4 Ycoordinate
    12;                       !- Vertex 4 Zcoordinate

SHADING:SITE:DETAILED,
    shade_way/289362372_2,    !- Name
    ,                         !- Transmittance Schedule Name
    autocalculate,            !- Number of Vertices
    440538.00679238763,       !- Vertex 1 Xcoordinate
    4478972.354143169,        !- Vertex 1 Ycoordinate
    12,                       !- Vertex 1 Zcoordinate
    440538.00679238763,       !- Vertex 2 Xcoordinate
    4478972.354143169,        !- Vertex 2 Ycoordinate
    0,                        !- Vertex 2 Zcoordinate
    440529.99248783843,       !- Vertex 3 Xcoordinate
    4478962.549671114,        !- Vertex 3 Ycoordinate
    0,                        !- Vertex 3 Zcoordinate
    440529.99248783843,       !- Vertex 4 Xcoordinate
    4478962.549671114,        !- Vertex 4 Ycoordinate
    12;                       !- Vertex 4 Zcoordinate

SHADING:SITE:DETAILED,
    shade_way/289362372_3,    !- Name
    ,                         !- Transmittance Schedule Name
    autocalculate,            !- Number of Vertices
    440529.99248783843,       !- Vertex 1 Xcoordinate
    4478962.549671114,        !- Vertex 1 Ycoordinate
    12,                       !- Vertex 1 Zcoordinate
    440529.99248783843,       !- Vertex 2 Xcoordinate
    4478962.549671114,        !- Vertex 2 Ycoordinate
    0,                        !- Vertex 2 Zcoordinate
    440520.4867983615,        !- Vertex 3 Xcoordinate
    4478970.31961327,         !- Vertex 3 Ycoordinate
    0,                        !- Vertex 3 Zcoordinate
    440520.4867983615,        !- Vertex 4 Xcoordinate
    4478970.31961327,         !- Vertex 4 Ycoordinate
    12;                       !- Vertex 4 Zcoordinate

SHADING:SITE:DETAILED,
    shade_way/289362372_4,    !- Name
    ,                         !- Transmittance Schedule Name
    autocalculate,            !- Number of Vertices
    440520.4867983615,        !- Vertex 1 Xcoordinate
    4478970.31961327,         !- Vertex 1 Ycoordinate
    12,                       !- Vertex 1 Zcoordinate
    440520.4867983615,        !- Vertex 2 Xcoordinate
    4478970.31961327,         !- Vertex 2 Ycoordinate
    0,                        !- Vertex 2 Zcoordinate
    440528.5016045053,        !- Vertex 3 Xcoordinate
    4478980.1238088915,       !- Vertex 3 Ycoordinate
    0,                        !- Vertex 3 Zcoordinate
    440528.5016045053,        !- Vertex 4 Xcoordinate
    4478980.1238088915,       !- Vertex 4 Ycoordinate
    12;                       !- Vertex 4 Zcoordinate

SHADING:SITE:DETAILED,
    shade_way/289362370_1,    !- Name
    ,                         !- Transmittance Schedule Name
    autocalculate,            !- Number of Vertices
    440537.89441318554,       !- Vertex 1 Xcoordinate
    4478972.445869828,        !- Vertex 1 Ycoordinate
    12,                       !- Vertex 1 Zcoordinate
    440537.89441318554,       !- Vertex 2 Xcoordinate
    4478972.445869828,        !- Vertex 2 Ycoordinate
    0,                        !- Vertex 2 Zcoordinate
    440528.82972223713,       !- Vertex 3 Xcoordinate
    4478979.855467559,        !- Vertex 3 Ycoordinate
    0,                        !- Vertex 3 Zcoordinate
    440528.82972223713,       !- Vertex 4 Xcoordinate
    4478979.855467559,        !- Vertex 4 Ycoordinate
    12;                       !- Vertex 4 Zcoordinate

SHADING:SITE:DETAILED,
    shade_way/289362370_2,    !- Name
    ,                         !- Transmittance Schedule Name
    autocalculate,            !- Number of Vertices
    440528.82972223713,       !- Vertex 1 Xcoordinate
    4478979.855467559,        !- Vertex 1 Ycoordinate
    12,                       !- Vertex 1 Zcoordinate
    440528.82972223713,       !- Vertex 2 Xcoordinate
    4478979.855467559,        !- Vertex 2 Ycoordinate
    0,                        !- Vertex 2 Zcoordinate
    440532.4315171622,        !- Vertex 3 Xcoordinate
    4478984.2609108705,       !- Vertex 3 Ycoordinate
    0,                        !- Vertex 3 Zcoordinate
    440532.4315171622,        !- Vertex 4 Xcoordinate
    4478984.2609108705,       !- Vertex 4 Ycoordinate
    12;                       !- Vertex 4 Zcoordinate

SHADING:SITE:DETAILED,
    shade_way/289362370_3,    !- Name
    ,                         !- Transmittance Schedule Name
    autocalculate,            !- Number of Vertices
    440532.4315171622,        !- Vertex 1 Xcoordinate
    4478984.2609108705,       !- Vertex 1 Ycoordinate
    12,                       !- Vertex 1 Zcoordinate
    440532.4315171622,        !- Vertex 2 Xcoordinate
    4478984.2609108705,       !- Vertex 2 Ycoordinate
    0,                        !- Vertex 2 Zcoordinate
    440541.496208111,         !- Vertex 3 Xcoordinate
    4478976.851313142,        !- Vertex 3 Ycoordinate
    0,                        !- Vertex 3 Zcoordinate
    440541.496208111,         !- Vertex 4 Xcoordinate
    4478976.851313142,        !- Vertex 4 Ycoordinate
    12;                       !- Vertex 4 Zcoordinate

SHADING:SITE:DETAILED,
    shade_way/289362370_4,    !- Name
    ,                         !- Transmittance Schedule Name
    autocalculate,            !- Number of Vertices
    440541.496208111,         !- Vertex 1 Xcoordinate
    4478976.851313142,        !- Vertex 1 Ycoordinate
    12,                       !- Vertex 1 Zcoordinate
    440541.496208111,         !- Vertex 2 Xcoordinate
    4478976.851313142,        !- Vertex 2 Ycoordinate
    0,                        !- Vertex 2 Zcoordinate
    440537.89441318554,       !- Vertex 3 Xcoordinate
    4478972.445869828,        !- Vertex 3 Ycoordinate
    0,                        !- Vertex 3 Zcoordinate
    440537.89441318554,       !- Vertex 4 Xcoordinate
    4478972.445869828,        !- Vertex 4 Ycoordinate
    12;                       !- Vertex 4 Zcoordinate

SHADING:SITE:DETAILED,
    shade_way/289362368_1,    !- Name
    ,                         !- Transmittance Schedule Name
    autocalculate,            !- Number of Vertices
    440541.3801198745,        !- Vertex 1 Xcoordinate
    4478976.814075179,        !- Vertex 1 Ycoordinate
    12,                       !- Vertex 1 Zcoordinate
    440541.3801198745,        !- Vertex 2 Xcoordinate
    4478976.814075179,        !- Vertex 2 Ycoordinate
    0,                        !- Vertex 2 Zcoordinate
    440532.56078109914,       !- Vertex 3 Xcoordinate
    4478984.155115247,        !- Vertex 3 Ycoordinate
    0,                        !- Vertex 3 Zcoordinate
    440532.56078109914,       !- Vertex 4 Xcoordinate
    4478984.155115247,        !- Vertex 4 Ycoordinate
    12;                       !- Vertex 4 Zcoordinate

SHADING:SITE:DETAILED,
    shade_way/289362368_2,    !- Name
    ,                         !- Transmittance Schedule Name
    autocalculate,            !- Number of Vertices
    440532.56078109914,       !- Vertex 1 Xcoordinate
    4478984.155115247,        !- Vertex 1 Ycoordinate
    12,                       !- Vertex 1 Zcoordinate
    440532.56078109914,       !- Vertex 2 Xcoordinate
    4478984.155115247,        !- Vertex 2 Ycoordinate
    0,                        !- Vertex 2 Zcoordinate
    440536.5856572841,        !- Vertex 3 Xcoordinate
    4478988.989841095,        !- Vertex 3 Ycoordinate
    0,                        !- Vertex 3 Zcoordinate
    440536.5856572841,        !- Vertex 4 Xcoordinate
    4478988.989841095,        !- Vertex 4 Ycoordinate
    12;                       !- Vertex 4 Zcoordinate

SHADING:SITE:DETAILED,
    shade_way/289362368_3,    !- Name
    ,                         !- Transmittance Schedule Name
    autocalculate,            !- Number of Vertices
    440536.5856572841,        !- Vertex 1 Xcoordinate
    4478988.989841095,        !- Vertex 1 Ycoordinate
    12,                       !- Vertex 1 Zcoordinate
    440536.5856572841,        !- Vertex 2 Xcoordinate
    4478988.989841095,        !- Vertex 2 Ycoordinate
    0,                        !- Vertex 2 Zcoordinate
    440545.40499606024,       !- Vertex 3 Xcoordinate
    4478981.648801031,        !- Vertex 3 Ycoordinate
    0,                        !- Vertex 3 Zcoordinate
    440545.40499606024,       !- Vertex 4 Xcoordinate
    4478981.648801031,        !- Vertex 4 Ycoordinate
    12;                       !- Vertex 4 Zcoordinate

SHADING:SITE:DETAILED,
    shade_way/289362368_4,    !- Name
    ,                         !- Transmittance Schedule Name
    autocalculate,            !- Number of Vertices
    440545.40499606024,       !- Vertex 1 Xcoordinate
    4478981.648801031,        !- Vertex 1 Ycoordinate
    12,                       !- Vertex 1 Zcoordinate
    440545.40499606024,       !- Vertex 2 Xcoordinate
    4478981.648801031,        !- Vertex 2 Ycoordinate
    0,                        !- Vertex 2 Zcoordinate
    440541.3801198745,        !- Vertex 3 Xcoordinate
    4478976.814075179,        !- Vertex 3 Ycoordinate
    0,                        !- Vertex 3 Zcoordinate
    440541.3801198745,        !- Vertex 4 Xcoordinate
    4478976.814075179,        !- Vertex 4 Ycoordinate
    12;                       !- Vertex 4 Zcoordinate

SHADING:SITE:DETAILED,
    shade_way/289387274_1,    !- Name
    ,                         !- Transmittance Schedule Name
    autocalculate,            !- Number of Vertices
    440588.925695866,         !- Vertex 1 Xcoordinate
    4478987.081982164,        !- Vertex 1 Ycoordinate
    9,                        !- Vertex 1 Zcoordinate
    440588.925695866,         !- Vertex 2 Xcoordinate
    4478987.081982164,        !- Vertex 2 Ycoordinate
    0,                        !- Vertex 2 Zcoordinate
    440575.5320952027,        !- Vertex 3 Xcoordinate
    4478968.880519313,        !- Vertex 3 Ycoordinate
    0,                        !- Vertex 3 Zcoordinate
    440575.5320952027,        !- Vertex 4 Xcoordinate
    4478968.880519313,        !- Vertex 4 Ycoordinate
    9;                        !- Vertex 4 Zcoordinate

SHADING:SITE:DETAILED,
    shade_way/289387274_2,    !- Name
    ,                         !- Transmittance Schedule Name
    autocalculate,            !- Number of Vertices
    440575.5320952027,        !- Vertex 1 Xcoordinate
    4478968.880519313,        !- Vertex 1 Ycoordinate
    9,                        !- Vertex 1 Zcoordinate
    440575.5320952027,        !- Vertex 2 Xcoordinate
    4478968.880519313,        !- Vertex 2 Ycoordinate
    0,                        !- Vertex 2 Zcoordinate
    440563.85081026907,       !- Vertex 3 Xcoordinate
    4478977.476227631,        !- Vertex 3 Ycoordinate
    0,                        !- Vertex 3 Zcoordinate
    440563.85081026907,       !- Vertex 4 Xcoordinate
    4478977.476227631,        !- Vertex 4 Ycoordinate
    9;                        !- Vertex 4 Zcoordinate

SHADING:SITE:DETAILED,
    shade_way/289387274_3,    !- Name
    ,                         !- Transmittance Schedule Name
    autocalculate,            !- Number of Vertices
    440563.85081026907,       !- Vertex 1 Xcoordinate
    4478977.476227631,        !- Vertex 1 Ycoordinate
    9,                        !- Vertex 1 Zcoordinate
    440563.85081026907,       !- Vertex 2 Xcoordinate
    4478977.476227631,        !- Vertex 2 Ycoordinate
    0,                        !- Vertex 2 Zcoordinate
    440577.2439857962,        !- Vertex 3 Xcoordinate
    4478995.678072812,        !- Vertex 3 Ycoordinate
    0,                        !- Vertex 3 Zcoordinate
    440577.2439857962,        !- Vertex 4 Xcoordinate
    4478995.678072812,        !- Vertex 4 Ycoordinate
    9;                        !- Vertex 4 Zcoordinate

SHADING:SITE:DETAILED,
    shade_way/289387274_4,    !- Name
    ,                         !- Transmittance Schedule Name
    autocalculate,            !- Number of Vertices
    440577.2439857962,        !- Vertex 1 Xcoordinate
    4478995.678072812,        !- Vertex 1 Ycoordinate
    9,                        !- Vertex 1 Zcoordinate
    440577.2439857962,        !- Vertex 2 Xcoordinate
    4478995.678072812,        !- Vertex 2 Ycoordinate
    0,                        !- Vertex 2 Zcoordinate
    440588.925695866,         !- Vertex 3 Xcoordinate
    4478987.081982164,        !- Vertex 3 Ycoordinate
    0,                        !- Vertex 3 Zcoordinate
    440588.925695866,         !- Vertex 4 Xcoordinate
    4478987.081982164,        !- Vertex 4 Ycoordinate
    9;                        !- Vertex 4 Zcoordinate

SHADING:SITE:DETAILED,
    shade_way/289387273_1,    !- Name
    ,                         !- Transmittance Schedule Name
    autocalculate,            !- Number of Vertices
    440559.89294983074,       !- Vertex 1 Xcoordinate
    4479016.804141392,        !- Vertex 1 Ycoordinate
    9,                        !- Vertex 1 Zcoordinate
    440559.89294983074,       !- Vertex 2 Xcoordinate
    4479016.804141392,        !- Vertex 2 Ycoordinate
    0,                        !- Vertex 2 Zcoordinate
    440572.3395988282,        !- Vertex 3 Xcoordinate
    4478979.5352326045,       !- Vertex 3 Ycoordinate
    0,                        !- Vertex 3 Zcoordinate
    440572.3395988282,        !- Vertex 4 Xcoordinate
    4478979.5352326045,       !- Vertex 4 Ycoordinate
    9;                        !- Vertex 4 Zcoordinate

SHADING:SITE:DETAILED,
    shade_way/289387273_2,    !- Name
    ,                         !- Transmittance Schedule Name
    autocalculate,            !- Number of Vertices
    440572.3395988282,        !- Vertex 1 Xcoordinate
    4478979.5352326045,       !- Vertex 1 Ycoordinate
    9,                        !- Vertex 1 Zcoordinate
    440572.3395988282,        !- Vertex 2 Xcoordinate
    4478979.5352326045,       !- Vertex 2 Ycoordinate
    0,                        !- Vertex 2 Zcoordinate
    440555.9808670916,        !- Vertex 3 Xcoordinate
    4478974.071928235,        !- Vertex 3 Ycoordinate
    0,                        !- Vertex 3 Zcoordinate
    440555.9808670916,        !- Vertex 4 Xcoordinate
    4478974.071928235,        !- Vertex 4 Ycoordinate
    9;                        !- Vertex 4 Zcoordinate

SHADING:SITE:DETAILED,
    shade_way/289387273_3,    !- Name
    ,                         !- Transmittance Schedule Name
    autocalculate,            !- Number of Vertices
    440555.9808670916,        !- Vertex 1 Xcoordinate
    4478974.071928235,        !- Vertex 1 Ycoordinate
    9,                        !- Vertex 1 Zcoordinate
    440555.9808670916,        !- Vertex 2 Xcoordinate
    4478974.071928235,        !- Vertex 2 Ycoordinate
    0,                        !- Vertex 2 Zcoordinate
    440543.53421809414,       !- Vertex 3 Xcoordinate
    4479011.340837022,        !- Vertex 3 Ycoordinate
    0,                        !- Vertex 3 Zcoordinate
    440543.53421809414,       !- Vertex 4 Xcoordinate
    4479011.340837022,        !- Vertex 4 Ycoordinate
    9;                        !- Vertex 4 Zcoordinate

SHADING:SITE:DETAILED,
    shade_way/289387273_4,    !- Name
    ,                         !- Transmittance Schedule Name
    autocalculate,            !- Number of Vertices
    440543.53421809414,       !- Vertex 1 Xcoordinate
    4479011.340837022,        !- Vertex 1 Ycoordinate
    9,                        !- Vertex 1 Zcoordinate
    440543.53421809414,       !- Vertex 2 Xcoordinate
    4479011.340837022,        !- Vertex 2 Ycoordinate
    0,                        !- Vertex 2 Zcoordinate
    440559.89294983074,       !- Vertex 3 Xcoordinate
    4479016.804141392,        !- Vertex 3 Ycoordinate
    0,                        !- Vertex 3 Zcoordinate
    440559.89294983074,       !- Vertex 4 Xcoordinate
    4479016.804141392,        !- Vertex 4 Ycoordinate
    9;                        !- Vertex 4 Zcoordinate

OTHEREQUIPMENT,
    EU_Step8_InternalGain_39c0751bdd33ba4f_F0_dwelling_0_f000,    !- Name
    Electricity,              !- Fuel Type
    39c0751bdd33ba4f_F0_dwelling_0,    !- Zone or ZoneList or Space or SpaceList Name
    EU_Step8_GainSchedule_39c0751bdd33ba4f_F0_dwelling_0_f000,    !- Schedule Name
    Watts/Area,               !- Design Level Calculation Method
    ,                         !- Design Level
    1,                        !- Power per Zone Floor Area
    ,                         !- Power per Person
    0,                        !- Fraction Latent
    0,                        !- Fraction Radiant
    0,                        !- Fraction Lost
    0,                        !- Carbon Dioxide Generation Rate
    EU_Step8_InternalGains;    !- EndUse Subcategory

OTHEREQUIPMENT,
    EU_Step8_InternalGain_39c0751bdd33ba4f_F1_dwelling_0_f000,    !- Name
    Electricity,              !- Fuel Type
    39c0751bdd33ba4f_F1_dwelling_0,    !- Zone or ZoneList or Space or SpaceList Name
    EU_Step8_GainSchedule_39c0751bdd33ba4f_F1_dwelling_0_f000,    !- Schedule Name
    Watts/Area,               !- Design Level Calculation Method
    ,                         !- Design Level
    1,                        !- Power per Zone Floor Area
    ,                         !- Power per Person
    0,                        !- Fraction Latent
    0,                        !- Fraction Radiant
    0,                        !- Fraction Lost
    0,                        !- Carbon Dioxide Generation Rate
    EU_Step8_InternalGains;    !- EndUse Subcategory

ZONEVENTILATION:DESIGNFLOWRATE,
    EU_ConstantAir_39c0751bdd33ba4f_F0_dwelling_0,    !- Name
    39c0751bdd33ba4f_F0_dwelling_0,    !- Zone or ZoneList or Space or SpaceList Name
    EU_AlwaysOn,              !- Schedule Name
    AirChanges/Hour,          !- Design Flow Rate Calculation Method
    ,                         !- Design Flow Rate
    ,                         !- Flow Rate per Floor Area
    ,                         !- Flow Rate per Person
    0.4807043927943379,       !- Air Changes per Hour
    Natural,                  !- Ventilation Type
    0,                        !- Fan Pressure Rise
    1,                        !- Fan Total Efficiency
    1,                        !- Constant Term Coefficient
    0,                        !- Temperature Term Coefficient
    0,                        !- Velocity Term Coefficient
    0,                        !- Velocity Squared Term Coefficient
    -100,                     !- Minimum Indoor Temperature
    ,                         !- Minimum Indoor Temperature Schedule Name
    100,                      !- Maximum Indoor Temperature
    ,                         !- Maximum Indoor Temperature Schedule Name
    -100,                     !- Delta Temperature
    ,                         !- Delta Temperature Schedule Name
    -100,                     !- Minimum Outdoor Temperature
    ,                         !- Minimum Outdoor Temperature Schedule Name
    100,                      !- Maximum Outdoor Temperature
    ,                         !- Maximum Outdoor Temperature Schedule Name
    40;                       !- Maximum Wind Speed

ZONEVENTILATION:DESIGNFLOWRATE,
    EU_ConstantAir_39c0751bdd33ba4f_F1_dwelling_0,    !- Name
    39c0751bdd33ba4f_F1_dwelling_0,    !- Zone or ZoneList or Space or SpaceList Name
    EU_AlwaysOn,              !- Schedule Name
    AirChanges/Hour,          !- Design Flow Rate Calculation Method
    ,                         !- Design Flow Rate
    ,                         !- Flow Rate per Floor Area
    ,                         !- Flow Rate per Person
    0.4807043927943379,       !- Air Changes per Hour
    Natural,                  !- Ventilation Type
    0,                        !- Fan Pressure Rise
    1,                        !- Fan Total Efficiency
    1,                        !- Constant Term Coefficient
    0,                        !- Temperature Term Coefficient
    0,                        !- Velocity Term Coefficient
    0,                        !- Velocity Squared Term Coefficient
    -100,                     !- Minimum Indoor Temperature
    ,                         !- Minimum Indoor Temperature Schedule Name
    100,                      !- Maximum Indoor Temperature
    ,                         !- Maximum Indoor Temperature Schedule Name
    -100,                     !- Delta Temperature
    ,                         !- Delta Temperature Schedule Name
    -100,                     !- Minimum Outdoor Temperature
    ,                         !- Minimum Outdoor Temperature Schedule Name
    100,                      !- Maximum Outdoor Temperature
    ,                         !- Maximum Outdoor Temperature Schedule Name
    40;                       !- Maximum Wind Speed

HVACTEMPLATE:THERMOSTAT,
    EU_HeatOnly_39c0751bdd33ba4f_F0_dwelling_0,    !- Name
    ,                         !- Heating Setpoint Schedule Name
    20,                       !- Constant Heating Setpoint
    ,                         !- Cooling Setpoint Schedule Name
    50;                       !- Constant Cooling Setpoint

HVACTEMPLATE:THERMOSTAT,
    EU_HeatOnly_39c0751bdd33ba4f_F1_dwelling_0,    !- Name
    ,                         !- Heating Setpoint Schedule Name
    20,                       !- Constant Heating Setpoint
    ,                         !- Cooling Setpoint Schedule Name
    50;                       !- Constant Cooling Setpoint

HVACTEMPLATE:ZONE:IDEALLOADSAIRSYSTEM,
    39c0751bdd33ba4f_F0_dwelling_0,    !- Zone Name
    EU_HeatOnly_39c0751bdd33ba4f_F0_dwelling_0,    !- Template Thermostat Name
    EU_AlwaysOn,              !- System Availability Schedule Name
    50,                       !- Maximum Heating Supply Air Temperature
    13,                       !- Minimum Cooling Supply Air Temperature
    0.0156,                   !- Maximum Heating Supply Air Humidity Ratio
    0.0077,                   !- Minimum Cooling Supply Air Humidity Ratio
    NoLimit,                  !- Heating Limit
    ,                         !- Maximum Heating Air Flow Rate
    ,                         !- Maximum Sensible Heating Capacity
    NoLimit,                  !- Cooling Limit
    ,                         !- Maximum Cooling Air Flow Rate
    ,                         !- Maximum Total Cooling Capacity
    EU_AlwaysOn,              !- Heating Availability Schedule Name
    EU_CoolingOff,            !- Cooling Availability Schedule Name
    ConstantSensibleHeatRatio,    !- Dehumidification Control Type
    0.7,                      !- Cooling Sensible Heat Ratio
    60,                       !- Dehumidification Setpoint
    None,                     !- Humidification Control Type
    30,                       !- Humidification Setpoint
    None,                     !- Outdoor Air Method
    0.00944,                  !- Outdoor Air Flow Rate per Person
    0.0,                      !- Outdoor Air Flow Rate per Zone Floor Area
    0,                        !- Outdoor Air Flow Rate per Zone
    ,                         !- Design Specification Outdoor Air Object Name
    None,                     !- Demand Controlled Ventilation Type
    NoEconomizer,             !- Outdoor Air Economizer Type
    None,                     !- Heat Recovery Type
    0.70,                     !- Sensible Heat Recovery Effectiveness
    0.65;                     !- Latent Heat Recovery Effectiveness

HVACTEMPLATE:ZONE:IDEALLOADSAIRSYSTEM,
    39c0751bdd33ba4f_F1_dwelling_0,    !- Zone Name
    EU_HeatOnly_39c0751bdd33ba4f_F1_dwelling_0,    !- Template Thermostat Name
    EU_AlwaysOn,              !- System Availability Schedule Name
    50,                       !- Maximum Heating Supply Air Temperature
    13,                       !- Minimum Cooling Supply Air Temperature
    0.0156,                   !- Maximum Heating Supply Air Humidity Ratio
    0.0077,                   !- Minimum Cooling Supply Air Humidity Ratio
    NoLimit,                  !- Heating Limit
    ,                         !- Maximum Heating Air Flow Rate
    ,                         !- Maximum Sensible Heating Capacity
    NoLimit,                  !- Cooling Limit
    ,                         !- Maximum Cooling Air Flow Rate
    ,                         !- Maximum Total Cooling Capacity
    EU_AlwaysOn,              !- Heating Availability Schedule Name
    EU_CoolingOff,            !- Cooling Availability Schedule Name
    ConstantSensibleHeatRatio,    !- Dehumidification Control Type
    0.7,                      !- Cooling Sensible Heat Ratio
    60,                       !- Dehumidification Setpoint
    None,                     !- Humidification Control Type
    30,                       !- Humidification Setpoint
    None,                     !- Outdoor Air Method
    0.00944,                  !- Outdoor Air Flow Rate per Person
    0.0,                      !- Outdoor Air Flow Rate per Zone Floor Area
    0,                        !- Outdoor Air Flow Rate per Zone
    ,                         !- Design Specification Outdoor Air Object Name
    None,                     !- Demand Controlled Ventilation Type
    NoEconomizer,             !- Outdoor Air Economizer Type
    None,                     !- Heat Recovery Type
    0.70,                     !- Sensible Heat Recovery Effectiveness
    0.65;                     !- Latent Heat Recovery Effectiveness

SIZING:ZONE,
    39c0751bdd33ba4f_F0_dwelling_0,    !- Zone or ZoneList Name
    SupplyAirTemperature,     !- Zone Cooling Design Supply Air Temperature Input Method
    13,                       !- Zone Cooling Design Supply Air Temperature
    ,                         !- Zone Cooling Design Supply Air Temperature Difference
    SupplyAirTemperature,     !- Zone Heating Design Supply Air Temperature Input Method
    50,                       !- Zone Heating Design Supply Air Temperature
    ,                         !- Zone Heating Design Supply Air Temperature Difference
    0.008,                    !- Zone Cooling Design Supply Air Humidity Ratio
    0.008,                    !- Zone Heating Design Supply Air Humidity Ratio
    ,                         !- Design Specification Outdoor Air Object Name
    ,                         !- Zone Heating Sizing Factor
    ,                         !- Zone Cooling Sizing Factor
    DesignDay,                !- Cooling Design Air Flow Method
    0,                        !- Cooling Design Air Flow Rate
    0.000762,                 !- Cooling Minimum Air Flow per Zone Floor Area
    0,                        !- Cooling Minimum Air Flow
    0.2,                      !- Cooling Minimum Air Flow Fraction
    DesignDay,                !- Heating Design Air Flow Method
    0,                        !- Heating Design Air Flow Rate
    0.002032,                 !- Heating Maximum Air Flow per Zone Floor Area
    0.1415762,                !- Heating Maximum Air Flow
    0.3,                      !- Heating Maximum Air Flow Fraction
    ,                         !- Design Specification Zone Air Distribution Object Name
    No,                       !- Account for Dedicated Outdoor Air System
    NeutralSupplyAir,         !- Dedicated Outdoor Air System Control Strategy
    autosize,                 !- Dedicated Outdoor Air Low Setpoint Temperature for Design
    autosize,                 !- Dedicated Outdoor Air High Setpoint Temperature for Design
    Sensible Load Only No Latent Load,    !- Zone Load Sizing Method
    HumidityRatioDifference,    !- Zone Latent Cooling Design Supply Air Humidity Ratio Input Method
    ,                         !- Zone Dehumidification Design Supply Air Humidity Ratio
    0.005,                    !- Zone Cooling Design Supply Air Humidity Ratio Difference
    HumidityRatioDifference,    !- Zone Latent Heating Design Supply Air Humidity Ratio Input Method
    ,                         !- Zone Humidification Design Supply Air Humidity Ratio
    0.005;                    !- Zone Humidification Design Supply Air Humidity Ratio Difference

SIZING:ZONE,
    39c0751bdd33ba4f_F1_dwelling_0,    !- Zone or ZoneList Name
    SupplyAirTemperature,     !- Zone Cooling Design Supply Air Temperature Input Method
    13,                       !- Zone Cooling Design Supply Air Temperature
    ,                         !- Zone Cooling Design Supply Air Temperature Difference
    SupplyAirTemperature,     !- Zone Heating Design Supply Air Temperature Input Method
    50,                       !- Zone Heating Design Supply Air Temperature
    ,                         !- Zone Heating Design Supply Air Temperature Difference
    0.008,                    !- Zone Cooling Design Supply Air Humidity Ratio
    0.008,                    !- Zone Heating Design Supply Air Humidity Ratio
    ,                         !- Design Specification Outdoor Air Object Name
    ,                         !- Zone Heating Sizing Factor
    ,                         !- Zone Cooling Sizing Factor
    DesignDay,                !- Cooling Design Air Flow Method
    0,                        !- Cooling Design Air Flow Rate
    0.000762,                 !- Cooling Minimum Air Flow per Zone Floor Area
    0,                        !- Cooling Minimum Air Flow
    0.2,                      !- Cooling Minimum Air Flow Fraction
    DesignDay,                !- Heating Design Air Flow Method
    0,                        !- Heating Design Air Flow Rate
    0.002032,                 !- Heating Maximum Air Flow per Zone Floor Area
    0.1415762,                !- Heating Maximum Air Flow
    0.3,                      !- Heating Maximum Air Flow Fraction
    ,                         !- Design Specification Zone Air Distribution Object Name
    No,                       !- Account for Dedicated Outdoor Air System
    NeutralSupplyAir,         !- Dedicated Outdoor Air System Control Strategy
    autosize,                 !- Dedicated Outdoor Air Low Setpoint Temperature for Design
    autosize,                 !- Dedicated Outdoor Air High Setpoint Temperature for Design
    Sensible Load Only No Latent Load,    !- Zone Load Sizing Method
    HumidityRatioDifference,    !- Zone Latent Cooling Design Supply Air Humidity Ratio Input Method
    ,                         !- Zone Dehumidification Design Supply Air Humidity Ratio
    0.005,                    !- Zone Cooling Design Supply Air Humidity Ratio Difference
    HumidityRatioDifference,    !- Zone Latent Heating Design Supply Air Humidity Ratio Input Method
    ,                         !- Zone Humidification Design Supply Air Humidity Ratio
    0.005;                    !- Zone Humidification Design Supply Air Humidity Ratio Difference

OUTPUT:VARIABLE,
    *,                        !- Key Value
    Zone Ideal Loads Zone Total Heating Energy,    !- Variable Name
    Hourly;                   !- Reporting Frequency

OUTPUT:SQLITE,
    SimpleAndTabular,         !- Option Type
    UseOutputControlTableStyle;    !- Unit Conversion for Tabular Data