!- Windows Line endings 

Version,
    23.1;                     !- Version Identifier

SimulationControl,
    Yes,                      !- Do Zone Sizing Calculation
    Yes,                      !- Do System Sizing Calculation
    Yes,                      !- Do Plant Sizing Calculation
    No,                       !- Run Simulation for Sizing Periods
    Yes,                      !- Run Simulation for Weather File Run Periods
    No,                       !- Do HVAC Sizing Simulation for Sizing Periods
    1;                        !- Maximum Number of HVAC Sizing Simulation Passes

Building,
    EU S2 Campaign,           !- Name
    0,                        !- North Axis
    City,                     !- Terrain
    ,                         !- Loads Convergence Tolerance Value
    ,                         !- Temperature Convergence Tolerance Value
    FullExterior,             !- Solar Distribution
    ,                         !- Maximum Number of Warmup Days
    ;                         !- Minimum Number of Warmup Days

ShadowCalculation,
    PolygonClipping,          !- Shading Calculation Method
    Periodic,                 !- Shading Calculation Update Frequency Method
    1;                        !- Shading Calculation Update Frequency

HeatBalanceAlgorithm,
    ConductionTransferFunction,    !- Algorithm
    200,                      !- Surface Temperature Upper Limit
    0.1,                      !- Minimum Surface Convection Heat Transfer Coefficient Value
    10000000;                 !- Maximum Surface Convection Heat Transfer Coefficient Value

Timestep,
    12;                       !- Number of Timesteps per Hour

Site:Location,
    Madrid,                   !- Name
    40.5,                     !- Latitude
    -3.5,                     !- Longitude
    1,                        !- Time Zone
    609;                      !- Elevation

SizingPeriod:WeatherFileDays,
    AnnualSizingPeriod,       !- Name
    1,                        !- Begin Month
    1,                        !- Begin Day of Month
    12,                       !- End Month
    31,                       !- End Day of Month
    Monday,                   !- Day of Week for Start Day
    No,                       !- Use Weather File Daylight Saving Period
    No;                       !- Use Weather File Rain and Snow Indicators

RunPeriod,
    RunPeriod1,               !- Name
    1,                        !- Begin Month
    1,                        !- Begin Day of Month
    ,                         !- Begin Year
    12,                       !- End Month
    31,                       !- End Day of Month
    ,                         !- End Year
    Sunday,                   !- Day of Week for Start Day
    No,                       !- Use Weather File Holidays and Special Days
    No,                       !- Use Weather File Daylight Saving Period
    No,                       !- Apply Weekend Holiday Rule
    Yes,                      !- Use Weather File Rain Indicators
    Yes;                      !- Use Weather File Snow Indicators

ScheduleTypeLimits,
    Any Number;               !- Name

SCHEDULETYPELIMITS,
    EU_Step8_AnyNumber_Wm2,    !- Name
    ,                         !- Lower Limit Value
    ,                         !- Upper Limit Value
    Continuous,               !- Numeric Type
    Dimensionless;            !- Unit Type

SCHEDULE:CONSTANT,
    EU_AlwaysOn,              !- Name
    ,                         !- Schedule Type Limits Name
    1;                        !- Hourly Value

SCHEDULE:CONSTANT,
    EU_CoolingOff,            !- Name
    ,                         !- Schedule Type Limits Name
    0;                        !- Hourly Value

SCHEDULE:FILE,
    EU_Step8_GainSchedule_df231373d46a22f0_F0_whole_f000,    !- Name
    EU_Step8_AnyNumber_Wm2,    !- Schedule Type Limits Name
    ../../schedules/df231373d46a22f0/df231373d46a22f0_F0_whole_f000_gain.csv,    !- File Name
    1,                        !- Column Number
    0,                        !- Rows to Skip at Top
    8760,                     !- Number of Hours of Data
    Comma,                    !- Column Separator
    No,                       !- Interpolate to Timestep
    60,                       !- Minutes per Item
    Yes;                      !- Adjust Schedule for Daylight Savings

SCHEDULE:FILE,
    EU_Step8_GainSchedule_df231373d46a22f0_F1_whole_f000,    !- Name
    EU_Step8_AnyNumber_Wm2,    !- Schedule Type Limits Name
    ../../schedules/df231373d46a22f0/df231373d46a22f0_F1_whole_f000_gain.csv,    !- File Name
    1,                        !- Column Number
    0,                        !- Rows to Skip at Top
    8760,                     !- Number of Hours of Data
    Comma,                    !- Column Separator
    No,                       !- Interpolate to Timestep
    60,                       !- Minutes per Item
    Yes;                      !- Adjust Schedule for Daylight Savings

MATERIAL,
    EU_InternalMass_Material,    !- Name
    MediumRough,              !- Roughness
    0.1,                      !- Thickness
    1,                        !- Conductivity
    1800,                     !- Density
    900,                      !- Specific Heat
    0.9,                      !- Thermal Absorptance
    0.7,                      !- Solar Absorptance
    0.7;                      !- Visible Absorptance

MATERIAL:NOMASS,
    EU_wall_NoMass,           !- Name
    MediumRough,              !- Roughness
    0.6092162551495478,       !- Thermal Resistance
    0.9,                      !- Thermal Absorptance
    0.7,                      !- Solar Absorptance
    0.7;                      !- Visible Absorptance

MATERIAL:NOMASS,
    EU_roof_NoMass,           !- Name
    MediumRough,              !- Roughness
    0.5132681413430042,       !- Thermal Resistance
    0.9,                      !- Thermal Absorptance
    0.7,                      !- Solar Absorptance
    0.7;                      !- Visible Absorptance

MATERIAL:NOMASS,
    EU_floor_NoMass,          !- Name
    MediumRough,              !- Roughness
    0.5681631297219353,       !- Thermal Resistance
    0.9,                      !- Thermal Absorptance
    0.7,                      !- Solar Absorptance
    0.7;                      !- Visible Absorptance

CONSTRUCTION,
    EU_wall_Construction,     !- Name
    EU_wall_NoMass;           !- Outside Layer

CONSTRUCTION,
    EU_roof_Construction,     !- Name
    EU_roof_NoMass;           !- Outside Layer

CONSTRUCTION,
    EU_floor_Construction,    !- Name
    EU_floor_NoMass;          !- Outside Layer

CONSTRUCTION,
    EU_InternalMass_Construction,    !- Name
    EU_InternalMass_Material;    !- Outside Layer

GlobalGeometryRules,
    UpperLeftCorner,          !- Starting Vertex Position
    CounterClockWise,         !- Vertex Entry Direction
    World;                    !- Coordinate System

ZONE,
    df231373d46a22f0_F0_whole,    !- Name
    0,                        !- Direction of Relative North
    0,                        !- X Origin
    0,                        !- Y Origin
    0,                        !- Z Origin
    1,                        !- Type
    1,                        !- Multiplier
    autocalculate,            !- Ceiling Height
    488.98095703125,          !- Volume
    autocalculate,            !- Floor Area
    ,                         !- Zone Inside Convection Algorithm
    ,                         !- Zone Outside Convection Algorithm
    Yes;                      !- Part of Total Floor Area

ZONE,
    df231373d46a22f0_F1_whole,    !- Name
    0,                        !- Direction of Relative North
    0,                        !- X Origin
    0,                        !- Y Origin
    0,                        !- Z Origin
    1,                        !- Type
    1,                        !- Multiplier
    autocalculate,            !- Ceiling Height
    488.981689453125,         !- Volume
    autocalculate,            !- Floor Area
    ,                         !- Zone Inside Convection Algorithm
    ,                         !- Zone Outside Convection Algorithm
    Yes;                      !- Part of Total Floor Area

BUILDINGSURFACE:DETAILED,
    Block df231373d46a22f0_whole Storey 0 Wall 0001,    !- Name
    wall,                     !- Surface Type
    EU_wall_Construction,     !- Construction Name
    df231373d46a22f0_F0_whole,    !- Zone Name
    ,                         !- Space Name
    outdoors,                 !- Outside Boundary Condition
    ,                         !- Outside Boundary Condition Object
    SunExposed,               !- Sun Exposure
    WindExposed,              !- Wind Exposure
    autocalculate,            !- View Factor to Ground
    autocalculate,            !- Number of Vertices
    440278.63,                !- Vertex 1 Xcoordinate
    4479282.145,              !- Vertex 1 Ycoordinate
    4.5,                      !- Vertex 1 Zcoordinate
    440278.63,                !- Vertex 2 Xcoordinate
    4479282.145,              !- Vertex 2 Ycoordinate
    0,                        !- Vertex 2 Zcoordinate
    440277.72,                !- Vertex 3 Xcoordinate
    4479279.71,               !- Vertex 3 Ycoordinate
    0,                        !- Vertex 3 Zcoordinate
    440277.72,                !- Vertex 4 Xcoordinate
    4479279.71,               !- Vertex 4 Ycoordinate
    4.5;                      !- Vertex 4 Zcoordinate

BUILDINGSURFACE:DETAILED,
    Block df231373d46a22f0_whole Storey 0 Wall 0002,    !- Name
    wall,                     !- Surface Type
    EU_wall_Construction,     !- Construction Name
    df231373d46a22f0_F0_whole,    !- Zone Name
    ,                         !- Space Name
    outdoors,                 !- Outside Boundary Condition
    ,                         !- Outside Boundary Condition Object
    SunExposed,               !- Sun Exposure
    WindExposed,              !- Wind Exposure
    autocalculate,            !- View Factor to Ground
    autocalculate,            !- Number of Vertices
    440277.72,                !- Vertex 1 Xcoordinate
    4479279.71,               !- Vertex 1 Ycoordinate
    4.5,                      !- Vertex 1 Zcoordinate
    440277.72,                !- Vertex 2 Xcoordinate
    4479279.71,               !- Vertex 2 Ycoordinate
    0,                        !- Vertex 2 Zcoordinate
    440267.115,               !- Vertex 3 Xcoordinate
    4479282.915,              !- Vertex 3 Ycoordinate
    0,                        !- Vertex 3 Zcoordinate
    440267.115,               !- Vertex 4 Xcoordinate
    4479282.915,              !- Vertex 4 Ycoordinate
    4.5;                      !- Vertex 4 Zcoordinate

BUILDINGSURFACE:DETAILED,
    Block df231373d46a22f0_whole Storey 0 Wall 0003,    !- Name
    wall,                     !- Surface Type
    EU_wall_Construction,     !- Construction Name
    df231373d46a22f0_F0_whole,    !- Zone Name
    ,                         !- Space Name
    outdoors,                 !- Outside Boundary Condition
    ,                         !- Outside Boundary Condition Object
    SunExposed,               !- Sun Exposure
    WindExposed,              !- Wind Exposure
    autocalculate,            !- View Factor to Ground
    autocalculate,            !- Number of Vertices
    440267.115,               !- Vertex 1 Xcoordinate
    4479282.915,              !- Vertex 1 Ycoordinate
    4.5,                      !- Vertex 1 Zcoordinate
    440267.115,               !- Vertex 2 Xcoordinate
    4479282.915,              !- Vertex 2 Ycoordinate
    0,                        !- Vertex 2 Zcoordinate
    440268.345,               !- Vertex 3 Xcoordinate
    4479286.99,               !- Vertex 3 Ycoordinate
    0,                        !- Vertex 3 Zcoordinate
    440268.345,               !- Vertex 4 Xcoordinate
    4479286.99,               !- Vertex 4 Ycoordinate
    4.5;                      !- Vertex 4 Zcoordinate

BUILDINGSURFACE:DETAILED,
    Block df231373d46a22f0_whole Storey 0 Wall 0004,    !- Name
    wall,                     !- Surface Type
    EU_wall_Construction,     !- Construction Name
    df231373d46a22f0_F0_whole,    !- Zone Name
    ,                         !- Space Name
    Adiabatic,                !- Outside Boundary Condition
    ,                         !- Outside Boundary Condition Object
    NoSun,                    !- Sun Exposure
    NoWind,                   !- Wind Exposure
    autocalculate,            !- View Factor to Ground
    autocalculate,            !- Number of Vertices
    440268.345,               !- Vertex 1 Xcoordinate
    4479286.99,               !- Vertex 1 Ycoordinate
    4.5,                      !- Vertex 1 Zcoordinate
    440268.345,               !- Vertex 2 Xcoordinate
    4479286.99,               !- Vertex 2 Ycoordinate
    0,                        !- Vertex 2 Zcoordinate
    440295.525,               !- Vertex 3 Xcoordinate
    4479279.31,               !- Vertex 3 Ycoordinate
    0,                        !- Vertex 3 Zcoordinate
    440295.525,               !- Vertex 4 Xcoordinate
    4479279.31,               !- Vertex 4 Ycoordinate
    4.5;                      !- Vertex 4 Zcoordinate

BUILDINGSURFACE:DETAILED,
    Block df231373d46a22f0_whole Storey 0 Wall 0005,    !- Name
    wall,                     !- Surface Type
    EU_wall_Construction,     !- Construction Name
    df231373d46a22f0_F0_whole,    !- Zone Name
    ,                         !- Space Name
    outdoors,                 !- Outside Boundary Condition
    ,                         !- Outside Boundary Condition Object
    SunExposed,               !- Sun Exposure
    WindExposed,              !- Wind Exposure
    autocalculate,            !- View Factor to Ground
    autocalculate,            !- Number of Vertices
    440295.525,               !- Vertex 1 Xcoordinate
    4479279.31,               !- Vertex 1 Ycoordinate
    4.5,                      !- Vertex 1 Zcoordinate
    440295.525,               !- Vertex 2 Xcoordinate
    4479279.31,               !- Vertex 2 Ycoordinate
    0,                        !- Vertex 2 Zcoordinate
    440293.09,                !- Vertex 3 Xcoordinate
    4479271.74,               !- Vertex 3 Ycoordinate
    0,                        !- Vertex 3 Zcoordinate
    440293.09,                !- Vertex 4 Xcoordinate
    4479271.74,               !- Vertex 4 Ycoordinate
    4.5;                      !- Vertex 4 Zcoordinate

BUILDINGSURFACE:DETAILED,
    Block df231373d46a22f0_whole Storey 0 Wall 0006,    !- Name
    wall,                     !- Surface Type
    EU_wall_Construction,     !- Construction Name
    df231373d46a22f0_F0_whole,    !- Zone Name
    ,                         !- Space Name
    outdoors,                 !- Outside Boundary Condition
    ,                         !- Outside Boundary Condition Object
    SunExposed,               !- Sun Exposure
    WindExposed,              !- Wind Exposure
    autocalculate,            !- View Factor to Ground
    autocalculate,            !- Number of Vertices
    440293.09,                !- Vertex 1 Xcoordinate
    4479271.74,               !- Vertex 1 Ycoordinate
    4.5,                      !- Vertex 1 Zcoordinate
    440293.09,                !- Vertex 2 Xcoordinate
    4479271.74,               !- Vertex 2 Ycoordinate
    0,                        !- Vertex 2 Zcoordinate
    440280.32,                !- Vertex 3 Xcoordinate
    4479275.16,               !- Vertex 3 Ycoordinate
    0,                        !- Vertex 3 Zcoordinate
    440280.32,                !- Vertex 4 Xcoordinate
    4479275.16,               !- Vertex 4 Ycoordinate
    4.5;                      !- Vertex 4 Zcoordinate

BUILDINGSURFACE:DETAILED,
    Block df231373d46a22f0_whole Storey 0 Wall 0007,    !- Name
    wall,                     !- Surface Type
    EU_wall_Construction,     !- Construction Name
    df231373d46a22f0_F0_whole,    !- Zone Name
    ,                         !- Space Name
    outdoors,                 !- Outside Boundary Condition
    ,                         !- Outside Boundary Condition Object
    SunExposed,               !- Sun Exposure
    WindExposed,              !- Wind Exposure
    autocalculate,            !- View Factor to Ground
    autocalculate,            !- Number of Vertices
    440280.32,                !- Vertex 1 Xcoordinate
    4479275.16,               !- Vertex 1 Ycoordinate
    4.5,                      !- Vertex 1 Zcoordinate
    440280.32,                !- Vertex 2 Xcoordinate
    4479275.16,               !- Vertex 2 Ycoordinate
    0,                        !- Vertex 2 Zcoordinate
    440281.97,                !- Vertex 3 Xcoordinate
    4479281.085,              !- Vertex 3 Ycoordinate
    0,                        !- Vertex 3 Zcoordinate
    440281.97,                !- Vertex 4 Xcoordinate
    4479281.085,              !- Vertex 4 Ycoordinate
    4.5;                      !- Vertex 4 Zcoordinate

BUILDINGSURFACE:DETAILED,
    Block df231373d46a22f0_whole Storey 0 Wall 0008,    !- Name
    wall,                     !- Surface Type
    EU_wall_Construction,     !- Construction Name
    df231373d46a22f0_F0_whole,    !- Zone Name
    ,                         !- Space Name
    outdoors,                 !- Outside Boundary Condition
    ,                         !- Outside Boundary Condition Object
    SunExposed,               !- Sun Exposure
    WindExposed,              !- Wind Exposure
    autocalculate,            !- View Factor to Ground
    autocalculate,            !- Number of Vertices
    440281.97,                !- Vertex 1 Xcoordinate
    4479281.085,              !- Vertex 1 Ycoordinate
    4.5,                      !- Vertex 1 Zcoordinate
    440281.97,                !- Vertex 2 Xcoordinate
    4479281.085,              !- Vertex 2 Ycoordinate
    0,                        !- Vertex 2 Zcoordinate
    440278.63,                !- Vertex 3 Xcoordinate
    4479282.145,              !- Vertex 3 Ycoordinate
    0,                        !- Vertex 3 Zcoordinate
    440278.63,                !- Vertex 4 Xcoordinate
    4479282.145,              !- Vertex 4 Ycoordinate
    4.5;                      !- Vertex 4 Zcoordinate

BUILDINGSURFACE:DETAILED,
    Block df231373d46a22f0_whole Storey 0 Floor 0001,    !- Name
    floor,                    !- Surface Type
    EU_floor_Construction,    !- Construction Name
    df231373d46a22f0_F0_whole,    !- Zone Name
    ,                         !- Space Name
    ground,                   !- Outside Boundary Condition
    ,                         !- Outside Boundary Condition Object
    NoSun,                    !- Sun Exposure
    NoWind,                   !- Wind Exposure
    autocalculate,            !- View Factor to Ground
    autocalculate,            !- Number of Vertices
    440293.09,                !- Vertex 1 Xcoordinate
    4479271.74,               !- Vertex 1 Ycoordinate
    0,                        !- Vertex 1 Zcoordinate
    440295.525,               !- Vertex 2 Xcoordinate
    4479279.31,               !- Vertex 2 Ycoordinate
    0,                        !- Vertex 2 Zcoordinate
    440268.345,               !- Vertex 3 Xcoordinate
    4479286.99,               !- Vertex 3 Ycoordinate
    0,                        !- Vertex 3 Zcoordinate
    440267.115,               !- Vertex 4 Xcoordinate
    4479282.915,              !- Vertex 4 Ycoordinate
    0,                        !- Vertex 4 Zcoordinate
    440277.72,                !- Vertex 5 Xcoordinate
    4479279.71,               !- Vertex 5 Ycoordinate
    0,                        !- Vertex 5 Zcoordinate
    440278.63,                !- Vertex 6 Xcoordinate
    4479282.145,              !- Vertex 6 Ycoordinate
    0,                        !- Vertex 6 Zcoordinate
    440281.97,                !- Vertex 7 Xcoordinate
    4479281.085,              !- Vertex 7 Ycoordinate
    0,                        !- Vertex 7 Zcoordinate
    440280.32,                !- Vertex 8 Xcoordinate
    4479275.16,               !- Vertex 8 Ycoordinate
    0;                        !- Vertex 8 Zcoordinate

BUILDINGSURFACE:DETAILED,
    Block df231373d46a22f0_whole Storey 1 Wall 0001,    !- Name
    wall,                     !- Surface Type
    EU_wall_Construction,     !- Construction Name
    df231373d46a22f0_F1_whole,    !- Zone Name
    ,                         !- Space Name
    outdoors,                 !- Outside Boundary Condition
    ,                         !- Outside Boundary Condition Object
    SunExposed,               !- Sun Exposure
    WindExposed,              !- Wind Exposure
    autocalculate,            !- View Factor to Ground
    autocalculate,            !- Number of Vertices
    440278.63,                !- Vertex 1 Xcoordinate
    4479282.145,              !- Vertex 1 Ycoordinate
    9,                        !- Vertex 1 Zcoordinate
    440278.63,                !- Vertex 2 Xcoordinate
    4479282.145,              !- Vertex 2 Ycoordinate
    4.5,                      !- Vertex 2 Zcoordinate
    440277.72,                !- Vertex 3 Xcoordinate
    4479279.71,               !- Vertex 3 Ycoordinate
    4.5,                      !- Vertex 3 Zcoordinate
    440277.72,                !- Vertex 4 Xcoordinate
    4479279.71,               !- Vertex 4 Ycoordinate
    9;                        !- Vertex 4 Zcoordinate

BUILDINGSURFACE:DETAILED,
    Block df231373d46a22f0_whole Storey 1 Wall 0002,    !- Name
    wall,                     !- Surface Type
    EU_wall_Construction,     !- Construction Name
    df231373d46a22f0_F1_whole,    !- Zone Name
    ,                         !- Space Name
    outdoors,                 !- Outside Boundary Condition
    ,                         !- Outside Boundary Condition Object
    SunExposed,               !- Sun Exposure
    WindExposed,              !- Wind Exposure
    autocalculate,            !- View Factor to Ground
    autocalculate,            !- Number of Vertices
    440277.72,                !- Vertex 1 Xcoordinate
    4479279.71,               !- Vertex 1 Ycoordinate
    9,                        !- Vertex 1 Zcoordinate
    440277.72,                !- Vertex 2 Xcoordinate
    4479279.71,               !- Vertex 2 Ycoordinate
    4.5,                      !- Vertex 2 Zcoordinate
    440267.115,               !- Vertex 3 Xcoordinate
    4479282.915,              !- Vertex 3 Ycoordinate
    4.5,                      !- Vertex 3 Zcoordinate
    440267.115,               !- Vertex 4 Xcoordinate
    4479282.915,              !- Vertex 4 Ycoordinate
    9;                        !- Vertex 4 Zcoordinate

BUILDINGSURFACE:DETAILED,
    Block df231373d46a22f0_whole Storey 1 Wall 0003,    !- Name
    wall,                     !- Surface Type
    EU_wall_Construction,     !- Construction Name
    df231373d46a22f0_F1_whole,    !- Zone Name
    ,                         !- Space Name
    outdoors,                 !- Outside Boundary Condition
    ,                         !- Outside Boundary Condition Object
    SunExposed,               !- Sun Exposure
    WindExposed,              !- Wind Exposure
    autocalculate,            !- View Factor to Ground
    autocalculate,            !- Number of Vertices
    440267.115,               !- Vertex 1 Xcoordinate
    4479282.915,              !- Vertex 1 Ycoordinate
    9,                        !- Vertex 1 Zcoordinate
    440267.115,               !- Vertex 2 Xcoordinate
    4479282.915,              !- Vertex 2 Ycoordinate
    4.5,                      !- Vertex 2 Zcoordinate
    440268.345,               !- Vertex 3 Xcoordinate
    4479286.99,               !- Vertex 3 Ycoordinate
    4.5,                      !- Vertex 3 Zcoordinate
    440268.345,               !- Vertex 4 Xcoordinate
    4479286.99,               !- Vertex 4 Ycoordinate
    9;                        !- Vertex 4 Zcoordinate

BUILDINGSURFACE:DETAILED,
    Block df231373d46a22f0_whole Storey 1 Wall 0004,    !- Name
    wall,                     !- Surface Type
    EU_wall_Construction,     !- Construction Name
    df231373d46a22f0_F1_whole,    !- Zone Name
    ,                         !- Space Name
    Adiabatic,                !- Outside Boundary Condition
    ,                         !- Outside Boundary Condition Object
    NoSun,                    !- Sun Exposure
    NoWind,                   !- Wind Exposure
    autocalculate,            !- View Factor to Ground
    autocalculate,            !- Number of Vertices
    440268.345,               !- Vertex 1 Xcoordinate
    4479286.99,               !- Vertex 1 Ycoordinate
    9,                        !- Vertex 1 Zcoordinate
    440268.345,               !- Vertex 2 Xcoordinate
    4479286.99,               !- Vertex 2 Ycoordinate
    4.5,                      !- Vertex 2 Zcoordinate
    440295.525,               !- Vertex 3 Xcoordinate
    4479279.31,               !- Vertex 3 Ycoordinate
    4.5,                      !- Vertex 3 Zcoordinate
    440295.525,               !- Vertex 4 Xcoordinate
    4479279.31,               !- Vertex 4 Ycoordinate
    9;                        !- Vertex 4 Zcoordinate

BUILDINGSURFACE:DETAILED,
    Block df231373d46a22f0_whole Storey 1 Wall 0005,    !- Name
    wall,                     !- Surface Type
    EU_wall_Construction,     !- Construction Name
    df231373d46a22f0_F1_whole,    !- Zone Name
    ,                         !- Space Name
    outdoors,                 !- Outside Boundary Condition
    ,                         !- Outside Boundary Condition Object
    SunExposed,               !- Sun Exposure
    WindExposed,              !- Wind Exposure
    autocalculate,            !- View Factor to Ground
    autocalculate,            !- Number of Vertices
    440295.525,               !- Vertex 1 Xcoordinate
    4479279.31,               !- Vertex 1 Ycoordinate
    9,                        !- Vertex 1 Zcoordinate
    440295.525,               !- Vertex 2 Xcoordinate
    4479279.31,               !- Vertex 2 Ycoordinate
    4.5,                      !- Vertex 2 Zcoordinate
    440293.09,                !- Vertex 3 Xcoordinate
    4479271.74,               !- Vertex 3 Ycoordinate
    4.5,                      !- Vertex 3 Zcoordinate
    440293.09,                !- Vertex 4 Xcoordinate
    4479271.74,               !- Vertex 4 Ycoordinate
    9;                        !- Vertex 4 Zcoordinate

BUILDINGSURFACE:DETAILED,
    Block df231373d46a22f0_whole Storey 1 Wall 0006,    !- Name
    wall,                     !- Surface Type
    EU_wall_Construction,     !- Construction Name
    df231373d46a22f0_F1_whole,    !- Zone Name
    ,                         !- Space Name
    outdoors,                 !- Outside Boundary Condition
    ,                         !- Outside Boundary Condition Object
    SunExposed,               !- Sun Exposure
    WindExposed,              !- Wind Exposure
    autocalculate,            !- View Factor to Ground
    autocalculate,            !- Number of Vertices
    440293.09,                !- Vertex 1 Xcoordinate
    4479271.74,               !- Vertex 1 Ycoordinate
    9,                        !- Vertex 1 Zcoordinate
    440293.09,                !- Vertex 2 Xcoordinate
    4479271.74,               !- Vertex 2 Ycoordinate
    4.5,                      !- Vertex 2 Zcoordinate
    440280.32,                !- Vertex 3 Xcoordinate
    4479275.16,               !- Vertex 3 Ycoordinate
    4.5,                      !- Vertex 3 Zcoordinate
    440280.32,                !- Vertex 4 Xcoordinate
    4479275.16,               !- Vertex 4 Ycoordinate
    9;                        !- Vertex 4 Zcoordinate

BUILDINGSURFACE:DETAILED,
    Block df231373d46a22f0_whole Storey 1 Wall 0007,    !- Name
    wall,                     !- Surface Type
    EU_wall_Construction,     !- Construction Name
    df231373d46a22f0_F1_whole,    !- Zone Name
    ,                         !- Space Name
    outdoors,                 !- Outside Boundary Condition
    ,                         !- Outside Boundary Condition Object
    SunExposed,               !- Sun Exposure
    WindExposed,              !- Wind Exposure
    autocalculate,            !- View Factor to Ground
    autocalculate,            !- Number of Vertices
    440280.32,                !- Vertex 1 Xcoordinate
    4479275.16,               !- Vertex 1 Ycoordinate
    9,                        !- Vertex 1 Zcoordinate
    440280.32,                !- Vertex 2 Xcoordinate
    4479275.16,               !- Vertex 2 Ycoordinate
    4.5,                      !- Vertex 2 Zcoordinate
    440281.97,                !- Vertex 3 Xcoordinate
    4479281.085,              !- Vertex 3 Ycoordinate
    4.5,                      !- Vertex 3 Zcoordinate
    440281.97,                !- Vertex 4 Xcoordinate
    4479281.085,              !- Vertex 4 Ycoordinate
    9;                        !- Vertex 4 Zcoordinate

BUILDINGSURFACE:DETAILED,
    Block df231373d46a22f0_whole Storey 1 Wall 0008,    !- Name
    wall,                     !- Surface Type
    EU_wall_Construction,     !- Construction Name
    df231373d46a22f0_F1_whole,    !- Zone Name
    ,                         !- Space Name
    outdoors,                 !- Outside Boundary Condition
    ,                         !- Outside Boundary Condition Object
    SunExposed,               !- Sun Exposure
    WindExposed,              !- Wind Exposure
    autocalculate,            !- View Factor to Ground
    autocalculate,            !- Number of Vertices
    440281.97,                !- Vertex 1 Xcoordinate
    4479281.085,              !- Vertex 1 Ycoordinate
    9,                        !- Vertex 1 Zcoordinate
    440281.97,                !- Vertex 2 Xcoordinate
    4479281.085,              !- Vertex 2 Ycoordinate
    4.5,                      !- Vertex 2 Zcoordinate
    440278.63,                !- Vertex 3 Xcoordinate
    4479282.145,              !- Vertex 3 Ycoordinate
    4.5,                      !- Vertex 3 Zcoordinate
    440278.63,                !- Vertex 4 Xcoordinate
    4479282.145,              !- Vertex 4 Ycoordinate
    9;                        !- Vertex 4 Zcoordinate

BUILDINGSURFACE:DETAILED,
    Block df231373d46a22f0_whole Storey 1 Roof 0001,    !- Name
    roof,                     !- Surface Type
    EU_roof_Construction,     !- Construction Name
    df231373d46a22f0_F1_whole,    !- Zone Name
    ,                         !- Space Name
    outdoors,                 !- Outside Boundary Condition
    ,                         !- Outside Boundary Condition Object
    NoSun,                    !- Sun Exposure
    WindExposed,              !- Wind Exposure
    autocalculate,            !- View Factor to Ground
    autocalculate,            !- Number of Vertices
    440295.525,               !- Vertex 1 Xcoordinate
    4479279.31,               !- Vertex 1 Ycoordinate
    9,                        !- Vertex 1 Zcoordinate
    440293.09,                !- Vertex 2 Xcoordinate
    4479271.74,               !- Vertex 2 Ycoordinate
    9,                        !- Vertex 2 Zcoordinate
    440280.32,                !- Vertex 3 Xcoordinate
    4479275.16,               !- Vertex 3 Ycoordinate
    9,                        !- Vertex 3 Zcoordinate
    440281.97,                !- Vertex 4 Xcoordinate
    4479281.085,              !- Vertex 4 Ycoordinate
    9,                        !- Vertex 4 Zcoordinate
    440278.63,                !- Vertex 5 Xcoordinate
    4479282.145,              !- Vertex 5 Ycoordinate
    9,                        !- Vertex 5 Zcoordinate
    440277.72,                !- Vertex 6 Xcoordinate
    4479279.71,               !- Vertex 6 Ycoordinate
    9,                        !- Vertex 6 Zcoordinate
    440267.115,               !- Vertex 7 Xcoordinate
    4479282.915,              !- Vertex 7 Ycoordinate
    9,                        !- Vertex 7 Zcoordinate
    440268.345,               !- Vertex 8 Xcoordinate
    4479286.99,               !- Vertex 8 Ycoordinate
    9;                        !- Vertex 8 Zcoordinate

BUILDINGSURFACE:DETAILED,
    Block df231373d46a22f0_whole Storey 0 Ceiling 0001_1,    !- Name
    ceiling,                  !- Surface Type
    EU_floor_Construction,    !- Construction Name
    df231373d46a22f0_F0_whole,    !- Zone Name
    ,                         !- Space Name
    Surface,                  !- Outside Boundary Condition
    Block df231373d46a22f0_whole Storey 1 Floor 0001_1,    !- Outside Boundary Condition Object
    NoSun,                    !- Sun Exposure
    NoWind,                   !- Wind Exposure
    autocalculate,            !- View Factor to Ground
    autocalculate,            !- Number of Vertices
    440295.5249999999,        !- Vertex 1 Xcoordinate
    4479279.31,               !- Vertex 1 Ycoordinate
    4.5,                      !- Vertex 1 Zcoordinate
    440293.08999999985,       !- Vertex 2 Xcoordinate
    4479271.74,               !- Vertex 2 Ycoordinate
    4.5,                      !- Vertex 2 Zcoordinate
    440280.31999999983,       !- Vertex 3 Xcoordinate
    4479275.16,               !- Vertex 3 Ycoordinate
    4.5,                      !- Vertex 3 Zcoordinate
    440281.96999999974,       !- Vertex 4 Xcoordinate
    4479281.085,              !- Vertex 4 Ycoordinate
    4.5,                      !- Vertex 4 Zcoordinate
    440278.6299999999,        !- Vertex 5 Xcoordinate
    4479282.145,              !- Vertex 5 Ycoordinate
    4.5,                      !- Vertex 5 Zcoordinate
    440277.71999999974,       !- Vertex 6 Xcoordinate
    4479279.71,               !- Vertex 6 Ycoordinate
    4.5,                      !- Vertex 6 Zcoordinate
    440267.11499999976,       !- Vertex 7 Xcoordinate
    4479282.915,              !- Vertex 7 Ycoordinate
    4.5,                      !- Vertex 7 Zcoordinate
    440268.34499999974,       !- Vertex 8 Xcoordinate
    4479286.99,               !- Vertex 8 Ycoordinate
    4.5;                      !- Vertex 8 Zcoordinate

BUILDINGSURFACE:DETAILED,
    Block df231373d46a22f0_whole Storey 1 Floor 0001_1,    !- Name
    floor,                    !- Surface Type
    EU_floor_Construction,    !- Construction Name
    df231373d46a22f0_F1_whole,    !- Zone Name
    ,                         !- Space Name
    Surface,                  !- Outside Boundary Condition
    Block df231373d46a22f0_whole Storey 0 Ceiling 0001_1,    !- Outside Boundary Condition Object
    NoSun,                    !- Sun Exposure
    NoWind,                   !- Wind Exposure
    autocalculate,            !- View Factor to Ground
    autocalculate,            !- Number of Vertices
    440293.08999999985,       !- Vertex 1 Xcoordinate
    4479271.74,               !- Vertex 1 Ycoordinate
    4.5,                      !- Vertex 1 Zcoordinate
    440295.5249999999,        !- Vertex 2 Xcoordinate
    4479279.31,               !- Vertex 2 Ycoordinate
    4.5,                      !- Vertex 2 Zcoordinate
    440268.34499999974,       !- Vertex 3 Xcoordinate
    4479286.99,               !- Vertex 3 Ycoordinate
    4.5,                      !- Vertex 3 Zcoordinate
    440267.11499999976,       !- Vertex 4 Xcoordinate
    4479282.915,              !- Vertex 4 Ycoordinate
    4.5,                      !- Vertex 4 Zcoordinate
    440277.71999999974,       !- Vertex 5 Xcoordinate
    4479279.71,               !- Vertex 5 Ycoordinate
    4.5,                      !- Vertex 5 Zcoordinate
    440278.6299999999,        !- Vertex 6 Xcoordinate
    4479282.145,              !- Vertex 6 Ycoordinate
    4.5,                      !- Vertex 6 Zcoordinate
    440281.96999999974,       !- Vertex 7 Xcoordinate
    4479281.085,              !- Vertex 7 Ycoordinate
    4.5,                      !- Vertex 7 Zcoordinate
    440280.31999999983,       !- Vertex 8 Xcoordinate
    4479275.16,               !- Vertex 8 Ycoordinate
    4.5;                      !- Vertex 8 Zcoordinate

INTERNALMASS,
    df231373d46a22f0_F0_whole_EU_InternalMass,    !- Name
    EU_InternalMass_Construction,    !- Construction Name
    df231373d46a22f0_F0_whole,    !- Zone or ZoneList Name
    ,                         !- Space or SpaceList Name
    162.99363749689164;       !- Surface Area

INTERNALMASS,
    df231373d46a22f0_F1_whole_EU_InternalMass,    !- Name
    EU_InternalMass_Construction,    !- Construction Name
    df231373d46a22f0_F1_whole,    !- Zone or ZoneList Name
    ,                         !- Space or SpaceList Name
    162.99363749689164;       !- Surface Area

SHADING:SITE:DETAILED,
    shade_way/432867093_1,    !- Name
    ,                         !- Transmittance Schedule Name
    autocalculate,            !- Number of Vertices
    440325.25487765484,       !- Vertex 1 Xcoordinate
    4479239.2542709485,       !- Vertex 1 Ycoordinate
    9,                        !- Vertex 1 Zcoordinate
    440325.25487765484,       !- Vertex 2 Xcoordinate
    4479239.2542709485,       !- Vertex 2 Ycoordinate
    0,                        !- Vertex 2 Zcoordinate
    440294.5685218692,        !- Vertex 3 Xcoordinate
    4479249.721236692,        !- Vertex 3 Ycoordinate
    0,                        !- Vertex 3 Zcoordinate
    440294.5685218692,        !- Vertex 4 Xcoordinate
    4479249.721236692,        !- Vertex 4 Ycoordinate
    9;                        !- Vertex 4 Zcoordinate

SHADING:SITE:DETAILED,
    shade_way/432867093_2,    !- Name
    ,                         !- Transmittance Schedule Name
    autocalculate,            !- Number of Vertices
    440294.5685218692,        !- Vertex 1 Xcoordinate
    4479249.721236692,        !- Vertex 1 Ycoordinate
    9,                        !- Vertex 1 Zcoordinate
    440294.5685218692,        !- Vertex 2 Xcoordinate
    4479249.721236692,        !- Vertex 2 Ycoordinate
    0,                        !- Vertex 2 Zcoordinate
    440299.28984470625,       !- Vertex 3 Xcoordinate
    4479263.563874174,        !- Vertex 3 Ycoordinate
    0,                        !- Vertex 3 Zcoordinate
    440299.28984470625,       !- Vertex 4 Xcoordinate
    4479263.563874174,        !- Vertex 4 Ycoordinate
    9;                        !- Vertex 4 Zcoordinate

SHADING:SITE:DETAILED,
    shade_way/432867093_3,    !- Name
    ,                         !- Transmittance Schedule Name
    autocalculate,            !- Number of Vertices
    440299.28984470625,       !- Vertex 1 Xcoordinate
    4479263.563874174,        !- Vertex 1 Ycoordinate
    9,                        !- Vertex 1 Zcoordinate
    440299.28984470625,       !- Vertex 2 Xcoordinate
    4479263.563874174,        !- Vertex 2 Ycoordinate
    0,                        !- Vertex 2 Zcoordinate
    440329.97648882464,       !- Vertex 3 Xcoordinate
    4479253.096777344,        !- Vertex 3 Ycoordinate
    0,                        !- Vertex 3 Zcoordinate
    440329.97648882464,       !- Vertex 4 Xcoordinate
    4479253.096777344,        !- Vertex 4 Ycoordinate
    9;                        !- Vertex 4 Zcoordinate

SHADING:SITE:DETAILED,
    shade_way/432867093_4,    !- Name
    ,                         !- Transmittance Schedule Name
    autocalculate,            !- Number of Vertices
    440329.97648882464,       !- Vertex 1 Xcoordinate
    4479253.096777344,        !- Vertex 1 Ycoordinate
    9,                        !- Vertex 1 Zcoordinate
    440329.97648882464,       !- Vertex 2 Xcoordinate
    4479253.096777344,        !- Vertex 2 Ycoordinate
    0,                        !- Vertex 2 Zcoordinate
    440325.25487765484,       !- Vertex 3 Xcoordinate
    4479239.2542709485,       !- Vertex 3 Ycoordinate
    0,                        !- Vertex 3 Zcoordinate
    440325.25487765484,       !- Vertex 4 Xcoordinate
    4479239.2542709485,       !- Vertex 4 Ycoordinate
    9;                        !- Vertex 4 Zcoordinate

SHADING:SITE:DETAILED,
    shade_way/433014849_1,    !- Name
    ,                         !- Transmittance Schedule Name
    autocalculate,            !- Number of Vertices
    440313.03844097466,       !- Vertex 1 Xcoordinate
    4479273.689120981,        !- Vertex 1 Ycoordinate
    12,                       !- Vertex 1 Zcoordinate
    440313.03844097466,       !- Vertex 2 Xcoordinate
    4479273.689120981,        !- Vertex 2 Ycoordinate
    0,                        !- Vertex 2 Zcoordinate
    440319.76429011486,       !- Vertex 3 Xcoordinate
    4479270.992723579,        !- Vertex 3 Ycoordinate
    0,                        !- Vertex 3 Zcoordinate
    440319.76429011486,       !- Vertex 4 Xcoordinate
    4479270.992723579,        !- Vertex 4 Ycoordinate
    12;                       !- Vertex 4 Zcoordinate

SHADING:SITE:DETAILED,
    shade_way/433014849_2,    !- Name
    ,                         !- Transmittance Schedule Name
    autocalculate,            !- Number of Vertices
    440319.76429011486,       !- Vertex 1 Xcoordinate
    4479270.992723579,        !- Vertex 1 Ycoordinate
    12,                       !- Vertex 1 Zcoordinate
    440319.76429011486,       !- Vertex 2 Xcoordinate
    4479270.992723579,        !- Vertex 2 Ycoordinate
    0,                        !- Vertex 2 Zcoordinate
    440315.93391016143,       !- Vertex 3 Xcoordinate
    4479261.437727369,        !- Vertex 3 Ycoordinate
    0,                        !- Vertex 3 Zcoordinate
    440315.93391016143,       !- Vertex 4 Xcoordinate
    4479261.437727369,        !- Vertex 4 Ycoordinate
    12;                       !- Vertex 4 Zcoordinate

SHADING:SITE:DETAILED,
    shade_way/433014849_3,    !- Name
    ,                         !- Transmittance Schedule Name
    autocalculate,            !- Number of Vertices
    440315.93391016143,       !- Vertex 1 Xcoordinate
    4479261.437727369,        !- Vertex 1 Ycoordinate
    12,                       !- Vertex 1 Zcoordinate
    440315.93391016143,       !- Vertex 2 Xcoordinate
    4479261.437727369,        !- Vertex 2 Ycoordinate
    0,                        !- Vertex 2 Zcoordinate
    440309.2075937756,        !- Vertex 3 Xcoordinate
    4479264.13415413,         !- Vertex 3 Ycoordinate
    0,                        !- Vertex 3 Zcoordinate
    440309.2075937756,        !- Vertex 4 Xcoordinate
    4479264.13415413,         !- Vertex 4 Ycoordinate
    12;                       !- Vertex 4 Zcoordinate

SHADING:SITE:DETAILED,
    shade_way/433014849_4,    !- Name
    ,                         !- Transmittance Schedule Name
    autocalculate,            !- Number of Vertices
    440309.2075937756,        !- Vertex 1 Xcoordinate
    4479264.13415413,         !- Vertex 1 Ycoordinate
    12,                       !- Vertex 1 Zcoordinate
    440309.2075937756,        !- Vertex 2 Xcoordinate
    4479264.13415413,         !- Vertex 2 Ycoordinate
    0,                        !- Vertex 2 Zcoordinate
    440313.03844097466,       !- Vertex 3 Xcoordinate
    4479273.689120981,        !- Vertex 3 Ycoordinate
    0,                        !- Vertex 3 Zcoordinate
    440313.03844097466,       !- Vertex 4 Xcoordinate
    4479273.689120981,        !- Vertex 4 Ycoordinate
    12;                       !- Vertex 4 Zcoordinate

SHADING:SITE:DETAILED,
    shade_way/997278115_1,    !- Name
    ,                         !- Transmittance Schedule Name
    autocalculate,            !- Number of Vertices
    440313.03844097466,       !- Vertex 1 Xcoordinate
    4479273.689120981,        !- Vertex 1 Ycoordinate
    12,                       !- Vertex 1 Zcoordinate
    440313.03844097466,       !- Vertex 2 Xcoordinate
    4479273.689120981,        !- Vertex 2 Ycoordinate
    0,                        !- Vertex 2 Zcoordinate
    440309.937344572,         !- Vertex 3 Xcoordinate
    4479264.389219697,        !- Vertex 3 Ycoordinate
    0,                        !- Vertex 3 Zcoordinate
    440309.937344572,         !- Vertex 4 Xcoordinate
    4479264.389219697,        !- Vertex 4 Ycoordinate
    12;                       !- Vertex 4 Zcoordinate

SHADING:SITE:DETAILED,
    shade_way/997278115_2,    !- Name
    ,                         !- Transmittance Schedule Name
    autocalculate,            !- Number of Vertices
    440309.937344572,         !- Vertex 1 Xcoordinate
    4479264.389219697,        !- Vertex 1 Ycoordinate
    12,                       !- Vertex 1 Zcoordinate
    440309.937344572,         !- Vertex 2 Xcoordinate
    4479264.389219697,        !- Vertex 2 Ycoordinate
    0,                        !- Vertex 2 Zcoordinate
    440307.78052675753,       !- Vertex 3 Xcoordinate
    4479265.108509815,        !- Vertex 3 Ycoordinate
    0,                        !- Vertex 3 Zcoordinate
    440307.78052675753,       !- Vertex 4 Xcoordinate
    4479265.108509815,        !- Vertex 4 Ycoordinate
    12;                       !- Vertex 4 Zcoordinate

SHADING:SITE:DETAILED,
    shade_way/997278115_3,    !- Name
    ,                         !- Transmittance Schedule Name
    autocalculate,            !- Number of Vertices
    440307.78052675753,       !- Vertex 1 Xcoordinate
    4479265.108509815,        !- Vertex 1 Ycoordinate
    12,                       !- Vertex 1 Zcoordinate
    440307.78052675753,       !- Vertex 2 Xcoordinate
    4479265.108509815,        !- Vertex 2 Ycoordinate
    0,                        !- Vertex 2 Zcoordinate
    440310.88162316056,       !- Vertex 3 Xcoordinate
    4479274.4084111,          !- Vertex 3 Ycoordinate
    0,                        !- Vertex 3 Zcoordinate
    440310.88162316056,       !- Vertex 4 Xcoordinate
    4479274.4084111,          !- Vertex 4 Ycoordinate
    12;                       !- Vertex 4 Zcoordinate

SHADING:SITE:DETAILED,
    shade_way/997278115_4,    !- Name
    ,                         !- Transmittance Schedule Name
    autocalculate,            !- Number of Vertices
    440310.88162316056,       !- Vertex 1 Xcoordinate
    4479274.4084111,          !- Vertex 1 Ycoordinate
    12,                       !- Vertex 1 Zcoordinate
    440310.88162316056,       !- Vertex 2 Xcoordinate
    4479274.4084111,          !- Vertex 2 Ycoordinate
    0,                        !- Vertex 2 Zcoordinate
    440313.03844097466,       !- Vertex 3 Xcoordinate
    4479273.689120981,        !- Vertex 3 Ycoordinate
    0,                        !- Vertex 3 Zcoordinate
    440313.03844097466,       !- Vertex 4 Xcoordinate
    4479273.689120981,        !- Vertex 4 Ycoordinate
    12;                       !- Vertex 4 Zcoordinate

SHADING:SITE:DETAILED,
    shade_way/433014848_1,    !- Name
    ,                         !- Transmittance Schedule Name
    autocalculate,            !- Number of Vertices
    440300.6700749057,        !- Vertex 1 Xcoordinate
    4479268.0007824255,       !- Vertex 1 Ycoordinate
    3,                        !- Vertex 1 Zcoordinate
    440300.6700749057,        !- Vertex 2 Xcoordinate
    4479268.0007824255,       !- Vertex 2 Ycoordinate
    0,                        !- Vertex 2 Zcoordinate
    440303.4403580506,        !- Vertex 3 Xcoordinate
    4479277.04328949,         !- Vertex 3 Ycoordinate
    0,                        !- Vertex 3 Zcoordinate
    440303.4403580506,        !- Vertex 4 Xcoordinate
    4479277.04328949,         !- Vertex 4 Ycoordinate
    3;                        !- Vertex 4 Zcoordinate

SHADING:SITE:DETAILED,
    shade_way/433014848_2,    !- Name
    ,                         !- Transmittance Schedule Name
    autocalculate,            !- Number of Vertices
    440303.4403580506,        !- Vertex 1 Xcoordinate
    4479277.04328949,         !- Vertex 1 Ycoordinate
    3,                        !- Vertex 1 Zcoordinate
    440303.4403580506,        !- Vertex 2 Xcoordinate
    4479277.04328949,         !- Vertex 2 Ycoordinate
    0,                        !- Vertex 2 Zcoordinate
    440309.194993275,         !- Vertex 3 Xcoordinate
    4479275.280286281,        !- Vertex 3 Ycoordinate
    0,                        !- Vertex 3 Zcoordinate
    440309.194993275,         !- Vertex 4 Xcoordinate
    4479275.280286281,        !- Vertex 4 Ycoordinate
    3;                        !- Vertex 4 Zcoordinate

SHADING:SITE:DETAILED,
    shade_way/433014848_3,    !- Name
    ,                         !- Transmittance Schedule Name
    autocalculate,            !- Number of Vertices
    440309.194993275,         !- Vertex 1 Xcoordinate
    4479275.280286281,        !- Vertex 1 Ycoordinate
    3,                        !- Vertex 1 Zcoordinate
    440309.194993275,         !- Vertex 2 Xcoordinate
    4479275.280286281,        !- Vertex 2 Ycoordinate
    0,                        !- Vertex 2 Zcoordinate
    440306.424898203,         !- Vertex 3 Xcoordinate
    4479266.237753598,        !- Vertex 3 Ycoordinate
    0,                        !- Vertex 3 Zcoordinate
    440306.424898203,         !- Vertex 4 Xcoordinate
    4479266.237753598,        !- Vertex 4 Ycoordinate
    3;                        !- Vertex 4 Zcoordinate

SHADING:SITE:DETAILED,
    shade_way/433014848_4,    !- Name
    ,                         !- Transmittance Schedule Name
    autocalculate,            !- Number of Vertices
    440306.424898203,         !- Vertex 1 Xcoordinate
    4479266.237753598,        !- Vertex 1 Ycoordinate
    3,                        !- Vertex 1 Zcoordinate
    440306.424898203,         !- Vertex 2 Xcoordinate
    4479266.237753598,        !- Vertex 2 Ycoordinate
    0,                        !- Vertex 2 Zcoordinate
    440300.6700749057,        !- Vertex 3 Xcoordinate
    4479268.0007824255,       !- Vertex 3 Ycoordinate
    0,                        !- Vertex 3 Zcoordinate
    440300.6700749057,        !- Vertex 4 Xcoordinate
    4479268.0007824255,       !- Vertex 4 Ycoordinate
    3;                        !- Vertex 4 Zcoordinate

SHADING:SITE:DETAILED,
    shade_way/433014847_1,    !- Name
    ,                         !- Transmittance Schedule Name
    autocalculate,            !- Number of Vertices
    440313.61035451177,       !- Vertex 1 Xcoordinate
    4479282.72812985,         !- Vertex 1 Ycoordinate
    12,                       !- Vertex 1 Zcoordinate
    440313.61035451177,       !- Vertex 2 Xcoordinate
    4479282.72812985,         !- Vertex 2 Ycoordinate
    0,                        !- Vertex 2 Zcoordinate
    440311.00040072773,       !- Vertex 3 Xcoordinate
    4479274.3603170905,       !- Vertex 3 Ycoordinate
    0,                        !- Vertex 3 Zcoordinate
    440311.00040072773,       !- Vertex 4 Xcoordinate
    4479274.3603170905,       !- Vertex 4 Ycoordinate
    12;                       !- Vertex 4 Zcoordinate

SHADING:SITE:DETAILED,
    shade_way/433014847_2,    !- Name
    ,                         !- Transmittance Schedule Name
    autocalculate,            !- Number of Vertices
    440311.00040072773,       !- Vertex 1 Xcoordinate
    4479274.3603170905,       !- Vertex 1 Ycoordinate
    12,                       !- Vertex 1 Zcoordinate
    440311.00040072773,       !- Vertex 2 Xcoordinate
    4479274.3603170905,       !- Vertex 2 Ycoordinate
    0,                        !- Vertex 2 Zcoordinate
    440303.3549713461,        !- Vertex 3 Xcoordinate
    4479276.745108157,        !- Vertex 3 Ycoordinate
    0,                        !- Vertex 3 Zcoordinate
    440303.3549713461,        !- Vertex 4 Xcoordinate
    4479276.745108157,        !- Vertex 4 Ycoordinate
    12;                       !- Vertex 4 Zcoordinate

SHADING:SITE:DETAILED,
    shade_way/433014847_3,    !- Name
    ,                         !- Transmittance Schedule Name
    autocalculate,            !- Number of Vertices
    440303.3549713461,        !- Vertex 1 Xcoordinate
    4479276.745108157,        !- Vertex 1 Ycoordinate
    12,                       !- Vertex 1 Zcoordinate
    440303.3549713461,        !- Vertex 2 Xcoordinate
    4479276.745108157,        !- Vertex 2 Ycoordinate
    0,                        !- Vertex 2 Zcoordinate
    440305.96495237795,       !- Vertex 3 Xcoordinate
    4479285.112697866,        !- Vertex 3 Ycoordinate
    0,                        !- Vertex 3 Zcoordinate
    440305.96495237795,       !- Vertex 4 Xcoordinate
    4479285.112697866,        !- Vertex 4 Ycoordinate
    12;                       !- Vertex 4 Zcoordinate

SHADING:SITE:DETAILED,
    shade_way/433014847_4,    !- Name
    ,                         !- Transmittance Schedule Name
    autocalculate,            !- Number of Vertices
    440305.96495237795,       !- Vertex 1 Xcoordinate
    4479285.112697866,        !- Vertex 1 Ycoordinate
    12,                       !- Vertex 1 Zcoordinate
    440305.96495237795,       !- Vertex 2 Xcoordinate
    4479285.112697866,        !- Vertex 2 Ycoordinate
    0,                        !- Vertex 2 Zcoordinate
    440313.61035451177,       !- Vertex 3 Xcoordinate
    4479282.72812985,         !- Vertex 3 Ycoordinate
    0,                        !- Vertex 3 Zcoordinate
    440313.61035451177,       !- Vertex 4 Xcoordinate
    4479282.72812985,         !- Vertex 4 Ycoordinate
    12;                       !- Vertex 4 Zcoordinate

SHADING:SITE:DETAILED,
    shade_way/433014846_1,    !- Name
    ,                         !- Transmittance Schedule Name
    autocalculate,            !- Number of Vertices
    440309.41677163757,       !- Vertex 1 Xcoordinate
    4479295.86399922,         !- Vertex 1 Ycoordinate
    12,                       !- Vertex 1 Zcoordinate
    440309.41677163757,       !- Vertex 2 Xcoordinate
    4479295.86399922,         !- Vertex 2 Ycoordinate
    0,                        !- Vertex 2 Zcoordinate
    440326.6210986904,        !- Vertex 3 Xcoordinate
    4479289.582553506,        !- Vertex 3 Ycoordinate
    0,                        !- Vertex 3 Zcoordinate
    440326.6210986904,        !- Vertex 4 Xcoordinate
    4479289.582553506,        !- Vertex 4 Ycoordinate
    12;                       !- Vertex 4 Zcoordinate

SHADING:SITE:DETAILED,
    shade_way/433014846_2,    !- Name
    ,                         !- Transmittance Schedule Name
    autocalculate,            !- Number of Vertices
    440326.6210986904,        !- Vertex 1 Xcoordinate
    4479289.582553506,        !- Vertex 1 Ycoordinate
    12,                       !- Vertex 1 Zcoordinate
    440326.6210986904,        !- Vertex 2 Xcoordinate
    4479289.582553506,        !- Vertex 2 Ycoordinate
    0,                        !- Vertex 2 Zcoordinate
    440322.73268948187,       !- Vertex 3 Xcoordinate
    4479278.932814168,        !- Vertex 3 Ycoordinate
    0,                        !- Vertex 3 Zcoordinate
    440322.73268948187,       !- Vertex 4 Xcoordinate
    4479278.932814168,        !- Vertex 4 Ycoordinate
    12;                       !- Vertex 4 Zcoordinate

SHADING:SITE:DETAILED,
    shade_way/433014846_3,    !- Name
    ,                         !- Transmittance Schedule Name
    autocalculate,            !- Number of Vertices
    440322.73268948187,       !- Vertex 1 Xcoordinate
    4479278.932814168,        !- Vertex 1 Ycoordinate
    12,                       !- Vertex 1 Zcoordinate
    440322.73268948187,       !- Vertex 2 Xcoordinate
    4479278.932814168,        !- Vertex 2 Ycoordinate
    0,                        !- Vertex 2 Zcoordinate
    440305.52881808346,       !- Vertex 3 Xcoordinate
    4479285.214253532,        !- Vertex 3 Ycoordinate
    0,                        !- Vertex 3 Zcoordinate
    440305.52881808346,       !- Vertex 4 Xcoordinate
    4479285.214253532,        !- Vertex 4 Ycoordinate
    12;                       !- Vertex 4 Zcoordinate

SHADING:SITE:DETAILED,
    shade_way/433014846_4,    !- Name
    ,                         !- Transmittance Schedule Name
    autocalculate,            !- Number of Vertices
    440305.52881808346,       !- Vertex 1 Xcoordinate
    4479285.214253532,        !- Vertex 1 Ycoordinate
    12,                       !- Vertex 1 Zcoordinate
    440305.52881808346,       !- Vertex 2 Xcoordinate
    4479285.214253532,        !- Vertex 2 Ycoordinate
    0,                        !- Vertex 2 Zcoordinate
    440309.41677163757,       !- Vertex 3 Xcoordinate
    4479295.86399922,         !- Vertex 3 Ycoordinate
    0,                        !- Vertex 3 Zcoordinate
    440309.41677163757,       !- Vertex 4 Xcoordinate
    4479295.86399922,         !- Vertex 4 Ycoordinate
    12;                       !- Vertex 4 Zcoordinate

SHADING:SITE:DETAILED,
    shade_way/435943795_1,    !- Name
    ,                         !- Transmittance Schedule Name
    autocalculate,            !- Number of Vertices
    440301.450253639,         !- Vertex 1 Xcoordinate
    4479297.370631281,        !- Vertex 1 Ycoordinate
    12,                       !- Vertex 1 Zcoordinate
    440301.450253639,         !- Vertex 2 Xcoordinate
    4479297.370631281,        !- Vertex 2 Ycoordinate
    0,                        !- Vertex 2 Zcoordinate
    440289.28741693584,       !- Vertex 3 Xcoordinate
    4479303.015656369,        !- Vertex 3 Ycoordinate
    0,                        !- Vertex 3 Zcoordinate
    440289.28741693584,       !- Vertex 4 Xcoordinate
    4479303.015656369,        !- Vertex 4 Ycoordinate
    12;                       !- Vertex 4 Zcoordinate

SHADING:SITE:DETAILED,
    shade_way/435943795_2,    !- Name
    ,                         !- Transmittance Schedule Name
    autocalculate,            !- Number of Vertices
    440289.28741693584,       !- Vertex 1 Xcoordinate
    4479303.015656369,        !- Vertex 1 Ycoordinate
    12,                       !- Vertex 1 Zcoordinate
    440289.28741693584,       !- Vertex 2 Xcoordinate
    4479303.015656369,        !- Vertex 2 Ycoordinate
    0,                        !- Vertex 2 Zcoordinate
    440292.6762456397,        !- Vertex 3 Xcoordinate
    4479310.317487234,        !- Vertex 3 Ycoordinate
    0,                        !- Vertex 3 Zcoordinate
    440292.6762456397,        !- Vertex 4 Xcoordinate
    4479310.317487234,        !- Vertex 4 Ycoordinate
    12;                       !- Vertex 4 Zcoordinate

SHADING:SITE:DETAILED,
    shade_way/435943795_3,    !- Name
    ,                         !- Transmittance Schedule Name
    autocalculate,            !- Number of Vertices
    440292.6762456397,        !- Vertex 1 Xcoordinate
    4479310.317487234,        !- Vertex 1 Ycoordinate
    12,                       !- Vertex 1 Zcoordinate
    440292.6762456397,        !- Vertex 2 Xcoordinate
    4479310.317487234,        !- Vertex 2 Ycoordinate
    0,                        !- Vertex 2 Zcoordinate
    440304.8392780433,        !- Vertex 3 Xcoordinate
    4479304.672131987,        !- Vertex 3 Ycoordinate
    0,                        !- Vertex 3 Zcoordinate
    440304.8392780433,        !- Vertex 4 Xcoordinate
    4479304.672131987,        !- Vertex 4 Ycoordinate
    12;                       !- Vertex 4 Zcoordinate

SHADING:SITE:DETAILED,
    shade_way/435943795_4,    !- Name
    ,                         !- Transmittance Schedule Name
    autocalculate,            !- Number of Vertices
    440304.8392780433,        !- Vertex 1 Xcoordinate
    4479304.672131987,        !- Vertex 1 Ycoordinate
    12,                       !- Vertex 1 Zcoordinate
    440304.8392780433,        !- Vertex 2 Xcoordinate
    4479304.672131987,        !- Vertex 2 Ycoordinate
    0,                        !- Vertex 2 Zcoordinate
    440301.450253639,         !- Vertex 3 Xcoordinate
    4479297.370631281,        !- Vertex 3 Ycoordinate
    0,                        !- Vertex 3 Zcoordinate
    440301.450253639,         !- Vertex 4 Xcoordinate
    4479297.370631281,        !- Vertex 4 Ycoordinate
    12;                       !- Vertex 4 Zcoordinate

SHADING:SITE:DETAILED,
    shade_way/435941324_1,    !- Name
    ,                         !- Transmittance Schedule Name
    autocalculate,            !- Number of Vertices
    440287.2737906853,        !- Vertex 1 Xcoordinate
    4479252.155267569,        !- Vertex 1 Ycoordinate
    9,                        !- Vertex 1 Zcoordinate
    440287.2737906853,        !- Vertex 2 Xcoordinate
    4479252.155267569,        !- Vertex 2 Ycoordinate
    0,                        !- Vertex 2 Zcoordinate
    440270.009852969,         !- Vertex 3 Xcoordinate
    4479256.859496598,        !- Vertex 3 Ycoordinate
    0,                        !- Vertex 3 Zcoordinate
    440270.009852969,         !- Vertex 4 Xcoordinate
    4479256.859496598,        !- Vertex 4 Ycoordinate
    9;                        !- Vertex 4 Zcoordinate

SHADING:SITE:DETAILED,
    shade_way/435941324_2,    !- Name
    ,                         !- Transmittance Schedule Name
    autocalculate,            !- Number of Vertices
    440270.009852969,         !- Vertex 1 Xcoordinate
    4479256.859496598,        !- Vertex 1 Ycoordinate
    9,                        !- Vertex 1 Zcoordinate
    440270.009852969,         !- Vertex 2 Xcoordinate
    4479256.859496598,        !- Vertex 2 Ycoordinate
    0,                        !- Vertex 2 Zcoordinate
    440273.29777618445,       !- Vertex 3 Xcoordinate
    4479268.92613578,         !- Vertex 3 Ycoordinate
    0,                        !- Vertex 3 Zcoordinate
    440273.29777618445,       !- Vertex 4 Xcoordinate
    4479268.92613578,         !- Vertex 4 Ycoordinate
    9;                        !- Vertex 4 Zcoordinate

SHADING:SITE:DETAILED,
    shade_way/435941324_3,    !- Name
    ,                         !- Transmittance Schedule Name
    autocalculate,            !- Number of Vertices
    440273.29777618445,       !- Vertex 1 Xcoordinate
    4479268.92613578,         !- Vertex 1 Ycoordinate
    9,                        !- Vertex 1 Zcoordinate
    440273.29777618445,       !- Vertex 2 Xcoordinate
    4479268.92613578,         !- Vertex 2 Ycoordinate
    0,                        !- Vertex 2 Zcoordinate
    440290.5619091691,        !- Vertex 3 Xcoordinate
    4479264.221832356,        !- Vertex 3 Ycoordinate
    0,                        !- Vertex 3 Zcoordinate
    440290.5619091691,        !- Vertex 4 Xcoordinate
    4479264.221832356,        !- Vertex 4 Ycoordinate
    9;                        !- Vertex 4 Zcoordinate

SHADING:SITE:DETAILED,
    shade_way/435941324_4,    !- Name
    ,                         !- Transmittance Schedule Name
    autocalculate,            !- Number of Vertices
    440290.5619091691,        !- Vertex 1 Xcoordinate
    4479264.221832356,        !- Vertex 1 Ycoordinate
    9,                        !- Vertex 1 Zcoordinate
    440290.5619091691,        !- Vertex 2 Xcoordinate
    4479264.221832356,        !- Vertex 2 Ycoordinate
    0,                        !- Vertex 2 Zcoordinate
    440287.2737906853,        !- Vertex 3 Xcoordinate
    4479252.155267569,        !- Vertex 3 Ycoordinate
    0,                        !- Vertex 3 Zcoordinate
    440287.2737906853,        !- Vertex 4 Xcoordinate
    4479252.155267569,        !- Vertex 4 Ycoordinate
    9;                        !- Vertex 4 Zcoordinate

SHADING:SITE:DETAILED,
    shade_way/435943258_1,    !- Name
    ,                         !- Transmittance Schedule Name
    autocalculate,            !- Number of Vertices
    440238.0612240185,        !- Vertex 1 Xcoordinate
    4479250.642875693,        !- Vertex 1 Ycoordinate
    15,                       !- Vertex 1 Zcoordinate
    440238.0612240185,        !- Vertex 2 Xcoordinate
    4479250.642875693,        !- Vertex 2 Ycoordinate
    0,                        !- Vertex 2 Zcoordinate
    440240.13067668193,       !- Vertex 3 Xcoordinate
    4479285.560315796,        !- Vertex 3 Ycoordinate
    0,                        !- Vertex 3 Zcoordinate
    440240.13067668193,       !- Vertex 4 Xcoordinate
    4479285.560315796,        !- Vertex 4 Ycoordinate
    15;                       !- Vertex 4 Zcoordinate

SHADING:SITE:DETAILED,
    shade_way/435943258_2,    !- Name
    ,                         !- Transmittance Schedule Name
    autocalculate,            !- Number of Vertices
    440240.13067668193,       !- Vertex 1 Xcoordinate
    4479285.560315796,        !- Vertex 1 Ycoordinate
    15,                       !- Vertex 1 Zcoordinate
    440240.13067668193,       !- Vertex 2 Xcoordinate
    4479285.560315796,        !- Vertex 2 Ycoordinate
    0,                        !- Vertex 2 Zcoordinate
    440251.5566717159,        !- Vertex 3 Xcoordinate
    4479284.883148891,        !- Vertex 3 Ycoordinate
    0,                        !- Vertex 3 Zcoordinate
    440251.5566717159,        !- Vertex 4 Xcoordinate
    4479284.883148891,        !- Vertex 4 Ycoordinate
    15;                       !- Vertex 4 Zcoordinate

SHADING:SITE:DETAILED,
    shade_way/435943258_3,    !- Name
    ,                         !- Transmittance Schedule Name
    autocalculate,            !- Number of Vertices
    440251.5566717159,        !- Vertex 1 Xcoordinate
    4479284.883148891,        !- Vertex 1 Ycoordinate
    15,                       !- Vertex 1 Zcoordinate
    440251.5566717159,        !- Vertex 2 Xcoordinate
    4479284.883148891,        !- Vertex 2 Ycoordinate
    0,                        !- Vertex 2 Zcoordinate
    440249.48716869456,       !- Vertex 3 Xcoordinate
    4479249.965678105,        !- Vertex 3 Ycoordinate
    0,                        !- Vertex 3 Zcoordinate
    440249.48716869456,       !- Vertex 4 Xcoordinate
    4479249.965678105,        !- Vertex 4 Ycoordinate
    15;                       !- Vertex 4 Zcoordinate

SHADING:SITE:DETAILED,
    shade_way/435943258_4,    !- Name
    ,                         !- Transmittance Schedule Name
    autocalculate,            !- Number of Vertices
    440249.48716869456,       !- Vertex 1 Xcoordinate
    4479249.965678105,        !- Vertex 1 Ycoordinate
    15,                       !- Vertex 1 Zcoordinate
    440249.48716869456,       !- Vertex 2 Xcoordinate
    4479249.965678105,        !- Vertex 2 Ycoordinate
    0,                        !- Vertex 2 Zcoordinate
    440238.0612240185,        !- Vertex 3 Xcoordinate
    4479250.642875693,        !- Vertex 3 Ycoordinate
    0,                        !- Vertex 3 Zcoordinate
    440238.0612240185,        !- Vertex 4 Xcoordinate
    4479250.642875693,        !- Vertex 4 Ycoordinate
    15;                       !- Vertex 4 Zcoordinate

SHADING:SITE:DETAILED,
    shade_way/435943790_1,    !- Name
    ,                         !- Transmittance Schedule Name
    autocalculate,            !- Number of Vertices
    440260.0923448372,        !- Vertex 1 Xcoordinate
    4479280.57214375,         !- Vertex 1 Ycoordinate
    12,                       !- Vertex 1 Zcoordinate
    440260.0923448372,        !- Vertex 2 Xcoordinate
    4479280.57214375,         !- Vertex 2 Ycoordinate
    0,                        !- Vertex 2 Zcoordinate
    440285.5710859199,        !- Vertex 3 Xcoordinate
    4479273.75564438,         !- Vertex 3 Ycoordinate
    0,                        !- Vertex 3 Zcoordinate
    440285.5710859199,        !- Vertex 4 Xcoordinate
    4479273.75564438,         !- Vertex 4 Ycoordinate
    12;                       !- Vertex 4 Zcoordinate

SHADING:SITE:DETAILED,
    shade_way/435943790_2,    !- Name
    ,                         !- Transmittance Schedule Name
    autocalculate,            !- Number of Vertices
    440285.5710859199,        !- Vertex 1 Xcoordinate
    4479273.75564438,         !- Vertex 1 Ycoordinate
    12,                       !- Vertex 1 Zcoordinate
    440285.5710859199,        !- Vertex 2 Xcoordinate
    4479273.75564438,         !- Vertex 2 Ycoordinate
    0,                        !- Vertex 2 Zcoordinate
    440283.5216838086,        !- Vertex 3 Xcoordinate
    4479266.095259476,        !- Vertex 3 Ycoordinate
    0,                        !- Vertex 3 Zcoordinate
    440283.5216838086,        !- Vertex 4 Xcoordinate
    4479266.095259476,        !- Vertex 4 Ycoordinate
    12;                       !- Vertex 4 Zcoordinate

SHADING:SITE:DETAILED,
    shade_way/435943790_3,    !- Name
    ,                         !- Transmittance Schedule Name
    autocalculate,            !- Number of Vertices
    440283.5216838086,        !- Vertex 1 Xcoordinate
    4479266.095259476,        !- Vertex 1 Ycoordinate
    12,                       !- Vertex 1 Zcoordinate
    440283.5216838086,        !- Vertex 2 Xcoordinate
    4479266.095259476,        !- Vertex 2 Ycoordinate
    0,                        !- Vertex 2 Zcoordinate
    440258.04296277947,       !- Vertex 3 Xcoordinate
    4479272.911646038,        !- Vertex 3 Ycoordinate
    0,                        !- Vertex 3 Zcoordinate
    440258.04296277947,       !- Vertex 4 Xcoordinate
    4479272.911646038,        !- Vertex 4 Ycoordinate
    12;                       !- Vertex 4 Zcoordinate

SHADING:SITE:DETAILED,
    shade_way/435943790_4,    !- Name
    ,                         !- Transmittance Schedule Name
    autocalculate,            !- Number of Vertices
    440258.04296277947,       !- Vertex 1 Xcoordinate
    4479272.911646038,        !- Vertex 1 Ycoordinate
    12,                       !- Vertex 1 Zcoordinate
    440258.04296277947,       !- Vertex 2 Xcoordinate
    4479272.911646038,        !- Vertex 2 Ycoordinate
    0,                        !- Vertex 2 Zcoordinate
    440260.0923448372,        !- Vertex 3 Xcoordinate
    4479280.57214375,         !- Vertex 3 Ycoordinate
    0,                        !- Vertex 3 Zcoordinate
    440260.0923448372,        !- Vertex 4 Xcoordinate
    4479280.57214375,         !- Vertex 4 Ycoordinate
    12;                       !- Vertex 4 Zcoordinate

SHADING:SITE:DETAILED,
    shade_way/435943261_1,    !- Name
    ,                         !- Transmittance Schedule Name
    autocalculate,            !- Number of Vertices
    440241.04514466185,       !- Vertex 1 Xcoordinate
    4479293.900780937,        !- Vertex 1 Ycoordinate
    15,                       !- Vertex 1 Zcoordinate
    440241.04514466185,       !- Vertex 2 Xcoordinate
    4479293.900780937,        !- Vertex 2 Ycoordinate
    0,                        !- Vertex 2 Zcoordinate
    440258.5391132286,        !- Vertex 3 Xcoordinate
    4479289.705263619,        !- Vertex 3 Ycoordinate
    0,                        !- Vertex 3 Zcoordinate
    440258.5391132286,        !- Vertex 4 Xcoordinate
    4479289.705263619,        !- Vertex 4 Ycoordinate
    15;                       !- Vertex 4 Zcoordinate

SHADING:SITE:DETAILED,
    shade_way/435943261_2,    !- Name
    ,                         !- Transmittance Schedule Name
    autocalculate,            !- Number of Vertices
    440258.5391132286,        !- Vertex 1 Xcoordinate
    4479289.705263619,        !- Vertex 1 Ycoordinate
    15,                       !- Vertex 1 Zcoordinate
    440258.5391132286,        !- Vertex 2 Xcoordinate
    4479289.705263619,        !- Vertex 2 Ycoordinate
    0,                        !- Vertex 2 Zcoordinate
    440256.5550763875,        !- Vertex 3 Xcoordinate
    4479281.432932636,        !- Vertex 3 Ycoordinate
    0,                        !- Vertex 3 Zcoordinate
    440256.5550763875,        !- Vertex 4 Xcoordinate
    4479281.432932636,        !- Vertex 4 Ycoordinate
    15;                       !- Vertex 4 Zcoordinate

SHADING:SITE:DETAILED,
    shade_way/435943261_3,    !- Name
    ,                         !- Transmittance Schedule Name
    autocalculate,            !- Number of Vertices
    440256.5550763875,        !- Vertex 1 Xcoordinate
    4479281.432932636,        !- Vertex 1 Ycoordinate
    15,                       !- Vertex 1 Zcoordinate
    440256.5550763875,        !- Vertex 2 Xcoordinate
    4479281.432932636,        !- Vertex 2 Ycoordinate
    0,                        !- Vertex 2 Zcoordinate
    440239.0613970102,        !- Vertex 3 Xcoordinate
    4479285.628034883,        !- Vertex 3 Ycoordinate
    0,                        !- Vertex 3 Zcoordinate
    440239.0613970102,        !- Vertex 4 Xcoordinate
    4479285.628034883,        !- Vertex 4 Ycoordinate
    15;                       !- Vertex 4 Zcoordinate

SHADING:SITE:DETAILED,
    shade_way/435943261_4,    !- Name
    ,                         !- Transmittance Schedule Name
    autocalculate,            !- Number of Vertices
    440239.0613970102,        !- Vertex 1 Xcoordinate
    4479285.628034883,        !- Vertex 1 Ycoordinate
    15,                       !- Vertex 1 Zcoordinate
    440239.0613970102,        !- Vertex 2 Xcoordinate
    4479285.628034883,        !- Vertex 2 Ycoordinate
    0,                        !- Vertex 2 Zcoordinate
    440241.04514466185,       !- Vertex 3 Xcoordinate
    4479293.900780937,        !- Vertex 3 Ycoordinate
    0,                        !- Vertex 3 Zcoordinate
    440241.04514466185,       !- Vertex 4 Xcoordinate
    4479293.900780937,        !- Vertex 4 Ycoordinate
    15;                       !- Vertex 4 Zcoordinate

SHADING:SITE:DETAILED,
    shade_way/435943792_1,    !- Name
    ,                         !- Transmittance Schedule Name
    autocalculate,            !- Number of Vertices
    440303.02562181937,       !- Vertex 1 Xcoordinate
    4479302.17139747,         !- Vertex 1 Ycoordinate
    9,                        !- Vertex 1 Zcoordinate
    440303.02562181937,       !- Vertex 2 Xcoordinate
    4479302.17139747,         !- Vertex 2 Ycoordinate
    0,                        !- Vertex 2 Zcoordinate
    440295.06593338185,       !- Vertex 3 Xcoordinate
    4479277.912569279,        !- Vertex 3 Ycoordinate
    0,                        !- Vertex 3 Zcoordinate
    440295.06593338185,       !- Vertex 4 Xcoordinate
    4479277.912569279,        !- Vertex 4 Ycoordinate
    9;                        !- Vertex 4 Zcoordinate

SHADING:SITE:DETAILED,
    shade_way/435943792_2,    !- Name
    ,                         !- Transmittance Schedule Name
    autocalculate,            !- Number of Vertices
    440295.06593338185,       !- Vertex 1 Xcoordinate
    4479277.912569279,        !- Vertex 1 Ycoordinate
    9,                        !- Vertex 1 Zcoordinate
    440295.06593338185,       !- Vertex 2 Xcoordinate
    4479277.912569279,        !- Vertex 2 Ycoordinate
    0,                        !- Vertex 2 Zcoordinate
    440254.41269689944,       !- Vertex 3 Xcoordinate
    4479291.251511019,        !- Vertex 3 Ycoordinate
    0,                        !- Vertex 3 Zcoordinate
    440254.41269689944,       !- Vertex 4 Xcoordinate
    4479291.251511019,        !- Vertex 4 Ycoordinate
    9;                        !- Vertex 4 Zcoordinate

SHADING:SITE:DETAILED,
    shade_way/435943792_3,    !- Name
    ,                         !- Transmittance Schedule Name
    autocalculate,            !- Number of Vertices
    440254.41269689944,       !- Vertex 1 Xcoordinate
    4479291.251511019,        !- Vertex 1 Ycoordinate
    9,                        !- Vertex 1 Zcoordinate
    440254.41269689944,       !- Vertex 2 Xcoordinate
    4479291.251511019,        !- Vertex 2 Ycoordinate
    0,                        !- Vertex 2 Zcoordinate
    440262.3721811612,        !- Vertex 3 Xcoordinate
    4479315.510217327,        !- Vertex 3 Ycoordinate
    0,                        !- Vertex 3 Zcoordinate
    440262.3721811612,        !- Vertex 4 Xcoordinate
    4479315.510217327,        !- Vertex 4 Ycoordinate
    9;                        !- Vertex 4 Zcoordinate

SHADING:SITE:DETAILED,
    shade_way/435943792_4,    !- Name
    ,                         !- Transmittance Schedule Name
    autocalculate,            !- Number of Vertices
    440262.3721811612,        !- Vertex 1 Xcoordinate
    4479315.510217327,        !- Vertex 1 Ycoordinate
    9,                        !- Vertex 1 Zcoordinate
    440262.3721811612,        !- Vertex 2 Xcoordinate
    4479315.510217327,        !- Vertex 2 Ycoordinate
    0,                        !- Vertex 2 Zcoordinate
    440303.02562181937,       !- Vertex 3 Xcoordinate
    4479302.17139747,         !- Vertex 3 Ycoordinate
    0,                        !- Vertex 3 Zcoordinate
    440303.02562181937,       !- Vertex 4 Xcoordinate
    4479302.17139747,         !- Vertex 4 Ycoordinate
    9;                        !- Vertex 4 Zcoordinate

SHADING:SITE:DETAILED,
    shade_way/435943263_1,    !- Name
    ,                         !- Transmittance Schedule Name
    autocalculate,            !- Number of Vertices
    440255.6669874913,        !- Vertex 1 Xcoordinate
    4479313.9689586,          !- Vertex 1 Ycoordinate
    12,                       !- Vertex 1 Zcoordinate
    440255.6669874913,        !- Vertex 2 Xcoordinate
    4479313.9689586,          !- Vertex 2 Ycoordinate
    0,                        !- Vertex 2 Zcoordinate
    440253.7926387504,        !- Vertex 3 Xcoordinate
    4479297.573274517,        !- Vertex 3 Ycoordinate
    0,                        !- Vertex 3 Zcoordinate
    440253.7926387504,        !- Vertex 4 Xcoordinate
    4479297.573274517,        !- Vertex 4 Ycoordinate
    12;                       !- Vertex 4 Zcoordinate

SHADING:SITE:DETAILED,
    shade_way/435943263_2,    !- Name
    ,                         !- Transmittance Schedule Name
    autocalculate,            !- Number of Vertices
    440253.7926387504,        !- Vertex 1 Xcoordinate
    4479297.573274517,        !- Vertex 1 Ycoordinate
    12,                       !- Vertex 1 Zcoordinate
    440253.7926387504,        !- Vertex 2 Xcoordinate
    4479297.573274517,        !- Vertex 2 Ycoordinate
    0,                        !- Vertex 2 Zcoordinate
    440242.2412879488,        !- Vertex 3 Xcoordinate
    4479298.893691407,        !- Vertex 3 Ycoordinate
    0,                        !- Vertex 3 Zcoordinate
    440242.2412879488,        !- Vertex 4 Xcoordinate
    4479298.893691407,        !- Vertex 4 Ycoordinate
    12;                       !- Vertex 4 Zcoordinate

SHADING:SITE:DETAILED,
    shade_way/435943263_3,    !- Name
    ,                         !- Transmittance Schedule Name
    autocalculate,            !- Number of Vertices
    440242.2412879488,        !- Vertex 1 Xcoordinate
    4479298.893691407,        !- Vertex 1 Ycoordinate
    12,                       !- Vertex 1 Zcoordinate
    440242.2412879488,        !- Vertex 2 Xcoordinate
    4479298.893691407,        !- Vertex 2 Ycoordinate
    0,                        !- Vertex 2 Zcoordinate
    440244.1156454836,        !- Vertex 3 Xcoordinate
    4479315.289619812,        !- Vertex 3 Ycoordinate
    0,                        !- Vertex 3 Zcoordinate
    440244.1156454836,        !- Vertex 4 Xcoordinate
    4479315.289619812,        !- Vertex 4 Ycoordinate
    12;                       !- Vertex 4 Zcoordinate

SHADING:SITE:DETAILED,
    shade_way/435943263_4,    !- Name
    ,                         !- Transmittance Schedule Name
    autocalculate,            !- Number of Vertices
    440244.1156454836,        !- Vertex 1 Xcoordinate
    4479315.289619812,        !- Vertex 1 Ycoordinate
    12,                       !- Vertex 1 Zcoordinate
    440244.1156454836,        !- Vertex 2 Xcoordinate
    4479315.289619812,        !- Vertex 2 Ycoordinate
    0,                        !- Vertex 2 Zcoordinate
    440255.6669874913,        !- Vertex 3 Xcoordinate
    4479313.9689586,          !- Vertex 3 Ycoordinate
    0,                        !- Vertex 3 Zcoordinate
    440255.6669874913,        !- Vertex 4 Xcoordinate
    4479313.9689586,          !- Vertex 4 Ycoordinate
    12;                       !- Vertex 4 Zcoordinate

OTHEREQUIPMENT,
    EU_Step8_InternalGain_df231373d46a22f0_F0_whole_f000,    !- Name
    Electricity,              !- Fuel Type
    df231373d46a22f0_F0_whole,    !- Zone or ZoneList or Space or SpaceList Name
    EU_Step8_GainSchedule_df231373d46a22f0_F0_whole_f000,    !- Schedule Name
    Watts/Area,               !- Design Level Calculation Method
    ,                         !- Design Level
    1,                        !- Power per Zone Floor Area
    ,                         !- Power per Person
    0,                        !- Fraction Latent
    0,                        !- Fraction Radiant
    0,                        !- Fraction Lost
    0,                        !- Carbon Dioxide Generation Rate
    EU_Step8_InternalGains;    !- EndUse Subcategory

OTHEREQUIPMENT,
    EU_Step8_InternalGain_df231373d46a22f0_F1_whole_f000,    !- Name
    Electricity,              !- Fuel Type
    df231373d46a22f0_F1_whole,    !- Zone or ZoneList or Space or SpaceList Name
    EU_Step8_GainSchedule_df231373d46a22f0_F1_whole_f000,    !- Schedule Name
    Watts/Area,               !- Design Level Calculation Method
    ,                         !- Design Level
    1,                        !- Power per Zone Floor Area
    ,                         !- Power per Person
    0,                        !- Fraction Latent
    0,                        !- Fraction Radiant
    0,                        !- Fraction Lost
    0,                        !- Carbon Dioxide Generation Rate
    EU_Step8_InternalGains;    !- EndUse Subcategory

ZONEVENTILATION:DESIGNFLOWRATE,
    EU_ConstantAir_df231373d46a22f0_F0_whole,    !- Name
    df231373d46a22f0_F0_whole,    !- Zone or ZoneList or Space or SpaceList Name
    EU_AlwaysOn,              !- Schedule Name
    AirChanges/Hour,          !- Design Flow Rate Calculation Method
    ,                         !- Design Flow Rate
    ,                         !- Flow Rate per Floor Area
    ,                         !- Flow Rate per Person
    0.7529659427925028,       !- Air Changes per Hour
    Natural,                  !- Ventilation Type
    0,                        !- Fan Pressure Rise
    1,                        !- Fan Total Efficiency
    1,                        !- Constant Term Coefficient
    0,                        !- Temperature Term Coefficient
    0,                        !- Velocity Term Coefficient
    0,                        !- Velocity Squared Term Coefficient
    -100,                     !- Minimum Indoor Temperature
    ,                         !- Minimum Indoor Temperature Schedule Name
    100,                      !- Maximum Indoor Temperature
    ,                         !- Maximum Indoor Temperature Schedule Name
    -100,                     !- Delta Temperature
    ,                         !- Delta Temperature Schedule Name
    -100,                     !- Minimum Outdoor Temperature
    ,                         !- Minimum Outdoor Temperature Schedule Name
    100,                      !- Maximum Outdoor Temperature
    ,                         !- Maximum Outdoor Temperature Schedule Name
    40;                       !- Maximum Wind Speed

ZONEVENTILATION:DESIGNFLOWRATE,
    EU_ConstantAir_df231373d46a22f0_F1_whole,    !- Name
    df231373d46a22f0_F1_whole,    !- Zone or ZoneList or Space or SpaceList Name
    EU_AlwaysOn,              !- Schedule Name
    AirChanges/Hour,          !- Design Flow Rate Calculation Method
    ,                         !- Design Flow Rate
    ,                         !- Flow Rate per Floor Area
    ,                         !- Flow Rate per Person
    0.7529659427925028,       !- Air Changes per Hour
    Natural,                  !- Ventilation Type
    0,                        !- Fan Pressure Rise
    1,                        !- Fan Total Efficiency
    1,                        !- Constant Term Coefficient
    0,                        !- Temperature Term Coefficient
    0,                        !- Velocity Term Coefficient
    0,                        !- Velocity Squared Term Coefficient
    -100,                     !- Minimum Indoor Temperature
    ,                         !- Minimum Indoor Temperature Schedule Name
    100,                      !- Maximum Indoor Temperature
    ,                         !- Maximum Indoor Temperature Schedule Name
    -100,                     !- Delta Temperature
    ,                         !- Delta Temperature Schedule Name
    -100,                     !- Minimum Outdoor Temperature
    ,                         !- Minimum Outdoor Temperature Schedule Name
    100,                      !- Maximum Outdoor Temperature
    ,                         !- Maximum Outdoor Temperature Schedule Name
    40;                       !- Maximum Wind Speed

HVACTEMPLATE:THERMOSTAT,
    EU_HeatOnly_df231373d46a22f0_F0_whole,    !- Name
    ,                         !- Heating Setpoint Schedule Name
    20,                       !- Constant Heating Setpoint
    ,                         !- Cooling Setpoint Schedule Name
    50;                       !- Constant Cooling Setpoint

HVACTEMPLATE:THERMOSTAT,
    EU_HeatOnly_df231373d46a22f0_F1_whole,    !- Name
    ,                         !- Heating Setpoint Schedule Name
    20,                       !- Constant Heating Setpoint
    ,                         !- Cooling Setpoint Schedule Name
    50;                       !- Constant Cooling Setpoint

HVACTEMPLATE:ZONE:IDEALLOADSAIRSYSTEM,
    df231373d46a22f0_F0_whole,    !- Zone Name
    EU_HeatOnly_df231373d46a22f0_F0_whole,    !- Template Thermostat Name
    EU_AlwaysOn,              !- System Availability Schedule Name
    50,                       !- Maximum Heating Supply Air Temperature
    13,                       !- Minimum Cooling Supply Air Temperature
    0.0156,                   !- Maximum Heating Supply Air Humidity Ratio
    0.0077,                   !- Minimum Cooling Supply Air Humidity Ratio
    NoLimit,                  !- Heating Limit
    ,                         !- Maximum Heating Air Flow Rate
    ,                         !- Maximum Sensible Heating Capacity
    NoLimit,                  !- Cooling Limit
    ,                         !- Maximum Cooling Air Flow Rate
    ,                         !- Maximum Total Cooling Capacity
    EU_AlwaysOn,              !- Heating Availability Schedule Name
    EU_CoolingOff,            !- Cooling Availability Schedule Name
    ConstantSensibleHeatRatio,    !- Dehumidification Control Type
    0.7,                      !- Cooling Sensible Heat Ratio
    60,                       !- Dehumidification Setpoint
    None,                     !- Humidification Control Type
    30,                       !- Humidification Setpoint
    None,                     !- Outdoor Air Method
    0.00944,                  !- Outdoor Air Flow Rate per Person
    0.0,                      !- Outdoor Air Flow Rate per Zone Floor Area
    0,                        !- Outdoor Air Flow Rate per Zone
    ,                         !- Design Specification Outdoor Air Object Name
    None,                     !- Demand Controlled Ventilation Type
    NoEconomizer,             !- Outdoor Air Economizer Type
    None,                     !- Heat Recovery Type
    0.70,                     !- Sensible Heat Recovery Effectiveness
    0.65;                     !- Latent Heat Recovery Effectiveness

HVACTEMPLATE:ZONE:IDEALLOADSAIRSYSTEM,
    df231373d46a22f0_F1_whole,    !- Zone Name
    EU_HeatOnly_df231373d46a22f0_F1_whole,    !- Template Thermostat Name
    EU_AlwaysOn,              !- System Availability Schedule Name
    50,                       !- Maximum Heating Supply Air Temperature
    13,                       !- Minimum Cooling Supply Air Temperature
    0.0156,                   !- Maximum Heating Supply Air Humidity Ratio
    0.0077,                   !- Minimum Cooling Supply Air Humidity Ratio
    NoLimit,                  !- Heating Limit
    ,                         !- Maximum Heating Air Flow Rate
    ,                         !- Maximum Sensible Heating Capacity
    NoLimit,                  !- Cooling Limit
    ,                         !- Maximum Cooling Air Flow Rate
    ,                         !- Maximum Total Cooling Capacity
    EU_AlwaysOn,              !- Heating Availability Schedule Name
    EU_CoolingOff,            !- Cooling Availability Schedule Name
    ConstantSensibleHeatRatio,    !- Dehumidification Control Type
    0.7,                      !- Cooling Sensible Heat Ratio
    60,                       !- Dehumidification Setpoint
    None,                     !- Humidification Control Type
    30,                       !- Humidification Setpoint
    None,                     !- Outdoor Air Method
    0.00944,                  !- Outdoor Air Flow Rate per Person
    0.0,                      !- Outdoor Air Flow Rate per Zone Floor Area
    0,                        !- Outdoor Air Flow Rate per Zone
    ,                         !- Design Specification Outdoor Air Object Name
    None,                     !- Demand Controlled Ventilation Type
    NoEconomizer,             !- Outdoor Air Economizer Type
    None,                     !- Heat Recovery Type
    0.70,                     !- Sensible Heat Recovery Effectiveness
    0.65;                     !- Latent Heat Recovery Effectiveness

SIZING:ZONE,
    df231373d46a22f0_F0_whole,    !- Zone or ZoneList Name
    SupplyAirTemperature,     !- Zone Cooling Design Supply Air Temperature Input Method
    13,                       !- Zone Cooling Design Supply Air Temperature
    ,                         !- Zone Cooling Design Supply Air Temperature Difference
    SupplyAirTemperature,     !- Zone Heating Design Supply Air Temperature Input Method
    50,                       !- Zone Heating Design Supply Air Temperature
    ,                         !- Zone Heating Design Supply Air Temperature Difference
    0.008,                    !- Zone Cooling Design Supply Air Humidity Ratio
    0.008,                    !- Zone Heating Design Supply Air Humidity Ratio
    ,                         !- Design Specification Outdoor Air Object Name
    ,                         !- Zone Heating Sizing Factor
    ,                         !- Zone Cooling Sizing Factor
    DesignDay,                !- Cooling Design Air Flow Method
    0,                        !- Cooling Design Air Flow Rate
    0.000762,                 !- Cooling Minimum Air Flow per Zone Floor Area
    0,                        !- Cooling Minimum Air Flow
    0.2,                      !- Cooling Minimum Air Flow Fraction
    DesignDay,                !- Heating Design Air Flow Method
    0,                        !- Heating Design Air Flow Rate
    0.002032,                 !- Heating Maximum Air Flow per Zone Floor Area
    0.1415762,                !- Heating Maximum Air Flow
    0.3,                      !- Heating Maximum Air Flow Fraction
    ,                         !- Design Specification Zone Air Distribution Object Name
    No,                       !- Account for Dedicated Outdoor Air System
    NeutralSupplyAir,         !- Dedicated Outdoor Air System Control Strategy
    autosize,                 !- Dedicated Outdoor Air Low Setpoint Temperature for Design
    autosize,                 !- Dedicated Outdoor Air High Setpoint Temperature for Design
    Sensible Load Only No Latent Load,    !- Zone Load Sizing Method
    HumidityRatioDifference,    !- Zone Latent Cooling Design Supply Air Humidity Ratio Input Method
    ,                         !- Zone Dehumidification Design Supply Air Humidity Ratio
    0.005,                    !- Zone Cooling Design Supply Air Humidity Ratio Difference
    HumidityRatioDifference,    !- Zone Latent Heating Design Supply Air Humidity Ratio Input Method
    ,                         !- Zone Humidification Design Supply Air Humidity Ratio
    0.005;                    !- Zone Humidification Design Supply Air Humidity Ratio Difference

SIZING:ZONE,
    df231373d46a22f0_F1_whole,    !- Zone or ZoneList Name
    SupplyAirTemperature,     !- Zone Cooling Design Supply Air Temperature Input Method
    13,                       !- Zone Cooling Design Supply Air Temperature
    ,                         !- Zone Cooling Design Supply Air Temperature Difference
    SupplyAirTemperature,     !- Zone Heating Design Supply Air Temperature Input Method
    50,                       !- Zone Heating Design Supply Air Temperature
    ,                         !- Zone Heating Design Supply Air Temperature Difference
    0.008,                    !- Zone Cooling Design Supply Air Humidity Ratio
    0.008,                    !- Zone Heating Design Supply Air Humidity Ratio
    ,                         !- Design Specification Outdoor Air Object Name
    ,                         !- Zone Heating Sizing Factor
    ,                         !- Zone Cooling Sizing Factor
    DesignDay,                !- Cooling Design Air Flow Method
    0,                        !- Cooling Design Air Flow Rate
    0.000762,                 !- Cooling Minimum Air Flow per Zone Floor Area
    0,                        !- Cooling Minimum Air Flow
    0.2,                      !- Cooling Minimum Air Flow Fraction
    DesignDay,                !- Heating Design Air Flow Method
    0,                        !- Heating Design Air Flow Rate
    0.002032,                 !- Heating Maximum Air Flow per Zone Floor Area
    0.1415762,                !- Heating Maximum Air Flow
    0.3,                      !- Heating Maximum Air Flow Fraction
    ,                         !- Design Specification Zone Air Distribution Object Name
    No,                       !- Account for Dedicated Outdoor Air System
    NeutralSupplyAir,         !- Dedicated Outdoor Air System Control Strategy
    autosize,                 !- Dedicated Outdoor Air Low Setpoint Temperature for Design
    autosize,                 !- Dedicated Outdoor Air High Setpoint Temperature for Design
    Sensible Load Only No Latent Load,    !- Zone Load Sizing Method
    HumidityRatioDifference,    !- Zone Latent Cooling Design Supply Air Humidity Ratio Input Method
    ,                         !- Zone Dehumidification Design Supply Air Humidity Ratio
    0.005,                    !- Zone Cooling Design Supply Air Humidity Ratio Difference
    HumidityRatioDifference,    !- Zone Latent Heating Design Supply Air Humidity Ratio Input Method
    ,                         !- Zone Humidification Design Supply Air Humidity Ratio
    0.005;                    !- Zone Humidification Design Supply Air Humidity Ratio Difference

OUTPUT:VARIABLE,
    *,                        !- Key Value
    Zone Ideal Loads Zone Total Heating Energy,    !- Variable Name
    Hourly;                   !- Reporting Frequency

OUTPUT:SQLITE,
    SimpleAndTabular,         !- Option Type
    UseOutputControlTableStyle;    !- Unit Conversion for Tabular Data