!- Windows Line endings 

Version,
    23.1;                     !- Version Identifier

SimulationControl,
    Yes,                      !- Do Zone Sizing Calculation
    Yes,                      !- Do System Sizing Calculation
    Yes,                      !- Do Plant Sizing Calculation
    No,                       !- Run Simulation for Sizing Periods
    Yes,                      !- Run Simulation for Weather File Run Periods
    No,                       !- Do HVAC Sizing Simulation for Sizing Periods
    1;                        !- Maximum Number of HVAC Sizing Simulation Passes

Building,
    EU S2 Campaign,           !- Name
    0,                        !- North Axis
    City,                     !- Terrain
    ,                         !- Loads Convergence Tolerance Value
    ,                         !- Temperature Convergence Tolerance Value
    FullExterior,             !- Solar Distribution
    ,                         !- Maximum Number of Warmup Days
    ;                         !- Minimum Number of Warmup Days

ShadowCalculation,
    PolygonClipping,          !- Shading Calculation Method
    Periodic,                 !- Shading Calculation Update Frequency Method
    1;                        !- Shading Calculation Update Frequency

HeatBalanceAlgorithm,
    ConductionTransferFunction,    !- Algorithm
    200,                      !- Surface Temperature Upper Limit
    0.1,                      !- Minimum Surface Convection Heat Transfer Coefficient Value
    10000000;                 !- Maximum Surface Convection Heat Transfer Coefficient Value

Timestep,
    12;                       !- Number of Timesteps per Hour

Site:Location,
    Madrid,                   !- Name
    40.5,                     !- Latitude
    -3.5,                     !- Longitude
    1,                        !- Time Zone
    609;                      !- Elevation

SizingPeriod:WeatherFileDays,
    AnnualSizingPeriod,       !- Name
    1,                        !- Begin Month
    1,                        !- Begin Day of Month
    12,                       !- End Month
    31,                       !- End Day of Month
    Monday,                   !- Day of Week for Start Day
    No,                       !- Use Weather File Daylight Saving Period
    No;                       !- Use Weather File Rain and Snow Indicators

RunPeriod,
    RunPeriod1,               !- Name
    1,                        !- Begin Month
    1,                        !- Begin Day of Month
    ,                         !- Begin Year
    12,                       !- End Month
    31,                       !- End Day of Month
    ,                         !- End Year
    Sunday,                   !- Day of Week for Start Day
    No,                       !- Use Weather File Holidays and Special Days
    No,                       !- Use Weather File Daylight Saving Period
    No,                       !- Apply Weekend Holiday Rule
    Yes,                      !- Use Weather File Rain Indicators
    Yes;                      !- Use Weather File Snow Indicators

ScheduleTypeLimits,
    Any Number;               !- Name

SCHEDULETYPELIMITS,
    EU_Step8_AnyNumber_Wm2,    !- Name
    ,                         !- Lower Limit Value
    ,                         !- Upper Limit Value
    Continuous,               !- Numeric Type
    Dimensionless;            !- Unit Type

SCHEDULE:CONSTANT,
    EU_AlwaysOn,              !- Name
    ,                         !- Schedule Type Limits Name
    1;                        !- Hourly Value

SCHEDULE:CONSTANT,
    EU_CoolingOff,            !- Name
    ,                         !- Schedule Type Limits Name
    0;                        !- Hourly Value

SCHEDULE:FILE,
    EU_Step8_GainSchedule_93cb1d593b2783cf_F0_whole_f000,    !- Name
    EU_Step8_AnyNumber_Wm2,    !- Schedule Type Limits Name
    ../../schedules/93cb1d593b2783cf/93cb1d593b2783cf_F0_whole_f000_gain.csv,    !- File Name
    1,                        !- Column Number
    0,                        !- Rows to Skip at Top
    8760,                     !- Number of Hours of Data
    Comma,                    !- Column Separator
    No,                       !- Interpolate to Timestep
    60,                       !- Minutes per Item
    Yes;                      !- Adjust Schedule for Daylight Savings

SCHEDULE:FILE,
    EU_Step8_GainSchedule_93cb1d593b2783cf_F1_whole_f000,    !- Name
    EU_Step8_AnyNumber_Wm2,    !- Schedule Type Limits Name
    ../../schedules/93cb1d593b2783cf/93cb1d593b2783cf_F1_whole_f000_gain.csv,    !- File Name
    1,                        !- Column Number
    0,                        !- Rows to Skip at Top
    8760,                     !- Number of Hours of Data
    Comma,                    !- Column Separator
    No,                       !- Interpolate to Timestep
    60,                       !- Minutes per Item
    Yes;                      !- Adjust Schedule for Daylight Savings

SCHEDULE:FILE,
    EU_Step8_GainSchedule_93cb1d593b2783cf_F2_whole_f000,    !- Name
    EU_Step8_AnyNumber_Wm2,    !- Schedule Type Limits Name
    ../../schedules/93cb1d593b2783cf/93cb1d593b2783cf_F2_whole_f000_gain.csv,    !- File Name
    1,                        !- Column Number
    0,                        !- Rows to Skip at Top
    8760,                     !- Number of Hours of Data
    Comma,                    !- Column Separator
    No,                       !- Interpolate to Timestep
    60,                       !- Minutes per Item
    Yes;                      !- Adjust Schedule for Daylight Savings

SCHEDULE:FILE,
    EU_Step8_GainSchedule_93cb1d593b2783cf_F3_whole_f000,    !- Name
    EU_Step8_AnyNumber_Wm2,    !- Schedule Type Limits Name
    ../../schedules/93cb1d593b2783cf/93cb1d593b2783cf_F3_whole_f000_gain.csv,    !- File Name
    1,                        !- Column Number
    0,                        !- Rows to Skip at Top
    8760,                     !- Number of Hours of Data
    Comma,                    !- Column Separator
    No,                       !- Interpolate to Timestep
    60,                       !- Minutes per Item
    Yes;                      !- Adjust Schedule for Daylight Savings

SCHEDULE:FILE,
    EU_Step8_GainSchedule_93cb1d593b2783cf_F4_whole_f000,    !- Name
    EU_Step8_AnyNumber_Wm2,    !- Schedule Type Limits Name
    ../../schedules/93cb1d593b2783cf/93cb1d593b2783cf_F4_whole_f000_gain.csv,    !- File Name
    1,                        !- Column Number
    0,                        !- Rows to Skip at Top
    8760,                     !- Number of Hours of Data
    Comma,                    !- Column Separator
    No,                       !- Interpolate to Timestep
    60,                       !- Minutes per Item
    Yes;                      !- Adjust Schedule for Daylight Savings

SCHEDULE:FILE,
    EU_Step8_GainSchedule_93cb1d593b2783cf_F5_whole_f000,    !- Name
    EU_Step8_AnyNumber_Wm2,    !- Schedule Type Limits Name
    ../../schedules/93cb1d593b2783cf/93cb1d593b2783cf_F5_whole_f000_gain.csv,    !- File Name
    1,                        !- Column Number
    0,                        !- Rows to Skip at Top
    8760,                     !- Number of Hours of Data
    Comma,                    !- Column Separator
    No,                       !- Interpolate to Timestep
    60,                       !- Minutes per Item
    Yes;                      !- Adjust Schedule for Daylight Savings

SCHEDULE:FILE,
    EU_Step8_GainSchedule_93cb1d593b2783cf_F6_whole_f000,    !- Name
    EU_Step8_AnyNumber_Wm2,    !- Schedule Type Limits Name
    ../../schedules/93cb1d593b2783cf/93cb1d593b2783cf_F6_whole_f000_gain.csv,    !- File Name
    1,                        !- Column Number
    0,                        !- Rows to Skip at Top
    8760,                     !- Number of Hours of Data
    Comma,                    !- Column Separator
    No,                       !- Interpolate to Timestep
    60,                       !- Minutes per Item
    Yes;                      !- Adjust Schedule for Daylight Savings

SCHEDULE:FILE,
    EU_Step8_GainSchedule_93cb1d593b2783cf_F7_whole_f000,    !- Name
    EU_Step8_AnyNumber_Wm2,    !- Schedule Type Limits Name
    ../../schedules/93cb1d593b2783cf/93cb1d593b2783cf_F7_whole_f000_gain.csv,    !- File Name
    1,                        !- Column Number
    0,                        !- Rows to Skip at Top
    8760,                     !- Number of Hours of Data
    Comma,                    !- Column Separator
    No,                       !- Interpolate to Timestep
    60,                       !- Minutes per Item
    Yes;                      !- Adjust Schedule for Daylight Savings

MATERIAL,
    EU_InternalMass_Material,    !- Name
    MediumRough,              !- Roughness
    0.1,                      !- Thickness
    1,                        !- Conductivity
    1800,                     !- Density
    900,                      !- Specific Heat
    0.9,                      !- Thermal Absorptance
    0.7,                      !- Solar Absorptance
    0.7;                      !- Visible Absorptance

MATERIAL:NOMASS,
    EU_wall_NoMass,           !- Name
    MediumRough,              !- Roughness
    2.1676752431368977,       !- Thermal Resistance
    0.9,                      !- Thermal Absorptance
    0.7,                      !- Solar Absorptance
    0.7;                      !- Visible Absorptance

MATERIAL:NOMASS,
    EU_roof_NoMass,           !- Name
    MediumRough,              !- Roughness
    2.167675243136898,        !- Thermal Resistance
    0.9,                      !- Thermal Absorptance
    0.7,                      !- Solar Absorptance
    0.7;                      !- Visible Absorptance

MATERIAL:NOMASS,
    EU_floor_NoMass,          !- Name
    MediumRough,              !- Roughness
    1.143389139237045,        !- Thermal Resistance
    0.9,                      !- Thermal Absorptance
    0.7,                      !- Solar Absorptance
    0.7;                      !- Visible Absorptance

CONSTRUCTION,
    EU_wall_Construction,     !- Name
    EU_wall_NoMass;           !- Outside Layer

CONSTRUCTION,
    EU_roof_Construction,     !- Name
    EU_roof_NoMass;           !- Outside Layer

CONSTRUCTION,
    EU_floor_Construction,    !- Name
    EU_floor_NoMass;          !- Outside Layer

CONSTRUCTION,
    EU_InternalMass_Construction,    !- Name
    EU_InternalMass_Material;    !- Outside Layer

GlobalGeometryRules,
    UpperLeftCorner,          !- Starting Vertex Position
    CounterClockWise,         !- Vertex Entry Direction
    World;                    !- Coordinate System

ZONE,
    93cb1d593b2783cf_F0_whole,    !- Name
    0,                        !- Direction of Relative North
    0,                        !- X Origin
    0,                        !- Y Origin
    0,                        !- Z Origin
    1,                        !- Type
    1,                        !- Multiplier
    autocalculate,            !- Ceiling Height
    642.283447265625,         !- Volume
    autocalculate,            !- Floor Area
    ,                         !- Zone Inside Convection Algorithm
    ,                         !- Zone Outside Convection Algorithm
    Yes;                      !- Part of Total Floor Area

ZONE,
    93cb1d593b2783cf_F1_whole,    !- Name
    0,                        !- Direction of Relative North
    0,                        !- X Origin
    0,                        !- Y Origin
    0,                        !- Z Origin
    1,                        !- Type
    1,                        !- Multiplier
    autocalculate,            !- Ceiling Height
    642.2841796875,           !- Volume
    autocalculate,            !- Floor Area
    ,                         !- Zone Inside Convection Algorithm
    ,                         !- Zone Outside Convection Algorithm
    Yes;                      !- Part of Total Floor Area

ZONE,
    93cb1d593b2783cf_F2_whole,    !- Name
    0,                        !- Direction of Relative North
    0,                        !- X Origin
    0,                        !- Y Origin
    0,                        !- Z Origin
    1,                        !- Type
    1,                        !- Multiplier
    autocalculate,            !- Ceiling Height
    642.2841796875,           !- Volume
    autocalculate,            !- Floor Area
    ,                         !- Zone Inside Convection Algorithm
    ,                         !- Zone Outside Convection Algorithm
    Yes;                      !- Part of Total Floor Area

ZONE,
    93cb1d593b2783cf_F3_whole,    !- Name
    0,                        !- Direction of Relative North
    0,                        !- X Origin
    0,                        !- Y Origin
    0,                        !- Z Origin
    1,                        !- Type
    1,                        !- Multiplier
    autocalculate,            !- Ceiling Height
    642.2841796875,           !- Volume
    autocalculate,            !- Floor Area
    ,                         !- Zone Inside Convection Algorithm
    ,                         !- Zone Outside Convection Algorithm
    Yes;                      !- Part of Total Floor Area

ZONE,
    93cb1d593b2783cf_F4_whole,    !- Name
    0,                        !- Direction of Relative North
    0,                        !- X Origin
    0,                        !- Y Origin
    0,                        !- Z Origin
    1,                        !- Type
    1,                        !- Multiplier
    autocalculate,            !- Ceiling Height
    642.2841796875,           !- Volume
    autocalculate,            !- Floor Area
    ,                         !- Zone Inside Convection Algorithm
    ,                         !- Zone Outside Convection Algorithm
    Yes;                      !- Part of Total Floor Area

ZONE,
    93cb1d593b2783cf_F5_whole,    !- Name
    0,                        !- Direction of Relative North
    0,                        !- X Origin
    0,                        !- Y Origin
    0,                        !- Z Origin
    1,                        !- Type
    1,                        !- Multiplier
    autocalculate,            !- Ceiling Height
    642.2841796875,           !- Volume
    autocalculate,            !- Floor Area
    ,                         !- Zone Inside Convection Algorithm
    ,                         !- Zone Outside Convection Algorithm
    Yes;                      !- Part of Total Floor Area

ZONE,
    93cb1d593b2783cf_F6_whole,    !- Name
    0,                        !- Direction of Relative North
    0,                        !- X Origin
    0,                        !- Y Origin
    0,                        !- Z Origin
    1,                        !- Type
    1,                        !- Multiplier
    autocalculate,            !- Ceiling Height
    642.2841796875,           !- Volume
    autocalculate,            !- Floor Area
    ,                         !- Zone Inside Convection Algorithm
    ,                         !- Zone Outside Convection Algorithm
    Yes;                      !- Part of Total Floor Area

ZONE,
    93cb1d593b2783cf_F7_whole,    !- Name
    0,                        !- Direction of Relative North
    0,                        !- X Origin
    0,                        !- Y Origin
    0,                        !- Z Origin
    1,                        !- Type
    1,                        !- Multiplier
    autocalculate,            !- Ceiling Height
    642.2841796875,           !- Volume
    autocalculate,            !- Floor Area
    ,                         !- Zone Inside Convection Algorithm
    ,                         !- Zone Outside Convection Algorithm
    Yes;                      !- Part of Total Floor Area

BUILDINGSURFACE:DETAILED,
    Block 93cb1d593b2783cf_whole Storey 0 Wall 0001,    !- Name
    wall,                     !- Surface Type
    EU_wall_Construction,     !- Construction Name
    93cb1d593b2783cf_F0_whole,    !- Zone Name
    ,                         !- Space Name
    Adiabatic,                !- Outside Boundary Condition
    ,                         !- Outside Boundary Condition Object
    NoSun,                    !- Sun Exposure
    NoWind,                   !- Wind Exposure
    autocalculate,            !- View Factor to Ground
    autocalculate,            !- Number of Vertices
    440085.765,               !- Vertex 1 Xcoordinate
    4479404.32,               !- Vertex 1 Ycoordinate
    3,                        !- Vertex 1 Zcoordinate
    440085.765,               !- Vertex 2 Xcoordinate
    4479404.32,               !- Vertex 2 Ycoordinate
    0,                        !- Vertex 2 Zcoordinate
    440076.355,               !- Vertex 3 Xcoordinate
    4479396.425,              !- Vertex 3 Ycoordinate
    0,                        !- Vertex 3 Zcoordinate
    440076.355,               !- Vertex 4 Xcoordinate
    4479396.425,              !- Vertex 4 Ycoordinate
    3;                        !- Vertex 4 Zcoordinate

BUILDINGSURFACE:DETAILED,
    Block 93cb1d593b2783cf_whole Storey 0 Wall 0002,    !- Name
    wall,                     !- Surface Type
    EU_wall_Construction,     !- Construction Name
    93cb1d593b2783cf_F0_whole,    !- Zone Name
    ,                         !- Space Name
    outdoors,                 !- Outside Boundary Condition
    ,                         !- Outside Boundary Condition Object
    SunExposed,               !- Sun Exposure
    WindExposed,              !- Wind Exposure
    autocalculate,            !- View Factor to Ground
    autocalculate,            !- Number of Vertices
    440076.355,               !- Vertex 1 Xcoordinate
    4479396.425,              !- Vertex 1 Ycoordinate
    3,                        !- Vertex 1 Zcoordinate
    440076.355,               !- Vertex 2 Xcoordinate
    4479396.425,              !- Vertex 2 Ycoordinate
    0,                        !- Vertex 2 Zcoordinate
    440065.155,               !- Vertex 3 Xcoordinate
    4479409.78,               !- Vertex 3 Ycoordinate
    0,                        !- Vertex 3 Zcoordinate
    440065.155,               !- Vertex 4 Xcoordinate
    4479409.78,               !- Vertex 4 Ycoordinate
    3;                        !- Vertex 4 Zcoordinate

BUILDINGSURFACE:DETAILED,
    Block 93cb1d593b2783cf_whole Storey 0 Wall 0003,    !- Name
    wall,                     !- Surface Type
    EU_wall_Construction,     !- Construction Name
    93cb1d593b2783cf_F0_whole,    !- Zone Name
    ,                         !- Space Name
    outdoors,                 !- Outside Boundary Condition
    ,                         !- Outside Boundary Condition Object
    SunExposed,               !- Sun Exposure
    WindExposed,              !- Wind Exposure
    autocalculate,            !- View Factor to Ground
    autocalculate,            !- Number of Vertices
    440065.155,               !- Vertex 1 Xcoordinate
    4479409.78,               !- Vertex 1 Ycoordinate
    3,                        !- Vertex 1 Zcoordinate
    440065.155,               !- Vertex 2 Xcoordinate
    4479409.78,               !- Vertex 2 Ycoordinate
    0,                        !- Vertex 2 Zcoordinate
    440074.565,               !- Vertex 3 Xcoordinate
    4479417.675,              !- Vertex 3 Ycoordinate
    0,                        !- Vertex 3 Zcoordinate
    440074.565,               !- Vertex 4 Xcoordinate
    4479417.675,              !- Vertex 4 Ycoordinate
    3;                        !- Vertex 4 Zcoordinate

BUILDINGSURFACE:DETAILED,
    Block 93cb1d593b2783cf_whole Storey 0 Wall 0004,    !- Name
    wall,                     !- Surface Type
    EU_wall_Construction,     !- Construction Name
    93cb1d593b2783cf_F0_whole,    !- Zone Name
    ,                         !- Space Name
    outdoors,                 !- Outside Boundary Condition
    ,                         !- Outside Boundary Condition Object
    SunExposed,               !- Sun Exposure
    WindExposed,              !- Wind Exposure
    autocalculate,            !- View Factor to Ground
    autocalculate,            !- Number of Vertices
    440074.565,               !- Vertex 1 Xcoordinate
    4479417.675,              !- Vertex 1 Ycoordinate
    3,                        !- Vertex 1 Zcoordinate
    440074.565,               !- Vertex 2 Xcoordinate
    4479417.675,              !- Vertex 2 Ycoordinate
    0,                        !- Vertex 2 Zcoordinate
    440085.765,               !- Vertex 3 Xcoordinate
    4479404.32,               !- Vertex 3 Ycoordinate
    0,                        !- Vertex 3 Zcoordinate
    440085.765,               !- Vertex 4 Xcoordinate
    4479404.32,               !- Vertex 4 Ycoordinate
    3;                        !- Vertex 4 Zcoordinate

BUILDINGSURFACE:DETAILED,
    Block 93cb1d593b2783cf_whole Storey 0 Floor 0001,    !- Name
    floor,                    !- Surface Type
    EU_floor_Construction,    !- Construction Name
    93cb1d593b2783cf_F0_whole,    !- Zone Name
    ,                         !- Space Name
    ground,                   !- Outside Boundary Condition
    ,                         !- Outside Boundary Condition Object
    NoSun,                    !- Sun Exposure
    NoWind,                   !- Wind Exposure
    autocalculate,            !- View Factor to Ground
    autocalculate,            !- Number of Vertices
    440085.765,               !- Vertex 1 Xcoordinate
    4479404.32,               !- Vertex 1 Ycoordinate
    0,                        !- Vertex 1 Zcoordinate
    440074.565,               !- Vertex 2 Xcoordinate
    4479417.675,              !- Vertex 2 Ycoordinate
    0,                        !- Vertex 2 Zcoordinate
    440065.155,               !- Vertex 3 Xcoordinate
    4479409.78,               !- Vertex 3 Ycoordinate
    0,                        !- Vertex 3 Zcoordinate
    440076.355,               !- Vertex 4 Xcoordinate
    4479396.425,              !- Vertex 4 Ycoordinate
    0;                        !- Vertex 4 Zcoordinate

BUILDINGSURFACE:DETAILED,
    Block 93cb1d593b2783cf_whole Storey 1 Wall 0001,    !- Name
    wall,                     !- Surface Type
    EU_wall_Construction,     !- Construction Name
    93cb1d593b2783cf_F1_whole,    !- Zone Name
    ,                         !- Space Name
    Adiabatic,                !- Outside Boundary Condition
    ,                         !- Outside Boundary Condition Object
    NoSun,                    !- Sun Exposure
    NoWind,                   !- Wind Exposure
    autocalculate,            !- View Factor to Ground
    autocalculate,            !- Number of Vertices
    440085.765,               !- Vertex 1 Xcoordinate
    4479404.32,               !- Vertex 1 Ycoordinate
    6,                        !- Vertex 1 Zcoordinate
    440085.765,               !- Vertex 2 Xcoordinate
    4479404.32,               !- Vertex 2 Ycoordinate
    3,                        !- Vertex 2 Zcoordinate
    440076.355,               !- Vertex 3 Xcoordinate
    4479396.425,              !- Vertex 3 Ycoordinate
    3,                        !- Vertex 3 Zcoordinate
    440076.355,               !- Vertex 4 Xcoordinate
    4479396.425,              !- Vertex 4 Ycoordinate
    6;                        !- Vertex 4 Zcoordinate

BUILDINGSURFACE:DETAILED,
    Block 93cb1d593b2783cf_whole Storey 1 Wall 0002,    !- Name
    wall,                     !- Surface Type
    EU_wall_Construction,     !- Construction Name
    93cb1d593b2783cf_F1_whole,    !- Zone Name
    ,                         !- Space Name
    outdoors,                 !- Outside Boundary Condition
    ,                         !- Outside Boundary Condition Object
    SunExposed,               !- Sun Exposure
    WindExposed,              !- Wind Exposure
    autocalculate,            !- View Factor to Ground
    autocalculate,            !- Number of Vertices
    440076.355,               !- Vertex 1 Xcoordinate
    4479396.425,              !- Vertex 1 Ycoordinate
    6,                        !- Vertex 1 Zcoordinate
    440076.355,               !- Vertex 2 Xcoordinate
    4479396.425,              !- Vertex 2 Ycoordinate
    3,                        !- Vertex 2 Zcoordinate
    440065.155,               !- Vertex 3 Xcoordinate
    4479409.78,               !- Vertex 3 Ycoordinate
    3,                        !- Vertex 3 Zcoordinate
    440065.155,               !- Vertex 4 Xcoordinate
    4479409.78,               !- Vertex 4 Ycoordinate
    6;                        !- Vertex 4 Zcoordinate

BUILDINGSURFACE:DETAILED,
    Block 93cb1d593b2783cf_whole Storey 1 Wall 0003,    !- Name
    wall,                     !- Surface Type
    EU_wall_Construction,     !- Construction Name
    93cb1d593b2783cf_F1_whole,    !- Zone Name
    ,                         !- Space Name
    outdoors,                 !- Outside Boundary Condition
    ,                         !- Outside Boundary Condition Object
    SunExposed,               !- Sun Exposure
    WindExposed,              !- Wind Exposure
    autocalculate,            !- View Factor to Ground
    autocalculate,            !- Number of Vertices
    440065.155,               !- Vertex 1 Xcoordinate
    4479409.78,               !- Vertex 1 Ycoordinate
    6,                        !- Vertex 1 Zcoordinate
    440065.155,               !- Vertex 2 Xcoordinate
    4479409.78,               !- Vertex 2 Ycoordinate
    3,                        !- Vertex 2 Zcoordinate
    440074.565,               !- Vertex 3 Xcoordinate
    4479417.675,              !- Vertex 3 Ycoordinate
    3,                        !- Vertex 3 Zcoordinate
    440074.565,               !- Vertex 4 Xcoordinate
    4479417.675,              !- Vertex 4 Ycoordinate
    6;                        !- Vertex 4 Zcoordinate

BUILDINGSURFACE:DETAILED,
    Block 93cb1d593b2783cf_whole Storey 1 Wall 0004,    !- Name
    wall,                     !- Surface Type
    EU_wall_Construction,     !- Construction Name
    93cb1d593b2783cf_F1_whole,    !- Zone Name
    ,                         !- Space Name
    outdoors,                 !- Outside Boundary Condition
    ,                         !- Outside Boundary Condition Object
    SunExposed,               !- Sun Exposure
    WindExposed,              !- Wind Exposure
    autocalculate,            !- View Factor to Ground
    autocalculate,            !- Number of Vertices
    440074.565,               !- Vertex 1 Xcoordinate
    4479417.675,              !- Vertex 1 Ycoordinate
    6,                        !- Vertex 1 Zcoordinate
    440074.565,               !- Vertex 2 Xcoordinate
    4479417.675,              !- Vertex 2 Ycoordinate
    3,                        !- Vertex 2 Zcoordinate
    440085.765,               !- Vertex 3 Xcoordinate
    4479404.32,               !- Vertex 3 Ycoordinate
    3,                        !- Vertex 3 Zcoordinate
    440085.765,               !- Vertex 4 Xcoordinate
    4479404.32,               !- Vertex 4 Ycoordinate
    6;                        !- Vertex 4 Zcoordinate

BUILDINGSURFACE:DETAILED,
    Block 93cb1d593b2783cf_whole Storey 2 Wall 0001,    !- Name
    wall,                     !- Surface Type
    EU_wall_Construction,     !- Construction Name
    93cb1d593b2783cf_F2_whole,    !- Zone Name
    ,                         !- Space Name
    Adiabatic,                !- Outside Boundary Condition
    ,                         !- Outside Boundary Condition Object
    NoSun,                    !- Sun Exposure
    NoWind,                   !- Wind Exposure
    autocalculate,            !- View Factor to Ground
    autocalculate,            !- Number of Vertices
    440085.765,               !- Vertex 1 Xcoordinate
    4479404.32,               !- Vertex 1 Ycoordinate
    9,                        !- Vertex 1 Zcoordinate
    440085.765,               !- Vertex 2 Xcoordinate
    4479404.32,               !- Vertex 2 Ycoordinate
    6,                        !- Vertex 2 Zcoordinate
    440076.355,               !- Vertex 3 Xcoordinate
    4479396.425,              !- Vertex 3 Ycoordinate
    6,                        !- Vertex 3 Zcoordinate
    440076.355,               !- Vertex 4 Xcoordinate
    4479396.425,              !- Vertex 4 Ycoordinate
    9;                        !- Vertex 4 Zcoordinate

BUILDINGSURFACE:DETAILED,
    Block 93cb1d593b2783cf_whole Storey 2 Wall 0002,    !- Name
    wall,                     !- Surface Type
    EU_wall_Construction,     !- Construction Name
    93cb1d593b2783cf_F2_whole,    !- Zone Name
    ,                         !- Space Name
    outdoors,                 !- Outside Boundary Condition
    ,                         !- Outside Boundary Condition Object
    SunExposed,               !- Sun Exposure
    WindExposed,              !- Wind Exposure
    autocalculate,            !- View Factor to Ground
    autocalculate,            !- Number of Vertices
    440076.355,               !- Vertex 1 Xcoordinate
    4479396.425,              !- Vertex 1 Ycoordinate
    9,                        !- Vertex 1 Zcoordinate
    440076.355,               !- Vertex 2 Xcoordinate
    4479396.425,              !- Vertex 2 Ycoordinate
    6,                        !- Vertex 2 Zcoordinate
    440065.155,               !- Vertex 3 Xcoordinate
    4479409.78,               !- Vertex 3 Ycoordinate
    6,                        !- Vertex 3 Zcoordinate
    440065.155,               !- Vertex 4 Xcoordinate
    4479409.78,               !- Vertex 4 Ycoordinate
    9;                        !- Vertex 4 Zcoordinate

BUILDINGSURFACE:DETAILED,
    Block 93cb1d593b2783cf_whole Storey 2 Wall 0003,    !- Name
    wall,                     !- Surface Type
    EU_wall_Construction,     !- Construction Name
    93cb1d593b2783cf_F2_whole,    !- Zone Name
    ,                         !- Space Name
    outdoors,                 !- Outside Boundary Condition
    ,                         !- Outside Boundary Condition Object
    SunExposed,               !- Sun Exposure
    WindExposed,              !- Wind Exposure
    autocalculate,            !- View Factor to Ground
    autocalculate,            !- Number of Vertices
    440065.155,               !- Vertex 1 Xcoordinate
    4479409.78,               !- Vertex 1 Ycoordinate
    9,                        !- Vertex 1 Zcoordinate
    440065.155,               !- Vertex 2 Xcoordinate
    4479409.78,               !- Vertex 2 Ycoordinate
    6,                        !- Vertex 2 Zcoordinate
    440074.565,               !- Vertex 3 Xcoordinate
    4479417.675,              !- Vertex 3 Ycoordinate
    6,                        !- Vertex 3 Zcoordinate
    440074.565,               !- Vertex 4 Xcoordinate
    4479417.675,              !- Vertex 4 Ycoordinate
    9;                        !- Vertex 4 Zcoordinate

BUILDINGSURFACE:DETAILED,
    Block 93cb1d593b2783cf_whole Storey 2 Wall 0004,    !- Name
    wall,                     !- Surface Type
    EU_wall_Construction,     !- Construction Name
    93cb1d593b2783cf_F2_whole,    !- Zone Name
    ,                         !- Space Name
    outdoors,                 !- Outside Boundary Condition
    ,                         !- Outside Boundary Condition Object
    SunExposed,               !- Sun Exposure
    WindExposed,              !- Wind Exposure
    autocalculate,            !- View Factor to Ground
    autocalculate,            !- Number of Vertices
    440074.565,               !- Vertex 1 Xcoordinate
    4479417.675,              !- Vertex 1 Ycoordinate
    9,                        !- Vertex 1 Zcoordinate
    440074.565,               !- Vertex 2 Xcoordinate
    4479417.675,              !- Vertex 2 Ycoordinate
    6,                        !- Vertex 2 Zcoordinate
    440085.765,               !- Vertex 3 Xcoordinate
    4479404.32,               !- Vertex 3 Ycoordinate
    6,                        !- Vertex 3 Zcoordinate
    440085.765,               !- Vertex 4 Xcoordinate
    4479404.32,               !- Vertex 4 Ycoordinate
    9;                        !- Vertex 4 Zcoordinate

BUILDINGSURFACE:DETAILED,
    Block 93cb1d593b2783cf_whole Storey 3 Wall 0001,    !- Name
    wall,                     !- Surface Type
    EU_wall_Construction,     !- Construction Name
    93cb1d593b2783cf_F3_whole,    !- Zone Name
    ,                         !- Space Name
    Adiabatic,                !- Outside Boundary Condition
    ,                         !- Outside Boundary Condition Object
    NoSun,                    !- Sun Exposure
    NoWind,                   !- Wind Exposure
    autocalculate,            !- View Factor to Ground
    autocalculate,            !- Number of Vertices
    440085.765,               !- Vertex 1 Xcoordinate
    4479404.32,               !- Vertex 1 Ycoordinate
    12,                       !- Vertex 1 Zcoordinate
    440085.765,               !- Vertex 2 Xcoordinate
    4479404.32,               !- Vertex 2 Ycoordinate
    9,                        !- Vertex 2 Zcoordinate
    440076.355,               !- Vertex 3 Xcoordinate
    4479396.425,              !- Vertex 3 Ycoordinate
    9,                        !- Vertex 3 Zcoordinate
    440076.355,               !- Vertex 4 Xcoordinate
    4479396.425,              !- Vertex 4 Ycoordinate
    12;                       !- Vertex 4 Zcoordinate

BUILDINGSURFACE:DETAILED,
    Block 93cb1d593b2783cf_whole Storey 3 Wall 0002,    !- Name
    wall,                     !- Surface Type
    EU_wall_Construction,     !- Construction Name
    93cb1d593b2783cf_F3_whole,    !- Zone Name
    ,                         !- Space Name
    outdoors,                 !- Outside Boundary Condition
    ,                         !- Outside Boundary Condition Object
    SunExposed,               !- Sun Exposure
    WindExposed,              !- Wind Exposure
    autocalculate,            !- View Factor to Ground
    autocalculate,            !- Number of Vertices
    440076.355,               !- Vertex 1 Xcoordinate
    4479396.425,              !- Vertex 1 Ycoordinate
    12,                       !- Vertex 1 Zcoordinate
    440076.355,               !- Vertex 2 Xcoordinate
    4479396.425,              !- Vertex 2 Ycoordinate
    9,                        !- Vertex 2 Zcoordinate
    440065.155,               !- Vertex 3 Xcoordinate
    4479409.78,               !- Vertex 3 Ycoordinate
    9,                        !- Vertex 3 Zcoordinate
    440065.155,               !- Vertex 4 Xcoordinate
    4479409.78,               !- Vertex 4 Ycoordinate
    12;                       !- Vertex 4 Zcoordinate

BUILDINGSURFACE:DETAILED,
    Block 93cb1d593b2783cf_whole Storey 3 Wall 0003,    !- Name
    wall,                     !- Surface Type
    EU_wall_Construction,     !- Construction Name
    93cb1d593b2783cf_F3_whole,    !- Zone Name
    ,                         !- Space Name
    outdoors,                 !- Outside Boundary Condition
    ,                         !- Outside Boundary Condition Object
    SunExposed,               !- Sun Exposure
    WindExposed,              !- Wind Exposure
    autocalculate,            !- View Factor to Ground
    autocalculate,            !- Number of Vertices
    440065.155,               !- Vertex 1 Xcoordinate
    4479409.78,               !- Vertex 1 Ycoordinate
    12,                       !- Vertex 1 Zcoordinate
    440065.155,               !- Vertex 2 Xcoordinate
    4479409.78,               !- Vertex 2 Ycoordinate
    9,                        !- Vertex 2 Zcoordinate
    440074.565,               !- Vertex 3 Xcoordinate
    4479417.675,              !- Vertex 3 Ycoordinate
    9,                        !- Vertex 3 Zcoordinate
    440074.565,               !- Vertex 4 Xcoordinate
    4479417.675,              !- Vertex 4 Ycoordinate
    12;                       !- Vertex 4 Zcoordinate

BUILDINGSURFACE:DETAILED,
    Block 93cb1d593b2783cf_whole Storey 3 Wall 0004,    !- Name
    wall,                     !- Surface Type
    EU_wall_Construction,     !- Construction Name
    93cb1d593b2783cf_F3_whole,    !- Zone Name
    ,                         !- Space Name
    outdoors,                 !- Outside Boundary Condition
    ,                         !- Outside Boundary Condition Object
    SunExposed,               !- Sun Exposure
    WindExposed,              !- Wind Exposure
    autocalculate,            !- View Factor to Ground
    autocalculate,            !- Number of Vertices
    440074.565,               !- Vertex 1 Xcoordinate
    4479417.675,              !- Vertex 1 Ycoordinate
    12,                       !- Vertex 1 Zcoordinate
    440074.565,               !- Vertex 2 Xcoordinate
    4479417.675,              !- Vertex 2 Ycoordinate
    9,                        !- Vertex 2 Zcoordinate
    440085.765,               !- Vertex 3 Xcoordinate
    4479404.32,               !- Vertex 3 Ycoordinate
    9,                        !- Vertex 3 Zcoordinate
    440085.765,               !- Vertex 4 Xcoordinate
    4479404.32,               !- Vertex 4 Ycoordinate
    12;                       !- Vertex 4 Zcoordinate

BUILDINGSURFACE:DETAILED,
    Block 93cb1d593b2783cf_whole Storey 4 Wall 0001,    !- Name
    wall,                     !- Surface Type
    EU_wall_Construction,     !- Construction Name
    93cb1d593b2783cf_F4_whole,    !- Zone Name
    ,                         !- Space Name
    Adiabatic,                !- Outside Boundary Condition
    ,                         !- Outside Boundary Condition Object
    NoSun,                    !- Sun Exposure
    NoWind,                   !- Wind Exposure
    autocalculate,            !- View Factor to Ground
    autocalculate,            !- Number of Vertices
    440085.765,               !- Vertex 1 Xcoordinate
    4479404.32,               !- Vertex 1 Ycoordinate
    15,                       !- Vertex 1 Zcoordinate
    440085.765,               !- Vertex 2 Xcoordinate
    4479404.32,               !- Vertex 2 Ycoordinate
    12,                       !- Vertex 2 Zcoordinate
    440076.355,               !- Vertex 3 Xcoordinate
    4479396.425,              !- Vertex 3 Ycoordinate
    12,                       !- Vertex 3 Zcoordinate
    440076.355,               !- Vertex 4 Xcoordinate
    4479396.425,              !- Vertex 4 Ycoordinate
    15;                       !- Vertex 4 Zcoordinate

BUILDINGSURFACE:DETAILED,
    Block 93cb1d593b2783cf_whole Storey 4 Wall 0002,    !- Name
    wall,                     !- Surface Type
    EU_wall_Construction,     !- Construction Name
    93cb1d593b2783cf_F4_whole,    !- Zone Name
    ,                         !- Space Name
    outdoors,                 !- Outside Boundary Condition
    ,                         !- Outside Boundary Condition Object
    SunExposed,               !- Sun Exposure
    WindExposed,              !- Wind Exposure
    autocalculate,            !- View Factor to Ground
    autocalculate,            !- Number of Vertices
    440076.355,               !- Vertex 1 Xcoordinate
    4479396.425,              !- Vertex 1 Ycoordinate
    15,                       !- Vertex 1 Zcoordinate
    440076.355,               !- Vertex 2 Xcoordinate
    4479396.425,              !- Vertex 2 Ycoordinate
    12,                       !- Vertex 2 Zcoordinate
    440065.155,               !- Vertex 3 Xcoordinate
    4479409.78,               !- Vertex 3 Ycoordinate
    12,                       !- Vertex 3 Zcoordinate
    440065.155,               !- Vertex 4 Xcoordinate
    4479409.78,               !- Vertex 4 Ycoordinate
    15;                       !- Vertex 4 Zcoordinate

BUILDINGSURFACE:DETAILED,
    Block 93cb1d593b2783cf_whole Storey 4 Wall 0003,    !- Name
    wall,                     !- Surface Type
    EU_wall_Construction,     !- Construction Name
    93cb1d593b2783cf_F4_whole,    !- Zone Name
    ,                         !- Space Name
    outdoors,                 !- Outside Boundary Condition
    ,                         !- Outside Boundary Condition Object
    SunExposed,               !- Sun Exposure
    WindExposed,              !- Wind Exposure
    autocalculate,            !- View Factor to Ground
    autocalculate,            !- Number of Vertices
    440065.155,               !- Vertex 1 Xcoordinate
    4479409.78,               !- Vertex 1 Ycoordinate
    15,                       !- Vertex 1 Zcoordinate
    440065.155,               !- Vertex 2 Xcoordinate
    4479409.78,               !- Vertex 2 Ycoordinate
    12,                       !- Vertex 2 Zcoordinate
    440074.565,               !- Vertex 3 Xcoordinate
    4479417.675,              !- Vertex 3 Ycoordinate
    12,                       !- Vertex 3 Zcoordinate
    440074.565,               !- Vertex 4 Xcoordinate
    4479417.675,              !- Vertex 4 Ycoordinate
    15;                       !- Vertex 4 Zcoordinate

BUILDINGSURFACE:DETAILED,
    Block 93cb1d593b2783cf_whole Storey 4 Wall 0004,    !- Name
    wall,                     !- Surface Type
    EU_wall_Construction,     !- Construction Name
    93cb1d593b2783cf_F4_whole,    !- Zone Name
    ,                         !- Space Name
    outdoors,                 !- Outside Boundary Condition
    ,                         !- Outside Boundary Condition Object
    SunExposed,               !- Sun Exposure
    WindExposed,              !- Wind Exposure
    autocalculate,            !- View Factor to Ground
    autocalculate,            !- Number of Vertices
    440074.565,               !- Vertex 1 Xcoordinate
    4479417.675,              !- Vertex 1 Ycoordinate
    15,                       !- Vertex 1 Zcoordinate
    440074.565,               !- Vertex 2 Xcoordinate
    4479417.675,              !- Vertex 2 Ycoordinate
    12,                       !- Vertex 2 Zcoordinate
    440085.765,               !- Vertex 3 Xcoordinate
    4479404.32,               !- Vertex 3 Ycoordinate
    12,                       !- Vertex 3 Zcoordinate
    440085.765,               !- Vertex 4 Xcoordinate
    4479404.32,               !- Vertex 4 Ycoordinate
    15;                       !- Vertex 4 Zcoordinate

BUILDINGSURFACE:DETAILED,
    Block 93cb1d593b2783cf_whole Storey 5 Wall 0001,    !- Name
    wall,                     !- Surface Type
    EU_wall_Construction,     !- Construction Name
    93cb1d593b2783cf_F5_whole,    !- Zone Name
    ,                         !- Space Name
    Adiabatic,                !- Outside Boundary Condition
    ,                         !- Outside Boundary Condition Object
    NoSun,                    !- Sun Exposure
    NoWind,                   !- Wind Exposure
    autocalculate,            !- View Factor to Ground
    autocalculate,            !- Number of Vertices
    440085.765,               !- Vertex 1 Xcoordinate
    4479404.32,               !- Vertex 1 Ycoordinate
    18,                       !- Vertex 1 Zcoordinate
    440085.765,               !- Vertex 2 Xcoordinate
    4479404.32,               !- Vertex 2 Ycoordinate
    15,                       !- Vertex 2 Zcoordinate
    440076.355,               !- Vertex 3 Xcoordinate
    4479396.425,              !- Vertex 3 Ycoordinate
    15,                       !- Vertex 3 Zcoordinate
    440076.355,               !- Vertex 4 Xcoordinate
    4479396.425,              !- Vertex 4 Ycoordinate
    18;                       !- Vertex 4 Zcoordinate

BUILDINGSURFACE:DETAILED,
    Block 93cb1d593b2783cf_whole Storey 5 Wall 0002,    !- Name
    wall,                     !- Surface Type
    EU_wall_Construction,     !- Construction Name
    93cb1d593b2783cf_F5_whole,    !- Zone Name
    ,                         !- Space Name
    outdoors,                 !- Outside Boundary Condition
    ,                         !- Outside Boundary Condition Object
    SunExposed,               !- Sun Exposure
    WindExposed,              !- Wind Exposure
    autocalculate,            !- View Factor to Ground
    autocalculate,            !- Number of Vertices
    440076.355,               !- Vertex 1 Xcoordinate
    4479396.425,              !- Vertex 1 Ycoordinate
    18,                       !- Vertex 1 Zcoordinate
    440076.355,               !- Vertex 2 Xcoordinate
    4479396.425,              !- Vertex 2 Ycoordinate
    15,                       !- Vertex 2 Zcoordinate
    440065.155,               !- Vertex 3 Xcoordinate
    4479409.78,               !- Vertex 3 Ycoordinate
    15,                       !- Vertex 3 Zcoordinate
    440065.155,               !- Vertex 4 Xcoordinate
    4479409.78,               !- Vertex 4 Ycoordinate
    18;                       !- Vertex 4 Zcoordinate

BUILDINGSURFACE:DETAILED,
    Block 93cb1d593b2783cf_whole Storey 5 Wall 0003,    !- Name
    wall,                     !- Surface Type
    EU_wall_Construction,     !- Construction Name
    93cb1d593b2783cf_F5_whole,    !- Zone Name
    ,                         !- Space Name
    outdoors,                 !- Outside Boundary Condition
    ,                         !- Outside Boundary Condition Object
    SunExposed,               !- Sun Exposure
    WindExposed,              !- Wind Exposure
    autocalculate,            !- View Factor to Ground
    autocalculate,            !- Number of Vertices
    440065.155,               !- Vertex 1 Xcoordinate
    4479409.78,               !- Vertex 1 Ycoordinate
    18,                       !- Vertex 1 Zcoordinate
    440065.155,               !- Vertex 2 Xcoordinate
    4479409.78,               !- Vertex 2 Ycoordinate
    15,                       !- Vertex 2 Zcoordinate
    440074.565,               !- Vertex 3 Xcoordinate
    4479417.675,              !- Vertex 3 Ycoordinate
    15,                       !- Vertex 3 Zcoordinate
    440074.565,               !- Vertex 4 Xcoordinate
    4479417.675,              !- Vertex 4 Ycoordinate
    18;                       !- Vertex 4 Zcoordinate

BUILDINGSURFACE:DETAILED,
    Block 93cb1d593b2783cf_whole Storey 5 Wall 0004,    !- Name
    wall,                     !- Surface Type
    EU_wall_Construction,     !- Construction Name
    93cb1d593b2783cf_F5_whole,    !- Zone Name
    ,                         !- Space Name
    outdoors,                 !- Outside Boundary Condition
    ,                         !- Outside Boundary Condition Object
    SunExposed,               !- Sun Exposure
    WindExposed,              !- Wind Exposure
    autocalculate,            !- View Factor to Ground
    autocalculate,            !- Number of Vertices
    440074.565,               !- Vertex 1 Xcoordinate
    4479417.675,              !- Vertex 1 Ycoordinate
    18,                       !- Vertex 1 Zcoordinate
    440074.565,               !- Vertex 2 Xcoordinate
    4479417.675,              !- Vertex 2 Ycoordinate
    15,                       !- Vertex 2 Zcoordinate
    440085.765,               !- Vertex 3 Xcoordinate
    4479404.32,               !- Vertex 3 Ycoordinate
    15,                       !- Vertex 3 Zcoordinate
    440085.765,               !- Vertex 4 Xcoordinate
    4479404.32,               !- Vertex 4 Ycoordinate
    18;                       !- Vertex 4 Zcoordinate

BUILDINGSURFACE:DETAILED,
    Block 93cb1d593b2783cf_whole Storey 6 Wall 0001,    !- Name
    wall,                     !- Surface Type
    EU_wall_Construction,     !- Construction Name
    93cb1d593b2783cf_F6_whole,    !- Zone Name
    ,                         !- Space Name
    Adiabatic,                !- Outside Boundary Condition
    ,                         !- Outside Boundary Condition Object
    NoSun,                    !- Sun Exposure
    NoWind,                   !- Wind Exposure
    autocalculate,            !- View Factor to Ground
    autocalculate,            !- Number of Vertices
    440085.765,               !- Vertex 1 Xcoordinate
    4479404.32,               !- Vertex 1 Ycoordinate
    21,                       !- Vertex 1 Zcoordinate
    440085.765,               !- Vertex 2 Xcoordinate
    4479404.32,               !- Vertex 2 Ycoordinate
    18,                       !- Vertex 2 Zcoordinate
    440076.355,               !- Vertex 3 Xcoordinate
    4479396.425,              !- Vertex 3 Ycoordinate
    18,                       !- Vertex 3 Zcoordinate
    440076.355,               !- Vertex 4 Xcoordinate
    4479396.425,              !- Vertex 4 Ycoordinate
    21;                       !- Vertex 4 Zcoordinate

BUILDINGSURFACE:DETAILED,
    Block 93cb1d593b2783cf_whole Storey 6 Wall 0002,    !- Name
    wall,                     !- Surface Type
    EU_wall_Construction,     !- Construction Name
    93cb1d593b2783cf_F6_whole,    !- Zone Name
    ,                         !- Space Name
    outdoors,                 !- Outside Boundary Condition
    ,                         !- Outside Boundary Condition Object
    SunExposed,               !- Sun Exposure
    WindExposed,              !- Wind Exposure
    autocalculate,            !- View Factor to Ground
    autocalculate,            !- Number of Vertices
    440076.355,               !- Vertex 1 Xcoordinate
    4479396.425,              !- Vertex 1 Ycoordinate
    21,                       !- Vertex 1 Zcoordinate
    440076.355,               !- Vertex 2 Xcoordinate
    4479396.425,              !- Vertex 2 Ycoordinate
    18,                       !- Vertex 2 Zcoordinate
    440065.155,               !- Vertex 3 Xcoordinate
    4479409.78,               !- Vertex 3 Ycoordinate
    18,                       !- Vertex 3 Zcoordinate
    440065.155,               !- Vertex 4 Xcoordinate
    4479409.78,               !- Vertex 4 Ycoordinate
    21;                       !- Vertex 4 Zcoordinate

BUILDINGSURFACE:DETAILED,
    Block 93cb1d593b2783cf_whole Storey 6 Wall 0003,    !- Name
    wall,                     !- Surface Type
    EU_wall_Construction,     !- Construction Name
    93cb1d593b2783cf_F6_whole,    !- Zone Name
    ,                         !- Space Name
    outdoors,                 !- Outside Boundary Condition
    ,                         !- Outside Boundary Condition Object
    SunExposed,               !- Sun Exposure
    WindExposed,              !- Wind Exposure
    autocalculate,            !- View Factor to Ground
    autocalculate,            !- Number of Vertices
    440065.155,               !- Vertex 1 Xcoordinate
    4479409.78,               !- Vertex 1 Ycoordinate
    21,                       !- Vertex 1 Zcoordinate
    440065.155,               !- Vertex 2 Xcoordinate
    4479409.78,               !- Vertex 2 Ycoordinate
    18,                       !- Vertex 2 Zcoordinate
    440074.565,               !- Vertex 3 Xcoordinate
    4479417.675,              !- Vertex 3 Ycoordinate
    18,                       !- Vertex 3 Zcoordinate
    440074.565,               !- Vertex 4 Xcoordinate
    4479417.675,              !- Vertex 4 Ycoordinate
    21;                       !- Vertex 4 Zcoordinate

BUILDINGSURFACE:DETAILED,
    Block 93cb1d593b2783cf_whole Storey 6 Wall 0004,    !- Name
    wall,                     !- Surface Type
    EU_wall_Construction,     !- Construction Name
    93cb1d593b2783cf_F6_whole,    !- Zone Name
    ,                         !- Space Name
    outdoors,                 !- Outside Boundary Condition
    ,                         !- Outside Boundary Condition Object
    SunExposed,               !- Sun Exposure
    WindExposed,              !- Wind Exposure
    autocalculate,            !- View Factor to Ground
    autocalculate,            !- Number of Vertices
    440074.565,               !- Vertex 1 Xcoordinate
    4479417.675,              !- Vertex 1 Ycoordinate
    21,                       !- Vertex 1 Zcoordinate
    440074.565,               !- Vertex 2 Xcoordinate
    4479417.675,              !- Vertex 2 Ycoordinate
    18,                       !- Vertex 2 Zcoordinate
    440085.765,               !- Vertex 3 Xcoordinate
    4479404.32,               !- Vertex 3 Ycoordinate
    18,                       !- Vertex 3 Zcoordinate
    440085.765,               !- Vertex 4 Xcoordinate
    4479404.32,               !- Vertex 4 Ycoordinate
    21;                       !- Vertex 4 Zcoordinate

BUILDINGSURFACE:DETAILED,
    Block 93cb1d593b2783cf_whole Storey 7 Wall 0001,    !- Name
    wall,                     !- Surface Type
    EU_wall_Construction,     !- Construction Name
    93cb1d593b2783cf_F7_whole,    !- Zone Name
    ,                         !- Space Name
    Adiabatic,                !- Outside Boundary Condition
    ,                         !- Outside Boundary Condition Object
    NoSun,                    !- Sun Exposure
    NoWind,                   !- Wind Exposure
    autocalculate,            !- View Factor to Ground
    autocalculate,            !- Number of Vertices
    440085.765,               !- Vertex 1 Xcoordinate
    4479404.32,               !- Vertex 1 Ycoordinate
    24,                       !- Vertex 1 Zcoordinate
    440085.765,               !- Vertex 2 Xcoordinate
    4479404.32,               !- Vertex 2 Ycoordinate
    21,                       !- Vertex 2 Zcoordinate
    440076.355,               !- Vertex 3 Xcoordinate
    4479396.425,              !- Vertex 3 Ycoordinate
    21,                       !- Vertex 3 Zcoordinate
    440076.355,               !- Vertex 4 Xcoordinate
    4479396.425,              !- Vertex 4 Ycoordinate
    24;                       !- Vertex 4 Zcoordinate

BUILDINGSURFACE:DETAILED,
    Block 93cb1d593b2783cf_whole Storey 7 Wall 0002,    !- Name
    wall,                     !- Surface Type
    EU_wall_Construction,     !- Construction Name
    93cb1d593b2783cf_F7_whole,    !- Zone Name
    ,                         !- Space Name
    outdoors,                 !- Outside Boundary Condition
    ,                         !- Outside Boundary Condition Object
    SunExposed,               !- Sun Exposure
    WindExposed,              !- Wind Exposure
    autocalculate,            !- View Factor to Ground
    autocalculate,            !- Number of Vertices
    440076.355,               !- Vertex 1 Xcoordinate
    4479396.425,              !- Vertex 1 Ycoordinate
    24,                       !- Vertex 1 Zcoordinate
    440076.355,               !- Vertex 2 Xcoordinate
    4479396.425,              !- Vertex 2 Ycoordinate
    21,                       !- Vertex 2 Zcoordinate
    440065.155,               !- Vertex 3 Xcoordinate
    4479409.78,               !- Vertex 3 Ycoordinate
    21,                       !- Vertex 3 Zcoordinate
    440065.155,               !- Vertex 4 Xcoordinate
    4479409.78,               !- Vertex 4 Ycoordinate
    24;                       !- Vertex 4 Zcoordinate

BUILDINGSURFACE:DETAILED,
    Block 93cb1d593b2783cf_whole Storey 7 Wall 0003,    !- Name
    wall,                     !- Surface Type
    EU_wall_Construction,     !- Construction Name
    93cb1d593b2783cf_F7_whole,    !- Zone Name
    ,                         !- Space Name
    outdoors,                 !- Outside Boundary Condition
    ,                         !- Outside Boundary Condition Object
    SunExposed,               !- Sun Exposure
    WindExposed,              !- Wind Exposure
    autocalculate,            !- View Factor to Ground
    autocalculate,            !- Number of Vertices
    440065.155,               !- Vertex 1 Xcoordinate
    4479409.78,               !- Vertex 1 Ycoordinate
    24,                       !- Vertex 1 Zcoordinate
    440065.155,               !- Vertex 2 Xcoordinate
    4479409.78,               !- Vertex 2 Ycoordinate
    21,                       !- Vertex 2 Zcoordinate
    440074.565,               !- Vertex 3 Xcoordinate
    4479417.675,              !- Vertex 3 Ycoordinate
    21,                       !- Vertex 3 Zcoordinate
    440074.565,               !- Vertex 4 Xcoordinate
    4479417.675,              !- Vertex 4 Ycoordinate
    24;                       !- Vertex 4 Zcoordinate

BUILDINGSURFACE:DETAILED,
    Block 93cb1d593b2783cf_whole Storey 7 Wall 0004,    !- Name
    wall,                     !- Surface Type
    EU_wall_Construction,     !- Construction Name
    93cb1d593b2783cf_F7_whole,    !- Zone Name
    ,                         !- Space Name
    outdoors,                 !- Outside Boundary Condition
    ,                         !- Outside Boundary Condition Object
    SunExposed,               !- Sun Exposure
    WindExposed,              !- Wind Exposure
    autocalculate,            !- View Factor to Ground
    autocalculate,            !- Number of Vertices
    440074.565,               !- Vertex 1 Xcoordinate
    4479417.675,              !- Vertex 1 Ycoordinate
    24,                       !- Vertex 1 Zcoordinate
    440074.565,               !- Vertex 2 Xcoordinate
    4479417.675,              !- Vertex 2 Ycoordinate
    21,                       !- Vertex 2 Zcoordinate
    440085.765,               !- Vertex 3 Xcoordinate
    4479404.32,               !- Vertex 3 Ycoordinate
    21,                       !- Vertex 3 Zcoordinate
    440085.765,               !- Vertex 4 Xcoordinate
    4479404.32,               !- Vertex 4 Ycoordinate
    24;                       !- Vertex 4 Zcoordinate

BUILDINGSURFACE:DETAILED,
    Block 93cb1d593b2783cf_whole Storey 7 Roof 0001,    !- Name
    roof,                     !- Surface Type
    EU_roof_Construction,     !- Construction Name
    93cb1d593b2783cf_F7_whole,    !- Zone Name
    ,                         !- Space Name
    outdoors,                 !- Outside Boundary Condition
    ,                         !- Outside Boundary Condition Object
    NoSun,                    !- Sun Exposure
    WindExposed,              !- Wind Exposure
    autocalculate,            !- View Factor to Ground
    autocalculate,            !- Number of Vertices
    440074.565,               !- Vertex 1 Xcoordinate
    4479417.675,              !- Vertex 1 Ycoordinate
    24,                       !- Vertex 1 Zcoordinate
    440085.765,               !- Vertex 2 Xcoordinate
    4479404.32,               !- Vertex 2 Ycoordinate
    24,                       !- Vertex 2 Zcoordinate
    440076.355,               !- Vertex 3 Xcoordinate
    4479396.425,              !- Vertex 3 Ycoordinate
    24,                       !- Vertex 3 Zcoordinate
    440065.155,               !- Vertex 4 Xcoordinate
    4479409.78,               !- Vertex 4 Ycoordinate
    24;                       !- Vertex 4 Zcoordinate

BUILDINGSURFACE:DETAILED,
    Block 93cb1d593b2783cf_whole Storey 0 Ceiling 0001_1,    !- Name
    ceiling,                  !- Surface Type
    EU_floor_Construction,    !- Construction Name
    93cb1d593b2783cf_F0_whole,    !- Zone Name
    ,                         !- Space Name
    Surface,                  !- Outside Boundary Condition
    Block 93cb1d593b2783cf_whole Storey 1 Floor 0001_1,    !- Outside Boundary Condition Object
    NoSun,                    !- Sun Exposure
    NoWind,                   !- Wind Exposure
    autocalculate,            !- View Factor to Ground
    autocalculate,            !- Number of Vertices
    440074.56499999994,       !- Vertex 1 Xcoordinate
    4479417.675,              !- Vertex 1 Ycoordinate
    3,                        !- Vertex 1 Zcoordinate
    440085.76499999966,       !- Vertex 2 Xcoordinate
    4479404.32,               !- Vertex 2 Ycoordinate
    3,                        !- Vertex 2 Zcoordinate
    440076.355,               !- Vertex 3 Xcoordinate
    4479396.425,              !- Vertex 3 Ycoordinate
    3,                        !- Vertex 3 Zcoordinate
    440065.1549999998,        !- Vertex 4 Xcoordinate
    4479409.78,               !- Vertex 4 Ycoordinate
    3;                        !- Vertex 4 Zcoordinate

BUILDINGSURFACE:DETAILED,
    Block 93cb1d593b2783cf_whole Storey 1 Floor 0001_1,    !- Name
    floor,                    !- Surface Type
    EU_floor_Construction,    !- Construction Name
    93cb1d593b2783cf_F1_whole,    !- Zone Name
    ,                         !- Space Name
    Surface,                  !- Outside Boundary Condition
    Block 93cb1d593b2783cf_whole Storey 0 Ceiling 0001_1,    !- Outside Boundary Condition Object
    NoSun,                    !- Sun Exposure
    NoWind,                   !- Wind Exposure
    autocalculate,            !- View Factor to Ground
    autocalculate,            !- Number of Vertices
    440085.76499999966,       !- Vertex 1 Xcoordinate
    4479404.32,               !- Vertex 1 Ycoordinate
    3,                        !- Vertex 1 Zcoordinate
    440074.56499999994,       !- Vertex 2 Xcoordinate
    4479417.675,              !- Vertex 2 Ycoordinate
    3,                        !- Vertex 2 Zcoordinate
    440065.1549999998,        !- Vertex 3 Xcoordinate
    4479409.78,               !- Vertex 3 Ycoordinate
    3,                        !- Vertex 3 Zcoordinate
    440076.355,               !- Vertex 4 Xcoordinate
    4479396.425,              !- Vertex 4 Ycoordinate
    3;                        !- Vertex 4 Zcoordinate

BUILDINGSURFACE:DETAILED,
    Block 93cb1d593b2783cf_whole Storey 1 Ceiling 0001_1,    !- Name
    ceiling,                  !- Surface Type
    EU_floor_Construction,    !- Construction Name
    93cb1d593b2783cf_F1_whole,    !- Zone Name
    ,                         !- Space Name
    Surface,                  !- Outside Boundary Condition
    Block 93cb1d593b2783cf_whole Storey 2 Floor 0001_1,    !- Outside Boundary Condition Object
    NoSun,                    !- Sun Exposure
    NoWind,                   !- Wind Exposure
    autocalculate,            !- View Factor to Ground
    autocalculate,            !- Number of Vertices
    440074.56499999994,       !- Vertex 1 Xcoordinate
    4479417.675,              !- Vertex 1 Ycoordinate
    6,                        !- Vertex 1 Zcoordinate
    440085.76499999966,       !- Vertex 2 Xcoordinate
    4479404.32,               !- Vertex 2 Ycoordinate
    6,                        !- Vertex 2 Zcoordinate
    440076.355,               !- Vertex 3 Xcoordinate
    4479396.425,              !- Vertex 3 Ycoordinate
    6,                        !- Vertex 3 Zcoordinate
    440065.1549999998,        !- Vertex 4 Xcoordinate
    4479409.78,               !- Vertex 4 Ycoordinate
    6;                        !- Vertex 4 Zcoordinate

BUILDINGSURFACE:DETAILED,
    Block 93cb1d593b2783cf_whole Storey 2 Floor 0001_1,    !- Name
    floor,                    !- Surface Type
    EU_floor_Construction,    !- Construction Name
    93cb1d593b2783cf_F2_whole,    !- Zone Name
    ,                         !- Space Name
    Surface,                  !- Outside Boundary Condition
    Block 93cb1d593b2783cf_whole Storey 1 Ceiling 0001_1,    !- Outside Boundary Condition Object
    NoSun,                    !- Sun Exposure
    NoWind,                   !- Wind Exposure
    autocalculate,            !- View Factor to Ground
    autocalculate,            !- Number of Vertices
    440085.76499999966,       !- Vertex 1 Xcoordinate
    4479404.32,               !- Vertex 1 Ycoordinate
    6,                        !- Vertex 1 Zcoordinate
    440074.56499999994,       !- Vertex 2 Xcoordinate
    4479417.675,              !- Vertex 2 Ycoordinate
    6,                        !- Vertex 2 Zcoordinate
    440065.1549999998,        !- Vertex 3 Xcoordinate
    4479409.78,               !- Vertex 3 Ycoordinate
    6,                        !- Vertex 3 Zcoordinate
    440076.355,               !- Vertex 4 Xcoordinate
    4479396.425,              !- Vertex 4 Ycoordinate
    6;                        !- Vertex 4 Zcoordinate

BUILDINGSURFACE:DETAILED,
    Block 93cb1d593b2783cf_whole Storey 2 Ceiling 0001_1,    !- Name
    ceiling,                  !- Surface Type
    EU_floor_Construction,    !- Construction Name
    93cb1d593b2783cf_F2_whole,    !- Zone Name
    ,                         !- Space Name
    Surface,                  !- Outside Boundary Condition
    Block 93cb1d593b2783cf_whole Storey 3 Floor 0001_1,    !- Outside Boundary Condition Object
    NoSun,                    !- Sun Exposure
    NoWind,                   !- Wind Exposure
    autocalculate,            !- View Factor to Ground
    autocalculate,            !- Number of Vertices
    440074.56499999994,       !- Vertex 1 Xcoordinate
    4479417.675,              !- Vertex 1 Ycoordinate
    9,                        !- Vertex 1 Zcoordinate
    440085.76499999966,       !- Vertex 2 Xcoordinate
    4479404.32,               !- Vertex 2 Ycoordinate
    9,                        !- Vertex 2 Zcoordinate
    440076.355,               !- Vertex 3 Xcoordinate
    4479396.425,              !- Vertex 3 Ycoordinate
    9,                        !- Vertex 3 Zcoordinate
    440065.1549999998,        !- Vertex 4 Xcoordinate
    4479409.78,               !- Vertex 4 Ycoordinate
    9;                        !- Vertex 4 Zcoordinate

BUILDINGSURFACE:DETAILED,
    Block 93cb1d593b2783cf_whole Storey 3 Floor 0001_1,    !- Name
    floor,                    !- Surface Type
    EU_floor_Construction,    !- Construction Name
    93cb1d593b2783cf_F3_whole,    !- Zone Name
    ,                         !- Space Name
    Surface,                  !- Outside Boundary Condition
    Block 93cb1d593b2783cf_whole Storey 2 Ceiling 0001_1,    !- Outside Boundary Condition Object
    NoSun,                    !- Sun Exposure
    NoWind,                   !- Wind Exposure
    autocalculate,            !- View Factor to Ground
    autocalculate,            !- Number of Vertices
    440085.76499999966,       !- Vertex 1 Xcoordinate
    4479404.32,               !- Vertex 1 Ycoordinate
    9,                        !- Vertex 1 Zcoordinate
    440074.56499999994,       !- Vertex 2 Xcoordinate
    4479417.675,              !- Vertex 2 Ycoordinate
    9,                        !- Vertex 2 Zcoordinate
    440065.1549999998,        !- Vertex 3 Xcoordinate
    4479409.78,               !- Vertex 3 Ycoordinate
    9,                        !- Vertex 3 Zcoordinate
    440076.355,               !- Vertex 4 Xcoordinate
    4479396.425,              !- Vertex 4 Ycoordinate
    9;                        !- Vertex 4 Zcoordinate

BUILDINGSURFACE:DETAILED,
    Block 93cb1d593b2783cf_whole Storey 3 Ceiling 0001_1,    !- Name
    ceiling,                  !- Surface Type
    EU_floor_Construction,    !- Construction Name
    93cb1d593b2783cf_F3_whole,    !- Zone Name
    ,                         !- Space Name
    Surface,                  !- Outside Boundary Condition
    Block 93cb1d593b2783cf_whole Storey 4 Floor 0001_1,    !- Outside Boundary Condition Object
    NoSun,                    !- Sun Exposure
    NoWind,                   !- Wind Exposure
    autocalculate,            !- View Factor to Ground
    autocalculate,            !- Number of Vertices
    440074.56499999994,       !- Vertex 1 Xcoordinate
    4479417.675,              !- Vertex 1 Ycoordinate
    12,                       !- Vertex 1 Zcoordinate
    440085.76499999966,       !- Vertex 2 Xcoordinate
    4479404.32,               !- Vertex 2 Ycoordinate
    12,                       !- Vertex 2 Zcoordinate
    440076.355,               !- Vertex 3 Xcoordinate
    4479396.425,              !- Vertex 3 Ycoordinate
    12,                       !- Vertex 3 Zcoordinate
    440065.1549999998,        !- Vertex 4 Xcoordinate
    4479409.78,               !- Vertex 4 Ycoordinate
    12;                       !- Vertex 4 Zcoordinate

BUILDINGSURFACE:DETAILED,
    Block 93cb1d593b2783cf_whole Storey 4 Floor 0001_1,    !- Name
    floor,                    !- Surface Type
    EU_floor_Construction,    !- Construction Name
    93cb1d593b2783cf_F4_whole,    !- Zone Name
    ,                         !- Space Name
    Surface,                  !- Outside Boundary Condition
    Block 93cb1d593b2783cf_whole Storey 3 Ceiling 0001_1,    !- Outside Boundary Condition Object
    NoSun,                    !- Sun Exposure
    NoWind,                   !- Wind Exposure
    autocalculate,            !- View Factor to Ground
    autocalculate,            !- Number of Vertices
    440085.76499999966,       !- Vertex 1 Xcoordinate
    4479404.32,               !- Vertex 1 Ycoordinate
    12,                       !- Vertex 1 Zcoordinate
    440074.56499999994,       !- Vertex 2 Xcoordinate
    4479417.675,              !- Vertex 2 Ycoordinate
    12,                       !- Vertex 2 Zcoordinate
    440065.1549999998,        !- Vertex 3 Xcoordinate
    4479409.78,               !- Vertex 3 Ycoordinate
    12,                       !- Vertex 3 Zcoordinate
    440076.355,               !- Vertex 4 Xcoordinate
    4479396.425,              !- Vertex 4 Ycoordinate
    12;                       !- Vertex 4 Zcoordinate

BUILDINGSURFACE:DETAILED,
    Block 93cb1d593b2783cf_whole Storey 4 Ceiling 0001_1,    !- Name
    ceiling,                  !- Surface Type
    EU_floor_Construction,    !- Construction Name
    93cb1d593b2783cf_F4_whole,    !- Zone Name
    ,                         !- Space Name
    Surface,                  !- Outside Boundary Condition
    Block 93cb1d593b2783cf_whole Storey 5 Floor 0001_1,    !- Outside Boundary Condition Object
    NoSun,                    !- Sun Exposure
    NoWind,                   !- Wind Exposure
    autocalculate,            !- View Factor to Ground
    autocalculate,            !- Number of Vertices
    440074.56499999994,       !- Vertex 1 Xcoordinate
    4479417.675,              !- Vertex 1 Ycoordinate
    15,                       !- Vertex 1 Zcoordinate
    440085.76499999966,       !- Vertex 2 Xcoordinate
    4479404.32,               !- Vertex 2 Ycoordinate
    15,                       !- Vertex 2 Zcoordinate
    440076.355,               !- Vertex 3 Xcoordinate
    4479396.425,              !- Vertex 3 Ycoordinate
    15,                       !- Vertex 3 Zcoordinate
    440065.1549999998,        !- Vertex 4 Xcoordinate
    4479409.78,               !- Vertex 4 Ycoordinate
    15;                       !- Vertex 4 Zcoordinate

BUILDINGSURFACE:DETAILED,
    Block 93cb1d593b2783cf_whole Storey 5 Floor 0001_1,    !- Name
    floor,                    !- Surface Type
    EU_floor_Construction,    !- Construction Name
    93cb1d593b2783cf_F5_whole,    !- Zone Name
    ,                         !- Space Name
    Surface,                  !- Outside Boundary Condition
    Block 93cb1d593b2783cf_whole Storey 4 Ceiling 0001_1,    !- Outside Boundary Condition Object
    NoSun,                    !- Sun Exposure
    NoWind,                   !- Wind Exposure
    autocalculate,            !- View Factor to Ground
    autocalculate,            !- Number of Vertices
    440085.76499999966,       !- Vertex 1 Xcoordinate
    4479404.32,               !- Vertex 1 Ycoordinate
    15,                       !- Vertex 1 Zcoordinate
    440074.56499999994,       !- Vertex 2 Xcoordinate
    4479417.675,              !- Vertex 2 Ycoordinate
    15,                       !- Vertex 2 Zcoordinate
    440065.1549999998,        !- Vertex 3 Xcoordinate
    4479409.78,               !- Vertex 3 Ycoordinate
    15,                       !- Vertex 3 Zcoordinate
    440076.355,               !- Vertex 4 Xcoordinate
    4479396.425,              !- Vertex 4 Ycoordinate
    15;                       !- Vertex 4 Zcoordinate

BUILDINGSURFACE:DETAILED,
    Block 93cb1d593b2783cf_whole Storey 5 Ceiling 0001_1,    !- Name
    ceiling,                  !- Surface Type
    EU_floor_Construction,    !- Construction Name
    93cb1d593b2783cf_F5_whole,    !- Zone Name
    ,                         !- Space Name
    Surface,                  !- Outside Boundary Condition
    Block 93cb1d593b2783cf_whole Storey 6 Floor 0001_1,    !- Outside Boundary Condition Object
    NoSun,                    !- Sun Exposure
    NoWind,                   !- Wind Exposure
    autocalculate,            !- View Factor to Ground
    autocalculate,            !- Number of Vertices
    440074.56499999994,       !- Vertex 1 Xcoordinate
    4479417.675,              !- Vertex 1 Ycoordinate
    18,                       !- Vertex 1 Zcoordinate
    440085.76499999966,       !- Vertex 2 Xcoordinate
    4479404.32,               !- Vertex 2 Ycoordinate
    18,                       !- Vertex 2 Zcoordinate
    440076.355,               !- Vertex 3 Xcoordinate
    4479396.425,              !- Vertex 3 Ycoordinate
    18,                       !- Vertex 3 Zcoordinate
    440065.1549999998,        !- Vertex 4 Xcoordinate
    4479409.78,               !- Vertex 4 Ycoordinate
    18;                       !- Vertex 4 Zcoordinate

BUILDINGSURFACE:DETAILED,
    Block 93cb1d593b2783cf_whole Storey 6 Floor 0001_1,    !- Name
    floor,                    !- Surface Type
    EU_floor_Construction,    !- Construction Name
    93cb1d593b2783cf_F6_whole,    !- Zone Name
    ,                         !- Space Name
    Surface,                  !- Outside Boundary Condition
    Block 93cb1d593b2783cf_whole Storey 5 Ceiling 0001_1,    !- Outside Boundary Condition Object
    NoSun,                    !- Sun Exposure
    NoWind,                   !- Wind Exposure
    autocalculate,            !- View Factor to Ground
    autocalculate,            !- Number of Vertices
    440085.76499999966,       !- Vertex 1 Xcoordinate
    4479404.32,               !- Vertex 1 Ycoordinate
    18,                       !- Vertex 1 Zcoordinate
    440074.56499999994,       !- Vertex 2 Xcoordinate
    4479417.675,              !- Vertex 2 Ycoordinate
    18,                       !- Vertex 2 Zcoordinate
    440065.1549999998,        !- Vertex 3 Xcoordinate
    4479409.78,               !- Vertex 3 Ycoordinate
    18,                       !- Vertex 3 Zcoordinate
    440076.355,               !- Vertex 4 Xcoordinate
    4479396.425,              !- Vertex 4 Ycoordinate
    18;                       !- Vertex 4 Zcoordinate

BUILDINGSURFACE:DETAILED,
    Block 93cb1d593b2783cf_whole Storey 6 Ceiling 0001_1,    !- Name
    ceiling,                  !- Surface Type
    EU_floor_Construction,    !- Construction Name
    93cb1d593b2783cf_F6_whole,    !- Zone Name
    ,                         !- Space Name
    Surface,                  !- Outside Boundary Condition
    Block 93cb1d593b2783cf_whole Storey 7 Floor 0001_1,    !- Outside Boundary Condition Object
    NoSun,                    !- Sun Exposure
    NoWind,                   !- Wind Exposure
    autocalculate,            !- View Factor to Ground
    autocalculate,            !- Number of Vertices
    440074.56499999994,       !- Vertex 1 Xcoordinate
    4479417.675,              !- Vertex 1 Ycoordinate
    21,                       !- Vertex 1 Zcoordinate
    440085.76499999966,       !- Vertex 2 Xcoordinate
    4479404.32,               !- Vertex 2 Ycoordinate
    21,                       !- Vertex 2 Zcoordinate
    440076.355,               !- Vertex 3 Xcoordinate
    4479396.425,              !- Vertex 3 Ycoordinate
    21,                       !- Vertex 3 Zcoordinate
    440065.1549999998,        !- Vertex 4 Xcoordinate
    4479409.78,               !- Vertex 4 Ycoordinate
    21;                       !- Vertex 4 Zcoordinate

BUILDINGSURFACE:DETAILED,
    Block 93cb1d593b2783cf_whole Storey 7 Floor 0001_1,    !- Name
    floor,                    !- Surface Type
    EU_floor_Construction,    !- Construction Name
    93cb1d593b2783cf_F7_whole,    !- Zone Name
    ,                         !- Space Name
    Surface,                  !- Outside Boundary Condition
    Block 93cb1d593b2783cf_whole Storey 6 Ceiling 0001_1,    !- Outside Boundary Condition Object
    NoSun,                    !- Sun Exposure
    NoWind,                   !- Wind Exposure
    autocalculate,            !- View Factor to Ground
    autocalculate,            !- Number of Vertices
    440085.76499999966,       !- Vertex 1 Xcoordinate
    4479404.32,               !- Vertex 1 Ycoordinate
    21,                       !- Vertex 1 Zcoordinate
    440074.56499999994,       !- Vertex 2 Xcoordinate
    4479417.675,              !- Vertex 2 Ycoordinate
    21,                       !- Vertex 2 Zcoordinate
    440065.1549999998,        !- Vertex 3 Xcoordinate
    4479409.78,               !- Vertex 3 Ycoordinate
    21,                       !- Vertex 3 Zcoordinate
    440076.355,               !- Vertex 4 Xcoordinate
    4479396.425,              !- Vertex 4 Ycoordinate
    21;                       !- Vertex 4 Zcoordinate

INTERNALMASS,
    93cb1d593b2783cf_F0_whole_EU_InternalMass,    !- Name
    EU_InternalMass_Construction,    !- Construction Name
    93cb1d593b2783cf_F0_whole,    !- Zone or ZoneList Name
    ,                         !- Space or SpaceList Name
    214.09454999994216;       !- Surface Area

INTERNALMASS,
    93cb1d593b2783cf_F1_whole_EU_InternalMass,    !- Name
    EU_InternalMass_Construction,    !- Construction Name
    93cb1d593b2783cf_F1_whole,    !- Zone or ZoneList Name
    ,                         !- Space or SpaceList Name
    214.09454999994216;       !- Surface Area

INTERNALMASS,
    93cb1d593b2783cf_F2_whole_EU_InternalMass,    !- Name
    EU_InternalMass_Construction,    !- Construction Name
    93cb1d593b2783cf_F2_whole,    !- Zone or ZoneList Name
    ,                         !- Space or SpaceList Name
    214.09454999994216;       !- Surface Area

INTERNALMASS,
    93cb1d593b2783cf_F3_whole_EU_InternalMass,    !- Name
    EU_InternalMass_Construction,    !- Construction Name
    93cb1d593b2783cf_F3_whole,    !- Zone or ZoneList Name
    ,                         !- Space or SpaceList Name
    214.09454999994216;       !- Surface Area

INTERNALMASS,
    93cb1d593b2783cf_F4_whole_EU_InternalMass,    !- Name
    EU_InternalMass_Construction,    !- Construction Name
    93cb1d593b2783cf_F4_whole,    !- Zone or ZoneList Name
    ,                         !- Space or SpaceList Name
    214.09454999994216;       !- Surface Area

INTERNALMASS,
    93cb1d593b2783cf_F5_whole_EU_InternalMass,    !- Name
    EU_InternalMass_Construction,    !- Construction Name
    93cb1d593b2783cf_F5_whole,    !- Zone or ZoneList Name
    ,                         !- Space or SpaceList Name
    214.09454999994216;       !- Surface Area

INTERNALMASS,
    93cb1d593b2783cf_F6_whole_EU_InternalMass,    !- Name
    EU_InternalMass_Construction,    !- Construction Name
    93cb1d593b2783cf_F6_whole,    !- Zone or ZoneList Name
    ,                         !- Space or SpaceList Name
    214.09454999994216;       !- Surface Area

INTERNALMASS,
    93cb1d593b2783cf_F7_whole_EU_InternalMass,    !- Name
    EU_InternalMass_Construction,    !- Construction Name
    93cb1d593b2783cf_F7_whole,    !- Zone or ZoneList Name
    ,                         !- Space or SpaceList Name
    214.09454999994216;       !- Surface Area

SHADING:SITE:DETAILED,
    shade_way/435929954_1,    !- Name
    ,                         !- Transmittance Schedule Name
    autocalculate,            !- Number of Vertices
    440087.34764393605,       !- Vertex 1 Xcoordinate
    4479372.297993225,        !- Vertex 1 Ycoordinate
    12,                       !- Vertex 1 Zcoordinate
    440087.34764393605,       !- Vertex 2 Xcoordinate
    4479372.297993225,        !- Vertex 2 Ycoordinate
    0,                        !- Vertex 2 Zcoordinate
    440075.2572594136,        !- Vertex 3 Xcoordinate
    4479367.7696849955,       !- Vertex 3 Ycoordinate
    0,                        !- Vertex 3 Zcoordinate
    440075.2572594136,        !- Vertex 4 Xcoordinate
    4479367.7696849955,       !- Vertex 4 Ycoordinate
    12;                       !- Vertex 4 Zcoordinate

SHADING:SITE:DETAILED,
    shade_way/435929954_2,    !- Name
    ,                         !- Transmittance Schedule Name
    autocalculate,            !- Number of Vertices
    440075.2572594136,        !- Vertex 1 Xcoordinate
    4479367.7696849955,       !- Vertex 1 Ycoordinate
    12,                       !- Vertex 1 Zcoordinate
    440075.2572594136,        !- Vertex 2 Xcoordinate
    4479367.7696849955,       !- Vertex 2 Ycoordinate
    0,                        !- Vertex 2 Zcoordinate
    440067.59328902274,       !- Vertex 3 Xcoordinate
    4479388.233277117,        !- Vertex 3 Ycoordinate
    0,                        !- Vertex 3 Zcoordinate
    440067.59328902274,       !- Vertex 4 Xcoordinate
    4479388.233277117,        !- Vertex 4 Ycoordinate
    12;                       !- Vertex 4 Zcoordinate

SHADING:SITE:DETAILED,
    shade_way/435929954_3,    !- Name
    ,                         !- Transmittance Schedule Name
    autocalculate,            !- Number of Vertices
    440067.59328902274,       !- Vertex 1 Xcoordinate
    4479388.233277117,        !- Vertex 1 Ycoordinate
    12,                       !- Vertex 1 Zcoordinate
    440067.59328902274,       !- Vertex 2 Xcoordinate
    4479388.233277117,        !- Vertex 2 Ycoordinate
    0,                        !- Vertex 2 Zcoordinate
    440079.68365876965,       !- Vertex 3 Xcoordinate
    4479392.761383755,        !- Vertex 3 Ycoordinate
    0,                        !- Vertex 3 Zcoordinate
    440079.68365876965,       !- Vertex 4 Xcoordinate
    4479392.761383755,        !- Vertex 4 Ycoordinate
    12;                       !- Vertex 4 Zcoordinate

SHADING:SITE:DETAILED,
    shade_way/435929954_4,    !- Name
    ,                         !- Transmittance Schedule Name
    autocalculate,            !- Number of Vertices
    440079.68365876965,       !- Vertex 1 Xcoordinate
    4479392.761383755,        !- Vertex 1 Ycoordinate
    12,                       !- Vertex 1 Zcoordinate
    440079.68365876965,       !- Vertex 2 Xcoordinate
    4479392.761383755,        !- Vertex 2 Ycoordinate
    0,                        !- Vertex 2 Zcoordinate
    440087.34764393605,       !- Vertex 3 Xcoordinate
    4479372.297993225,        !- Vertex 3 Ycoordinate
    0,                        !- Vertex 3 Zcoordinate
    440087.34764393605,       !- Vertex 4 Xcoordinate
    4479372.297993225,        !- Vertex 4 Ycoordinate
    12;                       !- Vertex 4 Zcoordinate

SHADING:SITE:DETAILED,
    shade_way/435930648_1,    !- Name
    ,                         !- Transmittance Schedule Name
    autocalculate,            !- Number of Vertices
    440093.60504998825,       !- Vertex 1 Xcoordinate
    4479374.752252553,        !- Vertex 1 Ycoordinate
    15,                       !- Vertex 1 Zcoordinate
    440093.60504998825,       !- Vertex 2 Xcoordinate
    4479374.752252553,        !- Vertex 2 Ycoordinate
    0,                        !- Vertex 2 Zcoordinate
    440076.03628560953,       !- Vertex 3 Xcoordinate
    4479396.236894969,        !- Vertex 3 Ycoordinate
    0,                        !- Vertex 3 Zcoordinate
    440076.03628560953,       !- Vertex 4 Xcoordinate
    4479396.236894969,        !- Vertex 4 Ycoordinate
    15;                       !- Vertex 4 Zcoordinate

SHADING:SITE:DETAILED,
    shade_way/435930648_2,    !- Name
    ,                         !- Transmittance Schedule Name
    autocalculate,            !- Number of Vertices
    440076.03628560953,       !- Vertex 1 Xcoordinate
    4479396.236894969,        !- Vertex 1 Ycoordinate
    15,                       !- Vertex 1 Zcoordinate
    440076.03628560953,       !- Vertex 2 Xcoordinate
    4479396.236894969,        !- Vertex 2 Ycoordinate
    0,                        !- Vertex 2 Zcoordinate
    440088.9819079542,        !- Vertex 3 Xcoordinate
    4479406.822550556,        !- Vertex 3 Ycoordinate
    0,                        !- Vertex 3 Zcoordinate
    440088.9819079542,        !- Vertex 4 Xcoordinate
    4479406.822550556,        !- Vertex 4 Ycoordinate
    15;                       !- Vertex 4 Zcoordinate

SHADING:SITE:DETAILED,
    shade_way/435930648_3,    !- Name
    ,                         !- Transmittance Schedule Name
    autocalculate,            !- Number of Vertices
    440088.9819079542,        !- Vertex 1 Xcoordinate
    4479406.822550556,        !- Vertex 1 Ycoordinate
    15,                       !- Vertex 1 Zcoordinate
    440088.9819079542,        !- Vertex 2 Xcoordinate
    4479406.822550556,        !- Vertex 2 Ycoordinate
    0,                        !- Vertex 2 Zcoordinate
    440106.55026108836,       !- Vertex 3 Xcoordinate
    4479385.337634266,        !- Vertex 3 Ycoordinate
    0,                        !- Vertex 3 Zcoordinate
    440106.55026108836,       !- Vertex 4 Xcoordinate
    4479385.337634266,        !- Vertex 4 Ycoordinate
    15;                       !- Vertex 4 Zcoordinate

SHADING:SITE:DETAILED,
    shade_way/435930648_4,    !- Name
    ,                         !- Transmittance Schedule Name
    autocalculate,            !- Number of Vertices
    440106.55026108836,       !- Vertex 1 Xcoordinate
    4479385.337634266,        !- Vertex 1 Ycoordinate
    15,                       !- Vertex 1 Zcoordinate
    440106.55026108836,       !- Vertex 2 Xcoordinate
    4479385.337634266,        !- Vertex 2 Ycoordinate
    0,                        !- Vertex 2 Zcoordinate
    440093.60504998825,       !- Vertex 3 Xcoordinate
    4479374.752252553,        !- Vertex 3 Ycoordinate
    0,                        !- Vertex 3 Zcoordinate
    440093.60504998825,       !- Vertex 4 Xcoordinate
    4479374.752252553,        !- Vertex 4 Ycoordinate
    15;                       !- Vertex 4 Zcoordinate

SHADING:SITE:DETAILED,
    shade_way/391270220_1,    !- Name
    ,                         !- Transmittance Schedule Name
    autocalculate,            !- Number of Vertices
    440100.32107537857,       !- Vertex 1 Xcoordinate
    4479404.945316855,        !- Vertex 1 Ycoordinate
    12,                       !- Vertex 1 Zcoordinate
    440100.32107537857,       !- Vertex 2 Xcoordinate
    4479404.945316855,        !- Vertex 2 Ycoordinate
    0,                        !- Vertex 2 Zcoordinate
    440133.1890420577,        !- Vertex 3 Xcoordinate
    4479426.939592524,        !- Vertex 3 Ycoordinate
    0,                        !- Vertex 3 Zcoordinate
    440133.1890420577,        !- Vertex 4 Xcoordinate
    4479426.939592524,        !- Vertex 4 Ycoordinate
    12;                       !- Vertex 4 Zcoordinate

SHADING:SITE:DETAILED,
    shade_way/391270220_2,    !- Name
    ,                         !- Transmittance Schedule Name
    autocalculate,            !- Number of Vertices
    440133.1890420577,        !- Vertex 1 Xcoordinate
    4479426.939592524,        !- Vertex 1 Ycoordinate
    12,                       !- Vertex 1 Zcoordinate
    440133.1890420577,        !- Vertex 2 Xcoordinate
    4479426.939592524,        !- Vertex 2 Ycoordinate
    0,                        !- Vertex 2 Zcoordinate
    440146.03497438435,       !- Vertex 3 Xcoordinate
    4479407.74333052,         !- Vertex 3 Ycoordinate
    0,                        !- Vertex 3 Zcoordinate
    440146.03497438435,       !- Vertex 4 Xcoordinate
    4479407.74333052,         !- Vertex 4 Ycoordinate
    12;                       !- Vertex 4 Zcoordinate

SHADING:SITE:DETAILED,
    shade_way/391270220_3,    !- Name
    ,                         !- Transmittance Schedule Name
    autocalculate,            !- Number of Vertices
    440146.03497438435,       !- Vertex 1 Xcoordinate
    4479407.74333052,         !- Vertex 1 Ycoordinate
    12,                       !- Vertex 1 Zcoordinate
    440146.03497438435,       !- Vertex 2 Xcoordinate
    4479407.74333052,         !- Vertex 2 Ycoordinate
    0,                        !- Vertex 2 Zcoordinate
    440113.16644710244,       !- Vertex 3 Xcoordinate
    4479385.7487545395,       !- Vertex 3 Ycoordinate
    0,                        !- Vertex 3 Zcoordinate
    440113.16644710244,       !- Vertex 4 Xcoordinate
    4479385.7487545395,       !- Vertex 4 Ycoordinate
    12;                       !- Vertex 4 Zcoordinate

SHADING:SITE:DETAILED,
    shade_way/391270220_4,    !- Name
    ,                         !- Transmittance Schedule Name
    autocalculate,            !- Number of Vertices
    440113.16644710244,       !- Vertex 1 Xcoordinate
    4479385.7487545395,       !- Vertex 1 Ycoordinate
    12,                       !- Vertex 1 Zcoordinate
    440113.16644710244,       !- Vertex 2 Xcoordinate
    4479385.7487545395,       !- Vertex 2 Ycoordinate
    0,                        !- Vertex 2 Zcoordinate
    440100.32107537857,       !- Vertex 3 Xcoordinate
    4479404.945316855,        !- Vertex 3 Ycoordinate
    0,                        !- Vertex 3 Zcoordinate
    440100.32107537857,       !- Vertex 4 Xcoordinate
    4479404.945316855,        !- Vertex 4 Ycoordinate
    12;                       !- Vertex 4 Zcoordinate

SHADING:SITE:DETAILED,
    shade_way/391270224_1,    !- Name
    ,                         !- Transmittance Schedule Name
    autocalculate,            !- Number of Vertices
    440120.26971016766,       !- Vertex 1 Xcoordinate
    4479446.06941839,         !- Vertex 1 Ycoordinate
    12,                       !- Vertex 1 Zcoordinate
    440120.26971016766,       !- Vertex 2 Xcoordinate
    4479446.06941839,         !- Vertex 2 Ycoordinate
    0,                        !- Vertex 2 Zcoordinate
    440133.14163161255,       !- Vertex 3 Xcoordinate
    4479426.907874347,        !- Vertex 3 Ycoordinate
    0,                        !- Vertex 3 Zcoordinate
    440133.14163161255,       !- Vertex 4 Xcoordinate
    4479426.907874347,        !- Vertex 4 Ycoordinate
    12;                       !- Vertex 4 Zcoordinate

SHADING:SITE:DETAILED,
    shade_way/391270224_2,    !- Name
    ,                         !- Transmittance Schedule Name
    autocalculate,            !- Number of Vertices
    440133.14163161255,       !- Vertex 1 Xcoordinate
    4479426.907874347,        !- Vertex 1 Ycoordinate
    12,                       !- Vertex 1 Zcoordinate
    440133.14163161255,       !- Vertex 2 Xcoordinate
    4479426.907874347,        !- Vertex 2 Ycoordinate
    0,                        !- Vertex 2 Zcoordinate
    440099.25076272734,       !- Vertex 3 Xcoordinate
    4479404.1406987365,       !- Vertex 3 Ycoordinate
    0,                        !- Vertex 3 Zcoordinate
    440099.25076272734,       !- Vertex 4 Xcoordinate
    4479404.1406987365,       !- Vertex 4 Ycoordinate
    12;                       !- Vertex 4 Zcoordinate

SHADING:SITE:DETAILED,
    shade_way/391270224_3,    !- Name
    ,                         !- Transmittance Schedule Name
    autocalculate,            !- Number of Vertices
    440099.25076272734,       !- Vertex 1 Xcoordinate
    4479404.1406987365,       !- Vertex 1 Ycoordinate
    12,                       !- Vertex 1 Zcoordinate
    440099.25076272734,       !- Vertex 2 Xcoordinate
    4479404.1406987365,       !- Vertex 2 Ycoordinate
    0,                        !- Vertex 2 Zcoordinate
    440086.37854574225,       !- Vertex 3 Xcoordinate
    4479423.302083775,        !- Vertex 3 Ycoordinate
    0,                        !- Vertex 3 Zcoordinate
    440086.37854574225,       !- Vertex 4 Xcoordinate
    4479423.302083775,        !- Vertex 4 Ycoordinate
    12;                       !- Vertex 4 Zcoordinate

SHADING:SITE:DETAILED,
    shade_way/391270224_4,    !- Name
    ,                         !- Transmittance Schedule Name
    autocalculate,            !- Number of Vertices
    440086.37854574225,       !- Vertex 1 Xcoordinate
    4479423.302083775,        !- Vertex 1 Ycoordinate
    12,                       !- Vertex 1 Zcoordinate
    440086.37854574225,       !- Vertex 2 Xcoordinate
    4479423.302083775,        !- Vertex 2 Ycoordinate
    0,                        !- Vertex 2 Zcoordinate
    440120.26971016766,       !- Vertex 3 Xcoordinate
    4479446.06941839,         !- Vertex 3 Ycoordinate
    0,                        !- Vertex 3 Zcoordinate
    440120.26971016766,       !- Vertex 4 Xcoordinate
    4479446.06941839,         !- Vertex 4 Ycoordinate
    12;                       !- Vertex 4 Zcoordinate

SHADING:SITE:DETAILED,
    shade_way/391270222_1,    !- Name
    ,                         !- Transmittance Schedule Name
    autocalculate,            !- Number of Vertices
    440120.2810540084,        !- Vertex 1 Xcoordinate
    4479446.077025636,        !- Vertex 1 Ycoordinate
    15,                       !- Vertex 1 Zcoordinate
    440120.2810540084,        !- Vertex 2 Xcoordinate
    4479446.077025636,        !- Vertex 2 Ycoordinate
    0,                        !- Vertex 2 Zcoordinate
    440087.287488026,         !- Vertex 3 Xcoordinate
    4479423.776615053,        !- Vertex 3 Ycoordinate
    0,                        !- Vertex 3 Zcoordinate
    440087.287488026,         !- Vertex 4 Xcoordinate
    4479423.776615053,        !- Vertex 4 Ycoordinate
    15;                       !- Vertex 4 Zcoordinate

SHADING:SITE:DETAILED,
    shade_way/391270222_2,    !- Name
    ,                         !- Transmittance Schedule Name
    autocalculate,            !- Number of Vertices
    440087.287488026,         !- Vertex 1 Xcoordinate
    4479423.776615053,        !- Vertex 1 Ycoordinate
    15,                       !- Vertex 1 Zcoordinate
    440087.287488026,         !- Vertex 2 Xcoordinate
    4479423.776615053,        !- Vertex 2 Ycoordinate
    0,                        !- Vertex 2 Zcoordinate
    440074.8534317661,        !- Vertex 3 Xcoordinate
    4479442.1737171635,       !- Vertex 3 Ycoordinate
    0,                        !- Vertex 3 Zcoordinate
    440074.8534317661,        !- Vertex 4 Xcoordinate
    4479442.1737171635,       !- Vertex 4 Ycoordinate
    15;                       !- Vertex 4 Zcoordinate

SHADING:SITE:DETAILED,
    shade_way/391270222_3,    !- Name
    ,                         !- Transmittance Schedule Name
    autocalculate,            !- Number of Vertices
    440074.8534317661,        !- Vertex 1 Xcoordinate
    4479442.1737171635,       !- Vertex 1 Ycoordinate
    15,                       !- Vertex 1 Zcoordinate
    440074.8534317661,        !- Vertex 2 Xcoordinate
    4479442.1737171635,       !- Vertex 2 Ycoordinate
    0,                        !- Vertex 2 Zcoordinate
    440107.8465500241,        !- Vertex 3 Xcoordinate
    4479464.4738852205,       !- Vertex 3 Ycoordinate
    0,                        !- Vertex 3 Zcoordinate
    440107.8465500241,        !- Vertex 4 Xcoordinate
    4479464.4738852205,       !- Vertex 4 Ycoordinate
    15;                       !- Vertex 4 Zcoordinate

SHADING:SITE:DETAILED,
    shade_way/391270222_4,    !- Name
    ,                         !- Transmittance Schedule Name
    autocalculate,            !- Number of Vertices
    440107.8465500241,        !- Vertex 1 Xcoordinate
    4479464.4738852205,       !- Vertex 1 Ycoordinate
    15,                       !- Vertex 1 Zcoordinate
    440107.8465500241,        !- Vertex 2 Xcoordinate
    4479464.4738852205,       !- Vertex 2 Ycoordinate
    0,                        !- Vertex 2 Zcoordinate
    440120.2810540084,        !- Vertex 3 Xcoordinate
    4479446.077025636,        !- Vertex 3 Ycoordinate
    0,                        !- Vertex 3 Zcoordinate
    440120.2810540084,        !- Vertex 4 Xcoordinate
    4479446.077025636,        !- Vertex 4 Ycoordinate
    15;                       !- Vertex 4 Zcoordinate

OTHEREQUIPMENT,
    EU_Step8_InternalGain_93cb1d593b2783cf_F0_whole_f000,    !- Name
    Electricity,              !- Fuel Type
    93cb1d593b2783cf_F0_whole,    !- Zone or ZoneList or Space or SpaceList Name
    EU_Step8_GainSchedule_93cb1d593b2783cf_F0_whole_f000,    !- Schedule Name
    Watts/Area,               !- Design Level Calculation Method
    ,                         !- Design Level
    1,                        !- Power per Zone Floor Area
    ,                         !- Power per Person
    0,                        !- Fraction Latent
    0,                        !- Fraction Radiant
    0,                        !- Fraction Lost
    0,                        !- Carbon Dioxide Generation Rate
    EU_Step8_InternalGains;    !- EndUse Subcategory

OTHEREQUIPMENT,
    EU_Step8_InternalGain_93cb1d593b2783cf_F1_whole_f000,    !- Name
    Electricity,              !- Fuel Type
    93cb1d593b2783cf_F1_whole,    !- Zone or ZoneList or Space or SpaceList Name
    EU_Step8_GainSchedule_93cb1d593b2783cf_F1_whole_f000,    !- Schedule Name
    Watts/Area,               !- Design Level Calculation Method
    ,                         !- Design Level
    1,                        !- Power per Zone Floor Area
    ,                         !- Power per Person
    0,                        !- Fraction Latent
    0,                        !- Fraction Radiant
    0,                        !- Fraction Lost
    0,                        !- Carbon Dioxide Generation Rate
    EU_Step8_InternalGains;    !- EndUse Subcategory

OTHEREQUIPMENT,
    EU_Step8_InternalGain_93cb1d593b2783cf_F2_whole_f000,    !- Name
    Electricity,              !- Fuel Type
    93cb1d593b2783cf_F2_whole,    !- Zone or ZoneList or Space or SpaceList Name
    EU_Step8_GainSchedule_93cb1d593b2783cf_F2_whole_f000,    !- Schedule Name
    Watts/Area,               !- Design Level Calculation Method
    ,                         !- Design Level
    1,                        !- Power per Zone Floor Area
    ,                         !- Power per Person
    0,                        !- Fraction Latent
    0,                        !- Fraction Radiant
    0,                        !- Fraction Lost
    0,                        !- Carbon Dioxide Generation Rate
    EU_Step8_InternalGains;    !- EndUse Subcategory

OTHEREQUIPMENT,
    EU_Step8_InternalGain_93cb1d593b2783cf_F3_whole_f000,    !- Name
    Electricity,              !- Fuel Type
    93cb1d593b2783cf_F3_whole,    !- Zone or ZoneList or Space or SpaceList Name
    EU_Step8_GainSchedule_93cb1d593b2783cf_F3_whole_f000,    !- Schedule Name
    Watts/Area,               !- Design Level Calculation Method
    ,                         !- Design Level
    1,                        !- Power per Zone Floor Area
    ,                         !- Power per Person
    0,                        !- Fraction Latent
    0,                        !- Fraction Radiant
    0,                        !- Fraction Lost
    0,                        !- Carbon Dioxide Generation Rate
    EU_Step8_InternalGains;    !- EndUse Subcategory

OTHEREQUIPMENT,
    EU_Step8_InternalGain_93cb1d593b2783cf_F4_whole_f000,    !- Name
    Electricity,              !- Fuel Type
    93cb1d593b2783cf_F4_whole,    !- Zone or ZoneList or Space or SpaceList Name
    EU_Step8_GainSchedule_93cb1d593b2783cf_F4_whole_f000,    !- Schedule Name
    Watts/Area,               !- Design Level Calculation Method
    ,                         !- Design Level
    1,                        !- Power per Zone Floor Area
    ,                         !- Power per Person
    0,                        !- Fraction Latent
    0,                        !- Fraction Radiant
    0,                        !- Fraction Lost
    0,                        !- Carbon Dioxide Generation Rate
    EU_Step8_InternalGains;    !- EndUse Subcategory

OTHEREQUIPMENT,
    EU_Step8_InternalGain_93cb1d593b2783cf_F5_whole_f000,    !- Name
    Electricity,              !- Fuel Type
    93cb1d593b2783cf_F5_whole,    !- Zone or ZoneList or Space or SpaceList Name
    EU_Step8_GainSchedule_93cb1d593b2783cf_F5_whole_f000,    !- Schedule Name
    Watts/Area,               !- Design Level Calculation Method
    ,                         !- Design Level
    1,                        !- Power per Zone Floor Area
    ,                         !- Power per Person
    0,                        !- Fraction Latent
    0,                        !- Fraction Radiant
    0,                        !- Fraction Lost
    0,                        !- Carbon Dioxide Generation Rate
    EU_Step8_InternalGains;    !- EndUse Subcategory

OTHEREQUIPMENT,
    EU_Step8_InternalGain_93cb1d593b2783cf_F6_whole_f000,    !- Name
    Electricity,              !- Fuel Type
    93cb1d593b2783cf_F6_whole,    !- Zone or ZoneList or Space or SpaceList Name
    EU_Step8_GainSchedule_93cb1d593b2783cf_F6_whole_f000,    !- Schedule Name
    Watts/Area,               !- Design Level Calculation Method
    ,                         !- Design Level
    1,                        !- Power per Zone Floor Area
    ,                         !- Power per Person
    0,                        !- Fraction Latent
    0,                        !- Fraction Radiant
    0,                        !- Fraction Lost
    0,                        !- Carbon Dioxide Generation Rate
    EU_Step8_InternalGains;    !- EndUse Subcategory

OTHEREQUIPMENT,
    EU_Step8_InternalGain_93cb1d593b2783cf_F7_whole_f000,    !- Name
    Electricity,              !- Fuel Type
    93cb1d593b2783cf_F7_whole,    !- Zone or ZoneList or Space or SpaceList Name
    EU_Step8_GainSchedule_93cb1d593b2783cf_F7_whole_f000,    !- Schedule Name
    Watts/Area,               !- Design Level Calculation Method
    ,                         !- Design Level
    1,                        !- Power per Zone Floor Area
    ,                         !- Power per Person
    0,                        !- Fraction Latent
    0,                        !- Fraction Radiant
    0,                        !- Fraction Lost
    0,                        !- Carbon Dioxide Generation Rate
    EU_Step8_InternalGains;    !- EndUse Subcategory

ZONEVENTILATION:DESIGNFLOWRATE,
    EU_ConstantAir_93cb1d593b2783cf_F0_whole,    !- Name
    93cb1d593b2783cf_F0_whole,    !- Zone or ZoneList or Space or SpaceList Name
    EU_AlwaysOn,              !- Schedule Name
    AirChanges/Hour,          !- Design Flow Rate Calculation Method
    ,                         !- Design Flow Rate
    ,                         !- Flow Rate per Floor Area
    ,                         !- Flow Rate per Person
    0.4805455383433011,       !- Air Changes per Hour
    Natural,                  !- Ventilation Type
    0,                        !- Fan Pressure Rise
    1,                        !- Fan Total Efficiency
    1,                        !- Constant Term Coefficient
    0,                        !- Temperature Term Coefficient
    0,                        !- Velocity Term Coefficient
    0,                        !- Velocity Squared Term Coefficient
    -100,                     !- Minimum Indoor Temperature
    ,                         !- Minimum Indoor Temperature Schedule Name
    100,                      !- Maximum Indoor Temperature
    ,                         !- Maximum Indoor Temperature Schedule Name
    -100,                     !- Delta Temperature
    ,                         !- Delta Temperature Schedule Name
    -100,                     !- Minimum Outdoor Temperature
    ,                         !- Minimum Outdoor Temperature Schedule Name
    100,                      !- Maximum Outdoor Temperature
    ,                         !- Maximum Outdoor Temperature Schedule Name
    40;                       !- Maximum Wind Speed

ZONEVENTILATION:DESIGNFLOWRATE,
    EU_ConstantAir_93cb1d593b2783cf_F1_whole,    !- Name
    93cb1d593b2783cf_F1_whole,    !- Zone or ZoneList or Space or SpaceList Name
    EU_AlwaysOn,              !- Schedule Name
    AirChanges/Hour,          !- Design Flow Rate Calculation Method
    ,                         !- Design Flow Rate
    ,                         !- Flow Rate per Floor Area
    ,                         !- Flow Rate per Person
    0.4805455383433011,       !- Air Changes per Hour
    Natural,                  !- Ventilation Type
    0,                        !- Fan Pressure Rise
    1,                        !- Fan Total Efficiency
    1,                        !- Constant Term Coefficient
    0,                        !- Temperature Term Coefficient
    0,                        !- Velocity Term Coefficient
    0,                        !- Velocity Squared Term Coefficient
    -100,                     !- Minimum Indoor Temperature
    ,                         !- Minimum Indoor Temperature Schedule Name
    100,                      !- Maximum Indoor Temperature
    ,                         !- Maximum Indoor Temperature Schedule Name
    -100,                     !- Delta Temperature
    ,                         !- Delta Temperature Schedule Name
    -100,                     !- Minimum Outdoor Temperature
    ,                         !- Minimum Outdoor Temperature Schedule Name
    100,                      !- Maximum Outdoor Temperature
    ,                         !- Maximum Outdoor Temperature Schedule Name
    40;                       !- Maximum Wind Speed

ZONEVENTILATION:DESIGNFLOWRATE,
    EU_ConstantAir_93cb1d593b2783cf_F2_whole,    !- Name
    93cb1d593b2783cf_F2_whole,    !- Zone or ZoneList or Space or SpaceList Name
    EU_AlwaysOn,              !- Schedule Name
    AirChanges/Hour,          !- Design Flow Rate Calculation Method
    ,                         !- Design Flow Rate
    ,                         !- Flow Rate per Floor Area
    ,                         !- Flow Rate per Person
    0.4805455383433011,       !- Air Changes per Hour
    Natural,                  !- Ventilation Type
    0,                        !- Fan Pressure Rise
    1,                        !- Fan Total Efficiency
    1,                        !- Constant Term Coefficient
    0,                        !- Temperature Term Coefficient
    0,                        !- Velocity Term Coefficient
    0,                        !- Velocity Squared Term Coefficient
    -100,                     !- Minimum Indoor Temperature
    ,                         !- Minimum Indoor Temperature Schedule Name
    100,                      !- Maximum Indoor Temperature
    ,                         !- Maximum Indoor Temperature Schedule Name
    -100,                     !- Delta Temperature
    ,                         !- Delta Temperature Schedule Name
    -100,                     !- Minimum Outdoor Temperature
    ,                         !- Minimum Outdoor Temperature Schedule Name
    100,                      !- Maximum Outdoor Temperature
    ,                         !- Maximum Outdoor Temperature Schedule Name
    40;                       !- Maximum Wind Speed

ZONEVENTILATION:DESIGNFLOWRATE,
    EU_ConstantAir_93cb1d593b2783cf_F3_whole,    !- Name
    93cb1d593b2783cf_F3_whole,    !- Zone or ZoneList or Space or SpaceList Name
    EU_AlwaysOn,              !- Schedule Name
    AirChanges/Hour,          !- Design Flow Rate Calculation Method
    ,                         !- Design Flow Rate
    ,                         !- Flow Rate per Floor Area
    ,                         !- Flow Rate per Person
    0.4805455383433011,       !- Air Changes per Hour
    Natural,                  !- Ventilation Type
    0,                        !- Fan Pressure Rise
    1,                        !- Fan Total Efficiency
    1,                        !- Constant Term Coefficient
    0,                        !- Temperature Term Coefficient
    0,                        !- Velocity Term Coefficient
    0,                        !- Velocity Squared Term Coefficient
    -100,                     !- Minimum Indoor Temperature
    ,                         !- Minimum Indoor Temperature Schedule Name
    100,                      !- Maximum Indoor Temperature
    ,                         !- Maximum Indoor Temperature Schedule Name
    -100,                     !- Delta Temperature
    ,                         !- Delta Temperature Schedule Name
    -100,                     !- Minimum Outdoor Temperature
    ,                         !- Minimum Outdoor Temperature Schedule Name
    100,                      !- Maximum Outdoor Temperature
    ,                         !- Maximum Outdoor Temperature Schedule Name
    40;                       !- Maximum Wind Speed

ZONEVENTILATION:DESIGNFLOWRATE,
    EU_ConstantAir_93cb1d593b2783cf_F4_whole,    !- Name
    93cb1d593b2783cf_F4_whole,    !- Zone or ZoneList or Space or SpaceList Name
    EU_AlwaysOn,              !- Schedule Name
    AirChanges/Hour,          !- Design Flow Rate Calculation Method
    ,                         !- Design Flow Rate
    ,                         !- Flow Rate per Floor Area
    ,                         !- Flow Rate per Person
    0.4805455383433011,       !- Air Changes per Hour
    Natural,                  !- Ventilation Type
    0,                        !- Fan Pressure Rise
    1,                        !- Fan Total Efficiency
    1,                        !- Constant Term Coefficient
    0,                        !- Temperature Term Coefficient
    0,                        !- Velocity Term Coefficient
    0,                        !- Velocity Squared Term Coefficient
    -100,                     !- Minimum Indoor Temperature
    ,                         !- Minimum Indoor Temperature Schedule Name
    100,                      !- Maximum Indoor Temperature
    ,                         !- Maximum Indoor Temperature Schedule Name
    -100,                     !- Delta Temperature
    ,                         !- Delta Temperature Schedule Name
    -100,                     !- Minimum Outdoor Temperature
    ,                         !- Minimum Outdoor Temperature Schedule Name
    100,                      !- Maximum Outdoor Temperature
    ,                         !- Maximum Outdoor Temperature Schedule Name
    40;                       !- Maximum Wind Speed

ZONEVENTILATION:DESIGNFLOWRATE,
    EU_ConstantAir_93cb1d593b2783cf_F5_whole,    !- Name
    93cb1d593b2783cf_F5_whole,    !- Zone or ZoneList or Space or SpaceList Name
    EU_AlwaysOn,              !- Schedule Name
    AirChanges/Hour,          !- Design Flow Rate Calculation Method
    ,                         !- Design Flow Rate
    ,                         !- Flow Rate per Floor Area
    ,                         !- Flow Rate per Person
    0.4805455383433011,       !- Air Changes per Hour
    Natural,                  !- Ventilation Type
    0,                        !- Fan Pressure Rise
    1,                        !- Fan Total Efficiency
    1,                        !- Constant Term Coefficient
    0,                        !- Temperature Term Coefficient
    0,                        !- Velocity Term Coefficient
    0,                        !- Velocity Squared Term Coefficient
    -100,                     !- Minimum Indoor Temperature
    ,                         !- Minimum Indoor Temperature Schedule Name
    100,                      !- Maximum Indoor Temperature
    ,                         !- Maximum Indoor Temperature Schedule Name
    -100,                     !- Delta Temperature
    ,                         !- Delta Temperature Schedule Name
    -100,                     !- Minimum Outdoor Temperature
    ,                         !- Minimum Outdoor Temperature Schedule Name
    100,                      !- Maximum Outdoor Temperature
    ,                         !- Maximum Outdoor Temperature Schedule Name
    40;                       !- Maximum Wind Speed

ZONEVENTILATION:DESIGNFLOWRATE,
    EU_ConstantAir_93cb1d593b2783cf_F6_whole,    !- Name
    93cb1d593b2783cf_F6_whole,    !- Zone or ZoneList or Space or SpaceList Name
    EU_AlwaysOn,              !- Schedule Name
    AirChanges/Hour,          !- Design Flow Rate Calculation Method
    ,                         !- Design Flow Rate
    ,                         !- Flow Rate per Floor Area
    ,                         !- Flow Rate per Person
    0.4805455383433011,       !- Air Changes per Hour
    Natural,                  !- Ventilation Type
    0,                        !- Fan Pressure Rise
    1,                        !- Fan Total Efficiency
    1,                        !- Constant Term Coefficient
    0,                        !- Temperature Term Coefficient
    0,                        !- Velocity Term Coefficient
    0,                        !- Velocity Squared Term Coefficient
    -100,                     !- Minimum Indoor Temperature
    ,                         !- Minimum Indoor Temperature Schedule Name
    100,                      !- Maximum Indoor Temperature
    ,                         !- Maximum Indoor Temperature Schedule Name
    -100,                     !- Delta Temperature
    ,                         !- Delta Temperature Schedule Name
    -100,                     !- Minimum Outdoor Temperature
    ,                         !- Minimum Outdoor Temperature Schedule Name
    100,                      !- Maximum Outdoor Temperature
    ,                         !- Maximum Outdoor Temperature Schedule Name
    40;                       !- Maximum Wind Speed

ZONEVENTILATION:DESIGNFLOWRATE,
    EU_ConstantAir_93cb1d593b2783cf_F7_whole,    !- Name
    93cb1d593b2783cf_F7_whole,    !- Zone or ZoneList or Space or SpaceList Name
    EU_AlwaysOn,              !- Schedule Name
    AirChanges/Hour,          !- Design Flow Rate Calculation Method
    ,                         !- Design Flow Rate
    ,                         !- Flow Rate per Floor Area
    ,                         !- Flow Rate per Person
    0.4805455383433011,       !- Air Changes per Hour
    Natural,                  !- Ventilation Type
    0,                        !- Fan Pressure Rise
    1,                        !- Fan Total Efficiency
    1,                        !- Constant Term Coefficient
    0,                        !- Temperature Term Coefficient
    0,                        !- Velocity Term Coefficient
    0,                        !- Velocity Squared Term Coefficient
    -100,                     !- Minimum Indoor Temperature
    ,                         !- Minimum Indoor Temperature Schedule Name
    100,                      !- Maximum Indoor Temperature
    ,                         !- Maximum Indoor Temperature Schedule Name
    -100,                     !- Delta Temperature
    ,                         !- Delta Temperature Schedule Name
    -100,                     !- Minimum Outdoor Temperature
    ,                         !- Minimum Outdoor Temperature Schedule Name
    100,                      !- Maximum Outdoor Temperature
    ,                         !- Maximum Outdoor Temperature Schedule Name
    40;                       !- Maximum Wind Speed

HVACTEMPLATE:THERMOSTAT,
    EU_HeatOnly_93cb1d593b2783cf_F0_whole,    !- Name
    ,                         !- Heating Setpoint Schedule Name
    20,                       !- Constant Heating Setpoint
    ,                         !- Cooling Setpoint Schedule Name
    50;                       !- Constant Cooling Setpoint

HVACTEMPLATE:THERMOSTAT,
    EU_HeatOnly_93cb1d593b2783cf_F1_whole,    !- Name
    ,                         !- Heating Setpoint Schedule Name
    20,                       !- Constant Heating Setpoint
    ,                         !- Cooling Setpoint Schedule Name
    50;                       !- Constant Cooling Setpoint

HVACTEMPLATE:THERMOSTAT,
    EU_HeatOnly_93cb1d593b2783cf_F2_whole,    !- Name
    ,                         !- Heating Setpoint Schedule Name
    20,                       !- Constant Heating Setpoint
    ,                         !- Cooling Setpoint Schedule Name
    50;                       !- Constant Cooling Setpoint

HVACTEMPLATE:THERMOSTAT,
    EU_HeatOnly_93cb1d593b2783cf_F3_whole,    !- Name
    ,                         !- Heating Setpoint Schedule Name
    20,                       !- Constant Heating Setpoint
    ,                         !- Cooling Setpoint Schedule Name
    50;                       !- Constant Cooling Setpoint

HVACTEMPLATE:THERMOSTAT,
    EU_HeatOnly_93cb1d593b2783cf_F4_whole,    !- Name
    ,                         !- Heating Setpoint Schedule Name
    20,                       !- Constant Heating Setpoint
    ,                         !- Cooling Setpoint Schedule Name
    50;                       !- Constant Cooling Setpoint

HVACTEMPLATE:THERMOSTAT,
    EU_HeatOnly_93cb1d593b2783cf_F5_whole,    !- Name
    ,                         !- Heating Setpoint Schedule Name
    20,                       !- Constant Heating Setpoint
    ,                         !- Cooling Setpoint Schedule Name
    50;                       !- Constant Cooling Setpoint

HVACTEMPLATE:THERMOSTAT,
    EU_HeatOnly_93cb1d593b2783cf_F6_whole,    !- Name
    ,                         !- Heating Setpoint Schedule Name
    20,                       !- Constant Heating Setpoint
    ,                         !- Cooling Setpoint Schedule Name
    50;                       !- Constant Cooling Setpoint

HVACTEMPLATE:THERMOSTAT,
    EU_HeatOnly_93cb1d593b2783cf_F7_whole,    !- Name
    ,                         !- Heating Setpoint Schedule Name
    20,                       !- Constant Heating Setpoint
    ,                         !- Cooling Setpoint Schedule Name
    50;                       !- Constant Cooling Setpoint

HVACTEMPLATE:ZONE:IDEALLOADSAIRSYSTEM,
    93cb1d593b2783cf_F0_whole,    !- Zone Name
    EU_HeatOnly_93cb1d593b2783cf_F0_whole,    !- Template Thermostat Name
    EU_AlwaysOn,              !- System Availability Schedule Name
    50,                       !- Maximum Heating Supply Air Temperature
    13,                       !- Minimum Cooling Supply Air Temperature
    0.0156,                   !- Maximum Heating Supply Air Humidity Ratio
    0.0077,                   !- Minimum Cooling Supply Air Humidity Ratio
    NoLimit,                  !- Heating Limit
    ,                         !- Maximum Heating Air Flow Rate
    ,                         !- Maximum Sensible Heating Capacity
    NoLimit,                  !- Cooling Limit
    ,                         !- Maximum Cooling Air Flow Rate
    ,                         !- Maximum Total Cooling Capacity
    EU_AlwaysOn,              !- Heating Availability Schedule Name
    EU_CoolingOff,            !- Cooling Availability Schedule Name
    ConstantSensibleHeatRatio,    !- Dehumidification Control Type
    0.7,                      !- Cooling Sensible Heat Ratio
    60,                       !- Dehumidification Setpoint
    None,                     !- Humidification Control Type
    30,                       !- Humidification Setpoint
    None,                     !- Outdoor Air Method
    0.00944,                  !- Outdoor Air Flow Rate per Person
    0.0,                      !- Outdoor Air Flow Rate per Zone Floor Area
    0,                        !- Outdoor Air Flow Rate per Zone
    ,                         !- Design Specification Outdoor Air Object Name
    None,                     !- Demand Controlled Ventilation Type
    NoEconomizer,             !- Outdoor Air Economizer Type
    None,                     !- Heat Recovery Type
    0.70,                     !- Sensible Heat Recovery Effectiveness
    0.65;                     !- Latent Heat Recovery Effectiveness

HVACTEMPLATE:ZONE:IDEALLOADSAIRSYSTEM,
    93cb1d593b2783cf_F1_whole,    !- Zone Name
    EU_HeatOnly_93cb1d593b2783cf_F1_whole,    !- Template Thermostat Name
    EU_AlwaysOn,              !- System Availability Schedule Name
    50,                       !- Maximum Heating Supply Air Temperature
    13,                       !- Minimum Cooling Supply Air Temperature
    0.0156,                   !- Maximum Heating Supply Air Humidity Ratio
    0.0077,                   !- Minimum Cooling Supply Air Humidity Ratio
    NoLimit,                  !- Heating Limit
    ,                         !- Maximum Heating Air Flow Rate
    ,                         !- Maximum Sensible Heating Capacity
    NoLimit,                  !- Cooling Limit
    ,                         !- Maximum Cooling Air Flow Rate
    ,                         !- Maximum Total Cooling Capacity
    EU_AlwaysOn,              !- Heating Availability Schedule Name
    EU_CoolingOff,            !- Cooling Availability Schedule Name
    ConstantSensibleHeatRatio,    !- Dehumidification Control Type
    0.7,                      !- Cooling Sensible Heat Ratio
    60,                       !- Dehumidification Setpoint
    None,                     !- Humidification Control Type
    30,                       !- Humidification Setpoint
    None,                     !- Outdoor Air Method
    0.00944,                  !- Outdoor Air Flow Rate per Person
    0.0,                      !- Outdoor Air Flow Rate per Zone Floor Area
    0,                        !- Outdoor Air Flow Rate per Zone
    ,                         !- Design Specification Outdoor Air Object Name
    None,                     !- Demand Controlled Ventilation Type
    NoEconomizer,             !- Outdoor Air Economizer Type
    None,                     !- Heat Recovery Type
    0.70,                     !- Sensible Heat Recovery Effectiveness
    0.65;                     !- Latent Heat Recovery Effectiveness

HVACTEMPLATE:ZONE:IDEALLOADSAIRSYSTEM,
    93cb1d593b2783cf_F2_whole,    !- Zone Name
    EU_HeatOnly_93cb1d593b2783cf_F2_whole,    !- Template Thermostat Name
    EU_AlwaysOn,              !- System Availability Schedule Name
    50,                       !- Maximum Heating Supply Air Temperature
    13,                       !- Minimum Cooling Supply Air Temperature
    0.0156,                   !- Maximum Heating Supply Air Humidity Ratio
    0.0077,                   !- Minimum Cooling Supply Air Humidity Ratio
    NoLimit,                  !- Heating Limit
    ,                         !- Maximum Heating Air Flow Rate
    ,                         !- Maximum Sensible Heating Capacity
    NoLimit,                  !- Cooling Limit
    ,                         !- Maximum Cooling Air Flow Rate
    ,                         !- Maximum Total Cooling Capacity
    EU_AlwaysOn,              !- Heating Availability Schedule Name
    EU_CoolingOff,            !- Cooling Availability Schedule Name
    ConstantSensibleHeatRatio,    !- Dehumidification Control Type
    0.7,                      !- Cooling Sensible Heat Ratio
    60,                       !- Dehumidification Setpoint
    None,                     !- Humidification Control Type
    30,                       !- Humidification Setpoint
    None,                     !- Outdoor Air Method
    0.00944,                  !- Outdoor Air Flow Rate per Person
    0.0,                      !- Outdoor Air Flow Rate per Zone Floor Area
    0,                        !- Outdoor Air Flow Rate per Zone
    ,                         !- Design Specification Outdoor Air Object Name
    None,                     !- Demand Controlled Ventilation Type
    NoEconomizer,             !- Outdoor Air Economizer Type
    None,                     !- Heat Recovery Type
    0.70,                     !- Sensible Heat Recovery Effectiveness
    0.65;                     !- Latent Heat Recovery Effectiveness

HVACTEMPLATE:ZONE:IDEALLOADSAIRSYSTEM,
    93cb1d593b2783cf_F3_whole,    !- Zone Name
    EU_HeatOnly_93cb1d593b2783cf_F3_whole,    !- Template Thermostat Name
    EU_AlwaysOn,              !- System Availability Schedule Name
    50,                       !- Maximum Heating Supply Air Temperature
    13,                       !- Minimum Cooling Supply Air Temperature
    0.0156,                   !- Maximum Heating Supply Air Humidity Ratio
    0.0077,                   !- Minimum Cooling Supply Air Humidity Ratio
    NoLimit,                  !- Heating Limit
    ,                         !- Maximum Heating Air Flow Rate
    ,                         !- Maximum Sensible Heating Capacity
    NoLimit,                  !- Cooling Limit
    ,                         !- Maximum Cooling Air Flow Rate
    ,                         !- Maximum Total Cooling Capacity
    EU_AlwaysOn,              !- Heating Availability Schedule Name
    EU_CoolingOff,            !- Cooling Availability Schedule Name
    ConstantSensibleHeatRatio,    !- Dehumidification Control Type
    0.7,                      !- Cooling Sensible Heat Ratio
    60,                       !- Dehumidification Setpoint
    None,                     !- Humidification Control Type
    30,                       !- Humidification Setpoint
    None,                     !- Outdoor Air Method
    0.00944,                  !- Outdoor Air Flow Rate per Person
    0.0,                      !- Outdoor Air Flow Rate per Zone Floor Area
    0,                        !- Outdoor Air Flow Rate per Zone
    ,                         !- Design Specification Outdoor Air Object Name
    None,                     !- Demand Controlled Ventilation Type
    NoEconomizer,             !- Outdoor Air Economizer Type
    None,                     !- Heat Recovery Type
    0.70,                     !- Sensible Heat Recovery Effectiveness
    0.65;                     !- Latent Heat Recovery Effectiveness

HVACTEMPLATE:ZONE:IDEALLOADSAIRSYSTEM,
    93cb1d593b2783cf_F4_whole,    !- Zone Name
    EU_HeatOnly_93cb1d593b2783cf_F4_whole,    !- Template Thermostat Name
    EU_AlwaysOn,              !- System Availability Schedule Name
    50,                       !- Maximum Heating Supply Air Temperature
    13,                       !- Minimum Cooling Supply Air Temperature
    0.0156,                   !- Maximum Heating Supply Air Humidity Ratio
    0.0077,                   !- Minimum Cooling Supply Air Humidity Ratio
    NoLimit,                  !- Heating Limit
    ,                         !- Maximum Heating Air Flow Rate
    ,                         !- Maximum Sensible Heating Capacity
    NoLimit,                  !- Cooling Limit
    ,                         !- Maximum Cooling Air Flow Rate
    ,                         !- Maximum Total Cooling Capacity
    EU_AlwaysOn,              !- Heating Availability Schedule Name
    EU_CoolingOff,            !- Cooling Availability Schedule Name
    ConstantSensibleHeatRatio,    !- Dehumidification Control Type
    0.7,                      !- Cooling Sensible Heat Ratio
    60,                       !- Dehumidification Setpoint
    None,                     !- Humidification Control Type
    30,                       !- Humidification Setpoint
    None,                     !- Outdoor Air Method
    0.00944,                  !- Outdoor Air Flow Rate per Person
    0.0,                      !- Outdoor Air Flow Rate per Zone Floor Area
    0,                        !- Outdoor Air Flow Rate per Zone
    ,                         !- Design Specification Outdoor Air Object Name
    None,                     !- Demand Controlled Ventilation Type
    NoEconomizer,             !- Outdoor Air Economizer Type
    None,                     !- Heat Recovery Type
    0.70,                     !- Sensible Heat Recovery Effectiveness
    0.65;                     !- Latent Heat Recovery Effectiveness

HVACTEMPLATE:ZONE:IDEALLOADSAIRSYSTEM,
    93cb1d593b2783cf_F5_whole,    !- Zone Name
    EU_HeatOnly_93cb1d593b2783cf_F5_whole,    !- Template Thermostat Name
    EU_AlwaysOn,              !- System Availability Schedule Name
    50,                       !- Maximum Heating Supply Air Temperature
    13,                       !- Minimum Cooling Supply Air Temperature
    0.0156,                   !- Maximum Heating Supply Air Humidity Ratio
    0.0077,                   !- Minimum Cooling Supply Air Humidity Ratio
    NoLimit,                  !- Heating Limit
    ,                         !- Maximum Heating Air Flow Rate
    ,                         !- Maximum Sensible Heating Capacity
    NoLimit,                  !- Cooling Limit
    ,                         !- Maximum Cooling Air Flow Rate
    ,                         !- Maximum Total Cooling Capacity
    EU_AlwaysOn,              !- Heating Availability Schedule Name
    EU_CoolingOff,            !- Cooling Availability Schedule Name
    ConstantSensibleHeatRatio,    !- Dehumidification Control Type
    0.7,                      !- Cooling Sensible Heat Ratio
    60,                       !- Dehumidification Setpoint
    None,                     !- Humidification Control Type
    30,                       !- Humidification Setpoint
    None,                     !- Outdoor Air Method
    0.00944,                  !- Outdoor Air Flow Rate per Person
    0.0,                      !- Outdoor Air Flow Rate per Zone Floor Area
    0,                        !- Outdoor Air Flow Rate per Zone
    ,                         !- Design Specification Outdoor Air Object Name
    None,                     !- Demand Controlled Ventilation Type
    NoEconomizer,             !- Outdoor Air Economizer Type
    None,                     !- Heat Recovery Type
    0.70,                     !- Sensible Heat Recovery Effectiveness
    0.65;                     !- Latent Heat Recovery Effectiveness

HVACTEMPLATE:ZONE:IDEALLOADSAIRSYSTEM,
    93cb1d593b2783cf_F6_whole,    !- Zone Name
    EU_HeatOnly_93cb1d593b2783cf_F6_whole,    !- Template Thermostat Name
    EU_AlwaysOn,              !- System Availability Schedule Name
    50,                       !- Maximum Heating Supply Air Temperature
    13,                       !- Minimum Cooling Supply Air Temperature
    0.0156,                   !- Maximum Heating Supply Air Humidity Ratio
    0.0077,                   !- Minimum Cooling Supply Air Humidity Ratio
    NoLimit,                  !- Heating Limit
    ,                         !- Maximum Heating Air Flow Rate
    ,                         !- Maximum Sensible Heating Capacity
    NoLimit,                  !- Cooling Limit
    ,                         !- Maximum Cooling Air Flow Rate
    ,                         !- Maximum Total Cooling Capacity
    EU_AlwaysOn,              !- Heating Availability Schedule Name
    EU_CoolingOff,            !- Cooling Availability Schedule Name
    ConstantSensibleHeatRatio,    !- Dehumidification Control Type
    0.7,                      !- Cooling Sensible Heat Ratio
    60,                       !- Dehumidification Setpoint
    None,                     !- Humidification Control Type
    30,                       !- Humidification Setpoint
    None,                     !- Outdoor Air Method
    0.00944,                  !- Outdoor Air Flow Rate per Person
    0.0,                      !- Outdoor Air Flow Rate per Zone Floor Area
    0,                        !- Outdoor Air Flow Rate per Zone
    ,                         !- Design Specification Outdoor Air Object Name
    None,                     !- Demand Controlled Ventilation Type
    NoEconomizer,             !- Outdoor Air Economizer Type
    None,                     !- Heat Recovery Type
    0.70,                     !- Sensible Heat Recovery Effectiveness
    0.65;                     !- Latent Heat Recovery Effectiveness

HVACTEMPLATE:ZONE:IDEALLOADSAIRSYSTEM,
    93cb1d593b2783cf_F7_whole,    !- Zone Name
    EU_HeatOnly_93cb1d593b2783cf_F7_whole,    !- Template Thermostat Name
    EU_AlwaysOn,              !- System Availability Schedule Name
    50,                       !- Maximum Heating Supply Air Temperature
    13,                       !- Minimum Cooling Supply Air Temperature
    0.0156,                   !- Maximum Heating Supply Air Humidity Ratio
    0.0077,                   !- Minimum Cooling Supply Air Humidity Ratio
    NoLimit,                  !- Heating Limit
    ,                         !- Maximum Heating Air Flow Rate
    ,                         !- Maximum Sensible Heating Capacity
    NoLimit,                  !- Cooling Limit
    ,                         !- Maximum Cooling Air Flow Rate
    ,                         !- Maximum Total Cooling Capacity
    EU_AlwaysOn,              !- Heating Availability Schedule Name
    EU_CoolingOff,            !- Cooling Availability Schedule Name
    ConstantSensibleHeatRatio,    !- Dehumidification Control Type
    0.7,                      !- Cooling Sensible Heat Ratio
    60,                       !- Dehumidification Setpoint
    None,                     !- Humidification Control Type
    30,                       !- Humidification Setpoint
    None,                     !- Outdoor Air Method
    0.00944,                  !- Outdoor Air Flow Rate per Person
    0.0,                      !- Outdoor Air Flow Rate per Zone Floor Area
    0,                        !- Outdoor Air Flow Rate per Zone
    ,                         !- Design Specification Outdoor Air Object Name
    None,                     !- Demand Controlled Ventilation Type
    NoEconomizer,             !- Outdoor Air Economizer Type
    None,                     !- Heat Recovery Type
    0.70,                     !- Sensible Heat Recovery Effectiveness
    0.65;                     !- Latent Heat Recovery Effectiveness

SIZING:ZONE,
    93cb1d593b2783cf_F0_whole,    !- Zone or ZoneList Name
    SupplyAirTemperature,     !- Zone Cooling Design Supply Air Temperature Input Method
    13,                       !- Zone Cooling Design Supply Air Temperature
    ,                         !- Zone Cooling Design Supply Air Temperature Difference
    SupplyAirTemperature,     !- Zone Heating Design Supply Air Temperature Input Method
    50,                       !- Zone Heating Design Supply Air Temperature
    ,                         !- Zone Heating Design Supply Air Temperature Difference
    0.008,                    !- Zone Cooling Design Supply Air Humidity Ratio
    0.008,                    !- Zone Heating Design Supply Air Humidity Ratio
    ,                         !- Design Specification Outdoor Air Object Name
    ,                         !- Zone Heating Sizing Factor
    ,                         !- Zone Cooling Sizing Factor
    DesignDay,                !- Cooling Design Air Flow Method
    0,                        !- Cooling Design Air Flow Rate
    0.000762,                 !- Cooling Minimum Air Flow per Zone Floor Area
    0,                        !- Cooling Minimum Air Flow
    0.2,                      !- Cooling Minimum Air Flow Fraction
    DesignDay,                !- Heating Design Air Flow Method
    0,                        !- Heating Design Air Flow Rate
    0.002032,                 !- Heating Maximum Air Flow per Zone Floor Area
    0.1415762,                !- Heating Maximum Air Flow
    0.3,                      !- Heating Maximum Air Flow Fraction
    ,                         !- Design Specification Zone Air Distribution Object Name
    No,                       !- Account for Dedicated Outdoor Air System
    NeutralSupplyAir,         !- Dedicated Outdoor Air System Control Strategy
    autosize,                 !- Dedicated Outdoor Air Low Setpoint Temperature for Design
    autosize,                 !- Dedicated Outdoor Air High Setpoint Temperature for Design
    Sensible Load Only No Latent Load,    !- Zone Load Sizing Method
    HumidityRatioDifference,    !- Zone Latent Cooling Design Supply Air Humidity Ratio Input Method
    ,                         !- Zone Dehumidification Design Supply Air Humidity Ratio
    0.005,                    !- Zone Cooling Design Supply Air Humidity Ratio Difference
    HumidityRatioDifference,    !- Zone Latent Heating Design Supply Air Humidity Ratio Input Method
    ,                         !- Zone Humidification Design Supply Air Humidity Ratio
    0.005;                    !- Zone Humidification Design Supply Air Humidity Ratio Difference

SIZING:ZONE,
    93cb1d593b2783cf_F1_whole,    !- Zone or ZoneList Name
    SupplyAirTemperature,     !- Zone Cooling Design Supply Air Temperature Input Method
    13,                       !- Zone Cooling Design Supply Air Temperature
    ,                         !- Zone Cooling Design Supply Air Temperature Difference
    SupplyAirTemperature,     !- Zone Heating Design Supply Air Temperature Input Method
    50,                       !- Zone Heating Design Supply Air Temperature
    ,                         !- Zone Heating Design Supply Air Temperature Difference
    0.008,                    !- Zone Cooling Design Supply Air Humidity Ratio
    0.008,                    !- Zone Heating Design Supply Air Humidity Ratio
    ,                         !- Design Specification Outdoor Air Object Name
    ,                         !- Zone Heating Sizing Factor
    ,                         !- Zone Cooling Sizing Factor
    DesignDay,                !- Cooling Design Air Flow Method
    0,                        !- Cooling Design Air Flow Rate
    0.000762,                 !- Cooling Minimum Air Flow per Zone Floor Area
    0,                        !- Cooling Minimum Air Flow
    0.2,                      !- Cooling Minimum Air Flow Fraction
    DesignDay,                !- Heating Design Air Flow Method
    0,                        !- Heating Design Air Flow Rate
    0.002032,                 !- Heating Maximum Air Flow per Zone Floor Area
    0.1415762,                !- Heating Maximum Air Flow
    0.3,                      !- Heating Maximum Air Flow Fraction
    ,                         !- Design Specification Zone Air Distribution Object Name
    No,                       !- Account for Dedicated Outdoor Air System
    NeutralSupplyAir,         !- Dedicated Outdoor Air System Control Strategy
    autosize,                 !- Dedicated Outdoor Air Low Setpoint Temperature for Design
    autosize,                 !- Dedicated Outdoor Air High Setpoint Temperature for Design
    Sensible Load Only No Latent Load,    !- Zone Load Sizing Method
    HumidityRatioDifference,    !- Zone Latent Cooling Design Supply Air Humidity Ratio Input Method
    ,                         !- Zone Dehumidification Design Supply Air Humidity Ratio
    0.005,                    !- Zone Cooling Design Supply Air Humidity Ratio Difference
    HumidityRatioDifference,    !- Zone Latent Heating Design Supply Air Humidity Ratio Input Method
    ,                         !- Zone Humidification Design Supply Air Humidity Ratio
    0.005;                    !- Zone Humidification Design Supply Air Humidity Ratio Difference

SIZING:ZONE,
    93cb1d593b2783cf_F2_whole,    !- Zone or ZoneList Name
    SupplyAirTemperature,     !- Zone Cooling Design Supply Air Temperature Input Method
    13,                       !- Zone Cooling Design Supply Air Temperature
    ,                         !- Zone Cooling Design Supply Air Temperature Difference
    SupplyAirTemperature,     !- Zone Heating Design Supply Air Temperature Input Method
    50,                       !- Zone Heating Design Supply Air Temperature
    ,                         !- Zone Heating Design Supply Air Temperature Difference
    0.008,                    !- Zone Cooling Design Supply Air Humidity Ratio
    0.008,                    !- Zone Heating Design Supply Air Humidity Ratio
    ,                         !- Design Specification Outdoor Air Object Name
    ,                         !- Zone Heating Sizing Factor
    ,                         !- Zone Cooling Sizing Factor
    DesignDay,                !- Cooling Design Air Flow Method
    0,                        !- Cooling Design Air Flow Rate
    0.000762,                 !- Cooling Minimum Air Flow per Zone Floor Area
    0,                        !- Cooling Minimum Air Flow
    0.2,                      !- Cooling Minimum Air Flow Fraction
    DesignDay,                !- Heating Design Air Flow Method
    0,                        !- Heating Design Air Flow Rate
    0.002032,                 !- Heating Maximum Air Flow per Zone Floor Area
    0.1415762,                !- Heating Maximum Air Flow
    0.3,                      !- Heating Maximum Air Flow Fraction
    ,                         !- Design Specification Zone Air Distribution Object Name
    No,                       !- Account for Dedicated Outdoor Air System
    NeutralSupplyAir,         !- Dedicated Outdoor Air System Control Strategy
    autosize,                 !- Dedicated Outdoor Air Low Setpoint Temperature for Design
    autosize,                 !- Dedicated Outdoor Air High Setpoint Temperature for Design
    Sensible Load Only No Latent Load,    !- Zone Load Sizing Method
    HumidityRatioDifference,    !- Zone Latent Cooling Design Supply Air Humidity Ratio Input Method
    ,                         !- Zone Dehumidification Design Supply Air Humidity Ratio
    0.005,                    !- Zone Cooling Design Supply Air Humidity Ratio Difference
    HumidityRatioDifference,    !- Zone Latent Heating Design Supply Air Humidity Ratio Input Method
    ,                         !- Zone Humidification Design Supply Air Humidity Ratio
    0.005;                    !- Zone Humidification Design Supply Air Humidity Ratio Difference

SIZING:ZONE,
    93cb1d593b2783cf_F3_whole,    !- Zone or ZoneList Name
    SupplyAirTemperature,     !- Zone Cooling Design Supply Air Temperature Input Method
    13,                       !- Zone Cooling Design Supply Air Temperature
    ,                         !- Zone Cooling Design Supply Air Temperature Difference
    SupplyAirTemperature,     !- Zone Heating Design Supply Air Temperature Input Method
    50,                       !- Zone Heating Design Supply Air Temperature
    ,                         !- Zone Heating Design Supply Air Temperature Difference
    0.008,                    !- Zone Cooling Design Supply Air Humidity Ratio
    0.008,                    !- Zone Heating Design Supply Air Humidity Ratio
    ,                         !- Design Specification Outdoor Air Object Name
    ,                         !- Zone Heating Sizing Factor
    ,                         !- Zone Cooling Sizing Factor
    DesignDay,                !- Cooling Design Air Flow Method
    0,                        !- Cooling Design Air Flow Rate
    0.000762,                 !- Cooling Minimum Air Flow per Zone Floor Area
    0,                        !- Cooling Minimum Air Flow
    0.2,                      !- Cooling Minimum Air Flow Fraction
    DesignDay,                !- Heating Design Air Flow Method
    0,                        !- Heating Design Air Flow Rate
    0.002032,                 !- Heating Maximum Air Flow per Zone Floor Area
    0.1415762,                !- Heating Maximum Air Flow
    0.3,                      !- Heating Maximum Air Flow Fraction
    ,                         !- Design Specification Zone Air Distribution Object Name
    No,                       !- Account for Dedicated Outdoor Air System
    NeutralSupplyAir,         !- Dedicated Outdoor Air System Control Strategy
    autosize,                 !- Dedicated Outdoor Air Low Setpoint Temperature for Design
    autosize,                 !- Dedicated Outdoor Air High Setpoint Temperature for Design
    Sensible Load Only No Latent Load,    !- Zone Load Sizing Method
    HumidityRatioDifference,    !- Zone Latent Cooling Design Supply Air Humidity Ratio Input Method
    ,                         !- Zone Dehumidification Design Supply Air Humidity Ratio
    0.005,                    !- Zone Cooling Design Supply Air Humidity Ratio Difference
    HumidityRatioDifference,    !- Zone Latent Heating Design Supply Air Humidity Ratio Input Method
    ,                         !- Zone Humidification Design Supply Air Humidity Ratio
    0.005;                    !- Zone Humidification Design Supply Air Humidity Ratio Difference

SIZING:ZONE,
    93cb1d593b2783cf_F4_whole,    !- Zone or ZoneList Name
    SupplyAirTemperature,     !- Zone Cooling Design Supply Air Temperature Input Method
    13,                       !- Zone Cooling Design Supply Air Temperature
    ,                         !- Zone Cooling Design Supply Air Temperature Difference
    SupplyAirTemperature,     !- Zone Heating Design Supply Air Temperature Input Method
    50,                       !- Zone Heating Design Supply Air Temperature
    ,                         !- Zone Heating Design Supply Air Temperature Difference
    0.008,                    !- Zone Cooling Design Supply Air Humidity Ratio
    0.008,                    !- Zone Heating Design Supply Air Humidity Ratio
    ,                         !- Design Specification Outdoor Air Object Name
    ,                         !- Zone Heating Sizing Factor
    ,                         !- Zone Cooling Sizing Factor
    DesignDay,                !- Cooling Design Air Flow Method
    0,                        !- Cooling Design Air Flow Rate
    0.000762,                 !- Cooling Minimum Air Flow per Zone Floor Area
    0,                        !- Cooling Minimum Air Flow
    0.2,                      !- Cooling Minimum Air Flow Fraction
    DesignDay,                !- Heating Design Air Flow Method
    0,                        !- Heating Design Air Flow Rate
    0.002032,                 !- Heating Maximum Air Flow per Zone Floor Area
    0.1415762,                !- Heating Maximum Air Flow
    0.3,                      !- Heating Maximum Air Flow Fraction
    ,                         !- Design Specification Zone Air Distribution Object Name
    No,                       !- Account for Dedicated Outdoor Air System
    NeutralSupplyAir,         !- Dedicated Outdoor Air System Control Strategy
    autosize,                 !- Dedicated Outdoor Air Low Setpoint Temperature for Design
    autosize,                 !- Dedicated Outdoor Air High Setpoint Temperature for Design
    Sensible Load Only No Latent Load,    !- Zone Load Sizing Method
    HumidityRatioDifference,    !- Zone Latent Cooling Design Supply Air Humidity Ratio Input Method
    ,                         !- Zone Dehumidification Design Supply Air Humidity Ratio
    0.005,                    !- Zone Cooling Design Supply Air Humidity Ratio Difference
    HumidityRatioDifference,    !- Zone Latent Heating Design Supply Air Humidity Ratio Input Method
    ,                         !- Zone Humidification Design Supply Air Humidity Ratio
    0.005;                    !- Zone Humidification Design Supply Air Humidity Ratio Difference

SIZING:ZONE,
    93cb1d593b2783cf_F5_whole,    !- Zone or ZoneList Name
    SupplyAirTemperature,     !- Zone Cooling Design Supply Air Temperature Input Method
    13,                       !- Zone Cooling Design Supply Air Temperature
    ,                         !- Zone Cooling Design Supply Air Temperature Difference
    SupplyAirTemperature,     !- Zone Heating Design Supply Air Temperature Input Method
    50,                       !- Zone Heating Design Supply Air Temperature
    ,                         !- Zone Heating Design Supply Air Temperature Difference
    0.008,                    !- Zone Cooling Design Supply Air Humidity Ratio
    0.008,                    !- Zone Heating Design Supply Air Humidity Ratio
    ,                         !- Design Specification Outdoor Air Object Name
    ,                         !- Zone Heating Sizing Factor
    ,                         !- Zone Cooling Sizing Factor
    DesignDay,                !- Cooling Design Air Flow Method
    0,                        !- Cooling Design Air Flow Rate
    0.000762,                 !- Cooling Minimum Air Flow per Zone Floor Area
    0,                        !- Cooling Minimum Air Flow
    0.2,                      !- Cooling Minimum Air Flow Fraction
    DesignDay,                !- Heating Design Air Flow Method
    0,                        !- Heating Design Air Flow Rate
    0.002032,                 !- Heating Maximum Air Flow per Zone Floor Area
    0.1415762,                !- Heating Maximum Air Flow
    0.3,                      !- Heating Maximum Air Flow Fraction
    ,                         !- Design Specification Zone Air Distribution Object Name
    No,                       !- Account for Dedicated Outdoor Air System
    NeutralSupplyAir,         !- Dedicated Outdoor Air System Control Strategy
    autosize,                 !- Dedicated Outdoor Air Low Setpoint Temperature for Design
    autosize,                 !- Dedicated Outdoor Air High Setpoint Temperature for Design
    Sensible Load Only No Latent Load,    !- Zone Load Sizing Method
    HumidityRatioDifference,    !- Zone Latent Cooling Design Supply Air Humidity Ratio Input Method
    ,                         !- Zone Dehumidification Design Supply Air Humidity Ratio
    0.005,                    !- Zone Cooling Design Supply Air Humidity Ratio Difference
    HumidityRatioDifference,    !- Zone Latent Heating Design Supply Air Humidity Ratio Input Method
    ,                         !- Zone Humidification Design Supply Air Humidity Ratio
    0.005;                    !- Zone Humidification Design Supply Air Humidity Ratio Difference

SIZING:ZONE,
    93cb1d593b2783cf_F6_whole,    !- Zone or ZoneList Name
    SupplyAirTemperature,     !- Zone Cooling Design Supply Air Temperature Input Method
    13,                       !- Zone Cooling Design Supply Air Temperature
    ,                         !- Zone Cooling Design Supply Air Temperature Difference
    SupplyAirTemperature,     !- Zone Heating Design Supply Air Temperature Input Method
    50,                       !- Zone Heating Design Supply Air Temperature
    ,                         !- Zone Heating Design Supply Air Temperature Difference
    0.008,                    !- Zone Cooling Design Supply Air Humidity Ratio
    0.008,                    !- Zone Heating Design Supply Air Humidity Ratio
    ,                         !- Design Specification Outdoor Air Object Name
    ,                         !- Zone Heating Sizing Factor
    ,                         !- Zone Cooling Sizing Factor
    DesignDay,                !- Cooling Design Air Flow Method
    0,                        !- Cooling Design Air Flow Rate
    0.000762,                 !- Cooling Minimum Air Flow per Zone Floor Area
    0,                        !- Cooling Minimum Air Flow
    0.2,                      !- Cooling Minimum Air Flow Fraction
    DesignDay,                !- Heating Design Air Flow Method
    0,                        !- Heating Design Air Flow Rate
    0.002032,                 !- Heating Maximum Air Flow per Zone Floor Area
    0.1415762,                !- Heating Maximum Air Flow
    0.3,                      !- Heating Maximum Air Flow Fraction
    ,                         !- Design Specification Zone Air Distribution Object Name
    No,                       !- Account for Dedicated Outdoor Air System
    NeutralSupplyAir,         !- Dedicated Outdoor Air System Control Strategy
    autosize,                 !- Dedicated Outdoor Air Low Setpoint Temperature for Design
    autosize,                 !- Dedicated Outdoor Air High Setpoint Temperature for Design
    Sensible Load Only No Latent Load,    !- Zone Load Sizing Method
    HumidityRatioDifference,    !- Zone Latent Cooling Design Supply Air Humidity Ratio Input Method
    ,                         !- Zone Dehumidification Design Supply Air Humidity Ratio
    0.005,                    !- Zone Cooling Design Supply Air Humidity Ratio Difference
    HumidityRatioDifference,    !- Zone Latent Heating Design Supply Air Humidity Ratio Input Method
    ,                         !- Zone Humidification Design Supply Air Humidity Ratio
    0.005;                    !- Zone Humidification Design Supply Air Humidity Ratio Difference

SIZING:ZONE,
    93cb1d593b2783cf_F7_whole,    !- Zone or ZoneList Name
    SupplyAirTemperature,     !- Zone Cooling Design Supply Air Temperature Input Method
    13,                       !- Zone Cooling Design Supply Air Temperature
    ,                         !- Zone Cooling Design Supply Air Temperature Difference
    SupplyAirTemperature,     !- Zone Heating Design Supply Air Temperature Input Method
    50,                       !- Zone Heating Design Supply Air Temperature
    ,                         !- Zone Heating Design Supply Air Temperature Difference
    0.008,                    !- Zone Cooling Design Supply Air Humidity Ratio
    0.008,                    !- Zone Heating Design Supply Air Humidity Ratio
    ,                         !- Design Specification Outdoor Air Object Name
    ,                         !- Zone Heating Sizing Factor
    ,                         !- Zone Cooling Sizing Factor
    DesignDay,                !- Cooling Design Air Flow Method
    0,                        !- Cooling Design Air Flow Rate
    0.000762,                 !- Cooling Minimum Air Flow per Zone Floor Area
    0,                        !- Cooling Minimum Air Flow
    0.2,                      !- Cooling Minimum Air Flow Fraction
    DesignDay,                !- Heating Design Air Flow Method
    0,                        !- Heating Design Air Flow Rate
    0.002032,                 !- Heating Maximum Air Flow per Zone Floor Area
    0.1415762,                !- Heating Maximum Air Flow
    0.3,                      !- Heating Maximum Air Flow Fraction
    ,                         !- Design Specification Zone Air Distribution Object Name
    No,                       !- Account for Dedicated Outdoor Air System
    NeutralSupplyAir,         !- Dedicated Outdoor Air System Control Strategy
    autosize,                 !- Dedicated Outdoor Air Low Setpoint Temperature for Design
    autosize,                 !- Dedicated Outdoor Air High Setpoint Temperature for Design
    Sensible Load Only No Latent Load,    !- Zone Load Sizing Method
    HumidityRatioDifference,    !- Zone Latent Cooling Design Supply Air Humidity Ratio Input Method
    ,                         !- Zone Dehumidification Design Supply Air Humidity Ratio
    0.005,                    !- Zone Cooling Design Supply Air Humidity Ratio Difference
    HumidityRatioDifference,    !- Zone Latent Heating Design Supply Air Humidity Ratio Input Method
    ,                         !- Zone Humidification Design Supply Air Humidity Ratio
    0.005;                    !- Zone Humidification Design Supply Air Humidity Ratio Difference

OUTPUT:VARIABLE,
    *,                        !- Key Value
    Zone Ideal Loads Zone Total Heating Energy,    !- Variable Name
    Hourly;                   !- Reporting Frequency

OUTPUT:SQLITE,
    SimpleAndTabular,         !- Option Type
    UseOutputControlTableStyle;    !- Unit Conversion for Tabular Data