!- Windows Line endings 

Version,
    23.1;                     !- Version Identifier

SimulationControl,
    Yes,                      !- Do Zone Sizing Calculation
    Yes,                      !- Do System Sizing Calculation
    Yes,                      !- Do Plant Sizing Calculation
    No,                       !- Run Simulation for Sizing Periods
    Yes,                      !- Run Simulation for Weather File Run Periods
    No,                       !- Do HVAC Sizing Simulation for Sizing Periods
    1;                        !- Maximum Number of HVAC Sizing Simulation Passes

Building,
    EU S2 Campaign,           !- Name
    0,                        !- North Axis
    City,                     !- Terrain
    ,                         !- Loads Convergence Tolerance Value
    ,                         !- Temperature Convergence Tolerance Value
    FullExterior,             !- Solar Distribution
    ,                         !- Maximum Number of Warmup Days
    ;                         !- Minimum Number of Warmup Days

ShadowCalculation,
    PolygonClipping,          !- Shading Calculation Method
    Periodic,                 !- Shading Calculation Update Frequency Method
    1;                        !- Shading Calculation Update Frequency

HeatBalanceAlgorithm,
    ConductionTransferFunction,    !- Algorithm
    200,                      !- Surface Temperature Upper Limit
    0.1,                      !- Minimum Surface Convection Heat Transfer Coefficient Value
    10000000;                 !- Maximum Surface Convection Heat Transfer Coefficient Value

Timestep,
    12;                       !- Number of Timesteps per Hour

Site:Location,
    Bologna,                  !- Name
    44.5,                     !- Latitude
    11.25,                    !- Longitude
    1,                        !- Time Zone
    37;                       !- Elevation

SizingPeriod:WeatherFileDays,
    AnnualSizingPeriod,       !- Name
    1,                        !- Begin Month
    1,                        !- Begin Day of Month
    12,                       !- End Month
    31,                       !- End Day of Month
    Monday,                   !- Day of Week for Start Day
    No,                       !- Use Weather File Daylight Saving Period
    No;                       !- Use Weather File Rain and Snow Indicators

RunPeriod,
    RunPeriod1,               !- Name
    1,                        !- Begin Month
    1,                        !- Begin Day of Month
    ,                         !- Begin Year
    12,                       !- End Month
    31,                       !- End Day of Month
    ,                         !- End Year
    Sunday,                   !- Day of Week for Start Day
    No,                       !- Use Weather File Holidays and Special Days
    No,                       !- Use Weather File Daylight Saving Period
    No,                       !- Apply Weekend Holiday Rule
    Yes,                      !- Use Weather File Rain Indicators
    Yes;                      !- Use Weather File Snow Indicators

ScheduleTypeLimits,
    Any Number;               !- Name

SCHEDULETYPELIMITS,
    EU_Step8_AnyNumber_Wm2,    !- Name
    ,                         !- Lower Limit Value
    ,                         !- Upper Limit Value
    Continuous,               !- Numeric Type
    Dimensionless;            !- Unit Type

SCHEDULE:CONSTANT,
    EU_AlwaysOn,              !- Name
    ,                         !- Schedule Type Limits Name
    1;                        !- Hourly Value

SCHEDULE:CONSTANT,
    EU_CoolingOff,            !- Name
    ,                         !- Schedule Type Limits Name
    0;                        !- Hourly Value

SCHEDULE:FILE,
    EU_Step8_GainSchedule_2b2ff06f3e7f31dc_F0_whole_f000,    !- Name
    EU_Step8_AnyNumber_Wm2,    !- Schedule Type Limits Name
    ../../schedules/2b2ff06f3e7f31dc/2b2ff06f3e7f31dc_F0_whole_f000_gain.csv,    !- File Name
    1,                        !- Column Number
    0,                        !- Rows to Skip at Top
    8760,                     !- Number of Hours of Data
    Comma,                    !- Column Separator
    No,                       !- Interpolate to Timestep
    60,                       !- Minutes per Item
    Yes;                      !- Adjust Schedule for Daylight Savings

SCHEDULE:FILE,
    EU_Step8_GainSchedule_2b2ff06f3e7f31dc_F1_whole_f000,    !- Name
    EU_Step8_AnyNumber_Wm2,    !- Schedule Type Limits Name
    ../../schedules/2b2ff06f3e7f31dc/2b2ff06f3e7f31dc_F1_whole_f000_gain.csv,    !- File Name
    1,                        !- Column Number
    0,                        !- Rows to Skip at Top
    8760,                     !- Number of Hours of Data
    Comma,                    !- Column Separator
    No,                       !- Interpolate to Timestep
    60,                       !- Minutes per Item
    Yes;                      !- Adjust Schedule for Daylight Savings

SCHEDULE:FILE,
    EU_Step8_GainSchedule_2b2ff06f3e7f31dc_F2_whole_f000,    !- Name
    EU_Step8_AnyNumber_Wm2,    !- Schedule Type Limits Name
    ../../schedules/2b2ff06f3e7f31dc/2b2ff06f3e7f31dc_F2_whole_f000_gain.csv,    !- File Name
    1,                        !- Column Number
    0,                        !- Rows to Skip at Top
    8760,                     !- Number of Hours of Data
    Comma,                    !- Column Separator
    No,                       !- Interpolate to Timestep
    60,                       !- Minutes per Item
    Yes;                      !- Adjust Schedule for Daylight Savings

SCHEDULE:FILE,
    EU_Step8_GainSchedule_2b2ff06f3e7f31dc_F3_whole_f000,    !- Name
    EU_Step8_AnyNumber_Wm2,    !- Schedule Type Limits Name
    ../../schedules/2b2ff06f3e7f31dc/2b2ff06f3e7f31dc_F3_whole_f000_gain.csv,    !- File Name
    1,                        !- Column Number
    0,                        !- Rows to Skip at Top
    8760,                     !- Number of Hours of Data
    Comma,                    !- Column Separator
    No,                       !- Interpolate to Timestep
    60,                       !- Minutes per Item
    Yes;                      !- Adjust Schedule for Daylight Savings

SCHEDULE:FILE,
    EU_Step8_GainSchedule_2b2ff06f3e7f31dc_F4_whole_f000,    !- Name
    EU_Step8_AnyNumber_Wm2,    !- Schedule Type Limits Name
    ../../schedules/2b2ff06f3e7f31dc/2b2ff06f3e7f31dc_F4_whole_f000_gain.csv,    !- File Name
    1,                        !- Column Number
    0,                        !- Rows to Skip at Top
    8760,                     !- Number of Hours of Data
    Comma,                    !- Column Separator
    No,                       !- Interpolate to Timestep
    60,                       !- Minutes per Item
    Yes;                      !- Adjust Schedule for Daylight Savings

MATERIAL,
    EU_InternalMass_Material,    !- Name
    MediumRough,              !- Roughness
    0.1,                      !- Thickness
    1,                        !- Conductivity
    1800,                     !- Density
    900,                      !- Specific Heat
    0.9,                      !- Thermal Absorptance
    0.7,                      !- Solar Absorptance
    0.7;                      !- Visible Absorptance

MATERIAL:NOMASS,
    EU_wall_NoMass,           !- Name
    MediumRough,              !- Roughness
    0.9058281353670552,       !- Thermal Resistance
    0.9,                      !- Thermal Absorptance
    0.7,                      !- Solar Absorptance
    0.7;                      !- Visible Absorptance

MATERIAL:NOMASS,
    EU_roof_NoMass,           !- Name
    MediumRough,              !- Roughness
    3.759304e-01,             !- Thermal Resistance
    0.9,                      !- Thermal Absorptance
    0.7,                      !- Solar Absorptance
    0.7;                      !- Visible Absorptance

MATERIAL:NOMASS,
    EU_floor_NoMass,          !- Name
    MediumRough,              !- Roughness
    0.6711395814079611,       !- Thermal Resistance
    0.9,                      !- Thermal Absorptance
    0.7,                      !- Solar Absorptance
    0.7;                      !- Visible Absorptance

CONSTRUCTION,
    EU_wall_Construction,     !- Name
    EU_wall_NoMass;           !- Outside Layer

CONSTRUCTION,
    EU_roof_Construction,     !- Name
    EU_roof_NoMass;           !- Outside Layer

CONSTRUCTION,
    EU_floor_Construction,    !- Name
    EU_floor_NoMass;          !- Outside Layer

CONSTRUCTION,
    EU_InternalMass_Construction,    !- Name
    EU_InternalMass_Material;    !- Outside Layer

GlobalGeometryRules,
    UpperLeftCorner,          !- Starting Vertex Position
    CounterClockWise,         !- Vertex Entry Direction
    World;                    !- Coordinate System

ZONE,
    2b2ff06f3e7f31dc_F0_whole,    !- Name
    0,                        !- Direction of Relative North
    0,                        !- X Origin
    0,                        !- Y Origin
    0,                        !- Z Origin
    1,                        !- Type
    1,                        !- Multiplier
    autocalculate,            !- Ceiling Height
    600.4541015625,           !- Volume
    autocalculate,            !- Floor Area
    ,                         !- Zone Inside Convection Algorithm
    ,                         !- Zone Outside Convection Algorithm
    Yes;                      !- Part of Total Floor Area

ZONE,
    2b2ff06f3e7f31dc_F1_whole,    !- Name
    0,                        !- Direction of Relative North
    0,                        !- X Origin
    0,                        !- Y Origin
    0,                        !- Z Origin
    1,                        !- Type
    1,                        !- Multiplier
    autocalculate,            !- Ceiling Height
    600.4541015625,           !- Volume
    autocalculate,            !- Floor Area
    ,                         !- Zone Inside Convection Algorithm
    ,                         !- Zone Outside Convection Algorithm
    Yes;                      !- Part of Total Floor Area

ZONE,
    2b2ff06f3e7f31dc_F2_whole,    !- Name
    0,                        !- Direction of Relative North
    0,                        !- X Origin
    0,                        !- Y Origin
    0,                        !- Z Origin
    1,                        !- Type
    1,                        !- Multiplier
    autocalculate,            !- Ceiling Height
    600.4541015625,           !- Volume
    autocalculate,            !- Floor Area
    ,                         !- Zone Inside Convection Algorithm
    ,                         !- Zone Outside Convection Algorithm
    Yes;                      !- Part of Total Floor Area

ZONE,
    2b2ff06f3e7f31dc_F3_whole,    !- Name
    0,                        !- Direction of Relative North
    0,                        !- X Origin
    0,                        !- Y Origin
    0,                        !- Z Origin
    1,                        !- Type
    1,                        !- Multiplier
    autocalculate,            !- Ceiling Height
    600.4541015625,           !- Volume
    autocalculate,            !- Floor Area
    ,                         !- Zone Inside Convection Algorithm
    ,                         !- Zone Outside Convection Algorithm
    Yes;                      !- Part of Total Floor Area

ZONE,
    2b2ff06f3e7f31dc_F4_whole,    !- Name
    0,                        !- Direction of Relative North
    0,                        !- X Origin
    0,                        !- Y Origin
    0,                        !- Z Origin
    1,                        !- Type
    1,                        !- Multiplier
    autocalculate,            !- Ceiling Height
    600.4541015625,           !- Volume
    autocalculate,            !- Floor Area
    ,                         !- Zone Inside Convection Algorithm
    ,                         !- Zone Outside Convection Algorithm
    Yes;                      !- Part of Total Floor Area

BUILDINGSURFACE:DETAILED,
    Block 2b2ff06f3e7f31dc_whole Storey 0 Wall 0001,    !- Name
    wall,                     !- Surface Type
    EU_wall_Construction,     !- Construction Name
    2b2ff06f3e7f31dc_F0_whole,    !- Zone Name
    ,                         !- Space Name
    Adiabatic,                !- Outside Boundary Condition
    ,                         !- Outside Boundary Condition Object
    NoSun,                    !- Sun Exposure
    NoWind,                   !- Wind Exposure
    autocalculate,            !- View Factor to Ground
    autocalculate,            !- Number of Vertices
    686757.56,                !- Vertex 1 Xcoordinate
    4928842.95,               !- Vertex 1 Ycoordinate
    3,                        !- Vertex 1 Zcoordinate
    686757.56,                !- Vertex 2 Xcoordinate
    4928842.95,               !- Vertex 2 Ycoordinate
    0,                        !- Vertex 2 Zcoordinate
    686760.23,                !- Vertex 3 Xcoordinate
    4928846.51,               !- Vertex 3 Ycoordinate
    0,                        !- Vertex 3 Zcoordinate
    686760.23,                !- Vertex 4 Xcoordinate
    4928846.51,               !- Vertex 4 Ycoordinate
    3;                        !- Vertex 4 Zcoordinate

BUILDINGSURFACE:DETAILED,
    Block 2b2ff06f3e7f31dc_whole Storey 0 Wall 0002,    !- Name
    wall,                     !- Surface Type
    EU_wall_Construction,     !- Construction Name
    2b2ff06f3e7f31dc_F0_whole,    !- Zone Name
    ,                         !- Space Name
    Adiabatic,                !- Outside Boundary Condition
    ,                         !- Outside Boundary Condition Object
    NoSun,                    !- Sun Exposure
    NoWind,                   !- Wind Exposure
    autocalculate,            !- View Factor to Ground
    autocalculate,            !- Number of Vertices
    686760.23,                !- Vertex 1 Xcoordinate
    4928846.51,               !- Vertex 1 Ycoordinate
    3,                        !- Vertex 1 Zcoordinate
    686760.23,                !- Vertex 2 Xcoordinate
    4928846.51,               !- Vertex 2 Ycoordinate
    0,                        !- Vertex 2 Zcoordinate
    686759.58,                !- Vertex 3 Xcoordinate
    4928847.02,               !- Vertex 3 Ycoordinate
    0,                        !- Vertex 3 Zcoordinate
    686759.58,                !- Vertex 4 Xcoordinate
    4928847.02,               !- Vertex 4 Ycoordinate
    3;                        !- Vertex 4 Zcoordinate

BUILDINGSURFACE:DETAILED,
    Block 2b2ff06f3e7f31dc_whole Storey 0 Wall 0003,    !- Name
    wall,                     !- Surface Type
    EU_wall_Construction,     !- Construction Name
    2b2ff06f3e7f31dc_F0_whole,    !- Zone Name
    ,                         !- Space Name
    outdoors,                 !- Outside Boundary Condition
    ,                         !- Outside Boundary Condition Object
    SunExposed,               !- Sun Exposure
    WindExposed,              !- Wind Exposure
    autocalculate,            !- View Factor to Ground
    autocalculate,            !- Number of Vertices
    686759.58,                !- Vertex 1 Xcoordinate
    4928847.02,               !- Vertex 1 Ycoordinate
    3,                        !- Vertex 1 Zcoordinate
    686759.58,                !- Vertex 2 Xcoordinate
    4928847.02,               !- Vertex 2 Ycoordinate
    0,                        !- Vertex 2 Zcoordinate
    686766.1,                 !- Vertex 3 Xcoordinate
    4928856.685,              !- Vertex 3 Ycoordinate
    0,                        !- Vertex 3 Zcoordinate
    686766.1,                 !- Vertex 4 Xcoordinate
    4928856.685,              !- Vertex 4 Ycoordinate
    3;                        !- Vertex 4 Zcoordinate

BUILDINGSURFACE:DETAILED,
    Block 2b2ff06f3e7f31dc_whole Storey 0 Wall 0004,    !- Name
    wall,                     !- Surface Type
    EU_wall_Construction,     !- Construction Name
    2b2ff06f3e7f31dc_F0_whole,    !- Zone Name
    ,                         !- Space Name
    outdoors,                 !- Outside Boundary Condition
    ,                         !- Outside Boundary Condition Object
    SunExposed,               !- Sun Exposure
    WindExposed,              !- Wind Exposure
    autocalculate,            !- View Factor to Ground
    autocalculate,            !- Number of Vertices
    686766.1,                 !- Vertex 1 Xcoordinate
    4928856.685,              !- Vertex 1 Ycoordinate
    3,                        !- Vertex 1 Zcoordinate
    686766.1,                 !- Vertex 2 Xcoordinate
    4928856.685,              !- Vertex 2 Ycoordinate
    0,                        !- Vertex 2 Zcoordinate
    686773.62,                !- Vertex 3 Xcoordinate
    4928852.155,              !- Vertex 3 Ycoordinate
    0,                        !- Vertex 3 Zcoordinate
    686773.62,                !- Vertex 4 Xcoordinate
    4928852.155,              !- Vertex 4 Ycoordinate
    3;                        !- Vertex 4 Zcoordinate

BUILDINGSURFACE:DETAILED,
    Block 2b2ff06f3e7f31dc_whole Storey 0 Wall 0005,    !- Name
    wall,                     !- Surface Type
    EU_wall_Construction,     !- Construction Name
    2b2ff06f3e7f31dc_F0_whole,    !- Zone Name
    ,                         !- Space Name
    outdoors,                 !- Outside Boundary Condition
    ,                         !- Outside Boundary Condition Object
    SunExposed,               !- Sun Exposure
    WindExposed,              !- Wind Exposure
    autocalculate,            !- View Factor to Ground
    autocalculate,            !- Number of Vertices
    686773.62,                !- Vertex 1 Xcoordinate
    4928852.155,              !- Vertex 1 Ycoordinate
    3,                        !- Vertex 1 Zcoordinate
    686773.62,                !- Vertex 2 Xcoordinate
    4928852.155,              !- Vertex 2 Ycoordinate
    0,                        !- Vertex 2 Zcoordinate
    686764.59,                !- Vertex 3 Xcoordinate
    4928838.05,               !- Vertex 3 Ycoordinate
    0,                        !- Vertex 3 Zcoordinate
    686764.59,                !- Vertex 4 Xcoordinate
    4928838.05,               !- Vertex 4 Ycoordinate
    3;                        !- Vertex 4 Zcoordinate

BUILDINGSURFACE:DETAILED,
    Block 2b2ff06f3e7f31dc_whole Storey 0 Wall 0006,    !- Name
    wall,                     !- Surface Type
    EU_wall_Construction,     !- Construction Name
    2b2ff06f3e7f31dc_F0_whole,    !- Zone Name
    ,                         !- Space Name
    Adiabatic,                !- Outside Boundary Condition
    ,                         !- Outside Boundary Condition Object
    NoSun,                    !- Sun Exposure
    NoWind,                   !- Wind Exposure
    autocalculate,            !- View Factor to Ground
    autocalculate,            !- Number of Vertices
    686764.59,                !- Vertex 1 Xcoordinate
    4928838.05,               !- Vertex 1 Ycoordinate
    3,                        !- Vertex 1 Zcoordinate
    686764.59,                !- Vertex 2 Xcoordinate
    4928838.05,               !- Vertex 2 Ycoordinate
    0,                        !- Vertex 2 Zcoordinate
    686761.2,                 !- Vertex 3 Xcoordinate
    4928832.44,               !- Vertex 3 Ycoordinate
    0,                        !- Vertex 3 Zcoordinate
    686761.2,                 !- Vertex 4 Xcoordinate
    4928832.44,               !- Vertex 4 Ycoordinate
    3;                        !- Vertex 4 Zcoordinate

BUILDINGSURFACE:DETAILED,
    Block 2b2ff06f3e7f31dc_whole Storey 0 Wall 0007,    !- Name
    wall,                     !- Surface Type
    EU_wall_Construction,     !- Construction Name
    2b2ff06f3e7f31dc_F0_whole,    !- Zone Name
    ,                         !- Space Name
    Adiabatic,                !- Outside Boundary Condition
    ,                         !- Outside Boundary Condition Object
    NoSun,                    !- Sun Exposure
    NoWind,                   !- Wind Exposure
    autocalculate,            !- View Factor to Ground
    autocalculate,            !- Number of Vertices
    686761.2,                 !- Vertex 1 Xcoordinate
    4928832.44,               !- Vertex 1 Ycoordinate
    3,                        !- Vertex 1 Zcoordinate
    686761.2,                 !- Vertex 2 Xcoordinate
    4928832.44,               !- Vertex 2 Ycoordinate
    0,                        !- Vertex 2 Zcoordinate
    686753.9,                 !- Vertex 3 Xcoordinate
    4928838.26,               !- Vertex 3 Ycoordinate
    0,                        !- Vertex 3 Zcoordinate
    686753.9,                 !- Vertex 4 Xcoordinate
    4928838.26,               !- Vertex 4 Ycoordinate
    3;                        !- Vertex 4 Zcoordinate

BUILDINGSURFACE:DETAILED,
    Block 2b2ff06f3e7f31dc_whole Storey 0 Wall 0008,    !- Name
    wall,                     !- Surface Type
    EU_wall_Construction,     !- Construction Name
    2b2ff06f3e7f31dc_F0_whole,    !- Zone Name
    ,                         !- Space Name
    Adiabatic,                !- Outside Boundary Condition
    ,                         !- Outside Boundary Condition Object
    NoSun,                    !- Sun Exposure
    NoWind,                   !- Wind Exposure
    autocalculate,            !- View Factor to Ground
    autocalculate,            !- Number of Vertices
    686753.9,                 !- Vertex 1 Xcoordinate
    4928838.26,               !- Vertex 1 Ycoordinate
    3,                        !- Vertex 1 Zcoordinate
    686753.9,                 !- Vertex 2 Xcoordinate
    4928838.26,               !- Vertex 2 Ycoordinate
    0,                        !- Vertex 2 Zcoordinate
    686757.56,                !- Vertex 3 Xcoordinate
    4928842.95,               !- Vertex 3 Ycoordinate
    0,                        !- Vertex 3 Zcoordinate
    686757.56,                !- Vertex 4 Xcoordinate
    4928842.95,               !- Vertex 4 Ycoordinate
    3;                        !- Vertex 4 Zcoordinate

BUILDINGSURFACE:DETAILED,
    Block 2b2ff06f3e7f31dc_whole Storey 0 Floor 0001,    !- Name
    floor,                    !- Surface Type
    EU_floor_Construction,    !- Construction Name
    2b2ff06f3e7f31dc_F0_whole,    !- Zone Name
    ,                         !- Space Name
    ground,                   !- Outside Boundary Condition
    ,                         !- Outside Boundary Condition Object
    NoSun,                    !- Sun Exposure
    NoWind,                   !- Wind Exposure
    autocalculate,            !- View Factor to Ground
    autocalculate,            !- Number of Vertices
    686764.59,                !- Vertex 1 Xcoordinate
    4928838.05,               !- Vertex 1 Ycoordinate
    0,                        !- Vertex 1 Zcoordinate
    686773.62,                !- Vertex 2 Xcoordinate
    4928852.155,              !- Vertex 2 Ycoordinate
    0,                        !- Vertex 2 Zcoordinate
    686766.1,                 !- Vertex 3 Xcoordinate
    4928856.685,              !- Vertex 3 Ycoordinate
    0,                        !- Vertex 3 Zcoordinate
    686759.58,                !- Vertex 4 Xcoordinate
    4928847.02,               !- Vertex 4 Ycoordinate
    0,                        !- Vertex 4 Zcoordinate
    686760.23,                !- Vertex 5 Xcoordinate
    4928846.51,               !- Vertex 5 Ycoordinate
    0,                        !- Vertex 5 Zcoordinate
    686757.56,                !- Vertex 6 Xcoordinate
    4928842.95,               !- Vertex 6 Ycoordinate
    0,                        !- Vertex 6 Zcoordinate
    686753.9,                 !- Vertex 7 Xcoordinate
    4928838.26,               !- Vertex 7 Ycoordinate
    0,                        !- Vertex 7 Zcoordinate
    686761.2,                 !- Vertex 8 Xcoordinate
    4928832.44,               !- Vertex 8 Ycoordinate
    0;                        !- Vertex 8 Zcoordinate

BUILDINGSURFACE:DETAILED,
    Block 2b2ff06f3e7f31dc_whole Storey 1 Wall 0001,    !- Name
    wall,                     !- Surface Type
    EU_wall_Construction,     !- Construction Name
    2b2ff06f3e7f31dc_F1_whole,    !- Zone Name
    ,                         !- Space Name
    Adiabatic,                !- Outside Boundary Condition
    ,                         !- Outside Boundary Condition Object
    NoSun,                    !- Sun Exposure
    NoWind,                   !- Wind Exposure
    autocalculate,            !- View Factor to Ground
    autocalculate,            !- Number of Vertices
    686757.56,                !- Vertex 1 Xcoordinate
    4928842.95,               !- Vertex 1 Ycoordinate
    6,                        !- Vertex 1 Zcoordinate
    686757.56,                !- Vertex 2 Xcoordinate
    4928842.95,               !- Vertex 2 Ycoordinate
    3,                        !- Vertex 2 Zcoordinate
    686760.23,                !- Vertex 3 Xcoordinate
    4928846.51,               !- Vertex 3 Ycoordinate
    3,                        !- Vertex 3 Zcoordinate
    686760.23,                !- Vertex 4 Xcoordinate
    4928846.51,               !- Vertex 4 Ycoordinate
    6;                        !- Vertex 4 Zcoordinate

BUILDINGSURFACE:DETAILED,
    Block 2b2ff06f3e7f31dc_whole Storey 1 Wall 0002,    !- Name
    wall,                     !- Surface Type
    EU_wall_Construction,     !- Construction Name
    2b2ff06f3e7f31dc_F1_whole,    !- Zone Name
    ,                         !- Space Name
    Adiabatic,                !- Outside Boundary Condition
    ,                         !- Outside Boundary Condition Object
    NoSun,                    !- Sun Exposure
    NoWind,                   !- Wind Exposure
    autocalculate,            !- View Factor to Ground
    autocalculate,            !- Number of Vertices
    686760.23,                !- Vertex 1 Xcoordinate
    4928846.51,               !- Vertex 1 Ycoordinate
    6,                        !- Vertex 1 Zcoordinate
    686760.23,                !- Vertex 2 Xcoordinate
    4928846.51,               !- Vertex 2 Ycoordinate
    3,                        !- Vertex 2 Zcoordinate
    686759.58,                !- Vertex 3 Xcoordinate
    4928847.02,               !- Vertex 3 Ycoordinate
    3,                        !- Vertex 3 Zcoordinate
    686759.58,                !- Vertex 4 Xcoordinate
    4928847.02,               !- Vertex 4 Ycoordinate
    6;                        !- Vertex 4 Zcoordinate

BUILDINGSURFACE:DETAILED,
    Block 2b2ff06f3e7f31dc_whole Storey 1 Wall 0003,    !- Name
    wall,                     !- Surface Type
    EU_wall_Construction,     !- Construction Name
    2b2ff06f3e7f31dc_F1_whole,    !- Zone Name
    ,                         !- Space Name
    outdoors,                 !- Outside Boundary Condition
    ,                         !- Outside Boundary Condition Object
    SunExposed,               !- Sun Exposure
    WindExposed,              !- Wind Exposure
    autocalculate,            !- View Factor to Ground
    autocalculate,            !- Number of Vertices
    686759.58,                !- Vertex 1 Xcoordinate
    4928847.02,               !- Vertex 1 Ycoordinate
    6,                        !- Vertex 1 Zcoordinate
    686759.58,                !- Vertex 2 Xcoordinate
    4928847.02,               !- Vertex 2 Ycoordinate
    3,                        !- Vertex 2 Zcoordinate
    686766.1,                 !- Vertex 3 Xcoordinate
    4928856.685,              !- Vertex 3 Ycoordinate
    3,                        !- Vertex 3 Zcoordinate
    686766.1,                 !- Vertex 4 Xcoordinate
    4928856.685,              !- Vertex 4 Ycoordinate
    6;                        !- Vertex 4 Zcoordinate

BUILDINGSURFACE:DETAILED,
    Block 2b2ff06f3e7f31dc_whole Storey 1 Wall 0004,    !- Name
    wall,                     !- Surface Type
    EU_wall_Construction,     !- Construction Name
    2b2ff06f3e7f31dc_F1_whole,    !- Zone Name
    ,                         !- Space Name
    outdoors,                 !- Outside Boundary Condition
    ,                         !- Outside Boundary Condition Object
    SunExposed,               !- Sun Exposure
    WindExposed,              !- Wind Exposure
    autocalculate,            !- View Factor to Ground
    autocalculate,            !- Number of Vertices
    686766.1,                 !- Vertex 1 Xcoordinate
    4928856.685,              !- Vertex 1 Ycoordinate
    6,                        !- Vertex 1 Zcoordinate
    686766.1,                 !- Vertex 2 Xcoordinate
    4928856.685,              !- Vertex 2 Ycoordinate
    3,                        !- Vertex 2 Zcoordinate
    686773.62,                !- Vertex 3 Xcoordinate
    4928852.155,              !- Vertex 3 Ycoordinate
    3,                        !- Vertex 3 Zcoordinate
    686773.62,                !- Vertex 4 Xcoordinate
    4928852.155,              !- Vertex 4 Ycoordinate
    6;                        !- Vertex 4 Zcoordinate

BUILDINGSURFACE:DETAILED,
    Block 2b2ff06f3e7f31dc_whole Storey 1 Wall 0005,    !- Name
    wall,                     !- Surface Type
    EU_wall_Construction,     !- Construction Name
    2b2ff06f3e7f31dc_F1_whole,    !- Zone Name
    ,                         !- Space Name
    outdoors,                 !- Outside Boundary Condition
    ,                         !- Outside Boundary Condition Object
    SunExposed,               !- Sun Exposure
    WindExposed,              !- Wind Exposure
    autocalculate,            !- View Factor to Ground
    autocalculate,            !- Number of Vertices
    686773.62,                !- Vertex 1 Xcoordinate
    4928852.155,              !- Vertex 1 Ycoordinate
    6,                        !- Vertex 1 Zcoordinate
    686773.62,                !- Vertex 2 Xcoordinate
    4928852.155,              !- Vertex 2 Ycoordinate
    3,                        !- Vertex 2 Zcoordinate
    686764.59,                !- Vertex 3 Xcoordinate
    4928838.05,               !- Vertex 3 Ycoordinate
    3,                        !- Vertex 3 Zcoordinate
    686764.59,                !- Vertex 4 Xcoordinate
    4928838.05,               !- Vertex 4 Ycoordinate
    6;                        !- Vertex 4 Zcoordinate

BUILDINGSURFACE:DETAILED,
    Block 2b2ff06f3e7f31dc_whole Storey 1 Wall 0006,    !- Name
    wall,                     !- Surface Type
    EU_wall_Construction,     !- Construction Name
    2b2ff06f3e7f31dc_F1_whole,    !- Zone Name
    ,                         !- Space Name
    Adiabatic,                !- Outside Boundary Condition
    ,                         !- Outside Boundary Condition Object
    NoSun,                    !- Sun Exposure
    NoWind,                   !- Wind Exposure
    autocalculate,            !- View Factor to Ground
    autocalculate,            !- Number of Vertices
    686764.59,                !- Vertex 1 Xcoordinate
    4928838.05,               !- Vertex 1 Ycoordinate
    6,                        !- Vertex 1 Zcoordinate
    686764.59,                !- Vertex 2 Xcoordinate
    4928838.05,               !- Vertex 2 Ycoordinate
    3,                        !- Vertex 2 Zcoordinate
    686761.2,                 !- Vertex 3 Xcoordinate
    4928832.44,               !- Vertex 3 Ycoordinate
    3,                        !- Vertex 3 Zcoordinate
    686761.2,                 !- Vertex 4 Xcoordinate
    4928832.44,               !- Vertex 4 Ycoordinate
    6;                        !- Vertex 4 Zcoordinate

BUILDINGSURFACE:DETAILED,
    Block 2b2ff06f3e7f31dc_whole Storey 1 Wall 0007,    !- Name
    wall,                     !- Surface Type
    EU_wall_Construction,     !- Construction Name
    2b2ff06f3e7f31dc_F1_whole,    !- Zone Name
    ,                         !- Space Name
    Adiabatic,                !- Outside Boundary Condition
    ,                         !- Outside Boundary Condition Object
    NoSun,                    !- Sun Exposure
    NoWind,                   !- Wind Exposure
    autocalculate,            !- View Factor to Ground
    autocalculate,            !- Number of Vertices
    686761.2,                 !- Vertex 1 Xcoordinate
    4928832.44,               !- Vertex 1 Ycoordinate
    6,                        !- Vertex 1 Zcoordinate
    686761.2,                 !- Vertex 2 Xcoordinate
    4928832.44,               !- Vertex 2 Ycoordinate
    3,                        !- Vertex 2 Zcoordinate
    686753.9,                 !- Vertex 3 Xcoordinate
    4928838.26,               !- Vertex 3 Ycoordinate
    3,                        !- Vertex 3 Zcoordinate
    686753.9,                 !- Vertex 4 Xcoordinate
    4928838.26,               !- Vertex 4 Ycoordinate
    6;                        !- Vertex 4 Zcoordinate

BUILDINGSURFACE:DETAILED,
    Block 2b2ff06f3e7f31dc_whole Storey 1 Wall 0008,    !- Name
    wall,                     !- Surface Type
    EU_wall_Construction,     !- Construction Name
    2b2ff06f3e7f31dc_F1_whole,    !- Zone Name
    ,                         !- Space Name
    Adiabatic,                !- Outside Boundary Condition
    ,                         !- Outside Boundary Condition Object
    NoSun,                    !- Sun Exposure
    NoWind,                   !- Wind Exposure
    autocalculate,            !- View Factor to Ground
    autocalculate,            !- Number of Vertices
    686753.9,                 !- Vertex 1 Xcoordinate
    4928838.26,               !- Vertex 1 Ycoordinate
    6,                        !- Vertex 1 Zcoordinate
    686753.9,                 !- Vertex 2 Xcoordinate
    4928838.26,               !- Vertex 2 Ycoordinate
    3,                        !- Vertex 2 Zcoordinate
    686757.56,                !- Vertex 3 Xcoordinate
    4928842.95,               !- Vertex 3 Ycoordinate
    3,                        !- Vertex 3 Zcoordinate
    686757.56,                !- Vertex 4 Xcoordinate
    4928842.95,               !- Vertex 4 Ycoordinate
    6;                        !- Vertex 4 Zcoordinate

BUILDINGSURFACE:DETAILED,
    Block 2b2ff06f3e7f31dc_whole Storey 2 Wall 0001,    !- Name
    wall,                     !- Surface Type
    EU_wall_Construction,     !- Construction Name
    2b2ff06f3e7f31dc_F2_whole,    !- Zone Name
    ,                         !- Space Name
    Adiabatic,                !- Outside Boundary Condition
    ,                         !- Outside Boundary Condition Object
    NoSun,                    !- Sun Exposure
    NoWind,                   !- Wind Exposure
    autocalculate,            !- View Factor to Ground
    autocalculate,            !- Number of Vertices
    686757.56,                !- Vertex 1 Xcoordinate
    4928842.95,               !- Vertex 1 Ycoordinate
    9,                        !- Vertex 1 Zcoordinate
    686757.56,                !- Vertex 2 Xcoordinate
    4928842.95,               !- Vertex 2 Ycoordinate
    6,                        !- Vertex 2 Zcoordinate
    686760.23,                !- Vertex 3 Xcoordinate
    4928846.51,               !- Vertex 3 Ycoordinate
    6,                        !- Vertex 3 Zcoordinate
    686760.23,                !- Vertex 4 Xcoordinate
    4928846.51,               !- Vertex 4 Ycoordinate
    9;                        !- Vertex 4 Zcoordinate

BUILDINGSURFACE:DETAILED,
    Block 2b2ff06f3e7f31dc_whole Storey 2 Wall 0002,    !- Name
    wall,                     !- Surface Type
    EU_wall_Construction,     !- Construction Name
    2b2ff06f3e7f31dc_F2_whole,    !- Zone Name
    ,                         !- Space Name
    Adiabatic,                !- Outside Boundary Condition
    ,                         !- Outside Boundary Condition Object
    NoSun,                    !- Sun Exposure
    NoWind,                   !- Wind Exposure
    autocalculate,            !- View Factor to Ground
    autocalculate,            !- Number of Vertices
    686760.23,                !- Vertex 1 Xcoordinate
    4928846.51,               !- Vertex 1 Ycoordinate
    9,                        !- Vertex 1 Zcoordinate
    686760.23,                !- Vertex 2 Xcoordinate
    4928846.51,               !- Vertex 2 Ycoordinate
    6,                        !- Vertex 2 Zcoordinate
    686759.58,                !- Vertex 3 Xcoordinate
    4928847.02,               !- Vertex 3 Ycoordinate
    6,                        !- Vertex 3 Zcoordinate
    686759.58,                !- Vertex 4 Xcoordinate
    4928847.02,               !- Vertex 4 Ycoordinate
    9;                        !- Vertex 4 Zcoordinate

BUILDINGSURFACE:DETAILED,
    Block 2b2ff06f3e7f31dc_whole Storey 2 Wall 0003,    !- Name
    wall,                     !- Surface Type
    EU_wall_Construction,     !- Construction Name
    2b2ff06f3e7f31dc_F2_whole,    !- Zone Name
    ,                         !- Space Name
    outdoors,                 !- Outside Boundary Condition
    ,                         !- Outside Boundary Condition Object
    SunExposed,               !- Sun Exposure
    WindExposed,              !- Wind Exposure
    autocalculate,            !- View Factor to Ground
    autocalculate,            !- Number of Vertices
    686759.58,                !- Vertex 1 Xcoordinate
    4928847.02,               !- Vertex 1 Ycoordinate
    9,                        !- Vertex 1 Zcoordinate
    686759.58,                !- Vertex 2 Xcoordinate
    4928847.02,               !- Vertex 2 Ycoordinate
    6,                        !- Vertex 2 Zcoordinate
    686766.1,                 !- Vertex 3 Xcoordinate
    4928856.685,              !- Vertex 3 Ycoordinate
    6,                        !- Vertex 3 Zcoordinate
    686766.1,                 !- Vertex 4 Xcoordinate
    4928856.685,              !- Vertex 4 Ycoordinate
    9;                        !- Vertex 4 Zcoordinate

BUILDINGSURFACE:DETAILED,
    Block 2b2ff06f3e7f31dc_whole Storey 2 Wall 0004,    !- Name
    wall,                     !- Surface Type
    EU_wall_Construction,     !- Construction Name
    2b2ff06f3e7f31dc_F2_whole,    !- Zone Name
    ,                         !- Space Name
    outdoors,                 !- Outside Boundary Condition
    ,                         !- Outside Boundary Condition Object
    SunExposed,               !- Sun Exposure
    WindExposed,              !- Wind Exposure
    autocalculate,            !- View Factor to Ground
    autocalculate,            !- Number of Vertices
    686766.1,                 !- Vertex 1 Xcoordinate
    4928856.685,              !- Vertex 1 Ycoordinate
    9,                        !- Vertex 1 Zcoordinate
    686766.1,                 !- Vertex 2 Xcoordinate
    4928856.685,              !- Vertex 2 Ycoordinate
    6,                        !- Vertex 2 Zcoordinate
    686773.62,                !- Vertex 3 Xcoordinate
    4928852.155,              !- Vertex 3 Ycoordinate
    6,                        !- Vertex 3 Zcoordinate
    686773.62,                !- Vertex 4 Xcoordinate
    4928852.155,              !- Vertex 4 Ycoordinate
    9;                        !- Vertex 4 Zcoordinate

BUILDINGSURFACE:DETAILED,
    Block 2b2ff06f3e7f31dc_whole Storey 2 Wall 0005,    !- Name
    wall,                     !- Surface Type
    EU_wall_Construction,     !- Construction Name
    2b2ff06f3e7f31dc_F2_whole,    !- Zone Name
    ,                         !- Space Name
    outdoors,                 !- Outside Boundary Condition
    ,                         !- Outside Boundary Condition Object
    SunExposed,               !- Sun Exposure
    WindExposed,              !- Wind Exposure
    autocalculate,            !- View Factor to Ground
    autocalculate,            !- Number of Vertices
    686773.62,                !- Vertex 1 Xcoordinate
    4928852.155,              !- Vertex 1 Ycoordinate
    9,                        !- Vertex 1 Zcoordinate
    686773.62,                !- Vertex 2 Xcoordinate
    4928852.155,              !- Vertex 2 Ycoordinate
    6,                        !- Vertex 2 Zcoordinate
    686764.59,                !- Vertex 3 Xcoordinate
    4928838.05,               !- Vertex 3 Ycoordinate
    6,                        !- Vertex 3 Zcoordinate
    686764.59,                !- Vertex 4 Xcoordinate
    4928838.05,               !- Vertex 4 Ycoordinate
    9;                        !- Vertex 4 Zcoordinate

BUILDINGSURFACE:DETAILED,
    Block 2b2ff06f3e7f31dc_whole Storey 2 Wall 0006,    !- Name
    wall,                     !- Surface Type
    EU_wall_Construction,     !- Construction Name
    2b2ff06f3e7f31dc_F2_whole,    !- Zone Name
    ,                         !- Space Name
    Adiabatic,                !- Outside Boundary Condition
    ,                         !- Outside Boundary Condition Object
    NoSun,                    !- Sun Exposure
    NoWind,                   !- Wind Exposure
    autocalculate,            !- View Factor to Ground
    autocalculate,            !- Number of Vertices
    686764.59,                !- Vertex 1 Xcoordinate
    4928838.05,               !- Vertex 1 Ycoordinate
    9,                        !- Vertex 1 Zcoordinate
    686764.59,                !- Vertex 2 Xcoordinate
    4928838.05,               !- Vertex 2 Ycoordinate
    6,                        !- Vertex 2 Zcoordinate
    686761.2,                 !- Vertex 3 Xcoordinate
    4928832.44,               !- Vertex 3 Ycoordinate
    6,                        !- Vertex 3 Zcoordinate
    686761.2,                 !- Vertex 4 Xcoordinate
    4928832.44,               !- Vertex 4 Ycoordinate
    9;                        !- Vertex 4 Zcoordinate

BUILDINGSURFACE:DETAILED,
    Block 2b2ff06f3e7f31dc_whole Storey 2 Wall 0007,    !- Name
    wall,                     !- Surface Type
    EU_wall_Construction,     !- Construction Name
    2b2ff06f3e7f31dc_F2_whole,    !- Zone Name
    ,                         !- Space Name
    Adiabatic,                !- Outside Boundary Condition
    ,                         !- Outside Boundary Condition Object
    NoSun,                    !- Sun Exposure
    NoWind,                   !- Wind Exposure
    autocalculate,            !- View Factor to Ground
    autocalculate,            !- Number of Vertices
    686761.2,                 !- Vertex 1 Xcoordinate
    4928832.44,               !- Vertex 1 Ycoordinate
    9,                        !- Vertex 1 Zcoordinate
    686761.2,                 !- Vertex 2 Xcoordinate
    4928832.44,               !- Vertex 2 Ycoordinate
    6,                        !- Vertex 2 Zcoordinate
    686753.9,                 !- Vertex 3 Xcoordinate
    4928838.26,               !- Vertex 3 Ycoordinate
    6,                        !- Vertex 3 Zcoordinate
    686753.9,                 !- Vertex 4 Xcoordinate
    4928838.26,               !- Vertex 4 Ycoordinate
    9;                        !- Vertex 4 Zcoordinate

BUILDINGSURFACE:DETAILED,
    Block 2b2ff06f3e7f31dc_whole Storey 2 Wall 0008,    !- Name
    wall,                     !- Surface Type
    EU_wall_Construction,     !- Construction Name
    2b2ff06f3e7f31dc_F2_whole,    !- Zone Name
    ,                         !- Space Name
    Adiabatic,                !- Outside Boundary Condition
    ,                         !- Outside Boundary Condition Object
    NoSun,                    !- Sun Exposure
    NoWind,                   !- Wind Exposure
    autocalculate,            !- View Factor to Ground
    autocalculate,            !- Number of Vertices
    686753.9,                 !- Vertex 1 Xcoordinate
    4928838.26,               !- Vertex 1 Ycoordinate
    9,                        !- Vertex 1 Zcoordinate
    686753.9,                 !- Vertex 2 Xcoordinate
    4928838.26,               !- Vertex 2 Ycoordinate
    6,                        !- Vertex 2 Zcoordinate
    686757.56,                !- Vertex 3 Xcoordinate
    4928842.95,               !- Vertex 3 Ycoordinate
    6,                        !- Vertex 3 Zcoordinate
    686757.56,                !- Vertex 4 Xcoordinate
    4928842.95,               !- Vertex 4 Ycoordinate
    9;                        !- Vertex 4 Zcoordinate

BUILDINGSURFACE:DETAILED,
    Block 2b2ff06f3e7f31dc_whole Storey 3 Wall 0001,    !- Name
    wall,                     !- Surface Type
    EU_wall_Construction,     !- Construction Name
    2b2ff06f3e7f31dc_F3_whole,    !- Zone Name
    ,                         !- Space Name
    Adiabatic,                !- Outside Boundary Condition
    ,                         !- Outside Boundary Condition Object
    NoSun,                    !- Sun Exposure
    NoWind,                   !- Wind Exposure
    autocalculate,            !- View Factor to Ground
    autocalculate,            !- Number of Vertices
    686757.56,                !- Vertex 1 Xcoordinate
    4928842.95,               !- Vertex 1 Ycoordinate
    12,                       !- Vertex 1 Zcoordinate
    686757.56,                !- Vertex 2 Xcoordinate
    4928842.95,               !- Vertex 2 Ycoordinate
    9,                        !- Vertex 2 Zcoordinate
    686760.23,                !- Vertex 3 Xcoordinate
    4928846.51,               !- Vertex 3 Ycoordinate
    9,                        !- Vertex 3 Zcoordinate
    686760.23,                !- Vertex 4 Xcoordinate
    4928846.51,               !- Vertex 4 Ycoordinate
    12;                       !- Vertex 4 Zcoordinate

BUILDINGSURFACE:DETAILED,
    Block 2b2ff06f3e7f31dc_whole Storey 3 Wall 0002,    !- Name
    wall,                     !- Surface Type
    EU_wall_Construction,     !- Construction Name
    2b2ff06f3e7f31dc_F3_whole,    !- Zone Name
    ,                         !- Space Name
    Adiabatic,                !- Outside Boundary Condition
    ,                         !- Outside Boundary Condition Object
    NoSun,                    !- Sun Exposure
    NoWind,                   !- Wind Exposure
    autocalculate,            !- View Factor to Ground
    autocalculate,            !- Number of Vertices
    686760.23,                !- Vertex 1 Xcoordinate
    4928846.51,               !- Vertex 1 Ycoordinate
    12,                       !- Vertex 1 Zcoordinate
    686760.23,                !- Vertex 2 Xcoordinate
    4928846.51,               !- Vertex 2 Ycoordinate
    9,                        !- Vertex 2 Zcoordinate
    686759.58,                !- Vertex 3 Xcoordinate
    4928847.02,               !- Vertex 3 Ycoordinate
    9,                        !- Vertex 3 Zcoordinate
    686759.58,                !- Vertex 4 Xcoordinate
    4928847.02,               !- Vertex 4 Ycoordinate
    12;                       !- Vertex 4 Zcoordinate

BUILDINGSURFACE:DETAILED,
    Block 2b2ff06f3e7f31dc_whole Storey 3 Wall 0003,    !- Name
    wall,                     !- Surface Type
    EU_wall_Construction,     !- Construction Name
    2b2ff06f3e7f31dc_F3_whole,    !- Zone Name
    ,                         !- Space Name
    outdoors,                 !- Outside Boundary Condition
    ,                         !- Outside Boundary Condition Object
    SunExposed,               !- Sun Exposure
    WindExposed,              !- Wind Exposure
    autocalculate,            !- View Factor to Ground
    autocalculate,            !- Number of Vertices
    686759.58,                !- Vertex 1 Xcoordinate
    4928847.02,               !- Vertex 1 Ycoordinate
    12,                       !- Vertex 1 Zcoordinate
    686759.58,                !- Vertex 2 Xcoordinate
    4928847.02,               !- Vertex 2 Ycoordinate
    9,                        !- Vertex 2 Zcoordinate
    686766.1,                 !- Vertex 3 Xcoordinate
    4928856.685,              !- Vertex 3 Ycoordinate
    9,                        !- Vertex 3 Zcoordinate
    686766.1,                 !- Vertex 4 Xcoordinate
    4928856.685,              !- Vertex 4 Ycoordinate
    12;                       !- Vertex 4 Zcoordinate

BUILDINGSURFACE:DETAILED,
    Block 2b2ff06f3e7f31dc_whole Storey 3 Wall 0004,    !- Name
    wall,                     !- Surface Type
    EU_wall_Construction,     !- Construction Name
    2b2ff06f3e7f31dc_F3_whole,    !- Zone Name
    ,                         !- Space Name
    outdoors,                 !- Outside Boundary Condition
    ,                         !- Outside Boundary Condition Object
    SunExposed,               !- Sun Exposure
    WindExposed,              !- Wind Exposure
    autocalculate,            !- View Factor to Ground
    autocalculate,            !- Number of Vertices
    686766.1,                 !- Vertex 1 Xcoordinate
    4928856.685,              !- Vertex 1 Ycoordinate
    12,                       !- Vertex 1 Zcoordinate
    686766.1,                 !- Vertex 2 Xcoordinate
    4928856.685,              !- Vertex 2 Ycoordinate
    9,                        !- Vertex 2 Zcoordinate
    686773.62,                !- Vertex 3 Xcoordinate
    4928852.155,              !- Vertex 3 Ycoordinate
    9,                        !- Vertex 3 Zcoordinate
    686773.62,                !- Vertex 4 Xcoordinate
    4928852.155,              !- Vertex 4 Ycoordinate
    12;                       !- Vertex 4 Zcoordinate

BUILDINGSURFACE:DETAILED,
    Block 2b2ff06f3e7f31dc_whole Storey 3 Wall 0005,    !- Name
    wall,                     !- Surface Type
    EU_wall_Construction,     !- Construction Name
    2b2ff06f3e7f31dc_F3_whole,    !- Zone Name
    ,                         !- Space Name
    outdoors,                 !- Outside Boundary Condition
    ,                         !- Outside Boundary Condition Object
    SunExposed,               !- Sun Exposure
    WindExposed,              !- Wind Exposure
    autocalculate,            !- View Factor to Ground
    autocalculate,            !- Number of Vertices
    686773.62,                !- Vertex 1 Xcoordinate
    4928852.155,              !- Vertex 1 Ycoordinate
    12,                       !- Vertex 1 Zcoordinate
    686773.62,                !- Vertex 2 Xcoordinate
    4928852.155,              !- Vertex 2 Ycoordinate
    9,                        !- Vertex 2 Zcoordinate
    686764.59,                !- Vertex 3 Xcoordinate
    4928838.05,               !- Vertex 3 Ycoordinate
    9,                        !- Vertex 3 Zcoordinate
    686764.59,                !- Vertex 4 Xcoordinate
    4928838.05,               !- Vertex 4 Ycoordinate
    12;                       !- Vertex 4 Zcoordinate

BUILDINGSURFACE:DETAILED,
    Block 2b2ff06f3e7f31dc_whole Storey 3 Wall 0006,    !- Name
    wall,                     !- Surface Type
    EU_wall_Construction,     !- Construction Name
    2b2ff06f3e7f31dc_F3_whole,    !- Zone Name
    ,                         !- Space Name
    Adiabatic,                !- Outside Boundary Condition
    ,                         !- Outside Boundary Condition Object
    NoSun,                    !- Sun Exposure
    NoWind,                   !- Wind Exposure
    autocalculate,            !- View Factor to Ground
    autocalculate,            !- Number of Vertices
    686764.59,                !- Vertex 1 Xcoordinate
    4928838.05,               !- Vertex 1 Ycoordinate
    12,                       !- Vertex 1 Zcoordinate
    686764.59,                !- Vertex 2 Xcoordinate
    4928838.05,               !- Vertex 2 Ycoordinate
    9,                        !- Vertex 2 Zcoordinate
    686761.2,                 !- Vertex 3 Xcoordinate
    4928832.44,               !- Vertex 3 Ycoordinate
    9,                        !- Vertex 3 Zcoordinate
    686761.2,                 !- Vertex 4 Xcoordinate
    4928832.44,               !- Vertex 4 Ycoordinate
    12;                       !- Vertex 4 Zcoordinate

BUILDINGSURFACE:DETAILED,
    Block 2b2ff06f3e7f31dc_whole Storey 3 Wall 0007,    !- Name
    wall,                     !- Surface Type
    EU_wall_Construction,     !- Construction Name
    2b2ff06f3e7f31dc_F3_whole,    !- Zone Name
    ,                         !- Space Name
    Adiabatic,                !- Outside Boundary Condition
    ,                         !- Outside Boundary Condition Object
    NoSun,                    !- Sun Exposure
    NoWind,                   !- Wind Exposure
    autocalculate,            !- View Factor to Ground
    autocalculate,            !- Number of Vertices
    686761.2,                 !- Vertex 1 Xcoordinate
    4928832.44,               !- Vertex 1 Ycoordinate
    12,                       !- Vertex 1 Zcoordinate
    686761.2,                 !- Vertex 2 Xcoordinate
    4928832.44,               !- Vertex 2 Ycoordinate
    9,                        !- Vertex 2 Zcoordinate
    686753.9,                 !- Vertex 3 Xcoordinate
    4928838.26,               !- Vertex 3 Ycoordinate
    9,                        !- Vertex 3 Zcoordinate
    686753.9,                 !- Vertex 4 Xcoordinate
    4928838.26,               !- Vertex 4 Ycoordinate
    12;                       !- Vertex 4 Zcoordinate

BUILDINGSURFACE:DETAILED,
    Block 2b2ff06f3e7f31dc_whole Storey 3 Wall 0008,    !- Name
    wall,                     !- Surface Type
    EU_wall_Construction,     !- Construction Name
    2b2ff06f3e7f31dc_F3_whole,    !- Zone Name
    ,                         !- Space Name
    Adiabatic,                !- Outside Boundary Condition
    ,                         !- Outside Boundary Condition Object
    NoSun,                    !- Sun Exposure
    NoWind,                   !- Wind Exposure
    autocalculate,            !- View Factor to Ground
    autocalculate,            !- Number of Vertices
    686753.9,                 !- Vertex 1 Xcoordinate
    4928838.26,               !- Vertex 1 Ycoordinate
    12,                       !- Vertex 1 Zcoordinate
    686753.9,                 !- Vertex 2 Xcoordinate
    4928838.26,               !- Vertex 2 Ycoordinate
    9,                        !- Vertex 2 Zcoordinate
    686757.56,                !- Vertex 3 Xcoordinate
    4928842.95,               !- Vertex 3 Ycoordinate
    9,                        !- Vertex 3 Zcoordinate
    686757.56,                !- Vertex 4 Xcoordinate
    4928842.95,               !- Vertex 4 Ycoordinate
    12;                       !- Vertex 4 Zcoordinate

BUILDINGSURFACE:DETAILED,
    Block 2b2ff06f3e7f31dc_whole Storey 4 Wall 0001,    !- Name
    wall,                     !- Surface Type
    EU_wall_Construction,     !- Construction Name
    2b2ff06f3e7f31dc_F4_whole,    !- Zone Name
    ,                         !- Space Name
    Adiabatic,                !- Outside Boundary Condition
    ,                         !- Outside Boundary Condition Object
    NoSun,                    !- Sun Exposure
    NoWind,                   !- Wind Exposure
    autocalculate,            !- View Factor to Ground
    autocalculate,            !- Number of Vertices
    686757.56,                !- Vertex 1 Xcoordinate
    4928842.95,               !- Vertex 1 Ycoordinate
    15,                       !- Vertex 1 Zcoordinate
    686757.56,                !- Vertex 2 Xcoordinate
    4928842.95,               !- Vertex 2 Ycoordinate
    12,                       !- Vertex 2 Zcoordinate
    686760.23,                !- Vertex 3 Xcoordinate
    4928846.51,               !- Vertex 3 Ycoordinate
    12,                       !- Vertex 3 Zcoordinate
    686760.23,                !- Vertex 4 Xcoordinate
    4928846.51,               !- Vertex 4 Ycoordinate
    15;                       !- Vertex 4 Zcoordinate

BUILDINGSURFACE:DETAILED,
    Block 2b2ff06f3e7f31dc_whole Storey 4 Wall 0002,    !- Name
    wall,                     !- Surface Type
    EU_wall_Construction,     !- Construction Name
    2b2ff06f3e7f31dc_F4_whole,    !- Zone Name
    ,                         !- Space Name
    Adiabatic,                !- Outside Boundary Condition
    ,                         !- Outside Boundary Condition Object
    NoSun,                    !- Sun Exposure
    NoWind,                   !- Wind Exposure
    autocalculate,            !- View Factor to Ground
    autocalculate,            !- Number of Vertices
    686760.23,                !- Vertex 1 Xcoordinate
    4928846.51,               !- Vertex 1 Ycoordinate
    15,                       !- Vertex 1 Zcoordinate
    686760.23,                !- Vertex 2 Xcoordinate
    4928846.51,               !- Vertex 2 Ycoordinate
    12,                       !- Vertex 2 Zcoordinate
    686759.58,                !- Vertex 3 Xcoordinate
    4928847.02,               !- Vertex 3 Ycoordinate
    12,                       !- Vertex 3 Zcoordinate
    686759.58,                !- Vertex 4 Xcoordinate
    4928847.02,               !- Vertex 4 Ycoordinate
    15;                       !- Vertex 4 Zcoordinate

BUILDINGSURFACE:DETAILED,
    Block 2b2ff06f3e7f31dc_whole Storey 4 Wall 0003,    !- Name
    wall,                     !- Surface Type
    EU_wall_Construction,     !- Construction Name
    2b2ff06f3e7f31dc_F4_whole,    !- Zone Name
    ,                         !- Space Name
    outdoors,                 !- Outside Boundary Condition
    ,                         !- Outside Boundary Condition Object
    SunExposed,               !- Sun Exposure
    WindExposed,              !- Wind Exposure
    autocalculate,            !- View Factor to Ground
    autocalculate,            !- Number of Vertices
    686759.58,                !- Vertex 1 Xcoordinate
    4928847.02,               !- Vertex 1 Ycoordinate
    15,                       !- Vertex 1 Zcoordinate
    686759.58,                !- Vertex 2 Xcoordinate
    4928847.02,               !- Vertex 2 Ycoordinate
    12,                       !- Vertex 2 Zcoordinate
    686766.1,                 !- Vertex 3 Xcoordinate
    4928856.685,              !- Vertex 3 Ycoordinate
    12,                       !- Vertex 3 Zcoordinate
    686766.1,                 !- Vertex 4 Xcoordinate
    4928856.685,              !- Vertex 4 Ycoordinate
    15;                       !- Vertex 4 Zcoordinate

BUILDINGSURFACE:DETAILED,
    Block 2b2ff06f3e7f31dc_whole Storey 4 Wall 0004,    !- Name
    wall,                     !- Surface Type
    EU_wall_Construction,     !- Construction Name
    2b2ff06f3e7f31dc_F4_whole,    !- Zone Name
    ,                         !- Space Name
    outdoors,                 !- Outside Boundary Condition
    ,                         !- Outside Boundary Condition Object
    SunExposed,               !- Sun Exposure
    WindExposed,              !- Wind Exposure
    autocalculate,            !- View Factor to Ground
    autocalculate,            !- Number of Vertices
    686766.1,                 !- Vertex 1 Xcoordinate
    4928856.685,              !- Vertex 1 Ycoordinate
    15,                       !- Vertex 1 Zcoordinate
    686766.1,                 !- Vertex 2 Xcoordinate
    4928856.685,              !- Vertex 2 Ycoordinate
    12,                       !- Vertex 2 Zcoordinate
    686773.62,                !- Vertex 3 Xcoordinate
    4928852.155,              !- Vertex 3 Ycoordinate
    12,                       !- Vertex 3 Zcoordinate
    686773.62,                !- Vertex 4 Xcoordinate
    4928852.155,              !- Vertex 4 Ycoordinate
    15;                       !- Vertex 4 Zcoordinate

BUILDINGSURFACE:DETAILED,
    Block 2b2ff06f3e7f31dc_whole Storey 4 Wall 0005,    !- Name
    wall,                     !- Surface Type
    EU_wall_Construction,     !- Construction Name
    2b2ff06f3e7f31dc_F4_whole,    !- Zone Name
    ,                         !- Space Name
    outdoors,                 !- Outside Boundary Condition
    ,                         !- Outside Boundary Condition Object
    SunExposed,               !- Sun Exposure
    WindExposed,              !- Wind Exposure
    autocalculate,            !- View Factor to Ground
    autocalculate,            !- Number of Vertices
    686773.62,                !- Vertex 1 Xcoordinate
    4928852.155,              !- Vertex 1 Ycoordinate
    15,                       !- Vertex 1 Zcoordinate
    686773.62,                !- Vertex 2 Xcoordinate
    4928852.155,              !- Vertex 2 Ycoordinate
    12,                       !- Vertex 2 Zcoordinate
    686764.59,                !- Vertex 3 Xcoordinate
    4928838.05,               !- Vertex 3 Ycoordinate
    12,                       !- Vertex 3 Zcoordinate
    686764.59,                !- Vertex 4 Xcoordinate
    4928838.05,               !- Vertex 4 Ycoordinate
    15;                       !- Vertex 4 Zcoordinate

BUILDINGSURFACE:DETAILED,
    Block 2b2ff06f3e7f31dc_whole Storey 4 Wall 0006,    !- Name
    wall,                     !- Surface Type
    EU_wall_Construction,     !- Construction Name
    2b2ff06f3e7f31dc_F4_whole,    !- Zone Name
    ,                         !- Space Name
    Adiabatic,                !- Outside Boundary Condition
    ,                         !- Outside Boundary Condition Object
    NoSun,                    !- Sun Exposure
    NoWind,                   !- Wind Exposure
    autocalculate,            !- View Factor to Ground
    autocalculate,            !- Number of Vertices
    686764.59,                !- Vertex 1 Xcoordinate
    4928838.05,               !- Vertex 1 Ycoordinate
    15,                       !- Vertex 1 Zcoordinate
    686764.59,                !- Vertex 2 Xcoordinate
    4928838.05,               !- Vertex 2 Ycoordinate
    12,                       !- Vertex 2 Zcoordinate
    686761.2,                 !- Vertex 3 Xcoordinate
    4928832.44,               !- Vertex 3 Ycoordinate
    12,                       !- Vertex 3 Zcoordinate
    686761.2,                 !- Vertex 4 Xcoordinate
    4928832.44,               !- Vertex 4 Ycoordinate
    15;                       !- Vertex 4 Zcoordinate

BUILDINGSURFACE:DETAILED,
    Block 2b2ff06f3e7f31dc_whole Storey 4 Wall 0007,    !- Name
    wall,                     !- Surface Type
    EU_wall_Construction,     !- Construction Name
    2b2ff06f3e7f31dc_F4_whole,    !- Zone Name
    ,                         !- Space Name
    Adiabatic,                !- Outside Boundary Condition
    ,                         !- Outside Boundary Condition Object
    NoSun,                    !- Sun Exposure
    NoWind,                   !- Wind Exposure
    autocalculate,            !- View Factor to Ground
    autocalculate,            !- Number of Vertices
    686761.2,                 !- Vertex 1 Xcoordinate
    4928832.44,               !- Vertex 1 Ycoordinate
    15,                       !- Vertex 1 Zcoordinate
    686761.2,                 !- Vertex 2 Xcoordinate
    4928832.44,               !- Vertex 2 Ycoordinate
    12,                       !- Vertex 2 Zcoordinate
    686753.9,                 !- Vertex 3 Xcoordinate
    4928838.26,               !- Vertex 3 Ycoordinate
    12,                       !- Vertex 3 Zcoordinate
    686753.9,                 !- Vertex 4 Xcoordinate
    4928838.26,               !- Vertex 4 Ycoordinate
    15;                       !- Vertex 4 Zcoordinate

BUILDINGSURFACE:DETAILED,
    Block 2b2ff06f3e7f31dc_whole Storey 4 Wall 0008,    !- Name
    wall,                     !- Surface Type
    EU_wall_Construction,     !- Construction Name
    2b2ff06f3e7f31dc_F4_whole,    !- Zone Name
    ,                         !- Space Name
    Adiabatic,                !- Outside Boundary Condition
    ,                         !- Outside Boundary Condition Object
    NoSun,                    !- Sun Exposure
    NoWind,                   !- Wind Exposure
    autocalculate,            !- View Factor to Ground
    autocalculate,            !- Number of Vertices
    686753.9,                 !- Vertex 1 Xcoordinate
    4928838.26,               !- Vertex 1 Ycoordinate
    15,                       !- Vertex 1 Zcoordinate
    686753.9,                 !- Vertex 2 Xcoordinate
    4928838.26,               !- Vertex 2 Ycoordinate
    12,                       !- Vertex 2 Zcoordinate
    686757.56,                !- Vertex 3 Xcoordinate
    4928842.95,               !- Vertex 3 Ycoordinate
    12,                       !- Vertex 3 Zcoordinate
    686757.56,                !- Vertex 4 Xcoordinate
    4928842.95,               !- Vertex 4 Ycoordinate
    15;                       !- Vertex 4 Zcoordinate

BUILDINGSURFACE:DETAILED,
    Block 2b2ff06f3e7f31dc_whole Storey 4 Roof 0001,    !- Name
    roof,                     !- Surface Type
    EU_roof_Construction,     !- Construction Name
    2b2ff06f3e7f31dc_F4_whole,    !- Zone Name
    ,                         !- Space Name
    outdoors,                 !- Outside Boundary Condition
    ,                         !- Outside Boundary Condition Object
    NoSun,                    !- Sun Exposure
    WindExposed,              !- Wind Exposure
    autocalculate,            !- View Factor to Ground
    autocalculate,            !- Number of Vertices
    686773.62,                !- Vertex 1 Xcoordinate
    4928852.155,              !- Vertex 1 Ycoordinate
    15,                       !- Vertex 1 Zcoordinate
    686764.59,                !- Vertex 2 Xcoordinate
    4928838.05,               !- Vertex 2 Ycoordinate
    15,                       !- Vertex 2 Zcoordinate
    686761.2,                 !- Vertex 3 Xcoordinate
    4928832.44,               !- Vertex 3 Ycoordinate
    15,                       !- Vertex 3 Zcoordinate
    686753.9,                 !- Vertex 4 Xcoordinate
    4928838.26,               !- Vertex 4 Ycoordinate
    15,                       !- Vertex 4 Zcoordinate
    686757.56,                !- Vertex 5 Xcoordinate
    4928842.95,               !- Vertex 5 Ycoordinate
    15,                       !- Vertex 5 Zcoordinate
    686760.23,                !- Vertex 6 Xcoordinate
    4928846.51,               !- Vertex 6 Ycoordinate
    15,                       !- Vertex 6 Zcoordinate
    686759.58,                !- Vertex 7 Xcoordinate
    4928847.02,               !- Vertex 7 Ycoordinate
    15,                       !- Vertex 7 Zcoordinate
    686766.1,                 !- Vertex 8 Xcoordinate
    4928856.685,              !- Vertex 8 Ycoordinate
    15;                       !- Vertex 8 Zcoordinate

BUILDINGSURFACE:DETAILED,
    Block 2b2ff06f3e7f31dc_whole Storey 0 Ceiling 0001_1,    !- Name
    ceiling,                  !- Surface Type
    EU_floor_Construction,    !- Construction Name
    2b2ff06f3e7f31dc_F0_whole,    !- Zone Name
    ,                         !- Space Name
    Surface,                  !- Outside Boundary Condition
    Block 2b2ff06f3e7f31dc_whole Storey 1 Floor 0001_1,    !- Outside Boundary Condition Object
    NoSun,                    !- Sun Exposure
    NoWind,                   !- Wind Exposure
    autocalculate,            !- View Factor to Ground
    autocalculate,            !- Number of Vertices
    686773.6199999996,        !- Vertex 1 Xcoordinate
    4928852.155,              !- Vertex 1 Ycoordinate
    3,                        !- Vertex 1 Zcoordinate
    686764.5899999999,        !- Vertex 2 Xcoordinate
    4928838.05,               !- Vertex 2 Ycoordinate
    3,                        !- Vertex 2 Zcoordinate
    686761.1999999997,        !- Vertex 3 Xcoordinate
    4928832.44,               !- Vertex 3 Ycoordinate
    3,                        !- Vertex 3 Zcoordinate
    686753.8999999999,        !- Vertex 4 Xcoordinate
    4928838.26,               !- Vertex 4 Ycoordinate
    3,                        !- Vertex 4 Zcoordinate
    686757.56,                !- Vertex 5 Xcoordinate
    4928842.95,               !- Vertex 5 Ycoordinate
    3,                        !- Vertex 5 Zcoordinate
    686760.23,                !- Vertex 6 Xcoordinate
    4928846.51,               !- Vertex 6 Ycoordinate
    3,                        !- Vertex 6 Zcoordinate
    686759.5799999996,        !- Vertex 7 Xcoordinate
    4928847.02,               !- Vertex 7 Ycoordinate
    3,                        !- Vertex 7 Zcoordinate
    686766.0999999996,        !- Vertex 8 Xcoordinate
    4928856.685,              !- Vertex 8 Ycoordinate
    3;                        !- Vertex 8 Zcoordinate

BUILDINGSURFACE:DETAILED,
    Block 2b2ff06f3e7f31dc_whole Storey 1 Floor 0001_1,    !- Name
    floor,                    !- Surface Type
    EU_floor_Construction,    !- Construction Name
    2b2ff06f3e7f31dc_F1_whole,    !- Zone Name
    ,                         !- Space Name
    Surface,                  !- Outside Boundary Condition
    Block 2b2ff06f3e7f31dc_whole Storey 0 Ceiling 0001_1,    !- Outside Boundary Condition Object
    NoSun,                    !- Sun Exposure
    NoWind,                   !- Wind Exposure
    autocalculate,            !- View Factor to Ground
    autocalculate,            !- Number of Vertices
    686764.5899999999,        !- Vertex 1 Xcoordinate
    4928838.05,               !- Vertex 1 Ycoordinate
    3,                        !- Vertex 1 Zcoordinate
    686773.6199999996,        !- Vertex 2 Xcoordinate
    4928852.155,              !- Vertex 2 Ycoordinate
    3,                        !- Vertex 2 Zcoordinate
    686766.0999999996,        !- Vertex 3 Xcoordinate
    4928856.685,              !- Vertex 3 Ycoordinate
    3,                        !- Vertex 3 Zcoordinate
    686759.5799999996,        !- Vertex 4 Xcoordinate
    4928847.02,               !- Vertex 4 Ycoordinate
    3,                        !- Vertex 4 Zcoordinate
    686760.23,                !- Vertex 5 Xcoordinate
    4928846.51,               !- Vertex 5 Ycoordinate
    3,                        !- Vertex 5 Zcoordinate
    686757.56,                !- Vertex 6 Xcoordinate
    4928842.95,               !- Vertex 6 Ycoordinate
    3,                        !- Vertex 6 Zcoordinate
    686753.8999999999,        !- Vertex 7 Xcoordinate
    4928838.26,               !- Vertex 7 Ycoordinate
    3,                        !- Vertex 7 Zcoordinate
    686761.1999999997,        !- Vertex 8 Xcoordinate
    4928832.44,               !- Vertex 8 Ycoordinate
    3;                        !- Vertex 8 Zcoordinate

BUILDINGSURFACE:DETAILED,
    Block 2b2ff06f3e7f31dc_whole Storey 1 Ceiling 0001_1,    !- Name
    ceiling,                  !- Surface Type
    EU_floor_Construction,    !- Construction Name
    2b2ff06f3e7f31dc_F1_whole,    !- Zone Name
    ,                         !- Space Name
    Surface,                  !- Outside Boundary Condition
    Block 2b2ff06f3e7f31dc_whole Storey 2 Floor 0001_1,    !- Outside Boundary Condition Object
    NoSun,                    !- Sun Exposure
    NoWind,                   !- Wind Exposure
    autocalculate,            !- View Factor to Ground
    autocalculate,            !- Number of Vertices
    686773.6199999996,        !- Vertex 1 Xcoordinate
    4928852.155,              !- Vertex 1 Ycoordinate
    6,                        !- Vertex 1 Zcoordinate
    686764.5899999999,        !- Vertex 2 Xcoordinate
    4928838.05,               !- Vertex 2 Ycoordinate
    6,                        !- Vertex 2 Zcoordinate
    686761.1999999997,        !- Vertex 3 Xcoordinate
    4928832.44,               !- Vertex 3 Ycoordinate
    6,                        !- Vertex 3 Zcoordinate
    686753.8999999999,        !- Vertex 4 Xcoordinate
    4928838.26,               !- Vertex 4 Ycoordinate
    6,                        !- Vertex 4 Zcoordinate
    686757.56,                !- Vertex 5 Xcoordinate
    4928842.95,               !- Vertex 5 Ycoordinate
    6,                        !- Vertex 5 Zcoordinate
    686760.23,                !- Vertex 6 Xcoordinate
    4928846.51,               !- Vertex 6 Ycoordinate
    6,                        !- Vertex 6 Zcoordinate
    686759.5799999996,        !- Vertex 7 Xcoordinate
    4928847.02,               !- Vertex 7 Ycoordinate
    6,                        !- Vertex 7 Zcoordinate
    686766.0999999996,        !- Vertex 8 Xcoordinate
    4928856.685,              !- Vertex 8 Ycoordinate
    6;                        !- Vertex 8 Zcoordinate

BUILDINGSURFACE:DETAILED,
    Block 2b2ff06f3e7f31dc_whole Storey 2 Floor 0001_1,    !- Name
    floor,                    !- Surface Type
    EU_floor_Construction,    !- Construction Name
    2b2ff06f3e7f31dc_F2_whole,    !- Zone Name
    ,                         !- Space Name
    Surface,                  !- Outside Boundary Condition
    Block 2b2ff06f3e7f31dc_whole Storey 1 Ceiling 0001_1,    !- Outside Boundary Condition Object
    NoSun,                    !- Sun Exposure
    NoWind,                   !- Wind Exposure
    autocalculate,            !- View Factor to Ground
    autocalculate,            !- Number of Vertices
    686764.5899999999,        !- Vertex 1 Xcoordinate
    4928838.05,               !- Vertex 1 Ycoordinate
    6,                        !- Vertex 1 Zcoordinate
    686773.6199999996,        !- Vertex 2 Xcoordinate
    4928852.155,              !- Vertex 2 Ycoordinate
    6,                        !- Vertex 2 Zcoordinate
    686766.0999999996,        !- Vertex 3 Xcoordinate
    4928856.685,              !- Vertex 3 Ycoordinate
    6,                        !- Vertex 3 Zcoordinate
    686759.5799999996,        !- Vertex 4 Xcoordinate
    4928847.02,               !- Vertex 4 Ycoordinate
    6,                        !- Vertex 4 Zcoordinate
    686760.23,                !- Vertex 5 Xcoordinate
    4928846.51,               !- Vertex 5 Ycoordinate
    6,                        !- Vertex 5 Zcoordinate
    686757.56,                !- Vertex 6 Xcoordinate
    4928842.95,               !- Vertex 6 Ycoordinate
    6,                        !- Vertex 6 Zcoordinate
    686753.8999999999,        !- Vertex 7 Xcoordinate
    4928838.26,               !- Vertex 7 Ycoordinate
    6,                        !- Vertex 7 Zcoordinate
    686761.1999999997,        !- Vertex 8 Xcoordinate
    4928832.44,               !- Vertex 8 Ycoordinate
    6;                        !- Vertex 8 Zcoordinate

BUILDINGSURFACE:DETAILED,
    Block 2b2ff06f3e7f31dc_whole Storey 2 Ceiling 0001_1,    !- Name
    ceiling,                  !- Surface Type
    EU_floor_Construction,    !- Construction Name
    2b2ff06f3e7f31dc_F2_whole,    !- Zone Name
    ,                         !- Space Name
    Surface,                  !- Outside Boundary Condition
    Block 2b2ff06f3e7f31dc_whole Storey 3 Floor 0001_1,    !- Outside Boundary Condition Object
    NoSun,                    !- Sun Exposure
    NoWind,                   !- Wind Exposure
    autocalculate,            !- View Factor to Ground
    autocalculate,            !- Number of Vertices
    686773.6199999996,        !- Vertex 1 Xcoordinate
    4928852.155,              !- Vertex 1 Ycoordinate
    9,                        !- Vertex 1 Zcoordinate
    686764.5899999999,        !- Vertex 2 Xcoordinate
    4928838.05,               !- Vertex 2 Ycoordinate
    9,                        !- Vertex 2 Zcoordinate
    686761.1999999997,        !- Vertex 3 Xcoordinate
    4928832.44,               !- Vertex 3 Ycoordinate
    9,                        !- Vertex 3 Zcoordinate
    686753.8999999999,        !- Vertex 4 Xcoordinate
    4928838.26,               !- Vertex 4 Ycoordinate
    9,                        !- Vertex 4 Zcoordinate
    686757.56,                !- Vertex 5 Xcoordinate
    4928842.95,               !- Vertex 5 Ycoordinate
    9,                        !- Vertex 5 Zcoordinate
    686760.23,                !- Vertex 6 Xcoordinate
    4928846.51,               !- Vertex 6 Ycoordinate
    9,                        !- Vertex 6 Zcoordinate
    686759.5799999996,        !- Vertex 7 Xcoordinate
    4928847.02,               !- Vertex 7 Ycoordinate
    9,                        !- Vertex 7 Zcoordinate
    686766.0999999996,        !- Vertex 8 Xcoordinate
    4928856.685,              !- Vertex 8 Ycoordinate
    9;                        !- Vertex 8 Zcoordinate

BUILDINGSURFACE:DETAILED,
    Block 2b2ff06f3e7f31dc_whole Storey 3 Floor 0001_1,    !- Name
    floor,                    !- Surface Type
    EU_floor_Construction,    !- Construction Name
    2b2ff06f3e7f31dc_F3_whole,    !- Zone Name
    ,                         !- Space Name
    Surface,                  !- Outside Boundary Condition
    Block 2b2ff06f3e7f31dc_whole Storey 2 Ceiling 0001_1,    !- Outside Boundary Condition Object
    NoSun,                    !- Sun Exposure
    NoWind,                   !- Wind Exposure
    autocalculate,            !- View Factor to Ground
    autocalculate,            !- Number of Vertices
    686764.5899999999,        !- Vertex 1 Xcoordinate
    4928838.05,               !- Vertex 1 Ycoordinate
    9,                        !- Vertex 1 Zcoordinate
    686773.6199999996,        !- Vertex 2 Xcoordinate
    4928852.155,              !- Vertex 2 Ycoordinate
    9,                        !- Vertex 2 Zcoordinate
    686766.0999999996,        !- Vertex 3 Xcoordinate
    4928856.685,              !- Vertex 3 Ycoordinate
    9,                        !- Vertex 3 Zcoordinate
    686759.5799999996,        !- Vertex 4 Xcoordinate
    4928847.02,               !- Vertex 4 Ycoordinate
    9,                        !- Vertex 4 Zcoordinate
    686760.23,                !- Vertex 5 Xcoordinate
    4928846.51,               !- Vertex 5 Ycoordinate
    9,                        !- Vertex 5 Zcoordinate
    686757.56,                !- Vertex 6 Xcoordinate
    4928842.95,               !- Vertex 6 Ycoordinate
    9,                        !- Vertex 6 Zcoordinate
    686753.8999999999,        !- Vertex 7 Xcoordinate
    4928838.26,               !- Vertex 7 Ycoordinate
    9,                        !- Vertex 7 Zcoordinate
    686761.1999999997,        !- Vertex 8 Xcoordinate
    4928832.44,               !- Vertex 8 Ycoordinate
    9;                        !- Vertex 8 Zcoordinate

BUILDINGSURFACE:DETAILED,
    Block 2b2ff06f3e7f31dc_whole Storey 3 Ceiling 0001_1,    !- Name
    ceiling,                  !- Surface Type
    EU_floor_Construction,    !- Construction Name
    2b2ff06f3e7f31dc_F3_whole,    !- Zone Name
    ,                         !- Space Name
    Surface,                  !- Outside Boundary Condition
    Block 2b2ff06f3e7f31dc_whole Storey 4 Floor 0001_1,    !- Outside Boundary Condition Object
    NoSun,                    !- Sun Exposure
    NoWind,                   !- Wind Exposure
    autocalculate,            !- View Factor to Ground
    autocalculate,            !- Number of Vertices
    686773.6199999996,        !- Vertex 1 Xcoordinate
    4928852.155,              !- Vertex 1 Ycoordinate
    12,                       !- Vertex 1 Zcoordinate
    686764.5899999999,        !- Vertex 2 Xcoordinate
    4928838.05,               !- Vertex 2 Ycoordinate
    12,                       !- Vertex 2 Zcoordinate
    686761.1999999997,        !- Vertex 3 Xcoordinate
    4928832.44,               !- Vertex 3 Ycoordinate
    12,                       !- Vertex 3 Zcoordinate
    686753.8999999999,        !- Vertex 4 Xcoordinate
    4928838.26,               !- Vertex 4 Ycoordinate
    12,                       !- Vertex 4 Zcoordinate
    686757.56,                !- Vertex 5 Xcoordinate
    4928842.95,               !- Vertex 5 Ycoordinate
    12,                       !- Vertex 5 Zcoordinate
    686760.23,                !- Vertex 6 Xcoordinate
    4928846.51,               !- Vertex 6 Ycoordinate
    12,                       !- Vertex 6 Zcoordinate
    686759.5799999996,        !- Vertex 7 Xcoordinate
    4928847.02,               !- Vertex 7 Ycoordinate
    12,                       !- Vertex 7 Zcoordinate
    686766.0999999996,        !- Vertex 8 Xcoordinate
    4928856.685,              !- Vertex 8 Ycoordinate
    12;                       !- Vertex 8 Zcoordinate

BUILDINGSURFACE:DETAILED,
    Block 2b2ff06f3e7f31dc_whole Storey 4 Floor 0001_1,    !- Name
    floor,                    !- Surface Type
    EU_floor_Construction,    !- Construction Name
    2b2ff06f3e7f31dc_F4_whole,    !- Zone Name
    ,                         !- Space Name
    Surface,                  !- Outside Boundary Condition
    Block 2b2ff06f3e7f31dc_whole Storey 3 Ceiling 0001_1,    !- Outside Boundary Condition Object
    NoSun,                    !- Sun Exposure
    NoWind,                   !- Wind Exposure
    autocalculate,            !- View Factor to Ground
    autocalculate,            !- Number of Vertices
    686764.5899999999,        !- Vertex 1 Xcoordinate
    4928838.05,               !- Vertex 1 Ycoordinate
    12,                       !- Vertex 1 Zcoordinate
    686773.6199999996,        !- Vertex 2 Xcoordinate
    4928852.155,              !- Vertex 2 Ycoordinate
    12,                       !- Vertex 2 Zcoordinate
    686766.0999999996,        !- Vertex 3 Xcoordinate
    4928856.685,              !- Vertex 3 Ycoordinate
    12,                       !- Vertex 3 Zcoordinate
    686759.5799999996,        !- Vertex 4 Xcoordinate
    4928847.02,               !- Vertex 4 Ycoordinate
    12,                       !- Vertex 4 Zcoordinate
    686760.23,                !- Vertex 5 Xcoordinate
    4928846.51,               !- Vertex 5 Ycoordinate
    12,                       !- Vertex 5 Zcoordinate
    686757.56,                !- Vertex 6 Xcoordinate
    4928842.95,               !- Vertex 6 Ycoordinate
    12,                       !- Vertex 6 Zcoordinate
    686753.8999999999,        !- Vertex 7 Xcoordinate
    4928838.26,               !- Vertex 7 Ycoordinate
    12,                       !- Vertex 7 Zcoordinate
    686761.1999999997,        !- Vertex 8 Xcoordinate
    4928832.44,               !- Vertex 8 Ycoordinate
    12;                       !- Vertex 8 Zcoordinate

INTERNALMASS,
    2b2ff06f3e7f31dc_F0_whole_EU_InternalMass,    !- Name
    EU_InternalMass_Construction,    !- Construction Name
    2b2ff06f3e7f31dc_F0_whole,    !- Zone or ZoneList Name
    ,                         !- Space or SpaceList Name
    200.15172499494963;       !- Surface Area

INTERNALMASS,
    2b2ff06f3e7f31dc_F1_whole_EU_InternalMass,    !- Name
    EU_InternalMass_Construction,    !- Construction Name
    2b2ff06f3e7f31dc_F1_whole,    !- Zone or ZoneList Name
    ,                         !- Space or SpaceList Name
    200.15172499494963;       !- Surface Area

INTERNALMASS,
    2b2ff06f3e7f31dc_F2_whole_EU_InternalMass,    !- Name
    EU_InternalMass_Construction,    !- Construction Name
    2b2ff06f3e7f31dc_F2_whole,    !- Zone or ZoneList Name
    ,                         !- Space or SpaceList Name
    200.15172499494963;       !- Surface Area

INTERNALMASS,
    2b2ff06f3e7f31dc_F3_whole_EU_InternalMass,    !- Name
    EU_InternalMass_Construction,    !- Construction Name
    2b2ff06f3e7f31dc_F3_whole,    !- Zone or ZoneList Name
    ,                         !- Space or SpaceList Name
    200.15172499494963;       !- Surface Area

INTERNALMASS,
    2b2ff06f3e7f31dc_F4_whole_EU_InternalMass,    !- Name
    EU_InternalMass_Construction,    !- Construction Name
    2b2ff06f3e7f31dc_F4_whole,    !- Zone or ZoneList Name
    ,                         !- Space or SpaceList Name
    200.15172499494963;       !- Surface Area

SHADING:SITE:DETAILED,
    shade_30741_1,            !- Name
    ,                         !- Transmittance Schedule Name
    autocalculate,            !- Number of Vertices
    686784.5996906762,        !- Vertex 1 Xcoordinate
    4928834.135400854,        !- Vertex 1 Ycoordinate
    15,                       !- Vertex 1 Zcoordinate
    686784.5996906762,        !- Vertex 2 Xcoordinate
    4928834.135400854,        !- Vertex 2 Ycoordinate
    0,                        !- Vertex 2 Zcoordinate
    686769.895601832,         !- Vertex 3 Xcoordinate
    4928810.498058662,        !- Vertex 3 Ycoordinate
    0,                        !- Vertex 3 Zcoordinate
    686769.895601832,         !- Vertex 4 Xcoordinate
    4928810.498058662,        !- Vertex 4 Ycoordinate
    15;                       !- Vertex 4 Zcoordinate

SHADING:SITE:DETAILED,
    shade_30741_2,            !- Name
    ,                         !- Transmittance Schedule Name
    autocalculate,            !- Number of Vertices
    686769.895601832,         !- Vertex 1 Xcoordinate
    4928810.498058662,        !- Vertex 1 Ycoordinate
    15,                       !- Vertex 1 Zcoordinate
    686769.895601832,         !- Vertex 2 Xcoordinate
    4928810.498058662,        !- Vertex 2 Ycoordinate
    0,                        !- Vertex 2 Zcoordinate
    686756.9709984926,        !- Vertex 3 Xcoordinate
    4928818.538119192,        !- Vertex 3 Ycoordinate
    0,                        !- Vertex 3 Zcoordinate
    686756.9709984926,        !- Vertex 4 Xcoordinate
    4928818.538119192,        !- Vertex 4 Ycoordinate
    15;                       !- Vertex 4 Zcoordinate

SHADING:SITE:DETAILED,
    shade_30741_3,            !- Name
    ,                         !- Transmittance Schedule Name
    autocalculate,            !- Number of Vertices
    686756.9709984926,        !- Vertex 1 Xcoordinate
    4928818.538119192,        !- Vertex 1 Ycoordinate
    15,                       !- Vertex 1 Zcoordinate
    686756.9709984926,        !- Vertex 2 Xcoordinate
    4928818.538119192,        !- Vertex 2 Ycoordinate
    0,                        !- Vertex 2 Zcoordinate
    686771.675316512,         !- Vertex 3 Xcoordinate
    4928842.175270329,        !- Vertex 3 Ycoordinate
    0,                        !- Vertex 3 Zcoordinate
    686771.675316512,         !- Vertex 4 Xcoordinate
    4928842.175270329,        !- Vertex 4 Ycoordinate
    15;                       !- Vertex 4 Zcoordinate

SHADING:SITE:DETAILED,
    shade_30741_4,            !- Name
    ,                         !- Transmittance Schedule Name
    autocalculate,            !- Number of Vertices
    686771.675316512,         !- Vertex 1 Xcoordinate
    4928842.175270329,        !- Vertex 1 Ycoordinate
    15,                       !- Vertex 1 Zcoordinate
    686771.675316512,         !- Vertex 2 Xcoordinate
    4928842.175270329,        !- Vertex 2 Ycoordinate
    0,                        !- Vertex 2 Zcoordinate
    686784.5996906762,        !- Vertex 3 Xcoordinate
    4928834.135400854,        !- Vertex 3 Ycoordinate
    0,                        !- Vertex 3 Zcoordinate
    686784.5996906762,        !- Vertex 4 Xcoordinate
    4928834.135400854,        !- Vertex 4 Ycoordinate
    15;                       !- Vertex 4 Zcoordinate

SHADING:SITE:DETAILED,
    shade_30660_1,            !- Name
    ,                         !- Transmittance Schedule Name
    autocalculate,            !- Number of Vertices
    686799.3562902268,        !- Vertex 1 Xcoordinate
    4928842.350235878,        !- Vertex 1 Ycoordinate
    15,                       !- Vertex 1 Zcoordinate
    686799.3562902268,        !- Vertex 2 Xcoordinate
    4928842.350235878,        !- Vertex 2 Ycoordinate
    0,                        !- Vertex 2 Zcoordinate
    686784.7042693136,        !- Vertex 3 Xcoordinate
    4928804.985663067,        !- Vertex 3 Ycoordinate
    0,                        !- Vertex 3 Zcoordinate
    686784.7042693136,        !- Vertex 4 Xcoordinate
    4928804.985663067,        !- Vertex 4 Ycoordinate
    15;                       !- Vertex 4 Zcoordinate

SHADING:SITE:DETAILED,
    shade_30660_2,            !- Name
    ,                         !- Transmittance Schedule Name
    autocalculate,            !- Number of Vertices
    686784.7042693136,        !- Vertex 1 Xcoordinate
    4928804.985663067,        !- Vertex 1 Ycoordinate
    15,                       !- Vertex 1 Zcoordinate
    686784.7042693136,        !- Vertex 2 Xcoordinate
    4928804.985663067,        !- Vertex 2 Ycoordinate
    0,                        !- Vertex 2 Zcoordinate
    686761.5211984931,        !- Vertex 3 Xcoordinate
    4928814.076596353,        !- Vertex 3 Ycoordinate
    0,                        !- Vertex 3 Zcoordinate
    686761.5211984931,        !- Vertex 4 Xcoordinate
    4928814.076596353,        !- Vertex 4 Ycoordinate
    15;                       !- Vertex 4 Zcoordinate

SHADING:SITE:DETAILED,
    shade_30660_3,            !- Name
    ,                         !- Transmittance Schedule Name
    autocalculate,            !- Number of Vertices
    686761.5211984931,        !- Vertex 1 Xcoordinate
    4928814.076596353,        !- Vertex 1 Ycoordinate
    15,                       !- Vertex 1 Zcoordinate
    686761.5211984931,        !- Vertex 2 Xcoordinate
    4928814.076596353,        !- Vertex 2 Ycoordinate
    0,                        !- Vertex 2 Zcoordinate
    686776.1732194063,        !- Vertex 3 Xcoordinate
    4928851.441169163,        !- Vertex 3 Ycoordinate
    0,                        !- Vertex 3 Zcoordinate
    686776.1732194063,        !- Vertex 4 Xcoordinate
    4928851.441169163,        !- Vertex 4 Ycoordinate
    15;                       !- Vertex 4 Zcoordinate

SHADING:SITE:DETAILED,
    shade_30660_4,            !- Name
    ,                         !- Transmittance Schedule Name
    autocalculate,            !- Number of Vertices
    686776.1732194063,        !- Vertex 1 Xcoordinate
    4928851.441169163,        !- Vertex 1 Ycoordinate
    15,                       !- Vertex 1 Zcoordinate
    686776.1732194063,        !- Vertex 2 Xcoordinate
    4928851.441169163,        !- Vertex 2 Ycoordinate
    0,                        !- Vertex 2 Zcoordinate
    686799.3562902268,        !- Vertex 3 Xcoordinate
    4928842.350235878,        !- Vertex 3 Ycoordinate
    0,                        !- Vertex 3 Zcoordinate
    686799.3562902268,        !- Vertex 4 Xcoordinate
    4928842.350235878,        !- Vertex 4 Ycoordinate
    15;                       !- Vertex 4 Zcoordinate

SHADING:SITE:DETAILED,
    shade_30649_1,            !- Name
    ,                         !- Transmittance Schedule Name
    autocalculate,            !- Number of Vertices
    686704.8002487993,        !- Vertex 1 Xcoordinate
    4928830.938900492,        !- Vertex 1 Ycoordinate
    15,                       !- Vertex 1 Zcoordinate
    686704.8002487993,        !- Vertex 2 Xcoordinate
    4928830.938900492,        !- Vertex 2 Ycoordinate
    0,                        !- Vertex 2 Zcoordinate
    686725.4234170862,        !- Vertex 3 Xcoordinate
    4928853.892915733,        !- Vertex 3 Ycoordinate
    0,                        !- Vertex 3 Zcoordinate
    686725.4234170862,        !- Vertex 4 Xcoordinate
    4928853.892915733,        !- Vertex 4 Ycoordinate
    15;                       !- Vertex 4 Zcoordinate

SHADING:SITE:DETAILED,
    shade_30649_2,            !- Name
    ,                         !- Transmittance Schedule Name
    autocalculate,            !- Number of Vertices
    686725.4234170862,        !- Vertex 1 Xcoordinate
    4928853.892915733,        !- Vertex 1 Ycoordinate
    15,                       !- Vertex 1 Zcoordinate
    686725.4234170862,        !- Vertex 2 Xcoordinate
    4928853.892915733,        !- Vertex 2 Ycoordinate
    0,                        !- Vertex 2 Zcoordinate
    686760.3937910008,        !- Vertex 3 Xcoordinate
    4928822.473580216,        !- Vertex 3 Ycoordinate
    0,                        !- Vertex 3 Zcoordinate
    686760.3937910008,        !- Vertex 4 Xcoordinate
    4928822.473580216,        !- Vertex 4 Ycoordinate
    15;                       !- Vertex 4 Zcoordinate

SHADING:SITE:DETAILED,
    shade_30649_3,            !- Name
    ,                         !- Transmittance Schedule Name
    autocalculate,            !- Number of Vertices
    686760.3937910008,        !- Vertex 1 Xcoordinate
    4928822.473580216,        !- Vertex 1 Ycoordinate
    15,                       !- Vertex 1 Zcoordinate
    686760.3937910008,        !- Vertex 2 Xcoordinate
    4928822.473580216,        !- Vertex 2 Ycoordinate
    0,                        !- Vertex 2 Zcoordinate
    686739.7709984926,        !- Vertex 3 Xcoordinate
    4928799.519119192,        !- Vertex 3 Ycoordinate
    0,                        !- Vertex 3 Zcoordinate
    686739.7709984926,        !- Vertex 4 Xcoordinate
    4928799.519119192,        !- Vertex 4 Ycoordinate
    15;                       !- Vertex 4 Zcoordinate

SHADING:SITE:DETAILED,
    shade_30649_4,            !- Name
    ,                         !- Transmittance Schedule Name
    autocalculate,            !- Number of Vertices
    686739.7709984926,        !- Vertex 1 Xcoordinate
    4928799.519119192,        !- Vertex 1 Ycoordinate
    15,                       !- Vertex 1 Zcoordinate
    686739.7709984926,        !- Vertex 2 Xcoordinate
    4928799.519119192,        !- Vertex 2 Ycoordinate
    0,                        !- Vertex 2 Zcoordinate
    686704.8002487993,        !- Vertex 3 Xcoordinate
    4928830.938900492,        !- Vertex 3 Ycoordinate
    0,                        !- Vertex 3 Zcoordinate
    686704.8002487993,        !- Vertex 4 Xcoordinate
    4928830.938900492,        !- Vertex 4 Ycoordinate
    15;                       !- Vertex 4 Zcoordinate

SHADING:SITE:DETAILED,
    shade_30540_1,            !- Name
    ,                         !- Transmittance Schedule Name
    autocalculate,            !- Number of Vertices
    686734.5709984924,        !- Vertex 1 Xcoordinate
    4928867.108119192,        !- Vertex 1 Ycoordinate
    15,                       !- Vertex 1 Zcoordinate
    686734.5709984924,        !- Vertex 2 Xcoordinate
    4928867.108119192,        !- Vertex 2 Ycoordinate
    0,                        !- Vertex 2 Zcoordinate
    686768.2937711874,        !- Vertex 3 Xcoordinate
    4928840.219302999,        !- Vertex 3 Ycoordinate
    0,                        !- Vertex 3 Zcoordinate
    686768.2937711874,        !- Vertex 4 Xcoordinate
    4928840.219302999,        !- Vertex 4 Ycoordinate
    15;                       !- Vertex 4 Zcoordinate

SHADING:SITE:DETAILED,
    shade_30540_2,            !- Name
    ,                         !- Transmittance Schedule Name
    autocalculate,            !- Number of Vertices
    686768.2937711874,        !- Vertex 1 Xcoordinate
    4928840.219302999,        !- Vertex 1 Ycoordinate
    15,                       !- Vertex 1 Zcoordinate
    686768.2937711874,        !- Vertex 2 Xcoordinate
    4928840.219302999,        !- Vertex 2 Ycoordinate
    0,                        !- Vertex 2 Zcoordinate
    686753.9454840635,        !- Vertex 3 Xcoordinate
    4928822.224343513,        !- Vertex 3 Ycoordinate
    0,                        !- Vertex 3 Zcoordinate
    686753.9454840635,        !- Vertex 4 Xcoordinate
    4928822.224343513,        !- Vertex 4 Ycoordinate
    15;                       !- Vertex 4 Zcoordinate

SHADING:SITE:DETAILED,
    shade_30540_3,            !- Name
    ,                         !- Transmittance Schedule Name
    autocalculate,            !- Number of Vertices
    686753.9454840635,        !- Vertex 1 Xcoordinate
    4928822.224343513,        !- Vertex 1 Ycoordinate
    15,                       !- Vertex 1 Zcoordinate
    686753.9454840635,        !- Vertex 2 Xcoordinate
    4928822.224343513,        !- Vertex 2 Ycoordinate
    0,                        !- Vertex 2 Zcoordinate
    686720.2225234027,        !- Vertex 3 Xcoordinate
    4928849.113357774,        !- Vertex 3 Ycoordinate
    0,                        !- Vertex 3 Zcoordinate
    686720.2225234027,        !- Vertex 4 Xcoordinate
    4928849.113357774,        !- Vertex 4 Ycoordinate
    15;                       !- Vertex 4 Zcoordinate

SHADING:SITE:DETAILED,
    shade_30540_4,            !- Name
    ,                         !- Transmittance Schedule Name
    autocalculate,            !- Number of Vertices
    686720.2225234027,        !- Vertex 1 Xcoordinate
    4928849.113357774,        !- Vertex 1 Ycoordinate
    15,                       !- Vertex 1 Zcoordinate
    686720.2225234027,        !- Vertex 2 Xcoordinate
    4928849.113357774,        !- Vertex 2 Ycoordinate
    0,                        !- Vertex 2 Zcoordinate
    686734.5709984924,        !- Vertex 3 Xcoordinate
    4928867.108119192,        !- Vertex 3 Ycoordinate
    0,                        !- Vertex 3 Zcoordinate
    686734.5709984924,        !- Vertex 4 Xcoordinate
    4928867.108119192,        !- Vertex 4 Ycoordinate
    15;                       !- Vertex 4 Zcoordinate

SHADING:SITE:DETAILED,
    shade_30564_1,            !- Name
    ,                         !- Transmittance Schedule Name
    autocalculate,            !- Number of Vertices
    686786.0075830665,        !- Vertex 1 Xcoordinate
    4928863.268511928,        !- Vertex 1 Ycoordinate
    15,                       !- Vertex 1 Zcoordinate
    686786.0075830665,        !- Vertex 2 Xcoordinate
    4928863.268511928,        !- Vertex 2 Ycoordinate
    0,                        !- Vertex 2 Zcoordinate
    686804.8184485246,        !- Vertex 3 Xcoordinate
    4928851.888124579,        !- Vertex 3 Ycoordinate
    0,                        !- Vertex 3 Zcoordinate
    686804.8184485246,        !- Vertex 4 Xcoordinate
    4928851.888124579,        !- Vertex 4 Ycoordinate
    15;                       !- Vertex 4 Zcoordinate

SHADING:SITE:DETAILED,
    shade_30564_2,            !- Name
    ,                         !- Transmittance Schedule Name
    autocalculate,            !- Number of Vertices
    686804.8184485246,        !- Vertex 1 Xcoordinate
    4928851.888124579,        !- Vertex 1 Ycoordinate
    15,                       !- Vertex 1 Zcoordinate
    686804.8184485246,        !- Vertex 2 Xcoordinate
    4928851.888124579,        !- Vertex 2 Ycoordinate
    0,                        !- Vertex 2 Zcoordinate
    686796.9701133006,        !- Vertex 3 Xcoordinate
    4928838.915457364,        !- Vertex 3 Ycoordinate
    0,                        !- Vertex 3 Zcoordinate
    686796.9701133006,        !- Vertex 4 Xcoordinate
    4928838.915457364,        !- Vertex 4 Ycoordinate
    15;                       !- Vertex 4 Zcoordinate

SHADING:SITE:DETAILED,
    shade_30564_3,            !- Name
    ,                         !- Transmittance Schedule Name
    autocalculate,            !- Number of Vertices
    686796.9701133006,        !- Vertex 1 Xcoordinate
    4928838.915457364,        !- Vertex 1 Ycoordinate
    15,                       !- Vertex 1 Zcoordinate
    686796.9701133006,        !- Vertex 2 Xcoordinate
    4928838.915457364,        !- Vertex 2 Ycoordinate
    0,                        !- Vertex 2 Zcoordinate
    686778.1592478425,        !- Vertex 3 Xcoordinate
    4928850.295844712,        !- Vertex 3 Ycoordinate
    0,                        !- Vertex 3 Zcoordinate
    686778.1592478425,        !- Vertex 4 Xcoordinate
    4928850.295844712,        !- Vertex 4 Ycoordinate
    15;                       !- Vertex 4 Zcoordinate

SHADING:SITE:DETAILED,
    shade_30564_4,            !- Name
    ,                         !- Transmittance Schedule Name
    autocalculate,            !- Number of Vertices
    686778.1592478425,        !- Vertex 1 Xcoordinate
    4928850.295844712,        !- Vertex 1 Ycoordinate
    15,                       !- Vertex 1 Zcoordinate
    686778.1592478425,        !- Vertex 2 Xcoordinate
    4928850.295844712,        !- Vertex 2 Ycoordinate
    0,                        !- Vertex 2 Zcoordinate
    686786.0075830665,        !- Vertex 3 Xcoordinate
    4928863.268511928,        !- Vertex 3 Ycoordinate
    0,                        !- Vertex 3 Zcoordinate
    686786.0075830665,        !- Vertex 4 Xcoordinate
    4928863.268511928,        !- Vertex 4 Ycoordinate
    15;                       !- Vertex 4 Zcoordinate

SHADING:SITE:DETAILED,
    shade_92922_1,            !- Name
    ,                         !- Transmittance Schedule Name
    autocalculate,            !- Number of Vertices
    686787.9205089905,        !- Vertex 1 Xcoordinate
    4928850.857548252,        !- Vertex 1 Ycoordinate
    15,                       !- Vertex 1 Zcoordinate
    686787.9205089905,        !- Vertex 2 Xcoordinate
    4928850.857548252,        !- Vertex 2 Ycoordinate
    0,                        !- Vertex 2 Zcoordinate
    686790.589998492,         !- Vertex 3 Xcoordinate
    4928854.928119191,        !- Vertex 3 Ycoordinate
    0,                        !- Vertex 3 Zcoordinate
    686790.589998492,         !- Vertex 4 Xcoordinate
    4928854.928119191,        !- Vertex 4 Ycoordinate
    15;                       !- Vertex 4 Zcoordinate

SHADING:SITE:DETAILED,
    shade_92922_2,            !- Name
    ,                         !- Transmittance Schedule Name
    autocalculate,            !- Number of Vertices
    686790.589998492,         !- Vertex 1 Xcoordinate
    4928854.928119191,        !- Vertex 1 Ycoordinate
    15,                       !- Vertex 1 Zcoordinate
    686790.589998492,         !- Vertex 2 Xcoordinate
    4928854.928119191,        !- Vertex 2 Ycoordinate
    0,                        !- Vertex 2 Zcoordinate
    686794.4517545722,        !- Vertex 3 Xcoordinate
    4928852.395627935,        !- Vertex 3 Ycoordinate
    0,                        !- Vertex 3 Zcoordinate
    686794.4517545722,        !- Vertex 4 Xcoordinate
    4928852.395627935,        !- Vertex 4 Ycoordinate
    15;                       !- Vertex 4 Zcoordinate

SHADING:SITE:DETAILED,
    shade_92922_3,            !- Name
    ,                         !- Transmittance Schedule Name
    autocalculate,            !- Number of Vertices
    686794.4517545722,        !- Vertex 1 Xcoordinate
    4928852.395627935,        !- Vertex 1 Ycoordinate
    15,                       !- Vertex 1 Zcoordinate
    686794.4517545722,        !- Vertex 2 Xcoordinate
    4928852.395627935,        !- Vertex 2 Ycoordinate
    0,                        !- Vertex 2 Zcoordinate
    686791.7829984921,        !- Vertex 3 Xcoordinate
    4928848.325119192,        !- Vertex 3 Ycoordinate
    0,                        !- Vertex 3 Zcoordinate
    686791.7829984921,        !- Vertex 4 Xcoordinate
    4928848.325119192,        !- Vertex 4 Ycoordinate
    15;                       !- Vertex 4 Zcoordinate

SHADING:SITE:DETAILED,
    shade_92922_4,            !- Name
    ,                         !- Transmittance Schedule Name
    autocalculate,            !- Number of Vertices
    686791.7829984921,        !- Vertex 1 Xcoordinate
    4928848.325119192,        !- Vertex 1 Ycoordinate
    15,                       !- Vertex 1 Zcoordinate
    686791.7829984921,        !- Vertex 2 Xcoordinate
    4928848.325119192,        !- Vertex 2 Ycoordinate
    0,                        !- Vertex 2 Zcoordinate
    686787.9205089905,        !- Vertex 3 Xcoordinate
    4928850.857548252,        !- Vertex 3 Ycoordinate
    0,                        !- Vertex 3 Zcoordinate
    686787.9205089905,        !- Vertex 4 Xcoordinate
    4928850.857548252,        !- Vertex 4 Ycoordinate
    15;                       !- Vertex 4 Zcoordinate

SHADING:SITE:DETAILED,
    shade_30487_1,            !- Name
    ,                         !- Transmittance Schedule Name
    autocalculate,            !- Number of Vertices
    686786.6209984922,        !- Vertex 1 Xcoordinate
    4928862.8971191915,       !- Vertex 1 Ycoordinate
    15,                       !- Vertex 1 Zcoordinate
    686786.6209984922,        !- Vertex 2 Xcoordinate
    4928862.8971191915,       !- Vertex 2 Ycoordinate
    0,                        !- Vertex 2 Zcoordinate
    686793.4199984921,        !- Vertex 3 Xcoordinate
    4928874.0961191915,       !- Vertex 3 Ycoordinate
    0,                        !- Vertex 3 Zcoordinate
    686793.4199984921,        !- Vertex 4 Xcoordinate
    4928874.0961191915,       !- Vertex 4 Ycoordinate
    15;                       !- Vertex 4 Zcoordinate

SHADING:SITE:DETAILED,
    shade_30487_2,            !- Name
    ,                         !- Transmittance Schedule Name
    autocalculate,            !- Number of Vertices
    686793.4199984921,        !- Vertex 1 Xcoordinate
    4928874.0961191915,       !- Vertex 1 Ycoordinate
    15,                       !- Vertex 1 Zcoordinate
    686793.4199984921,        !- Vertex 2 Xcoordinate
    4928874.0961191915,       !- Vertex 2 Ycoordinate
    0,                        !- Vertex 2 Zcoordinate
    686810.7433662838,        !- Vertex 3 Xcoordinate
    4928863.579187623,        !- Vertex 3 Ycoordinate
    0,                        !- Vertex 3 Zcoordinate
    686810.7433662838,        !- Vertex 4 Xcoordinate
    4928863.579187623,        !- Vertex 4 Ycoordinate
    15;                       !- Vertex 4 Zcoordinate

SHADING:SITE:DETAILED,
    shade_30487_3,            !- Name
    ,                         !- Transmittance Schedule Name
    autocalculate,            !- Number of Vertices
    686810.7433662838,        !- Vertex 1 Xcoordinate
    4928863.579187623,        !- Vertex 1 Ycoordinate
    15,                       !- Vertex 1 Zcoordinate
    686810.7433662838,        !- Vertex 2 Xcoordinate
    4928863.579187623,        !- Vertex 2 Ycoordinate
    0,                        !- Vertex 2 Zcoordinate
    686803.9443662817,        !- Vertex 3 Xcoordinate
    4928852.380187622,        !- Vertex 3 Ycoordinate
    0,                        !- Vertex 3 Zcoordinate
    686803.9443662817,        !- Vertex 4 Xcoordinate
    4928852.380187622,        !- Vertex 4 Ycoordinate
    15;                       !- Vertex 4 Zcoordinate

SHADING:SITE:DETAILED,
    shade_30487_4,            !- Name
    ,                         !- Transmittance Schedule Name
    autocalculate,            !- Number of Vertices
    686803.9443662817,        !- Vertex 1 Xcoordinate
    4928852.380187622,        !- Vertex 1 Ycoordinate
    15,                       !- Vertex 1 Zcoordinate
    686803.9443662817,        !- Vertex 2 Xcoordinate
    4928852.380187622,        !- Vertex 2 Ycoordinate
    0,                        !- Vertex 2 Zcoordinate
    686786.6209984922,        !- Vertex 3 Xcoordinate
    4928862.8971191915,       !- Vertex 3 Ycoordinate
    0,                        !- Vertex 3 Zcoordinate
    686786.6209984922,        !- Vertex 4 Xcoordinate
    4928862.8971191915,       !- Vertex 4 Ycoordinate
    15;                       !- Vertex 4 Zcoordinate

SHADING:SITE:DETAILED,
    shade_30445_1,            !- Name
    ,                         !- Transmittance Schedule Name
    autocalculate,            !- Number of Vertices
    686754.9509984923,        !- Vertex 1 Xcoordinate
    4928850.858119193,        !- Vertex 1 Ycoordinate
    15,                       !- Vertex 1 Zcoordinate
    686754.9509984923,        !- Vertex 2 Xcoordinate
    4928850.858119193,        !- Vertex 2 Ycoordinate
    0,                        !- Vertex 2 Zcoordinate
    686733.2177125567,        !- Vertex 3 Xcoordinate
    4928868.187210389,        !- Vertex 3 Ycoordinate
    0,                        !- Vertex 3 Zcoordinate
    686733.2177125567,        !- Vertex 4 Xcoordinate
    4928868.187210389,        !- Vertex 4 Ycoordinate
    15;                       !- Vertex 4 Zcoordinate

SHADING:SITE:DETAILED,
    shade_30445_2,            !- Name
    ,                         !- Transmittance Schedule Name
    autocalculate,            !- Number of Vertices
    686733.2177125567,        !- Vertex 1 Xcoordinate
    4928868.187210389,        !- Vertex 1 Ycoordinate
    15,                       !- Vertex 1 Zcoordinate
    686733.2177125567,        !- Vertex 2 Xcoordinate
    4928868.187210389,        !- Vertex 2 Ycoordinate
    0,                        !- Vertex 2 Zcoordinate
    686741.9409984924,        !- Vertex 3 Xcoordinate
    4928879.127119193,        !- Vertex 3 Ycoordinate
    0,                        !- Vertex 3 Zcoordinate
    686741.9409984924,        !- Vertex 4 Xcoordinate
    4928879.127119193,        !- Vertex 4 Ycoordinate
    15;                       !- Vertex 4 Zcoordinate

SHADING:SITE:DETAILED,
    shade_30445_3,            !- Name
    ,                         !- Transmittance Schedule Name
    autocalculate,            !- Number of Vertices
    686741.9409984924,        !- Vertex 1 Xcoordinate
    4928879.127119193,        !- Vertex 1 Ycoordinate
    15,                       !- Vertex 1 Zcoordinate
    686741.9409984924,        !- Vertex 2 Xcoordinate
    4928879.127119193,        !- Vertex 2 Ycoordinate
    0,                        !- Vertex 2 Zcoordinate
    686763.6739084977,        !- Vertex 3 Xcoordinate
    4928861.798424133,        !- Vertex 3 Ycoordinate
    0,                        !- Vertex 3 Zcoordinate
    686763.6739084977,        !- Vertex 4 Xcoordinate
    4928861.798424133,        !- Vertex 4 Ycoordinate
    15;                       !- Vertex 4 Zcoordinate

SHADING:SITE:DETAILED,
    shade_30445_4,            !- Name
    ,                         !- Transmittance Schedule Name
    autocalculate,            !- Number of Vertices
    686763.6739084977,        !- Vertex 1 Xcoordinate
    4928861.798424133,        !- Vertex 1 Ycoordinate
    15,                       !- Vertex 1 Zcoordinate
    686763.6739084977,        !- Vertex 2 Xcoordinate
    4928861.798424133,        !- Vertex 2 Ycoordinate
    0,                        !- Vertex 2 Zcoordinate
    686754.9509984923,        !- Vertex 3 Xcoordinate
    4928850.858119193,        !- Vertex 3 Ycoordinate
    0,                        !- Vertex 3 Zcoordinate
    686754.9509984923,        !- Vertex 4 Xcoordinate
    4928850.858119193,        !- Vertex 4 Ycoordinate
    15;                       !- Vertex 4 Zcoordinate

SHADING:SITE:DETAILED,
    shade_30485_1,            !- Name
    ,                         !- Transmittance Schedule Name
    autocalculate,            !- Number of Vertices
    686753.3709984925,        !- Vertex 1 Xcoordinate
    4928895.517119193,        !- Vertex 1 Ycoordinate
    15,                       !- Vertex 1 Zcoordinate
    686753.3709984925,        !- Vertex 2 Xcoordinate
    4928895.517119193,        !- Vertex 2 Ycoordinate
    0,                        !- Vertex 2 Zcoordinate
    686785.744526146,         !- Vertex 3 Xcoordinate
    4928868.232931796,        !- Vertex 3 Ycoordinate
    0,                        !- Vertex 3 Zcoordinate
    686785.744526146,         !- Vertex 4 Xcoordinate
    4928868.232931796,        !- Vertex 4 Ycoordinate
    15;                       !- Vertex 4 Zcoordinate

SHADING:SITE:DETAILED,
    shade_30485_2,            !- Name
    ,                         !- Transmittance Schedule Name
    autocalculate,            !- Number of Vertices
    686785.744526146,         !- Vertex 1 Xcoordinate
    4928868.232931796,        !- Vertex 1 Ycoordinate
    15,                       !- Vertex 1 Zcoordinate
    686785.744526146,         !- Vertex 2 Xcoordinate
    4928868.232931796,        !- Vertex 2 Ycoordinate
    0,                        !- Vertex 2 Zcoordinate
    686772.4331518107,        !- Vertex 3 Xcoordinate
    4928852.4387466395,       !- Vertex 3 Ycoordinate
    0,                        !- Vertex 3 Zcoordinate
    686772.4331518107,        !- Vertex 4 Xcoordinate
    4928852.4387466395,       !- Vertex 4 Ycoordinate
    15;                       !- Vertex 4 Zcoordinate

SHADING:SITE:DETAILED,
    shade_30485_3,            !- Name
    ,                         !- Transmittance Schedule Name
    autocalculate,            !- Number of Vertices
    686772.4331518107,        !- Vertex 1 Xcoordinate
    4928852.4387466395,       !- Vertex 1 Ycoordinate
    15,                       !- Vertex 1 Zcoordinate
    686772.4331518107,        !- Vertex 2 Xcoordinate
    4928852.4387466395,       !- Vertex 2 Ycoordinate
    0,                        !- Vertex 2 Zcoordinate
    686740.0598787263,        !- Vertex 3 Xcoordinate
    4928879.723013095,        !- Vertex 3 Ycoordinate
    0,                        !- Vertex 3 Zcoordinate
    686740.0598787263,        !- Vertex 4 Xcoordinate
    4928879.723013095,        !- Vertex 4 Ycoordinate
    15;                       !- Vertex 4 Zcoordinate

SHADING:SITE:DETAILED,
    shade_30485_4,            !- Name
    ,                         !- Transmittance Schedule Name
    autocalculate,            !- Number of Vertices
    686740.0598787263,        !- Vertex 1 Xcoordinate
    4928879.723013095,        !- Vertex 1 Ycoordinate
    15,                       !- Vertex 1 Zcoordinate
    686740.0598787263,        !- Vertex 2 Xcoordinate
    4928879.723013095,        !- Vertex 2 Ycoordinate
    0,                        !- Vertex 2 Zcoordinate
    686753.3709984925,        !- Vertex 3 Xcoordinate
    4928895.517119193,        !- Vertex 3 Ycoordinate
    0,                        !- Vertex 3 Zcoordinate
    686753.3709984925,        !- Vertex 4 Xcoordinate
    4928895.517119193,        !- Vertex 4 Ycoordinate
    15;                       !- Vertex 4 Zcoordinate

SHADING:SITE:DETAILED,
    shade_30319_1,            !- Name
    ,                         !- Transmittance Schedule Name
    autocalculate,            !- Number of Vertices
    686749.5909984924,        !- Vertex 1 Xcoordinate
    4928889.827119192,        !- Vertex 1 Ycoordinate
    15,                       !- Vertex 1 Zcoordinate
    686749.5909984924,        !- Vertex 2 Xcoordinate
    4928889.827119192,        !- Vertex 2 Ycoordinate
    0,                        !- Vertex 2 Zcoordinate
    686768.6828691739,        !- Vertex 3 Xcoordinate
    4928873.46468354,         !- Vertex 3 Ycoordinate
    0,                        !- Vertex 3 Zcoordinate
    686768.6828691739,        !- Vertex 4 Xcoordinate
    4928873.46468354,         !- Vertex 4 Ycoordinate
    15;                       !- Vertex 4 Zcoordinate

SHADING:SITE:DETAILED,
    shade_30319_2,            !- Name
    ,                         !- Transmittance Schedule Name
    autocalculate,            !- Number of Vertices
    686768.6828691739,        !- Vertex 1 Xcoordinate
    4928873.46468354,         !- Vertex 1 Ycoordinate
    15,                       !- Vertex 1 Zcoordinate
    686768.6828691739,        !- Vertex 2 Xcoordinate
    4928873.46468354,         !- Vertex 2 Ycoordinate
    0,                        !- Vertex 2 Zcoordinate
    686760.0716308837,        !- Vertex 3 Xcoordinate
    4928863.41697881,         !- Vertex 3 Ycoordinate
    0,                        !- Vertex 3 Zcoordinate
    686760.0716308837,        !- Vertex 4 Xcoordinate
    4928863.41697881,         !- Vertex 4 Ycoordinate
    15;                       !- Vertex 4 Zcoordinate

SHADING:SITE:DETAILED,
    shade_30319_3,            !- Name
    ,                         !- Transmittance Schedule Name
    autocalculate,            !- Number of Vertices
    686760.0716308837,        !- Vertex 1 Xcoordinate
    4928863.41697881,         !- Vertex 1 Ycoordinate
    15,                       !- Vertex 1 Zcoordinate
    686760.0716308837,        !- Vertex 2 Xcoordinate
    4928863.41697881,         !- Vertex 2 Ycoordinate
    0,                        !- Vertex 2 Zcoordinate
    686740.9798596555,        !- Vertex 3 Xcoordinate
    4928879.779301932,        !- Vertex 3 Ycoordinate
    0,                        !- Vertex 3 Zcoordinate
    686740.9798596555,        !- Vertex 4 Xcoordinate
    4928879.779301932,        !- Vertex 4 Ycoordinate
    15;                       !- Vertex 4 Zcoordinate

SHADING:SITE:DETAILED,
    shade_30319_4,            !- Name
    ,                         !- Transmittance Schedule Name
    autocalculate,            !- Number of Vertices
    686740.9798596555,        !- Vertex 1 Xcoordinate
    4928879.779301932,        !- Vertex 1 Ycoordinate
    15,                       !- Vertex 1 Zcoordinate
    686740.9798596555,        !- Vertex 2 Xcoordinate
    4928879.779301932,        !- Vertex 2 Ycoordinate
    0,                        !- Vertex 2 Zcoordinate
    686749.5909984924,        !- Vertex 3 Xcoordinate
    4928889.827119192,        !- Vertex 3 Ycoordinate
    0,                        !- Vertex 3 Zcoordinate
    686749.5909984924,        !- Vertex 4 Xcoordinate
    4928889.827119192,        !- Vertex 4 Ycoordinate
    15;                       !- Vertex 4 Zcoordinate

OTHEREQUIPMENT,
    EU_Step8_InternalGain_2b2ff06f3e7f31dc_F0_whole_f000,    !- Name
    Electricity,              !- Fuel Type
    2b2ff06f3e7f31dc_F0_whole,    !- Zone or ZoneList or Space or SpaceList Name
    EU_Step8_GainSchedule_2b2ff06f3e7f31dc_F0_whole_f000,    !- Schedule Name
    Watts/Area,               !- Design Level Calculation Method
    ,                         !- Design Level
    1,                        !- Power per Zone Floor Area
    ,                         !- Power per Person
    0,                        !- Fraction Latent
    0,                        !- Fraction Radiant
    0,                        !- Fraction Lost
    0,                        !- Carbon Dioxide Generation Rate
    EU_Step8_InternalGains;    !- EndUse Subcategory

OTHEREQUIPMENT,
    EU_Step8_InternalGain_2b2ff06f3e7f31dc_F1_whole_f000,    !- Name
    Electricity,              !- Fuel Type
    2b2ff06f3e7f31dc_F1_whole,    !- Zone or ZoneList or Space or SpaceList Name
    EU_Step8_GainSchedule_2b2ff06f3e7f31dc_F1_whole_f000,    !- Schedule Name
    Watts/Area,               !- Design Level Calculation Method
    ,                         !- Design Level
    1,                        !- Power per Zone Floor Area
    ,                         !- Power per Person
    0,                        !- Fraction Latent
    0,                        !- Fraction Radiant
    0,                        !- Fraction Lost
    0,                        !- Carbon Dioxide Generation Rate
    EU_Step8_InternalGains;    !- EndUse Subcategory

OTHEREQUIPMENT,
    EU_Step8_InternalGain_2b2ff06f3e7f31dc_F2_whole_f000,    !- Name
    Electricity,              !- Fuel Type
    2b2ff06f3e7f31dc_F2_whole,    !- Zone or ZoneList or Space or SpaceList Name
    EU_Step8_GainSchedule_2b2ff06f3e7f31dc_F2_whole_f000,    !- Schedule Name
    Watts/Area,               !- Design Level Calculation Method
    ,                         !- Design Level
    1,                        !- Power per Zone Floor Area
    ,                         !- Power per Person
    0,                        !- Fraction Latent
    0,                        !- Fraction Radiant
    0,                        !- Fraction Lost
    0,                        !- Carbon Dioxide Generation Rate
    EU_Step8_InternalGains;    !- EndUse Subcategory

OTHEREQUIPMENT,
    EU_Step8_InternalGain_2b2ff06f3e7f31dc_F3_whole_f000,    !- Name
    Electricity,              !- Fuel Type
    2b2ff06f3e7f31dc_F3_whole,    !- Zone or ZoneList or Space or SpaceList Name
    EU_Step8_GainSchedule_2b2ff06f3e7f31dc_F3_whole_f000,    !- Schedule Name
    Watts/Area,               !- Design Level Calculation Method
    ,                         !- Design Level
    1,                        !- Power per Zone Floor Area
    ,                         !- Power per Person
    0,                        !- Fraction Latent
    0,                        !- Fraction Radiant
    0,                        !- Fraction Lost
    0,                        !- Carbon Dioxide Generation Rate
    EU_Step8_InternalGains;    !- EndUse Subcategory

OTHEREQUIPMENT,
    EU_Step8_InternalGain_2b2ff06f3e7f31dc_F4_whole_f000,    !- Name
    Electricity,              !- Fuel Type
    2b2ff06f3e7f31dc_F4_whole,    !- Zone or ZoneList or Space or SpaceList Name
    EU_Step8_GainSchedule_2b2ff06f3e7f31dc_F4_whole_f000,    !- Schedule Name
    Watts/Area,               !- Design Level Calculation Method
    ,                         !- Design Level
    1,                        !- Power per Zone Floor Area
    ,                         !- Power per Person
    0,                        !- Fraction Latent
    0,                        !- Fraction Radiant
    0,                        !- Fraction Lost
    0,                        !- Carbon Dioxide Generation Rate
    EU_Step8_InternalGains;    !- EndUse Subcategory

ZONEVENTILATION:DESIGNFLOWRATE,
    EU_ConstantAir_2b2ff06f3e7f31dc_F0_whole,    !- Name
    2b2ff06f3e7f31dc_F0_whole,    !- Zone or ZoneList or Space or SpaceList Name
    EU_AlwaysOn,              !- Schedule Name
    AirChanges/Hour,          !- Design Flow Rate Calculation Method
    ,                         !- Design Flow Rate
    ,                         !- Flow Rate per Floor Area
    ,                         !- Flow Rate per Person
    0.7312898234710613,       !- Air Changes per Hour
    Natural,                  !- Ventilation Type
    0,                        !- Fan Pressure Rise
    1,                        !- Fan Total Efficiency
    1,                        !- Constant Term Coefficient
    0,                        !- Temperature Term Coefficient
    0,                        !- Velocity Term Coefficient
    0,                        !- Velocity Squared Term Coefficient
    -100,                     !- Minimum Indoor Temperature
    ,                         !- Minimum Indoor Temperature Schedule Name
    100,                      !- Maximum Indoor Temperature
    ,                         !- Maximum Indoor Temperature Schedule Name
    -100,                     !- Delta Temperature
    ,                         !- Delta Temperature Schedule Name
    -100,                     !- Minimum Outdoor Temperature
    ,                         !- Minimum Outdoor Temperature Schedule Name
    100,                      !- Maximum Outdoor Temperature
    ,                         !- Maximum Outdoor Temperature Schedule Name
    40;                       !- Maximum Wind Speed

ZONEVENTILATION:DESIGNFLOWRATE,
    EU_ConstantAir_2b2ff06f3e7f31dc_F1_whole,    !- Name
    2b2ff06f3e7f31dc_F1_whole,    !- Zone or ZoneList or Space or SpaceList Name
    EU_AlwaysOn,              !- Schedule Name
    AirChanges/Hour,          !- Design Flow Rate Calculation Method
    ,                         !- Design Flow Rate
    ,                         !- Flow Rate per Floor Area
    ,                         !- Flow Rate per Person
    0.7312898234710613,       !- Air Changes per Hour
    Natural,                  !- Ventilation Type
    0,                        !- Fan Pressure Rise
    1,                        !- Fan Total Efficiency
    1,                        !- Constant Term Coefficient
    0,                        !- Temperature Term Coefficient
    0,                        !- Velocity Term Coefficient
    0,                        !- Velocity Squared Term Coefficient
    -100,                     !- Minimum Indoor Temperature
    ,                         !- Minimum Indoor Temperature Schedule Name
    100,                      !- Maximum Indoor Temperature
    ,                         !- Maximum Indoor Temperature Schedule Name
    -100,                     !- Delta Temperature
    ,                         !- Delta Temperature Schedule Name
    -100,                     !- Minimum Outdoor Temperature
    ,                         !- Minimum Outdoor Temperature Schedule Name
    100,                      !- Maximum Outdoor Temperature
    ,                         !- Maximum Outdoor Temperature Schedule Name
    40;                       !- Maximum Wind Speed

ZONEVENTILATION:DESIGNFLOWRATE,
    EU_ConstantAir_2b2ff06f3e7f31dc_F2_whole,    !- Name
    2b2ff06f3e7f31dc_F2_whole,    !- Zone or ZoneList or Space or SpaceList Name
    EU_AlwaysOn,              !- Schedule Name
    AirChanges/Hour,          !- Design Flow Rate Calculation Method
    ,                         !- Design Flow Rate
    ,                         !- Flow Rate per Floor Area
    ,                         !- Flow Rate per Person
    0.7312898234710613,       !- Air Changes per Hour
    Natural,                  !- Ventilation Type
    0,                        !- Fan Pressure Rise
    1,                        !- Fan Total Efficiency
    1,                        !- Constant Term Coefficient
    0,                        !- Temperature Term Coefficient
    0,                        !- Velocity Term Coefficient
    0,                        !- Velocity Squared Term Coefficient
    -100,                     !- Minimum Indoor Temperature
    ,                         !- Minimum Indoor Temperature Schedule Name
    100,                      !- Maximum Indoor Temperature
    ,                         !- Maximum Indoor Temperature Schedule Name
    -100,                     !- Delta Temperature
    ,                         !- Delta Temperature Schedule Name
    -100,                     !- Minimum Outdoor Temperature
    ,                         !- Minimum Outdoor Temperature Schedule Name
    100,                      !- Maximum Outdoor Temperature
    ,                         !- Maximum Outdoor Temperature Schedule Name
    40;                       !- Maximum Wind Speed

ZONEVENTILATION:DESIGNFLOWRATE,
    EU_ConstantAir_2b2ff06f3e7f31dc_F3_whole,    !- Name
    2b2ff06f3e7f31dc_F3_whole,    !- Zone or ZoneList or Space or SpaceList Name
    EU_AlwaysOn,              !- Schedule Name
    AirChanges/Hour,          !- Design Flow Rate Calculation Method
    ,                         !- Design Flow Rate
    ,                         !- Flow Rate per Floor Area
    ,                         !- Flow Rate per Person
    0.7312898234710613,       !- Air Changes per Hour
    Natural,                  !- Ventilation Type
    0,                        !- Fan Pressure Rise
    1,                        !- Fan Total Efficiency
    1,                        !- Constant Term Coefficient
    0,                        !- Temperature Term Coefficient
    0,                        !- Velocity Term Coefficient
    0,                        !- Velocity Squared Term Coefficient
    -100,                     !- Minimum Indoor Temperature
    ,                         !- Minimum Indoor Temperature Schedule Name
    100,                      !- Maximum Indoor Temperature
    ,                         !- Maximum Indoor Temperature Schedule Name
    -100,                     !- Delta Temperature
    ,                         !- Delta Temperature Schedule Name
    -100,                     !- Minimum Outdoor Temperature
    ,                         !- Minimum Outdoor Temperature Schedule Name
    100,                      !- Maximum Outdoor Temperature
    ,                         !- Maximum Outdoor Temperature Schedule Name
    40;                       !- Maximum Wind Speed

ZONEVENTILATION:DESIGNFLOWRATE,
    EU_ConstantAir_2b2ff06f3e7f31dc_F4_whole,    !- Name
    2b2ff06f3e7f31dc_F4_whole,    !- Zone or ZoneList or Space or SpaceList Name
    EU_AlwaysOn,              !- Schedule Name
    AirChanges/Hour,          !- Design Flow Rate Calculation Method
    ,                         !- Design Flow Rate
    ,                         !- Flow Rate per Floor Area
    ,                         !- Flow Rate per Person
    0.7312898234710613,       !- Air Changes per Hour
    Natural,                  !- Ventilation Type
    0,                        !- Fan Pressure Rise
    1,                        !- Fan Total Efficiency
    1,                        !- Constant Term Coefficient
    0,                        !- Temperature Term Coefficient
    0,                        !- Velocity Term Coefficient
    0,                        !- Velocity Squared Term Coefficient
    -100,                     !- Minimum Indoor Temperature
    ,                         !- Minimum Indoor Temperature Schedule Name
    100,                      !- Maximum Indoor Temperature
    ,                         !- Maximum Indoor Temperature Schedule Name
    -100,                     !- Delta Temperature
    ,                         !- Delta Temperature Schedule Name
    -100,                     !- Minimum Outdoor Temperature
    ,                         !- Minimum Outdoor Temperature Schedule Name
    100,                      !- Maximum Outdoor Temperature
    ,                         !- Maximum Outdoor Temperature Schedule Name
    40;                       !- Maximum Wind Speed

HVACTEMPLATE:THERMOSTAT,
    EU_HeatOnly_2b2ff06f3e7f31dc_F0_whole,    !- Name
    ,                         !- Heating Setpoint Schedule Name
    20,                       !- Constant Heating Setpoint
    ,                         !- Cooling Setpoint Schedule Name
    50;                       !- Constant Cooling Setpoint

HVACTEMPLATE:THERMOSTAT,
    EU_HeatOnly_2b2ff06f3e7f31dc_F1_whole,    !- Name
    ,                         !- Heating Setpoint Schedule Name
    20,                       !- Constant Heating Setpoint
    ,                         !- Cooling Setpoint Schedule Name
    50;                       !- Constant Cooling Setpoint

HVACTEMPLATE:THERMOSTAT,
    EU_HeatOnly_2b2ff06f3e7f31dc_F2_whole,    !- Name
    ,                         !- Heating Setpoint Schedule Name
    20,                       !- Constant Heating Setpoint
    ,                         !- Cooling Setpoint Schedule Name
    50;                       !- Constant Cooling Setpoint

HVACTEMPLATE:THERMOSTAT,
    EU_HeatOnly_2b2ff06f3e7f31dc_F3_whole,    !- Name
    ,                         !- Heating Setpoint Schedule Name
    20,                       !- Constant Heating Setpoint
    ,                         !- Cooling Setpoint Schedule Name
    50;                       !- Constant Cooling Setpoint

HVACTEMPLATE:THERMOSTAT,
    EU_HeatOnly_2b2ff06f3e7f31dc_F4_whole,    !- Name
    ,                         !- Heating Setpoint Schedule Name
    20,                       !- Constant Heating Setpoint
    ,                         !- Cooling Setpoint Schedule Name
    50;                       !- Constant Cooling Setpoint

HVACTEMPLATE:ZONE:IDEALLOADSAIRSYSTEM,
    2b2ff06f3e7f31dc_F0_whole,    !- Zone Name
    EU_HeatOnly_2b2ff06f3e7f31dc_F0_whole,    !- Template Thermostat Name
    EU_AlwaysOn,              !- System Availability Schedule Name
    50,                       !- Maximum Heating Supply Air Temperature
    13,                       !- Minimum Cooling Supply Air Temperature
    0.0156,                   !- Maximum Heating Supply Air Humidity Ratio
    0.0077,                   !- Minimum Cooling Supply Air Humidity Ratio
    NoLimit,                  !- Heating Limit
    ,                         !- Maximum Heating Air Flow Rate
    ,                         !- Maximum Sensible Heating Capacity
    NoLimit,                  !- Cooling Limit
    ,                         !- Maximum Cooling Air Flow Rate
    ,                         !- Maximum Total Cooling Capacity
    EU_AlwaysOn,              !- Heating Availability Schedule Name
    EU_CoolingOff,            !- Cooling Availability Schedule Name
    ConstantSensibleHeatRatio,    !- Dehumidification Control Type
    0.7,                      !- Cooling Sensible Heat Ratio
    60,                       !- Dehumidification Setpoint
    None,                     !- Humidification Control Type
    30,                       !- Humidification Setpoint
    None,                     !- Outdoor Air Method
    0.00944,                  !- Outdoor Air Flow Rate per Person
    0.0,                      !- Outdoor Air Flow Rate per Zone Floor Area
    0,                        !- Outdoor Air Flow Rate per Zone
    ,                         !- Design Specification Outdoor Air Object Name
    None,                     !- Demand Controlled Ventilation Type
    NoEconomizer,             !- Outdoor Air Economizer Type
    None,                     !- Heat Recovery Type
    0.70,                     !- Sensible Heat Recovery Effectiveness
    0.65;                     !- Latent Heat Recovery Effectiveness

HVACTEMPLATE:ZONE:IDEALLOADSAIRSYSTEM,
    2b2ff06f3e7f31dc_F1_whole,    !- Zone Name
    EU_HeatOnly_2b2ff06f3e7f31dc_F1_whole,    !- Template Thermostat Name
    EU_AlwaysOn,              !- System Availability Schedule Name
    50,                       !- Maximum Heating Supply Air Temperature
    13,                       !- Minimum Cooling Supply Air Temperature
    0.0156,                   !- Maximum Heating Supply Air Humidity Ratio
    0.0077,                   !- Minimum Cooling Supply Air Humidity Ratio
    NoLimit,                  !- Heating Limit
    ,                         !- Maximum Heating Air Flow Rate
    ,                         !- Maximum Sensible Heating Capacity
    NoLimit,                  !- Cooling Limit
    ,                         !- Maximum Cooling Air Flow Rate
    ,                         !- Maximum Total Cooling Capacity
    EU_AlwaysOn,              !- Heating Availability Schedule Name
    EU_CoolingOff,            !- Cooling Availability Schedule Name
    ConstantSensibleHeatRatio,    !- Dehumidification Control Type
    0.7,                      !- Cooling Sensible Heat Ratio
    60,                       !- Dehumidification Setpoint
    None,                     !- Humidification Control Type
    30,                       !- Humidification Setpoint
    None,                     !- Outdoor Air Method
    0.00944,                  !- Outdoor Air Flow Rate per Person
    0.0,                      !- Outdoor Air Flow Rate per Zone Floor Area
    0,                        !- Outdoor Air Flow Rate per Zone
    ,                         !- Design Specification Outdoor Air Object Name
    None,                     !- Demand Controlled Ventilation Type
    NoEconomizer,             !- Outdoor Air Economizer Type
    None,                     !- Heat Recovery Type
    0.70,                     !- Sensible Heat Recovery Effectiveness
    0.65;                     !- Latent Heat Recovery Effectiveness

HVACTEMPLATE:ZONE:IDEALLOADSAIRSYSTEM,
    2b2ff06f3e7f31dc_F2_whole,    !- Zone Name
    EU_HeatOnly_2b2ff06f3e7f31dc_F2_whole,    !- Template Thermostat Name
    EU_AlwaysOn,              !- System Availability Schedule Name
    50,                       !- Maximum Heating Supply Air Temperature
    13,                       !- Minimum Cooling Supply Air Temperature
    0.0156,                   !- Maximum Heating Supply Air Humidity Ratio
    0.0077,                   !- Minimum Cooling Supply Air Humidity Ratio
    NoLimit,                  !- Heating Limit
    ,                         !- Maximum Heating Air Flow Rate
    ,                         !- Maximum Sensible Heating Capacity
    NoLimit,                  !- Cooling Limit
    ,                         !- Maximum Cooling Air Flow Rate
    ,                         !- Maximum Total Cooling Capacity
    EU_AlwaysOn,              !- Heating Availability Schedule Name
    EU_CoolingOff,            !- Cooling Availability Schedule Name
    ConstantSensibleHeatRatio,    !- Dehumidification Control Type
    0.7,                      !- Cooling Sensible Heat Ratio
    60,                       !- Dehumidification Setpoint
    None,                     !- Humidification Control Type
    30,                       !- Humidification Setpoint
    None,                     !- Outdoor Air Method
    0.00944,                  !- Outdoor Air Flow Rate per Person
    0.0,                      !- Outdoor Air Flow Rate per Zone Floor Area
    0,                        !- Outdoor Air Flow Rate per Zone
    ,                         !- Design Specification Outdoor Air Object Name
    None,                     !- Demand Controlled Ventilation Type
    NoEconomizer,             !- Outdoor Air Economizer Type
    None,                     !- Heat Recovery Type
    0.70,                     !- Sensible Heat Recovery Effectiveness
    0.65;                     !- Latent Heat Recovery Effectiveness

HVACTEMPLATE:ZONE:IDEALLOADSAIRSYSTEM,
    2b2ff06f3e7f31dc_F3_whole,    !- Zone Name
    EU_HeatOnly_2b2ff06f3e7f31dc_F3_whole,    !- Template Thermostat Name
    EU_AlwaysOn,              !- System Availability Schedule Name
    50,                       !- Maximum Heating Supply Air Temperature
    13,                       !- Minimum Cooling Supply Air Temperature
    0.0156,                   !- Maximum Heating Supply Air Humidity Ratio
    0.0077,                   !- Minimum Cooling Supply Air Humidity Ratio
    NoLimit,                  !- Heating Limit
    ,                         !- Maximum Heating Air Flow Rate
    ,                         !- Maximum Sensible Heating Capacity
    NoLimit,                  !- Cooling Limit
    ,                         !- Maximum Cooling Air Flow Rate
    ,                         !- Maximum Total Cooling Capacity
    EU_AlwaysOn,              !- Heating Availability Schedule Name
    EU_CoolingOff,            !- Cooling Availability Schedule Name
    ConstantSensibleHeatRatio,    !- Dehumidification Control Type
    0.7,                      !- Cooling Sensible Heat Ratio
    60,                       !- Dehumidification Setpoint
    None,                     !- Humidification Control Type
    30,                       !- Humidification Setpoint
    None,                     !- Outdoor Air Method
    0.00944,                  !- Outdoor Air Flow Rate per Person
    0.0,                      !- Outdoor Air Flow Rate per Zone Floor Area
    0,                        !- Outdoor Air Flow Rate per Zone
    ,                         !- Design Specification Outdoor Air Object Name
    None,                     !- Demand Controlled Ventilation Type
    NoEconomizer,             !- Outdoor Air Economizer Type
    None,                     !- Heat Recovery Type
    0.70,                     !- Sensible Heat Recovery Effectiveness
    0.65;                     !- Latent Heat Recovery Effectiveness

HVACTEMPLATE:ZONE:IDEALLOADSAIRSYSTEM,
    2b2ff06f3e7f31dc_F4_whole,    !- Zone Name
    EU_HeatOnly_2b2ff06f3e7f31dc_F4_whole,    !- Template Thermostat Name
    EU_AlwaysOn,              !- System Availability Schedule Name
    50,                       !- Maximum Heating Supply Air Temperature
    13,                       !- Minimum Cooling Supply Air Temperature
    0.0156,                   !- Maximum Heating Supply Air Humidity Ratio
    0.0077,                   !- Minimum Cooling Supply Air Humidity Ratio
    NoLimit,                  !- Heating Limit
    ,                         !- Maximum Heating Air Flow Rate
    ,                         !- Maximum Sensible Heating Capacity
    NoLimit,                  !- Cooling Limit
    ,                         !- Maximum Cooling Air Flow Rate
    ,                         !- Maximum Total Cooling Capacity
    EU_AlwaysOn,              !- Heating Availability Schedule Name
    EU_CoolingOff,            !- Cooling Availability Schedule Name
    ConstantSensibleHeatRatio,    !- Dehumidification Control Type
    0.7,                      !- Cooling Sensible Heat Ratio
    60,                       !- Dehumidification Setpoint
    None,                     !- Humidification Control Type
    30,                       !- Humidification Setpoint
    None,                     !- Outdoor Air Method
    0.00944,                  !- Outdoor Air Flow Rate per Person
    0.0,                      !- Outdoor Air Flow Rate per Zone Floor Area
    0,                        !- Outdoor Air Flow Rate per Zone
    ,                         !- Design Specification Outdoor Air Object Name
    None,                     !- Demand Controlled Ventilation Type
    NoEconomizer,             !- Outdoor Air Economizer Type
    None,                     !- Heat Recovery Type
    0.70,                     !- Sensible Heat Recovery Effectiveness
    0.65;                     !- Latent Heat Recovery Effectiveness

SIZING:ZONE,
    2b2ff06f3e7f31dc_F0_whole,    !- Zone or ZoneList Name
    SupplyAirTemperature,     !- Zone Cooling Design Supply Air Temperature Input Method
    13,                       !- Zone Cooling Design Supply Air Temperature
    ,                         !- Zone Cooling Design Supply Air Temperature Difference
    SupplyAirTemperature,     !- Zone Heating Design Supply Air Temperature Input Method
    50,                       !- Zone Heating Design Supply Air Temperature
    ,                         !- Zone Heating Design Supply Air Temperature Difference
    0.008,                    !- Zone Cooling Design Supply Air Humidity Ratio
    0.008,                    !- Zone Heating Design Supply Air Humidity Ratio
    ,                         !- Design Specification Outdoor Air Object Name
    ,                         !- Zone Heating Sizing Factor
    ,                         !- Zone Cooling Sizing Factor
    DesignDay,                !- Cooling Design Air Flow Method
    0,                        !- Cooling Design Air Flow Rate
    0.000762,                 !- Cooling Minimum Air Flow per Zone Floor Area
    0,                        !- Cooling Minimum Air Flow
    0.2,                      !- Cooling Minimum Air Flow Fraction
    DesignDay,                !- Heating Design Air Flow Method
    0,                        !- Heating Design Air Flow Rate
    0.002032,                 !- Heating Maximum Air Flow per Zone Floor Area
    0.1415762,                !- Heating Maximum Air Flow
    0.3,                      !- Heating Maximum Air Flow Fraction
    ,                         !- Design Specification Zone Air Distribution Object Name
    No,                       !- Account for Dedicated Outdoor Air System
    NeutralSupplyAir,         !- Dedicated Outdoor Air System Control Strategy
    autosize,                 !- Dedicated Outdoor Air Low Setpoint Temperature for Design
    autosize,                 !- Dedicated Outdoor Air High Setpoint Temperature for Design
    Sensible Load Only No Latent Load,    !- Zone Load Sizing Method
    HumidityRatioDifference,    !- Zone Latent Cooling Design Supply Air Humidity Ratio Input Method
    ,                         !- Zone Dehumidification Design Supply Air Humidity Ratio
    0.005,                    !- Zone Cooling Design Supply Air Humidity Ratio Difference
    HumidityRatioDifference,    !- Zone Latent Heating Design Supply Air Humidity Ratio Input Method
    ,                         !- Zone Humidification Design Supply Air Humidity Ratio
    0.005;                    !- Zone Humidification Design Supply Air Humidity Ratio Difference

SIZING:ZONE,
    2b2ff06f3e7f31dc_F1_whole,    !- Zone or ZoneList Name
    SupplyAirTemperature,     !- Zone Cooling Design Supply Air Temperature Input Method
    13,                       !- Zone Cooling Design Supply Air Temperature
    ,                         !- Zone Cooling Design Supply Air Temperature Difference
    SupplyAirTemperature,     !- Zone Heating Design Supply Air Temperature Input Method
    50,                       !- Zone Heating Design Supply Air Temperature
    ,                         !- Zone Heating Design Supply Air Temperature Difference
    0.008,                    !- Zone Cooling Design Supply Air Humidity Ratio
    0.008,                    !- Zone Heating Design Supply Air Humidity Ratio
    ,                         !- Design Specification Outdoor Air Object Name
    ,                         !- Zone Heating Sizing Factor
    ,                         !- Zone Cooling Sizing Factor
    DesignDay,                !- Cooling Design Air Flow Method
    0,                        !- Cooling Design Air Flow Rate
    0.000762,                 !- Cooling Minimum Air Flow per Zone Floor Area
    0,                        !- Cooling Minimum Air Flow
    0.2,                      !- Cooling Minimum Air Flow Fraction
    DesignDay,                !- Heating Design Air Flow Method
    0,                        !- Heating Design Air Flow Rate
    0.002032,                 !- Heating Maximum Air Flow per Zone Floor Area
    0.1415762,                !- Heating Maximum Air Flow
    0.3,                      !- Heating Maximum Air Flow Fraction
    ,                         !- Design Specification Zone Air Distribution Object Name
    No,                       !- Account for Dedicated Outdoor Air System
    NeutralSupplyAir,         !- Dedicated Outdoor Air System Control Strategy
    autosize,                 !- Dedicated Outdoor Air Low Setpoint Temperature for Design
    autosize,                 !- Dedicated Outdoor Air High Setpoint Temperature for Design
    Sensible Load Only No Latent Load,    !- Zone Load Sizing Method
    HumidityRatioDifference,    !- Zone Latent Cooling Design Supply Air Humidity Ratio Input Method
    ,                         !- Zone Dehumidification Design Supply Air Humidity Ratio
    0.005,                    !- Zone Cooling Design Supply Air Humidity Ratio Difference
    HumidityRatioDifference,    !- Zone Latent Heating Design Supply Air Humidity Ratio Input Method
    ,                         !- Zone Humidification Design Supply Air Humidity Ratio
    0.005;                    !- Zone Humidification Design Supply Air Humidity Ratio Difference

SIZING:ZONE,
    2b2ff06f3e7f31dc_F2_whole,    !- Zone or ZoneList Name
    SupplyAirTemperature,     !- Zone Cooling Design Supply Air Temperature Input Method
    13,                       !- Zone Cooling Design Supply Air Temperature
    ,                         !- Zone Cooling Design Supply Air Temperature Difference
    SupplyAirTemperature,     !- Zone Heating Design Supply Air Temperature Input Method
    50,                       !- Zone Heating Design Supply Air Temperature
    ,                         !- Zone Heating Design Supply Air Temperature Difference
    0.008,                    !- Zone Cooling Design Supply Air Humidity Ratio
    0.008,                    !- Zone Heating Design Supply Air Humidity Ratio
    ,                         !- Design Specification Outdoor Air Object Name
    ,                         !- Zone Heating Sizing Factor
    ,                         !- Zone Cooling Sizing Factor
    DesignDay,                !- Cooling Design Air Flow Method
    0,                        !- Cooling Design Air Flow Rate
    0.000762,                 !- Cooling Minimum Air Flow per Zone Floor Area
    0,                        !- Cooling Minimum Air Flow
    0.2,                      !- Cooling Minimum Air Flow Fraction
    DesignDay,                !- Heating Design Air Flow Method
    0,                        !- Heating Design Air Flow Rate
    0.002032,                 !- Heating Maximum Air Flow per Zone Floor Area
    0.1415762,                !- Heating Maximum Air Flow
    0.3,                      !- Heating Maximum Air Flow Fraction
    ,                         !- Design Specification Zone Air Distribution Object Name
    No,                       !- Account for Dedicated Outdoor Air System
    NeutralSupplyAir,         !- Dedicated Outdoor Air System Control Strategy
    autosize,                 !- Dedicated Outdoor Air Low Setpoint Temperature for Design
    autosize,                 !- Dedicated Outdoor Air High Setpoint Temperature for Design
    Sensible Load Only No Latent Load,    !- Zone Load Sizing Method
    HumidityRatioDifference,    !- Zone Latent Cooling Design Supply Air Humidity Ratio Input Method
    ,                         !- Zone Dehumidification Design Supply Air Humidity Ratio
    0.005,                    !- Zone Cooling Design Supply Air Humidity Ratio Difference
    HumidityRatioDifference,    !- Zone Latent Heating Design Supply Air Humidity Ratio Input Method
    ,                         !- Zone Humidification Design Supply Air Humidity Ratio
    0.005;                    !- Zone Humidification Design Supply Air Humidity Ratio Difference

SIZING:ZONE,
    2b2ff06f3e7f31dc_F3_whole,    !- Zone or ZoneList Name
    SupplyAirTemperature,     !- Zone Cooling Design Supply Air Temperature Input Method
    13,                       !- Zone Cooling Design Supply Air Temperature
    ,                         !- Zone Cooling Design Supply Air Temperature Difference
    SupplyAirTemperature,     !- Zone Heating Design Supply Air Temperature Input Method
    50,                       !- Zone Heating Design Supply Air Temperature
    ,                         !- Zone Heating Design Supply Air Temperature Difference
    0.008,                    !- Zone Cooling Design Supply Air Humidity Ratio
    0.008,                    !- Zone Heating Design Supply Air Humidity Ratio
    ,                         !- Design Specification Outdoor Air Object Name
    ,                         !- Zone Heating Sizing Factor
    ,                         !- Zone Cooling Sizing Factor
    DesignDay,                !- Cooling Design Air Flow Method
    0,                        !- Cooling Design Air Flow Rate
    0.000762,                 !- Cooling Minimum Air Flow per Zone Floor Area
    0,                        !- Cooling Minimum Air Flow
    0.2,                      !- Cooling Minimum Air Flow Fraction
    DesignDay,                !- Heating Design Air Flow Method
    0,                        !- Heating Design Air Flow Rate
    0.002032,                 !- Heating Maximum Air Flow per Zone Floor Area
    0.1415762,                !- Heating Maximum Air Flow
    0.3,                      !- Heating Maximum Air Flow Fraction
    ,                         !- Design Specification Zone Air Distribution Object Name
    No,                       !- Account for Dedicated Outdoor Air System
    NeutralSupplyAir,         !- Dedicated Outdoor Air System Control Strategy
    autosize,                 !- Dedicated Outdoor Air Low Setpoint Temperature for Design
    autosize,                 !- Dedicated Outdoor Air High Setpoint Temperature for Design
    Sensible Load Only No Latent Load,    !- Zone Load Sizing Method
    HumidityRatioDifference,    !- Zone Latent Cooling Design Supply Air Humidity Ratio Input Method
    ,                         !- Zone Dehumidification Design Supply Air Humidity Ratio
    0.005,                    !- Zone Cooling Design Supply Air Humidity Ratio Difference
    HumidityRatioDifference,    !- Zone Latent Heating Design Supply Air Humidity Ratio Input Method
    ,                         !- Zone Humidification Design Supply Air Humidity Ratio
    0.005;                    !- Zone Humidification Design Supply Air Humidity Ratio Difference

SIZING:ZONE,
    2b2ff06f3e7f31dc_F4_whole,    !- Zone or ZoneList Name
    SupplyAirTemperature,     !- Zone Cooling Design Supply Air Temperature Input Method
    13,                       !- Zone Cooling Design Supply Air Temperature
    ,                         !- Zone Cooling Design Supply Air Temperature Difference
    SupplyAirTemperature,     !- Zone Heating Design Supply Air Temperature Input Method
    50,                       !- Zone Heating Design Supply Air Temperature
    ,                         !- Zone Heating Design Supply Air Temperature Difference
    0.008,                    !- Zone Cooling Design Supply Air Humidity Ratio
    0.008,                    !- Zone Heating Design Supply Air Humidity Ratio
    ,                         !- Design Specification Outdoor Air Object Name
    ,                         !- Zone Heating Sizing Factor
    ,                         !- Zone Cooling Sizing Factor
    DesignDay,                !- Cooling Design Air Flow Method
    0,                        !- Cooling Design Air Flow Rate
    0.000762,                 !- Cooling Minimum Air Flow per Zone Floor Area
    0,                        !- Cooling Minimum Air Flow
    0.2,                      !- Cooling Minimum Air Flow Fraction
    DesignDay,                !- Heating Design Air Flow Method
    0,                        !- Heating Design Air Flow Rate
    0.002032,                 !- Heating Maximum Air Flow per Zone Floor Area
    0.1415762,                !- Heating Maximum Air Flow
    0.3,                      !- Heating Maximum Air Flow Fraction
    ,                         !- Design Specification Zone Air Distribution Object Name
    No,                       !- Account for Dedicated Outdoor Air System
    NeutralSupplyAir,         !- Dedicated Outdoor Air System Control Strategy
    autosize,                 !- Dedicated Outdoor Air Low Setpoint Temperature for Design
    autosize,                 !- Dedicated Outdoor Air High Setpoint Temperature for Design
    Sensible Load Only No Latent Load,    !- Zone Load Sizing Method
    HumidityRatioDifference,    !- Zone Latent Cooling Design Supply Air Humidity Ratio Input Method
    ,                         !- Zone Dehumidification Design Supply Air Humidity Ratio
    0.005,                    !- Zone Cooling Design Supply Air Humidity Ratio Difference
    HumidityRatioDifference,    !- Zone Latent Heating Design Supply Air Humidity Ratio Input Method
    ,                         !- Zone Humidification Design Supply Air Humidity Ratio
    0.005;                    !- Zone Humidification Design Supply Air Humidity Ratio Difference

OUTPUT:VARIABLE,
    *,                        !- Key Value
    Zone Ideal Loads Zone Total Heating Energy,    !- Variable Name
    Hourly;                   !- Reporting Frequency

OUTPUT:SQLITE,
    SimpleAndTabular,         !- Option Type
    UseOutputControlTableStyle;    !- Unit Conversion for Tabular Data