!- Windows Line endings 

Version,
    23.1;                     !- Version Identifier

SimulationControl,
    Yes,                      !- Do Zone Sizing Calculation
    Yes,                      !- Do System Sizing Calculation
    Yes,                      !- Do Plant Sizing Calculation
    No,                       !- Run Simulation for Sizing Periods
    Yes,                      !- Run Simulation for Weather File Run Periods
    No,                       !- Do HVAC Sizing Simulation for Sizing Periods
    1;                        !- Maximum Number of HVAC Sizing Simulation Passes

Building,
    EU S2 Campaign,           !- Name
    0,                        !- North Axis
    City,                     !- Terrain
    ,                         !- Loads Convergence Tolerance Value
    ,                         !- Temperature Convergence Tolerance Value
    FullExterior,             !- Solar Distribution
    ,                         !- Maximum Number of Warmup Days
    ;                         !- Minimum Number of Warmup Days

ShadowCalculation,
    PolygonClipping,          !- Shading Calculation Method
    Periodic,                 !- Shading Calculation Update Frequency Method
    1;                        !- Shading Calculation Update Frequency

HeatBalanceAlgorithm,
    ConductionTransferFunction,    !- Algorithm
    200,                      !- Surface Temperature Upper Limit
    0.1,                      !- Minimum Surface Convection Heat Transfer Coefficient Value
    10000000;                 !- Maximum Surface Convection Heat Transfer Coefficient Value

Timestep,
    12;                       !- Number of Timesteps per Hour

Site:Location,
    Bologna,                  !- Name
    44.5,                     !- Latitude
    11.25,                    !- Longitude
    1,                        !- Time Zone
    37;                       !- Elevation

SizingPeriod:WeatherFileDays,
    AnnualSizingPeriod,       !- Name
    1,                        !- Begin Month
    1,                        !- Begin Day of Month
    12,                       !- End Month
    31,                       !- End Day of Month
    Monday,                   !- Day of Week for Start Day
    No,                       !- Use Weather File Daylight Saving Period
    No;                       !- Use Weather File Rain and Snow Indicators

RunPeriod,
    RunPeriod1,               !- Name
    1,                        !- Begin Month
    1,                        !- Begin Day of Month
    ,                         !- Begin Year
    12,                       !- End Month
    31,                       !- End Day of Month
    ,                         !- End Year
    Sunday,                   !- Day of Week for Start Day
    No,                       !- Use Weather File Holidays and Special Days
    No,                       !- Use Weather File Daylight Saving Period
    No,                       !- Apply Weekend Holiday Rule
    Yes,                      !- Use Weather File Rain Indicators
    Yes;                      !- Use Weather File Snow Indicators

ScheduleTypeLimits,
    Any Number;               !- Name

SCHEDULETYPELIMITS,
    EU_Step8_AnyNumber_Wm2,    !- Name
    ,                         !- Lower Limit Value
    ,                         !- Upper Limit Value
    Continuous,               !- Numeric Type
    Dimensionless;            !- Unit Type

SCHEDULE:CONSTANT,
    EU_AlwaysOn,              !- Name
    ,                         !- Schedule Type Limits Name
    1;                        !- Hourly Value

SCHEDULE:CONSTANT,
    EU_CoolingOff,            !- Name
    ,                         !- Schedule Type Limits Name
    0;                        !- Hourly Value

SCHEDULE:FILE,
    EU_Step8_GainSchedule_aed049e40545a6f5_F0_dwelling_0_f000,    !- Name
    EU_Step8_AnyNumber_Wm2,    !- Schedule Type Limits Name
    ../../schedules/aed049e40545a6f5/aed049e40545a6f5_F0_dwelling_0_f000_gain.csv,    !- File Name
    1,                        !- Column Number
    0,                        !- Rows to Skip at Top
    8760,                     !- Number of Hours of Data
    Comma,                    !- Column Separator
    No,                       !- Interpolate to Timestep
    60,                       !- Minutes per Item
    Yes;                      !- Adjust Schedule for Daylight Savings

MATERIAL,
    EU_InternalMass_Material,    !- Name
    MediumRough,              !- Roughness
    0.1,                      !- Thickness
    1,                        !- Conductivity
    1800,                     !- Density
    900,                      !- Specific Heat
    0.9,                      !- Thermal Absorptance
    0.7,                      !- Solar Absorptance
    0.7;                      !- Visible Absorptance

MATERIAL:NOMASS,
    EU_wall_NoMass,           !- Name
    MediumRough,              !- Roughness
    0.5785677809647076,       !- Thermal Resistance
    0.9,                      !- Thermal Absorptance
    0.7,                      !- Solar Absorptance
    0.7;                      !- Visible Absorptance

MATERIAL:NOMASS,
    EU_roof_NoMass,           !- Name
    MediumRough,              !- Roughness
    4.731698e-01,             !- Thermal Resistance
    0.9,                      !- Thermal Absorptance
    0.7,                      !- Solar Absorptance
    0.7;                      !- Visible Absorptance

MATERIAL:NOMASS,
    EU_floor_NoMass,          !- Name
    MediumRough,              !- Roughness
    0.5813228656359681,       !- Thermal Resistance
    0.9,                      !- Thermal Absorptance
    0.7,                      !- Solar Absorptance
    0.7;                      !- Visible Absorptance

CONSTRUCTION,
    EU_wall_Construction,     !- Name
    EU_wall_NoMass;           !- Outside Layer

CONSTRUCTION,
    EU_roof_Construction,     !- Name
    EU_roof_NoMass;           !- Outside Layer

CONSTRUCTION,
    EU_floor_Construction,    !- Name
    EU_floor_NoMass;          !- Outside Layer

CONSTRUCTION,
    EU_InternalMass_Construction,    !- Name
    EU_InternalMass_Material;    !- Outside Layer

GlobalGeometryRules,
    UpperLeftCorner,          !- Starting Vertex Position
    CounterClockWise,         !- Vertex Entry Direction
    World;                    !- Coordinate System

ZONE,
    aed049e40545a6f5_F0_dwelling_0,    !- Name
    0,                        !- Direction of Relative North
    0,                        !- X Origin
    0,                        !- Y Origin
    0,                        !- Z Origin
    1,                        !- Type
    1,                        !- Multiplier
    autocalculate,            !- Ceiling Height
    412.9365234375,           !- Volume
    autocalculate,            !- Floor Area
    ,                         !- Zone Inside Convection Algorithm
    ,                         !- Zone Outside Convection Algorithm
    Yes;                      !- Part of Total Floor Area

BUILDINGSURFACE:DETAILED,
    Block aed049e40545a6f5_0 Storey 0 Wall 0001,    !- Name
    wall,                     !- Surface Type
    EU_wall_Construction,     !- Construction Name
    aed049e40545a6f5_F0_dwelling_0,    !- Zone Name
    ,                         !- Space Name
    outdoors,                 !- Outside Boundary Condition
    ,                         !- Outside Boundary Condition Object
    SunExposed,               !- Sun Exposure
    WindExposed,              !- Wind Exposure
    autocalculate,            !- View Factor to Ground
    autocalculate,            !- Number of Vertices
    686766.068,               !- Vertex 1 Xcoordinate
    4928539.295,              !- Vertex 1 Ycoordinate
    6,                        !- Vertex 1 Zcoordinate
    686766.068,               !- Vertex 2 Xcoordinate
    4928539.295,              !- Vertex 2 Ycoordinate
    0,                        !- Vertex 2 Zcoordinate
    686761.178,               !- Vertex 3 Xcoordinate
    4928540.465,              !- Vertex 3 Ycoordinate
    0,                        !- Vertex 3 Zcoordinate
    686761.178,               !- Vertex 4 Xcoordinate
    4928540.465,              !- Vertex 4 Ycoordinate
    6;                        !- Vertex 4 Zcoordinate

BUILDINGSURFACE:DETAILED,
    Block aed049e40545a6f5_0 Storey 0 Wall 0002,    !- Name
    wall,                     !- Surface Type
    EU_wall_Construction,     !- Construction Name
    aed049e40545a6f5_F0_dwelling_0,    !- Zone Name
    ,                         !- Space Name
    outdoors,                 !- Outside Boundary Condition
    ,                         !- Outside Boundary Condition Object
    SunExposed,               !- Sun Exposure
    WindExposed,              !- Wind Exposure
    autocalculate,            !- View Factor to Ground
    autocalculate,            !- Number of Vertices
    686761.178,               !- Vertex 1 Xcoordinate
    4928540.465,              !- Vertex 1 Ycoordinate
    6,                        !- Vertex 1 Zcoordinate
    686761.178,               !- Vertex 2 Xcoordinate
    4928540.465,              !- Vertex 2 Ycoordinate
    0,                        !- Vertex 2 Zcoordinate
    686759.148,               !- Vertex 3 Xcoordinate
    4928534.695,              !- Vertex 3 Ycoordinate
    0,                        !- Vertex 3 Zcoordinate
    686759.148,               !- Vertex 4 Xcoordinate
    4928534.695,              !- Vertex 4 Ycoordinate
    6;                        !- Vertex 4 Zcoordinate

BUILDINGSURFACE:DETAILED,
    Block aed049e40545a6f5_0 Storey 0 Wall 0003,    !- Name
    wall,                     !- Surface Type
    EU_wall_Construction,     !- Construction Name
    aed049e40545a6f5_F0_dwelling_0,    !- Zone Name
    ,                         !- Space Name
    outdoors,                 !- Outside Boundary Condition
    ,                         !- Outside Boundary Condition Object
    SunExposed,               !- Sun Exposure
    WindExposed,              !- Wind Exposure
    autocalculate,            !- View Factor to Ground
    autocalculate,            !- Number of Vertices
    686759.148,               !- Vertex 1 Xcoordinate
    4928534.695,              !- Vertex 1 Ycoordinate
    6,                        !- Vertex 1 Zcoordinate
    686759.148,               !- Vertex 2 Xcoordinate
    4928534.695,              !- Vertex 2 Ycoordinate
    0,                        !- Vertex 2 Zcoordinate
    686756.269,               !- Vertex 3 Xcoordinate
    4928535.657,              !- Vertex 3 Ycoordinate
    0,                        !- Vertex 3 Zcoordinate
    686756.269,               !- Vertex 4 Xcoordinate
    4928535.657,              !- Vertex 4 Ycoordinate
    6;                        !- Vertex 4 Zcoordinate

BUILDINGSURFACE:DETAILED,
    Block aed049e40545a6f5_0 Storey 0 Wall 0004,    !- Name
    wall,                     !- Surface Type
    EU_wall_Construction,     !- Construction Name
    aed049e40545a6f5_F0_dwelling_0,    !- Zone Name
    ,                         !- Space Name
    outdoors,                 !- Outside Boundary Condition
    ,                         !- Outside Boundary Condition Object
    SunExposed,               !- Sun Exposure
    WindExposed,              !- Wind Exposure
    autocalculate,            !- View Factor to Ground
    autocalculate,            !- Number of Vertices
    686756.269,               !- Vertex 1 Xcoordinate
    4928535.657,              !- Vertex 1 Ycoordinate
    6,                        !- Vertex 1 Zcoordinate
    686756.269,               !- Vertex 2 Xcoordinate
    4928535.657,              !- Vertex 2 Ycoordinate
    0,                        !- Vertex 2 Zcoordinate
    686757.491,               !- Vertex 3 Xcoordinate
    4928541.707,              !- Vertex 3 Ycoordinate
    0,                        !- Vertex 3 Zcoordinate
    686757.491,               !- Vertex 4 Xcoordinate
    4928541.707,              !- Vertex 4 Ycoordinate
    6;                        !- Vertex 4 Zcoordinate

BUILDINGSURFACE:DETAILED,
    Block aed049e40545a6f5_0 Storey 0 Wall 0005,    !- Name
    wall,                     !- Surface Type
    EU_wall_Construction,     !- Construction Name
    aed049e40545a6f5_F0_dwelling_0,    !- Zone Name
    ,                         !- Space Name
    Adiabatic,                !- Outside Boundary Condition
    ,                         !- Outside Boundary Condition Object
    NoSun,                    !- Sun Exposure
    NoWind,                   !- Wind Exposure
    autocalculate,            !- View Factor to Ground
    autocalculate,            !- Number of Vertices
    686757.491,               !- Vertex 1 Xcoordinate
    4928541.707,              !- Vertex 1 Ycoordinate
    6,                        !- Vertex 1 Zcoordinate
    686757.491,               !- Vertex 2 Xcoordinate
    4928541.707,              !- Vertex 2 Ycoordinate
    0,                        !- Vertex 2 Zcoordinate
    686758.439,               !- Vertex 3 Xcoordinate
    4928546.392,              !- Vertex 3 Ycoordinate
    0,                        !- Vertex 3 Zcoordinate
    686758.439,               !- Vertex 4 Xcoordinate
    4928546.392,              !- Vertex 4 Ycoordinate
    6;                        !- Vertex 4 Zcoordinate

BUILDINGSURFACE:DETAILED,
    Block aed049e40545a6f5_0 Storey 0 Wall 0006,    !- Name
    wall,                     !- Surface Type
    EU_wall_Construction,     !- Construction Name
    aed049e40545a6f5_F0_dwelling_0,    !- Zone Name
    ,                         !- Space Name
    Adiabatic,                !- Outside Boundary Condition
    ,                         !- Outside Boundary Condition Object
    NoSun,                    !- Sun Exposure
    NoWind,                   !- Wind Exposure
    autocalculate,            !- View Factor to Ground
    autocalculate,            !- Number of Vertices
    686758.439,               !- Vertex 1 Xcoordinate
    4928546.392,              !- Vertex 1 Ycoordinate
    6,                        !- Vertex 1 Zcoordinate
    686758.439,               !- Vertex 2 Xcoordinate
    4928546.392,              !- Vertex 2 Ycoordinate
    0,                        !- Vertex 2 Zcoordinate
    686767.378,               !- Vertex 3 Xcoordinate
    4928544.765,              !- Vertex 3 Ycoordinate
    0,                        !- Vertex 3 Zcoordinate
    686767.378,               !- Vertex 4 Xcoordinate
    4928544.765,              !- Vertex 4 Ycoordinate
    6;                        !- Vertex 4 Zcoordinate

BUILDINGSURFACE:DETAILED,
    Block aed049e40545a6f5_0 Storey 0 Wall 0007,    !- Name
    wall,                     !- Surface Type
    EU_wall_Construction,     !- Construction Name
    aed049e40545a6f5_F0_dwelling_0,    !- Zone Name
    ,                         !- Space Name
    outdoors,                 !- Outside Boundary Condition
    ,                         !- Outside Boundary Condition Object
    SunExposed,               !- Sun Exposure
    WindExposed,              !- Wind Exposure
    autocalculate,            !- View Factor to Ground
    autocalculate,            !- Number of Vertices
    686767.378,               !- Vertex 1 Xcoordinate
    4928544.765,              !- Vertex 1 Ycoordinate
    6,                        !- Vertex 1 Zcoordinate
    686767.378,               !- Vertex 2 Xcoordinate
    4928544.765,              !- Vertex 2 Ycoordinate
    0,                        !- Vertex 2 Zcoordinate
    686766.068,               !- Vertex 3 Xcoordinate
    4928539.295,              !- Vertex 3 Ycoordinate
    0,                        !- Vertex 3 Zcoordinate
    686766.068,               !- Vertex 4 Xcoordinate
    4928539.295,              !- Vertex 4 Ycoordinate
    6;                        !- Vertex 4 Zcoordinate

BUILDINGSURFACE:DETAILED,
    Block aed049e40545a6f5_0 Storey 0 Floor 0001,    !- Name
    floor,                    !- Surface Type
    EU_floor_Construction,    !- Construction Name
    aed049e40545a6f5_F0_dwelling_0,    !- Zone Name
    ,                         !- Space Name
    ground,                   !- Outside Boundary Condition
    ,                         !- Outside Boundary Condition Object
    NoSun,                    !- Sun Exposure
    NoWind,                   !- Wind Exposure
    autocalculate,            !- View Factor to Ground
    autocalculate,            !- Number of Vertices
    686766.068,               !- Vertex 1 Xcoordinate
    4928539.295,              !- Vertex 1 Ycoordinate
    0,                        !- Vertex 1 Zcoordinate
    686767.378,               !- Vertex 2 Xcoordinate
    4928544.765,              !- Vertex 2 Ycoordinate
    0,                        !- Vertex 2 Zcoordinate
    686758.439,               !- Vertex 3 Xcoordinate
    4928546.392,              !- Vertex 3 Ycoordinate
    0,                        !- Vertex 3 Zcoordinate
    686757.491,               !- Vertex 4 Xcoordinate
    4928541.707,              !- Vertex 4 Ycoordinate
    0,                        !- Vertex 4 Zcoordinate
    686756.269,               !- Vertex 5 Xcoordinate
    4928535.657,              !- Vertex 5 Ycoordinate
    0,                        !- Vertex 5 Zcoordinate
    686759.148,               !- Vertex 6 Xcoordinate
    4928534.695,              !- Vertex 6 Ycoordinate
    0,                        !- Vertex 6 Zcoordinate
    686761.178,               !- Vertex 7 Xcoordinate
    4928540.465,              !- Vertex 7 Ycoordinate
    0;                        !- Vertex 7 Zcoordinate

BUILDINGSURFACE:DETAILED,
    Block aed049e40545a6f5_0 Storey 0 Roof 0001,    !- Name
    roof,                     !- Surface Type
    EU_roof_Construction,     !- Construction Name
    aed049e40545a6f5_F0_dwelling_0,    !- Zone Name
    ,                         !- Space Name
    outdoors,                 !- Outside Boundary Condition
    ,                         !- Outside Boundary Condition Object
    NoSun,                    !- Sun Exposure
    WindExposed,              !- Wind Exposure
    autocalculate,            !- View Factor to Ground
    autocalculate,            !- Number of Vertices
    686767.378,               !- Vertex 1 Xcoordinate
    4928544.765,              !- Vertex 1 Ycoordinate
    6,                        !- Vertex 1 Zcoordinate
    686766.068,               !- Vertex 2 Xcoordinate
    4928539.295,              !- Vertex 2 Ycoordinate
    6,                        !- Vertex 2 Zcoordinate
    686761.178,               !- Vertex 3 Xcoordinate
    4928540.465,              !- Vertex 3 Ycoordinate
    6,                        !- Vertex 3 Zcoordinate
    686759.148,               !- Vertex 4 Xcoordinate
    4928534.695,              !- Vertex 4 Ycoordinate
    6,                        !- Vertex 4 Zcoordinate
    686756.269,               !- Vertex 5 Xcoordinate
    4928535.657,              !- Vertex 5 Ycoordinate
    6,                        !- Vertex 5 Zcoordinate
    686757.491,               !- Vertex 6 Xcoordinate
    4928541.707,              !- Vertex 6 Ycoordinate
    6,                        !- Vertex 6 Zcoordinate
    686758.439,               !- Vertex 7 Xcoordinate
    4928546.392,              !- Vertex 7 Ycoordinate
    6;                        !- Vertex 7 Zcoordinate

INTERNALMASS,
    aed049e40545a6f5_F0_dwelling_0_EU_InternalMass,    !- Name
    EU_InternalMass_Construction,    !- Construction Name
    aed049e40545a6f5_F0_dwelling_0,    !- Zone or ZoneList Name
    ,                         !- Space or SpaceList Name
    68.82293750071669;        !- Surface Area

SHADING:SITE:DETAILED,
    shade_33112_1,            !- Name
    ,                         !- Transmittance Schedule Name
    autocalculate,            !- Number of Vertices
    686735.9479984927,        !- Vertex 1 Xcoordinate
    4928535.056119189,        !- Vertex 1 Ycoordinate
    15,                       !- Vertex 1 Zcoordinate
    686735.9479984927,        !- Vertex 2 Xcoordinate
    4928535.056119189,        !- Vertex 2 Ycoordinate
    0,                        !- Vertex 2 Zcoordinate
    686757.6950334765,        !- Vertex 3 Xcoordinate
    4928528.394604942,        !- Vertex 3 Ycoordinate
    0,                        !- Vertex 3 Zcoordinate
    686757.6950334765,        !- Vertex 4 Xcoordinate
    4928528.394604942,        !- Vertex 4 Ycoordinate
    15;                       !- Vertex 4 Zcoordinate

SHADING:SITE:DETAILED,
    shade_33112_2,            !- Name
    ,                         !- Transmittance Schedule Name
    autocalculate,            !- Number of Vertices
    686757.6950334765,        !- Vertex 1 Xcoordinate
    4928528.394604942,        !- Vertex 1 Ycoordinate
    15,                       !- Vertex 1 Zcoordinate
    686757.6950334765,        !- Vertex 2 Xcoordinate
    4928528.394604942,        !- Vertex 2 Ycoordinate
    0,                        !- Vertex 2 Zcoordinate
    686756.3845649618,        !- Vertex 3 Xcoordinate
    4928524.116374902,        !- Vertex 3 Ycoordinate
    0,                        !- Vertex 3 Zcoordinate
    686756.3845649618,        !- Vertex 4 Xcoordinate
    4928524.116374902,        !- Vertex 4 Ycoordinate
    15;                       !- Vertex 4 Zcoordinate

SHADING:SITE:DETAILED,
    shade_33112_3,            !- Name
    ,                         !- Transmittance Schedule Name
    autocalculate,            !- Number of Vertices
    686756.3845649618,        !- Vertex 1 Xcoordinate
    4928524.116374902,        !- Vertex 1 Ycoordinate
    15,                       !- Vertex 1 Zcoordinate
    686756.3845649618,        !- Vertex 2 Xcoordinate
    4928524.116374902,        !- Vertex 2 Ycoordinate
    0,                        !- Vertex 2 Zcoordinate
    686734.6374876163,        !- Vertex 3 Xcoordinate
    4928530.7777418485,       !- Vertex 3 Ycoordinate
    0,                        !- Vertex 3 Zcoordinate
    686734.6374876163,        !- Vertex 4 Xcoordinate
    4928530.7777418485,       !- Vertex 4 Ycoordinate
    15;                       !- Vertex 4 Zcoordinate

SHADING:SITE:DETAILED,
    shade_33112_4,            !- Name
    ,                         !- Transmittance Schedule Name
    autocalculate,            !- Number of Vertices
    686734.6374876163,        !- Vertex 1 Xcoordinate
    4928530.7777418485,       !- Vertex 1 Ycoordinate
    15,                       !- Vertex 1 Zcoordinate
    686734.6374876163,        !- Vertex 2 Xcoordinate
    4928530.7777418485,       !- Vertex 2 Ycoordinate
    0,                        !- Vertex 2 Zcoordinate
    686735.9479984927,        !- Vertex 3 Xcoordinate
    4928535.056119189,        !- Vertex 3 Ycoordinate
    0,                        !- Vertex 3 Zcoordinate
    686735.9479984927,        !- Vertex 4 Xcoordinate
    4928535.056119189,        !- Vertex 4 Ycoordinate
    15;                       !- Vertex 4 Zcoordinate

SHADING:SITE:DETAILED,
    shade_33034_1,            !- Name
    ,                         !- Transmittance Schedule Name
    autocalculate,            !- Number of Vertices
    686754.6879984926,        !- Vertex 1 Xcoordinate
    4928536.18511919,         !- Vertex 1 Ycoordinate
    15,                       !- Vertex 1 Zcoordinate
    686754.6879984926,        !- Vertex 2 Xcoordinate
    4928536.18511919,         !- Vertex 2 Ycoordinate
    0,                        !- Vertex 2 Zcoordinate
    686734.4964536281,        !- Vertex 3 Xcoordinate
    4928542.006363571,        !- Vertex 3 Ycoordinate
    0,                        !- Vertex 3 Zcoordinate
    686734.4964536281,        !- Vertex 4 Xcoordinate
    4928542.006363571,        !- Vertex 4 Ycoordinate
    15;                       !- Vertex 4 Zcoordinate

SHADING:SITE:DETAILED,
    shade_33034_2,            !- Name
    ,                         !- Transmittance Schedule Name
    autocalculate,            !- Number of Vertices
    686734.4964536281,        !- Vertex 1 Xcoordinate
    4928542.006363571,        !- Vertex 1 Ycoordinate
    15,                       !- Vertex 1 Zcoordinate
    686734.4964536281,        !- Vertex 2 Xcoordinate
    4928542.006363571,        !- Vertex 2 Ycoordinate
    0,                        !- Vertex 2 Zcoordinate
    686736.2241157175,        !- Vertex 3 Xcoordinate
    4928547.999088997,        !- Vertex 3 Ycoordinate
    0,                        !- Vertex 3 Zcoordinate
    686736.2241157175,        !- Vertex 4 Xcoordinate
    4928547.999088997,        !- Vertex 4 Ycoordinate
    15;                       !- Vertex 4 Zcoordinate

SHADING:SITE:DETAILED,
    shade_33034_3,            !- Name
    ,                         !- Transmittance Schedule Name
    autocalculate,            !- Number of Vertices
    686736.2241157175,        !- Vertex 1 Xcoordinate
    4928547.999088997,        !- Vertex 1 Ycoordinate
    15,                       !- Vertex 1 Zcoordinate
    686736.2241157175,        !- Vertex 2 Xcoordinate
    4928547.999088997,        !- Vertex 2 Ycoordinate
    0,                        !- Vertex 2 Zcoordinate
    686756.4157090556,        !- Vertex 3 Xcoordinate
    4928542.17798961,         !- Vertex 3 Ycoordinate
    0,                        !- Vertex 3 Zcoordinate
    686756.4157090556,        !- Vertex 4 Xcoordinate
    4928542.17798961,         !- Vertex 4 Ycoordinate
    15;                       !- Vertex 4 Zcoordinate

SHADING:SITE:DETAILED,
    shade_33034_4,            !- Name
    ,                         !- Transmittance Schedule Name
    autocalculate,            !- Number of Vertices
    686756.4157090556,        !- Vertex 1 Xcoordinate
    4928542.17798961,         !- Vertex 1 Ycoordinate
    15,                       !- Vertex 1 Zcoordinate
    686756.4157090556,        !- Vertex 2 Xcoordinate
    4928542.17798961,         !- Vertex 2 Ycoordinate
    0,                        !- Vertex 2 Zcoordinate
    686754.6879984926,        !- Vertex 3 Xcoordinate
    4928536.18511919,         !- Vertex 3 Ycoordinate
    0,                        !- Vertex 3 Zcoordinate
    686754.6879984926,        !- Vertex 4 Xcoordinate
    4928536.18511919,         !- Vertex 4 Ycoordinate
    15;                       !- Vertex 4 Zcoordinate

SHADING:SITE:DETAILED,
    shade_33186_1,            !- Name
    ,                         !- Transmittance Schedule Name
    autocalculate,            !- Number of Vertices
    686770.5447882685,        !- Vertex 1 Xcoordinate
    4928524.460794847,        !- Vertex 1 Ycoordinate
    15,                       !- Vertex 1 Zcoordinate
    686770.5447882685,        !- Vertex 2 Xcoordinate
    4928524.460794847,        !- Vertex 2 Ycoordinate
    0,                        !- Vertex 2 Zcoordinate
    686785.9851126914,        !- Vertex 3 Xcoordinate
    4928519.72388881,         !- Vertex 3 Ycoordinate
    0,                        !- Vertex 3 Zcoordinate
    686785.9851126914,        !- Vertex 4 Xcoordinate
    4928519.72388881,         !- Vertex 4 Ycoordinate
    15;                       !- Vertex 4 Zcoordinate

SHADING:SITE:DETAILED,
    shade_33186_2,            !- Name
    ,                         !- Transmittance Schedule Name
    autocalculate,            !- Number of Vertices
    686785.9851126914,        !- Vertex 1 Xcoordinate
    4928519.72388881,         !- Vertex 1 Ycoordinate
    15,                       !- Vertex 1 Zcoordinate
    686785.9851126914,        !- Vertex 2 Xcoordinate
    4928519.72388881,         !- Vertex 2 Ycoordinate
    0,                        !- Vertex 2 Zcoordinate
    686780.5780602507,        !- Vertex 3 Xcoordinate
    4928502.099168527,        !- Vertex 3 Ycoordinate
    0,                        !- Vertex 3 Zcoordinate
    686780.5780602507,        !- Vertex 4 Xcoordinate
    4928502.099168527,        !- Vertex 4 Ycoordinate
    15;                       !- Vertex 4 Zcoordinate

SHADING:SITE:DETAILED,
    shade_33186_3,            !- Name
    ,                         !- Transmittance Schedule Name
    autocalculate,            !- Number of Vertices
    686780.5780602507,        !- Vertex 1 Xcoordinate
    4928502.099168527,        !- Vertex 1 Ycoordinate
    15,                       !- Vertex 1 Zcoordinate
    686780.5780602507,        !- Vertex 2 Xcoordinate
    4928502.099168527,        !- Vertex 2 Ycoordinate
    0,                        !- Vertex 2 Zcoordinate
    686765.1379984925,        !- Vertex 3 Xcoordinate
    4928506.836119189,        !- Vertex 3 Ycoordinate
    0,                        !- Vertex 3 Zcoordinate
    686765.1379984925,        !- Vertex 4 Xcoordinate
    4928506.836119189,        !- Vertex 4 Ycoordinate
    15;                       !- Vertex 4 Zcoordinate

SHADING:SITE:DETAILED,
    shade_33186_4,            !- Name
    ,                         !- Transmittance Schedule Name
    autocalculate,            !- Number of Vertices
    686765.1379984925,        !- Vertex 1 Xcoordinate
    4928506.836119189,        !- Vertex 1 Ycoordinate
    15,                       !- Vertex 1 Zcoordinate
    686765.1379984925,        !- Vertex 2 Xcoordinate
    4928506.836119189,        !- Vertex 2 Ycoordinate
    0,                        !- Vertex 2 Zcoordinate
    686770.5447882685,        !- Vertex 3 Xcoordinate
    4928524.460794847,        !- Vertex 3 Ycoordinate
    0,                        !- Vertex 3 Zcoordinate
    686770.5447882685,        !- Vertex 4 Xcoordinate
    4928524.460794847,        !- Vertex 4 Ycoordinate
    15;                       !- Vertex 4 Zcoordinate

SHADING:SITE:DETAILED,
    shade_33141_1,            !- Name
    ,                         !- Transmittance Schedule Name
    autocalculate,            !- Number of Vertices
    686735.6879984927,        !- Vertex 1 Xcoordinate
    4928530.456119188,        !- Vertex 1 Ycoordinate
    15,                       !- Vertex 1 Zcoordinate
    686735.6879984927,        !- Vertex 2 Xcoordinate
    4928530.456119188,        !- Vertex 2 Ycoordinate
    0,                        !- Vertex 2 Zcoordinate
    686771.823020066,         !- Vertex 3 Xcoordinate
    4928519.84347323,         !- Vertex 3 Ycoordinate
    0,                        !- Vertex 3 Zcoordinate
    686771.823020066,         !- Vertex 4 Xcoordinate
    4928519.84347323,         !- Vertex 4 Ycoordinate
    15;                       !- Vertex 4 Zcoordinate

SHADING:SITE:DETAILED,
    shade_33141_2,            !- Name
    ,                         !- Transmittance Schedule Name
    autocalculate,            !- Number of Vertices
    686771.823020066,         !- Vertex 1 Xcoordinate
    4928519.84347323,         !- Vertex 1 Ycoordinate
    15,                       !- Vertex 1 Zcoordinate
    686771.823020066,         !- Vertex 2 Xcoordinate
    4928519.84347323,         !- Vertex 2 Ycoordinate
    0,                        !- Vertex 2 Zcoordinate
    686767.3529271153,        !- Vertex 3 Xcoordinate
    4928504.6231731335,       !- Vertex 3 Ycoordinate
    0,                        !- Vertex 3 Zcoordinate
    686767.3529271153,        !- Vertex 4 Xcoordinate
    4928504.6231731335,       !- Vertex 4 Ycoordinate
    15;                       !- Vertex 4 Zcoordinate

SHADING:SITE:DETAILED,
    shade_33141_3,            !- Name
    ,                         !- Transmittance Schedule Name
    autocalculate,            !- Number of Vertices
    686767.3529271153,        !- Vertex 1 Xcoordinate
    4928504.6231731335,       !- Vertex 1 Ycoordinate
    15,                       !- Vertex 1 Zcoordinate
    686767.3529271153,        !- Vertex 2 Xcoordinate
    4928504.6231731335,       !- Vertex 2 Ycoordinate
    0,                        !- Vertex 2 Zcoordinate
    686731.2176900163,        !- Vertex 3 Xcoordinate
    4928515.235833045,        !- Vertex 3 Ycoordinate
    0,                        !- Vertex 3 Zcoordinate
    686731.2176900163,        !- Vertex 4 Xcoordinate
    4928515.235833045,        !- Vertex 4 Ycoordinate
    15;                       !- Vertex 4 Zcoordinate

SHADING:SITE:DETAILED,
    shade_33141_4,            !- Name
    ,                         !- Transmittance Schedule Name
    autocalculate,            !- Number of Vertices
    686731.2176900163,        !- Vertex 1 Xcoordinate
    4928515.235833045,        !- Vertex 1 Ycoordinate
    15,                       !- Vertex 1 Zcoordinate
    686731.2176900163,        !- Vertex 2 Xcoordinate
    4928515.235833045,        !- Vertex 2 Ycoordinate
    0,                        !- Vertex 2 Zcoordinate
    686735.6879984927,        !- Vertex 3 Xcoordinate
    4928530.456119188,        !- Vertex 3 Ycoordinate
    0,                        !- Vertex 3 Zcoordinate
    686735.6879984927,        !- Vertex 4 Xcoordinate
    4928530.456119188,        !- Vertex 4 Ycoordinate
    15;                       !- Vertex 4 Zcoordinate

SHADING:SITE:DETAILED,
    shade_33153_1,            !- Name
    ,                         !- Transmittance Schedule Name
    autocalculate,            !- Number of Vertices
    686757.4979984924,        !- Vertex 1 Xcoordinate
    4928528.455119188,        !- Vertex 1 Ycoordinate
    15,                       !- Vertex 1 Zcoordinate
    686757.4979984924,        !- Vertex 2 Xcoordinate
    4928528.455119188,        !- Vertex 2 Ycoordinate
    0,                        !- Vertex 2 Zcoordinate
    686772.9089696328,        !- Vertex 3 Xcoordinate
    4928523.735480666,        !- Vertex 3 Ycoordinate
    0,                        !- Vertex 3 Zcoordinate
    686772.9089696328,        !- Vertex 4 Xcoordinate
    4928523.735480666,        !- Vertex 4 Ycoordinate
    15;                       !- Vertex 4 Zcoordinate

SHADING:SITE:DETAILED,
    shade_33153_2,            !- Name
    ,                         !- Transmittance Schedule Name
    autocalculate,            !- Number of Vertices
    686772.9089696328,        !- Vertex 1 Xcoordinate
    4928523.735480666,        !- Vertex 1 Ycoordinate
    15,                       !- Vertex 1 Zcoordinate
    686772.9089696328,        !- Vertex 2 Xcoordinate
    4928523.735480666,        !- Vertex 2 Ycoordinate
    0,                        !- Vertex 2 Zcoordinate
    686771.6379984926,        !- Vertex 3 Xcoordinate
    4928519.585119188,        !- Vertex 3 Ycoordinate
    0,                        !- Vertex 3 Zcoordinate
    686771.6379984926,        !- Vertex 4 Xcoordinate
    4928519.585119188,        !- Vertex 4 Ycoordinate
    15;                       !- Vertex 4 Zcoordinate

SHADING:SITE:DETAILED,
    shade_33153_3,            !- Name
    ,                         !- Transmittance Schedule Name
    autocalculate,            !- Number of Vertices
    686771.6379984926,        !- Vertex 1 Xcoordinate
    4928519.585119188,        !- Vertex 1 Ycoordinate
    15,                       !- Vertex 1 Zcoordinate
    686771.6379984926,        !- Vertex 2 Xcoordinate
    4928519.585119188,        !- Vertex 2 Ycoordinate
    0,                        !- Vertex 2 Zcoordinate
    686756.2268619646,        !- Vertex 3 Xcoordinate
    4928524.304500636,        !- Vertex 3 Ycoordinate
    0,                        !- Vertex 3 Zcoordinate
    686756.2268619646,        !- Vertex 4 Xcoordinate
    4928524.304500636,        !- Vertex 4 Ycoordinate
    15;                       !- Vertex 4 Zcoordinate

SHADING:SITE:DETAILED,
    shade_33153_4,            !- Name
    ,                         !- Transmittance Schedule Name
    autocalculate,            !- Number of Vertices
    686756.2268619646,        !- Vertex 1 Xcoordinate
    4928524.304500636,        !- Vertex 1 Ycoordinate
    15,                       !- Vertex 1 Zcoordinate
    686756.2268619646,        !- Vertex 2 Xcoordinate
    4928524.304500636,        !- Vertex 2 Ycoordinate
    0,                        !- Vertex 2 Zcoordinate
    686757.4979984924,        !- Vertex 3 Xcoordinate
    4928528.455119188,        !- Vertex 3 Ycoordinate
    0,                        !- Vertex 3 Zcoordinate
    686757.4979984924,        !- Vertex 4 Xcoordinate
    4928528.455119188,        !- Vertex 4 Ycoordinate
    15;                       !- Vertex 4 Zcoordinate

SHADING:SITE:DETAILED,
    shade_33063_1,            !- Name
    ,                         !- Transmittance Schedule Name
    autocalculate,            !- Number of Vertices
    686805.8941803692,        !- Vertex 1 Xcoordinate
    4928524.46874459,         !- Vertex 1 Ycoordinate
    15,                       !- Vertex 1 Zcoordinate
    686805.8941803692,        !- Vertex 2 Xcoordinate
    4928524.46874459,         !- Vertex 2 Ycoordinate
    0,                        !- Vertex 2 Zcoordinate
    686775.4329826285,        !- Vertex 3 Xcoordinate
    4928534.884171297,        !- Vertex 3 Ycoordinate
    0,                        !- Vertex 3 Zcoordinate
    686775.4329826285,        !- Vertex 4 Xcoordinate
    4928534.884171297,        !- Vertex 4 Ycoordinate
    15;                       !- Vertex 4 Zcoordinate

SHADING:SITE:DETAILED,
    shade_33063_2,            !- Name
    ,                         !- Transmittance Schedule Name
    autocalculate,            !- Number of Vertices
    686775.4329826285,        !- Vertex 1 Xcoordinate
    4928534.884171297,        !- Vertex 1 Ycoordinate
    15,                       !- Vertex 1 Zcoordinate
    686775.4329826285,        !- Vertex 2 Xcoordinate
    4928534.884171297,        !- Vertex 2 Ycoordinate
    0,                        !- Vertex 2 Zcoordinate
    686778.566654682,         !- Vertex 3 Xcoordinate
    4928544.048981023,        !- Vertex 3 Ycoordinate
    0,                        !- Vertex 3 Zcoordinate
    686778.566654682,         !- Vertex 4 Xcoordinate
    4928544.048981023,        !- Vertex 4 Ycoordinate
    15;                       !- Vertex 4 Zcoordinate

SHADING:SITE:DETAILED,
    shade_33063_3,            !- Name
    ,                         !- Transmittance Schedule Name
    autocalculate,            !- Number of Vertices
    686778.566654682,         !- Vertex 1 Xcoordinate
    4928544.048981023,        !- Vertex 1 Ycoordinate
    15,                       !- Vertex 1 Zcoordinate
    686778.566654682,         !- Vertex 2 Xcoordinate
    4928544.048981023,        !- Vertex 2 Ycoordinate
    0,                        !- Vertex 2 Zcoordinate
    686809.0278524228,        !- Vertex 3 Xcoordinate
    4928533.633554317,        !- Vertex 3 Ycoordinate
    0,                        !- Vertex 3 Zcoordinate
    686809.0278524228,        !- Vertex 4 Xcoordinate
    4928533.633554317,        !- Vertex 4 Ycoordinate
    15;                       !- Vertex 4 Zcoordinate

SHADING:SITE:DETAILED,
    shade_33063_4,            !- Name
    ,                         !- Transmittance Schedule Name
    autocalculate,            !- Number of Vertices
    686809.0278524228,        !- Vertex 1 Xcoordinate
    4928533.633554317,        !- Vertex 1 Ycoordinate
    15,                       !- Vertex 1 Zcoordinate
    686809.0278524228,        !- Vertex 2 Xcoordinate
    4928533.633554317,        !- Vertex 2 Ycoordinate
    0,                        !- Vertex 2 Zcoordinate
    686805.8941803692,        !- Vertex 3 Xcoordinate
    4928524.46874459,         !- Vertex 3 Ycoordinate
    0,                        !- Vertex 3 Zcoordinate
    686805.8941803692,        !- Vertex 4 Xcoordinate
    4928524.46874459,         !- Vertex 4 Ycoordinate
    15;                       !- Vertex 4 Zcoordinate

SHADING:SITE:DETAILED,
    shade_33083_1,            !- Name
    ,                         !- Transmittance Schedule Name
    autocalculate,            !- Number of Vertices
    686772.3233492662,        !- Vertex 1 Xcoordinate
    4928530.863061022,        !- Vertex 1 Ycoordinate
    15,                       !- Vertex 1 Zcoordinate
    686772.3233492662,        !- Vertex 2 Xcoordinate
    4928530.863061022,        !- Vertex 2 Ycoordinate
    0,                        !- Vertex 2 Zcoordinate
    686762.5421165368,        !- Vertex 3 Xcoordinate
    4928533.514537133,        !- Vertex 3 Ycoordinate
    0,                        !- Vertex 3 Zcoordinate
    686762.5421165368,        !- Vertex 4 Xcoordinate
    4928533.514537133,        !- Vertex 4 Ycoordinate
    15;                       !- Vertex 4 Zcoordinate

SHADING:SITE:DETAILED,
    shade_33083_2,            !- Name
    ,                         !- Transmittance Schedule Name
    autocalculate,            !- Number of Vertices
    686762.5421165368,        !- Vertex 1 Xcoordinate
    4928533.514537133,        !- Vertex 1 Ycoordinate
    15,                       !- Vertex 1 Zcoordinate
    686762.5421165368,        !- Vertex 2 Xcoordinate
    4928533.514537133,        !- Vertex 2 Ycoordinate
    0,                        !- Vertex 2 Zcoordinate
    686763.8687587637,        !- Vertex 3 Xcoordinate
    4928538.408488972,        !- Vertex 3 Ycoordinate
    0,                        !- Vertex 3 Zcoordinate
    686763.8687587637,        !- Vertex 4 Xcoordinate
    4928538.408488972,        !- Vertex 4 Ycoordinate
    15;                       !- Vertex 4 Zcoordinate

SHADING:SITE:DETAILED,
    shade_33083_3,            !- Name
    ,                         !- Transmittance Schedule Name
    autocalculate,            !- Number of Vertices
    686763.8687587637,        !- Vertex 1 Xcoordinate
    4928538.408488972,        !- Vertex 1 Ycoordinate
    15,                       !- Vertex 1 Zcoordinate
    686763.8687587637,        !- Vertex 2 Xcoordinate
    4928538.408488972,        !- Vertex 2 Ycoordinate
    0,                        !- Vertex 2 Zcoordinate
    686773.6499914931,        !- Vertex 3 Xcoordinate
    4928535.757012861,        !- Vertex 3 Ycoordinate
    0,                        !- Vertex 3 Zcoordinate
    686773.6499914931,        !- Vertex 4 Xcoordinate
    4928535.757012861,        !- Vertex 4 Ycoordinate
    15;                       !- Vertex 4 Zcoordinate

SHADING:SITE:DETAILED,
    shade_33083_4,            !- Name
    ,                         !- Transmittance Schedule Name
    autocalculate,            !- Number of Vertices
    686773.6499914931,        !- Vertex 1 Xcoordinate
    4928535.757012861,        !- Vertex 1 Ycoordinate
    15,                       !- Vertex 1 Zcoordinate
    686773.6499914931,        !- Vertex 2 Xcoordinate
    4928535.757012861,        !- Vertex 2 Ycoordinate
    0,                        !- Vertex 2 Zcoordinate
    686772.3233492662,        !- Vertex 3 Xcoordinate
    4928530.863061022,        !- Vertex 3 Ycoordinate
    0,                        !- Vertex 3 Zcoordinate
    686772.3233492662,        !- Vertex 4 Xcoordinate
    4928530.863061022,        !- Vertex 4 Ycoordinate
    15;                       !- Vertex 4 Zcoordinate

SHADING:SITE:DETAILED,
    shade_32911_1,            !- Name
    ,                         !- Transmittance Schedule Name
    autocalculate,            !- Number of Vertices
    686788.5455731963,        !- Vertex 1 Xcoordinate
    4928564.042266866,        !- Vertex 1 Ycoordinate
    15,                       !- Vertex 1 Zcoordinate
    686788.5455731963,        !- Vertex 2 Xcoordinate
    4928564.042266866,        !- Vertex 2 Ycoordinate
    0,                        !- Vertex 2 Zcoordinate
    686816.7462405761,        !- Vertex 3 Xcoordinate
    4928552.806993384,        !- Vertex 3 Ycoordinate
    0,                        !- Vertex 3 Zcoordinate
    686816.7462405761,        !- Vertex 4 Xcoordinate
    4928552.806993384,        !- Vertex 4 Ycoordinate
    15;                       !- Vertex 4 Zcoordinate

SHADING:SITE:DETAILED,
    shade_32911_2,            !- Name
    ,                         !- Transmittance Schedule Name
    autocalculate,            !- Number of Vertices
    686816.7462405761,        !- Vertex 1 Xcoordinate
    4928552.806993384,        !- Vertex 1 Ycoordinate
    15,                       !- Vertex 1 Zcoordinate
    686816.7462405761,        !- Vertex 2 Xcoordinate
    4928552.806993384,        !- Vertex 2 Ycoordinate
    0,                        !- Vertex 2 Zcoordinate
    686810.3416233598,        !- Vertex 3 Xcoordinate
    4928536.7313295305,       !- Vertex 3 Ycoordinate
    0,                        !- Vertex 3 Zcoordinate
    686810.3416233598,        !- Vertex 4 Xcoordinate
    4928536.7313295305,       !- Vertex 4 Ycoordinate
    15;                       !- Vertex 4 Zcoordinate

SHADING:SITE:DETAILED,
    shade_32911_3,            !- Name
    ,                         !- Transmittance Schedule Name
    autocalculate,            !- Number of Vertices
    686810.3416233598,        !- Vertex 1 Xcoordinate
    4928536.7313295305,       !- Vertex 1 Ycoordinate
    15,                       !- Vertex 1 Zcoordinate
    686810.3416233598,        !- Vertex 2 Xcoordinate
    4928536.7313295305,       !- Vertex 2 Ycoordinate
    0,                        !- Vertex 2 Zcoordinate
    686782.14095598,          !- Vertex 3 Xcoordinate
    4928547.966603013,        !- Vertex 3 Ycoordinate
    0,                        !- Vertex 3 Zcoordinate
    686782.14095598,          !- Vertex 4 Xcoordinate
    4928547.966603013,        !- Vertex 4 Ycoordinate
    15;                       !- Vertex 4 Zcoordinate

SHADING:SITE:DETAILED,
    shade_32911_4,            !- Name
    ,                         !- Transmittance Schedule Name
    autocalculate,            !- Number of Vertices
    686782.14095598,          !- Vertex 1 Xcoordinate
    4928547.966603013,        !- Vertex 1 Ycoordinate
    15,                       !- Vertex 1 Zcoordinate
    686782.14095598,          !- Vertex 2 Xcoordinate
    4928547.966603013,        !- Vertex 2 Ycoordinate
    0,                        !- Vertex 2 Zcoordinate
    686788.5455731963,        !- Vertex 3 Xcoordinate
    4928564.042266866,        !- Vertex 3 Ycoordinate
    0,                        !- Vertex 3 Zcoordinate
    686788.5455731963,        !- Vertex 4 Xcoordinate
    4928564.042266866,        !- Vertex 4 Ycoordinate
    15;                       !- Vertex 4 Zcoordinate

SHADING:SITE:DETAILED,
    shade_32955_1,            !- Name
    ,                         !- Transmittance Schedule Name
    autocalculate,            !- Number of Vertices
    686735.8044854656,        !- Vertex 1 Xcoordinate
    4928558.828466693,        !- Vertex 1 Ycoordinate
    15,                       !- Vertex 1 Zcoordinate
    686735.8044854656,        !- Vertex 2 Xcoordinate
    4928558.828466693,        !- Vertex 2 Ycoordinate
    0,                        !- Vertex 2 Zcoordinate
    686768.7815516542,        !- Vertex 3 Xcoordinate
    4928550.01780014,         !- Vertex 3 Ycoordinate
    0,                        !- Vertex 3 Zcoordinate
    686768.7815516542,        !- Vertex 4 Xcoordinate
    4928550.01780014,         !- Vertex 4 Ycoordinate
    15;                       !- Vertex 4 Zcoordinate

SHADING:SITE:DETAILED,
    shade_32955_2,            !- Name
    ,                         !- Transmittance Schedule Name
    autocalculate,            !- Number of Vertices
    686768.7815516542,        !- Vertex 1 Xcoordinate
    4928550.01780014,         !- Vertex 1 Ycoordinate
    15,                       !- Vertex 1 Zcoordinate
    686768.7815516542,        !- Vertex 2 Xcoordinate
    4928550.01780014,         !- Vertex 2 Ycoordinate
    0,                        !- Vertex 2 Zcoordinate
    686767.0936497176,        !- Vertex 3 Xcoordinate
    4928543.700224322,        !- Vertex 3 Ycoordinate
    0,                        !- Vertex 3 Zcoordinate
    686767.0936497176,        !- Vertex 4 Xcoordinate
    4928543.700224322,        !- Vertex 4 Ycoordinate
    15;                       !- Vertex 4 Zcoordinate

SHADING:SITE:DETAILED,
    shade_32955_3,            !- Name
    ,                         !- Transmittance Schedule Name
    autocalculate,            !- Number of Vertices
    686767.0936497176,        !- Vertex 1 Xcoordinate
    4928543.700224322,        !- Vertex 1 Ycoordinate
    15,                       !- Vertex 1 Zcoordinate
    686767.0936497176,        !- Vertex 2 Xcoordinate
    4928543.700224322,        !- Vertex 2 Ycoordinate
    0,                        !- Vertex 2 Zcoordinate
    686734.1165835292,        !- Vertex 3 Xcoordinate
    4928552.510890874,        !- Vertex 3 Ycoordinate
    0,                        !- Vertex 3 Zcoordinate
    686734.1165835292,        !- Vertex 4 Xcoordinate
    4928552.510890874,        !- Vertex 4 Ycoordinate
    15;                       !- Vertex 4 Zcoordinate

SHADING:SITE:DETAILED,
    shade_32955_4,            !- Name
    ,                         !- Transmittance Schedule Name
    autocalculate,            !- Number of Vertices
    686734.1165835292,        !- Vertex 1 Xcoordinate
    4928552.510890874,        !- Vertex 1 Ycoordinate
    15,                       !- Vertex 1 Zcoordinate
    686734.1165835292,        !- Vertex 2 Xcoordinate
    4928552.510890874,        !- Vertex 2 Ycoordinate
    0,                        !- Vertex 2 Zcoordinate
    686735.8044854656,        !- Vertex 3 Xcoordinate
    4928558.828466693,        !- Vertex 3 Ycoordinate
    0,                        !- Vertex 3 Zcoordinate
    686735.8044854656,        !- Vertex 4 Xcoordinate
    4928558.828466693,        !- Vertex 4 Ycoordinate
    15;                       !- Vertex 4 Zcoordinate

SHADING:SITE:DETAILED,
    shade_32860_1,            !- Name
    ,                         !- Transmittance Schedule Name
    autocalculate,            !- Number of Vertices
    686735.0079984928,        !- Vertex 1 Xcoordinate
    4928569.475119189,        !- Vertex 1 Ycoordinate
    15,                       !- Vertex 1 Zcoordinate
    686735.0079984928,        !- Vertex 2 Xcoordinate
    4928569.475119189,        !- Vertex 2 Ycoordinate
    0,                        !- Vertex 2 Zcoordinate
    686775.8772805525,        !- Vertex 3 Xcoordinate
    4928562.105977417,        !- Vertex 3 Ycoordinate
    0,                        !- Vertex 3 Zcoordinate
    686775.8772805525,        !- Vertex 4 Xcoordinate
    4928562.105977417,        !- Vertex 4 Ycoordinate
    15;                       !- Vertex 4 Zcoordinate

SHADING:SITE:DETAILED,
    shade_32860_2,            !- Name
    ,                         !- Transmittance Schedule Name
    autocalculate,            !- Number of Vertices
    686775.8772805525,        !- Vertex 1 Xcoordinate
    4928562.105977417,        !- Vertex 1 Ycoordinate
    15,                       !- Vertex 1 Zcoordinate
    686775.8772805525,        !- Vertex 2 Xcoordinate
    4928562.105977417,        !- Vertex 2 Ycoordinate
    0,                        !- Vertex 2 Zcoordinate
    686773.6454565977,        !- Vertex 3 Xcoordinate
    4928549.728791916,        !- Vertex 3 Ycoordinate
    0,                        !- Vertex 3 Zcoordinate
    686773.6454565977,        !- Vertex 4 Xcoordinate
    4928549.728791916,        !- Vertex 4 Ycoordinate
    15;                       !- Vertex 4 Zcoordinate

SHADING:SITE:DETAILED,
    shade_32860_3,            !- Name
    ,                         !- Transmittance Schedule Name
    autocalculate,            !- Number of Vertices
    686773.6454565977,        !- Vertex 1 Xcoordinate
    4928549.728791916,        !- Vertex 1 Ycoordinate
    15,                       !- Vertex 1 Zcoordinate
    686773.6454565977,        !- Vertex 2 Xcoordinate
    4928549.728791916,        !- Vertex 2 Ycoordinate
    0,                        !- Vertex 2 Zcoordinate
    686732.7761737197,        !- Vertex 3 Xcoordinate
    4928557.098241483,        !- Vertex 3 Ycoordinate
    0,                        !- Vertex 3 Zcoordinate
    686732.7761737197,        !- Vertex 4 Xcoordinate
    4928557.098241483,        !- Vertex 4 Ycoordinate
    15;                       !- Vertex 4 Zcoordinate

SHADING:SITE:DETAILED,
    shade_32860_4,            !- Name
    ,                         !- Transmittance Schedule Name
    autocalculate,            !- Number of Vertices
    686732.7761737197,        !- Vertex 1 Xcoordinate
    4928557.098241483,        !- Vertex 1 Ycoordinate
    15,                       !- Vertex 1 Zcoordinate
    686732.7761737197,        !- Vertex 2 Xcoordinate
    4928557.098241483,        !- Vertex 2 Ycoordinate
    0,                        !- Vertex 2 Zcoordinate
    686735.0079984928,        !- Vertex 3 Xcoordinate
    4928569.475119189,        !- Vertex 3 Ycoordinate
    0,                        !- Vertex 3 Zcoordinate
    686735.0079984928,        !- Vertex 4 Xcoordinate
    4928569.475119189,        !- Vertex 4 Ycoordinate
    15;                       !- Vertex 4 Zcoordinate

SHADING:SITE:DETAILED,
    shade_32800_1,            !- Name
    ,                         !- Transmittance Schedule Name
    autocalculate,            !- Number of Vertices
    686734.5609984926,        !- Vertex 1 Xcoordinate
    4928578.509119188,        !- Vertex 1 Ycoordinate
    15,                       !- Vertex 1 Zcoordinate
    686734.5609984926,        !- Vertex 2 Xcoordinate
    4928578.509119188,        !- Vertex 2 Ycoordinate
    0,                        !- Vertex 2 Zcoordinate
    686768.9200138617,        !- Vertex 3 Xcoordinate
    4928571.363016109,        !- Vertex 3 Ycoordinate
    0,                        !- Vertex 3 Zcoordinate
    686768.9200138617,        !- Vertex 4 Xcoordinate
    4928571.363016109,        !- Vertex 4 Ycoordinate
    15;                       !- Vertex 4 Zcoordinate

SHADING:SITE:DETAILED,
    shade_32800_2,            !- Name
    ,                         !- Transmittance Schedule Name
    autocalculate,            !- Number of Vertices
    686768.9200138617,        !- Vertex 1 Xcoordinate
    4928571.363016109,        !- Vertex 1 Ycoordinate
    15,                       !- Vertex 1 Zcoordinate
    686768.9200138617,        !- Vertex 2 Xcoordinate
    4928571.363016109,        !- Vertex 2 Ycoordinate
    0,                        !- Vertex 2 Zcoordinate
    686767.1330203194,        !- Vertex 3 Xcoordinate
    4928562.770885732,        !- Vertex 3 Ycoordinate
    0,                        !- Vertex 3 Zcoordinate
    686767.1330203194,        !- Vertex 4 Xcoordinate
    4928562.770885732,        !- Vertex 4 Ycoordinate
    15;                       !- Vertex 4 Zcoordinate

SHADING:SITE:DETAILED,
    shade_32800_3,            !- Name
    ,                         !- Transmittance Schedule Name
    autocalculate,            !- Number of Vertices
    686767.1330203194,        !- Vertex 1 Xcoordinate
    4928562.770885732,        !- Vertex 1 Ycoordinate
    15,                       !- Vertex 1 Zcoordinate
    686767.1330203194,        !- Vertex 2 Xcoordinate
    4928562.770885732,        !- Vertex 2 Ycoordinate
    0,                        !- Vertex 2 Zcoordinate
    686732.7738880132,        !- Vertex 3 Xcoordinate
    4928569.916907139,        !- Vertex 3 Ycoordinate
    0,                        !- Vertex 3 Zcoordinate
    686732.7738880132,        !- Vertex 4 Xcoordinate
    4928569.916907139,        !- Vertex 4 Ycoordinate
    15;                       !- Vertex 4 Zcoordinate

SHADING:SITE:DETAILED,
    shade_32800_4,            !- Name
    ,                         !- Transmittance Schedule Name
    autocalculate,            !- Number of Vertices
    686732.7738880132,        !- Vertex 1 Xcoordinate
    4928569.916907139,        !- Vertex 1 Ycoordinate
    15,                       !- Vertex 1 Zcoordinate
    686732.7738880132,        !- Vertex 2 Xcoordinate
    4928569.916907139,        !- Vertex 2 Ycoordinate
    0,                        !- Vertex 2 Zcoordinate
    686734.5609984926,        !- Vertex 3 Xcoordinate
    4928578.509119188,        !- Vertex 3 Ycoordinate
    0,                        !- Vertex 3 Zcoordinate
    686734.5609984926,        !- Vertex 4 Xcoordinate
    4928578.509119188,        !- Vertex 4 Ycoordinate
    15;                       !- Vertex 4 Zcoordinate

SHADING:SITE:DETAILED,
    shade_32997_1,            !- Name
    ,                         !- Transmittance Schedule Name
    autocalculate,            !- Number of Vertices
    686735.8489984927,        !- Vertex 1 Xcoordinate
    4928552.6351191895,       !- Vertex 1 Ycoordinate
    15,                       !- Vertex 1 Zcoordinate
    686735.8489984927,        !- Vertex 2 Xcoordinate
    4928552.6351191895,       !- Vertex 2 Ycoordinate
    0,                        !- Vertex 2 Zcoordinate
    686758.761482116,         !- Vertex 3 Xcoordinate
    4928546.303277484,        !- Vertex 3 Ycoordinate
    0,                        !- Vertex 3 Zcoordinate
    686758.761482116,         !- Vertex 4 Xcoordinate
    4928546.303277484,        !- Vertex 4 Ycoordinate
    15;                       !- Vertex 4 Zcoordinate

SHADING:SITE:DETAILED,
    shade_32997_2,            !- Name
    ,                         !- Transmittance Schedule Name
    autocalculate,            !- Number of Vertices
    686758.761482116,         !- Vertex 1 Xcoordinate
    4928546.303277484,        !- Vertex 1 Ycoordinate
    15,                       !- Vertex 1 Zcoordinate
    686758.761482116,         !- Vertex 2 Xcoordinate
    4928546.303277484,        !- Vertex 2 Ycoordinate
    0,                        !- Vertex 2 Zcoordinate
    686757.4625284264,        !- Vertex 3 Xcoordinate
    4928541.603075044,        !- Vertex 3 Ycoordinate
    0,                        !- Vertex 3 Zcoordinate
    686757.4625284264,        !- Vertex 4 Xcoordinate
    4928541.603075044,        !- Vertex 4 Ycoordinate
    15;                       !- Vertex 4 Zcoordinate

SHADING:SITE:DETAILED,
    shade_32997_3,            !- Name
    ,                         !- Transmittance Schedule Name
    autocalculate,            !- Number of Vertices
    686757.4625284264,        !- Vertex 1 Xcoordinate
    4928541.603075044,        !- Vertex 1 Ycoordinate
    15,                       !- Vertex 1 Zcoordinate
    686757.4625284264,        !- Vertex 2 Xcoordinate
    4928541.603075044,        !- Vertex 2 Ycoordinate
    0,                        !- Vertex 2 Zcoordinate
    686734.5503803306,        !- Vertex 3 Xcoordinate
    4928547.935104278,        !- Vertex 3 Ycoordinate
    0,                        !- Vertex 3 Zcoordinate
    686734.5503803306,        !- Vertex 4 Xcoordinate
    4928547.935104278,        !- Vertex 4 Ycoordinate
    15;                       !- Vertex 4 Zcoordinate

SHADING:SITE:DETAILED,
    shade_32997_4,            !- Name
    ,                         !- Transmittance Schedule Name
    autocalculate,            !- Number of Vertices
    686734.5503803306,        !- Vertex 1 Xcoordinate
    4928547.935104278,        !- Vertex 1 Ycoordinate
    15,                       !- Vertex 1 Zcoordinate
    686734.5503803306,        !- Vertex 2 Xcoordinate
    4928547.935104278,        !- Vertex 2 Ycoordinate
    0,                        !- Vertex 2 Zcoordinate
    686735.8489984927,        !- Vertex 3 Xcoordinate
    4928552.6351191895,       !- Vertex 3 Ycoordinate
    0,                        !- Vertex 3 Zcoordinate
    686735.8489984927,        !- Vertex 4 Xcoordinate
    4928552.6351191895,       !- Vertex 4 Ycoordinate
    15;                       !- Vertex 4 Zcoordinate

OTHEREQUIPMENT,
    EU_Step8_InternalGain_aed049e40545a6f5_F0_dwelling_0_f000,    !- Name
    Electricity,              !- Fuel Type
    aed049e40545a6f5_F0_dwelling_0,    !- Zone or ZoneList or Space or SpaceList Name
    EU_Step8_GainSchedule_aed049e40545a6f5_F0_dwelling_0_f000,    !- Schedule Name
    Watts/Area,               !- Design Level Calculation Method
    ,                         !- Design Level
    1,                        !- Power per Zone Floor Area
    ,                         !- Power per Person
    0,                        !- Fraction Latent
    0,                        !- Fraction Radiant
    0,                        !- Fraction Lost
    0,                        !- Carbon Dioxide Generation Rate
    EU_Step8_InternalGains;    !- EndUse Subcategory

ZONEVENTILATION:DESIGNFLOWRATE,
    EU_ConstantAir_aed049e40545a6f5_F0_dwelling_0,    !- Name
    aed049e40545a6f5_F0_dwelling_0,    !- Zone or ZoneList or Space or SpaceList Name
    EU_AlwaysOn,              !- Schedule Name
    AirChanges/Hour,          !- Design Flow Rate Calculation Method
    ,                         !- Design Flow Rate
    ,                         !- Flow Rate per Floor Area
    ,                         !- Flow Rate per Person
    0.6553197946817704,       !- Air Changes per Hour
    Natural,                  !- Ventilation Type
    0,                        !- Fan Pressure Rise
    1,                        !- Fan Total Efficiency
    1,                        !- Constant Term Coefficient
    0,                        !- Temperature Term Coefficient
    0,                        !- Velocity Term Coefficient
    0,                        !- Velocity Squared Term Coefficient
    -100,                     !- Minimum Indoor Temperature
    ,                         !- Minimum Indoor Temperature Schedule Name
    100,                      !- Maximum Indoor Temperature
    ,                         !- Maximum Indoor Temperature Schedule Name
    -100,                     !- Delta Temperature
    ,                         !- Delta Temperature Schedule Name
    -100,                     !- Minimum Outdoor Temperature
    ,                         !- Minimum Outdoor Temperature Schedule Name
    100,                      !- Maximum Outdoor Temperature
    ,                         !- Maximum Outdoor Temperature Schedule Name
    40;                       !- Maximum Wind Speed

HVACTEMPLATE:THERMOSTAT,
    EU_HeatOnly_aed049e40545a6f5_F0_dwelling_0,    !- Name
    ,                         !- Heating Setpoint Schedule Name
    20,                       !- Constant Heating Setpoint
    ,                         !- Cooling Setpoint Schedule Name
    50;                       !- Constant Cooling Setpoint

HVACTEMPLATE:ZONE:IDEALLOADSAIRSYSTEM,
    aed049e40545a6f5_F0_dwelling_0,    !- Zone Name
    EU_HeatOnly_aed049e40545a6f5_F0_dwelling_0,    !- Template Thermostat Name
    EU_AlwaysOn,              !- System Availability Schedule Name
    50,                       !- Maximum Heating Supply Air Temperature
    13,                       !- Minimum Cooling Supply Air Temperature
    0.0156,                   !- Maximum Heating Supply Air Humidity Ratio
    0.0077,                   !- Minimum Cooling Supply Air Humidity Ratio
    NoLimit,                  !- Heating Limit
    ,                         !- Maximum Heating Air Flow Rate
    ,                         !- Maximum Sensible Heating Capacity
    NoLimit,                  !- Cooling Limit
    ,                         !- Maximum Cooling Air Flow Rate
    ,                         !- Maximum Total Cooling Capacity
    EU_AlwaysOn,              !- Heating Availability Schedule Name
    EU_CoolingOff,            !- Cooling Availability Schedule Name
    ConstantSensibleHeatRatio,    !- Dehumidification Control Type
    0.7,                      !- Cooling Sensible Heat Ratio
    60,                       !- Dehumidification Setpoint
    None,                     !- Humidification Control Type
    30,                       !- Humidification Setpoint
    None,                     !- Outdoor Air Method
    0.00944,                  !- Outdoor Air Flow Rate per Person
    0.0,                      !- Outdoor Air Flow Rate per Zone Floor Area
    0,                        !- Outdoor Air Flow Rate per Zone
    ,                         !- Design Specification Outdoor Air Object Name
    None,                     !- Demand Controlled Ventilation Type
    NoEconomizer,             !- Outdoor Air Economizer Type
    None,                     !- Heat Recovery Type
    0.70,                     !- Sensible Heat Recovery Effectiveness
    0.65;                     !- Latent Heat Recovery Effectiveness

SIZING:ZONE,
    aed049e40545a6f5_F0_dwelling_0,    !- Zone or ZoneList Name
    SupplyAirTemperature,     !- Zone Cooling Design Supply Air Temperature Input Method
    13,                       !- Zone Cooling Design Supply Air Temperature
    ,                         !- Zone Cooling Design Supply Air Temperature Difference
    SupplyAirTemperature,     !- Zone Heating Design Supply Air Temperature Input Method
    50,                       !- Zone Heating Design Supply Air Temperature
    ,                         !- Zone Heating Design Supply Air Temperature Difference
    0.008,                    !- Zone Cooling Design Supply Air Humidity Ratio
    0.008,                    !- Zone Heating Design Supply Air Humidity Ratio
    ,                         !- Design Specification Outdoor Air Object Name
    ,                         !- Zone Heating Sizing Factor
    ,                         !- Zone Cooling Sizing Factor
    DesignDay,                !- Cooling Design Air Flow Method
    0,                        !- Cooling Design Air Flow Rate
    0.000762,                 !- Cooling Minimum Air Flow per Zone Floor Area
    0,                        !- Cooling Minimum Air Flow
    0.2,                      !- Cooling Minimum Air Flow Fraction
    DesignDay,                !- Heating Design Air Flow Method
    0,                        !- Heating Design Air Flow Rate
    0.002032,                 !- Heating Maximum Air Flow per Zone Floor Area
    0.1415762,                !- Heating Maximum Air Flow
    0.3,                      !- Heating Maximum Air Flow Fraction
    ,                         !- Design Specification Zone Air Distribution Object Name
    No,                       !- Account for Dedicated Outdoor Air System
    NeutralSupplyAir,         !- Dedicated Outdoor Air System Control Strategy
    autosize,                 !- Dedicated Outdoor Air Low Setpoint Temperature for Design
    autosize,                 !- Dedicated Outdoor Air High Setpoint Temperature for Design
    Sensible Load Only No Latent Load,    !- Zone Load Sizing Method
    HumidityRatioDifference,    !- Zone Latent Cooling Design Supply Air Humidity Ratio Input Method
    ,                         !- Zone Dehumidification Design Supply Air Humidity Ratio
    0.005,                    !- Zone Cooling Design Supply Air Humidity Ratio Difference
    HumidityRatioDifference,    !- Zone Latent Heating Design Supply Air Humidity Ratio Input Method
    ,                         !- Zone Humidification Design Supply Air Humidity Ratio
    0.005;                    !- Zone Humidification Design Supply Air Humidity Ratio Difference

OUTPUT:VARIABLE,
    *,                        !- Key Value
    Zone Ideal Loads Zone Total Heating Energy,    !- Variable Name
    Hourly;                   !- Reporting Frequency

OUTPUT:SQLITE,
    SimpleAndTabular,         !- Option Type
    UseOutputControlTableStyle;    !- Unit Conversion for Tabular Data