!- Windows Line endings 

Version,
    23.1;                     !- Version Identifier

SimulationControl,
    Yes,                      !- Do Zone Sizing Calculation
    Yes,                      !- Do System Sizing Calculation
    Yes,                      !- Do Plant Sizing Calculation
    No,                       !- Run Simulation for Sizing Periods
    Yes,                      !- Run Simulation for Weather File Run Periods
    No,                       !- Do HVAC Sizing Simulation for Sizing Periods
    1;                        !- Maximum Number of HVAC Sizing Simulation Passes

Building,
    EU S2 Campaign,           !- Name
    0,                        !- North Axis
    City,                     !- Terrain
    ,                         !- Loads Convergence Tolerance Value
    ,                         !- Temperature Convergence Tolerance Value
    FullExterior,             !- Solar Distribution
    ,                         !- Maximum Number of Warmup Days
    ;                         !- Minimum Number of Warmup Days

ShadowCalculation,
    PolygonClipping,          !- Shading Calculation Method
    Periodic,                 !- Shading Calculation Update Frequency Method
    1;                        !- Shading Calculation Update Frequency

HeatBalanceAlgorithm,
    ConductionTransferFunction,    !- Algorithm
    200,                      !- Surface Temperature Upper Limit
    0.1,                      !- Minimum Surface Convection Heat Transfer Coefficient Value
    10000000;                 !- Maximum Surface Convection Heat Transfer Coefficient Value

Timestep,
    12;                       !- Number of Timesteps per Hour

Site:Location,
    Lyon-Bron,                !- Name
    45.75,                    !- Latitude
    5,                        !- Longitude
    1,                        !- Time Zone
    198;                      !- Elevation

SizingPeriod:WeatherFileDays,
    AnnualSizingPeriod,       !- Name
    1,                        !- Begin Month
    1,                        !- Begin Day of Month
    12,                       !- End Month
    31,                       !- End Day of Month
    Monday,                   !- Day of Week for Start Day
    No,                       !- Use Weather File Daylight Saving Period
    No;                       !- Use Weather File Rain and Snow Indicators

RunPeriod,
    RunPeriod1,               !- Name
    1,                        !- Begin Month
    1,                        !- Begin Day of Month
    ,                         !- Begin Year
    12,                       !- End Month
    31,                       !- End Day of Month
    ,                         !- End Year
    Sunday,                   !- Day of Week for Start Day
    No,                       !- Use Weather File Holidays and Special Days
    No,                       !- Use Weather File Daylight Saving Period
    No,                       !- Apply Weekend Holiday Rule
    Yes,                      !- Use Weather File Rain Indicators
    Yes;                      !- Use Weather File Snow Indicators

ScheduleTypeLimits,
    Any Number;               !- Name

SCHEDULETYPELIMITS,
    EU_Step8_AnyNumber_Wm2,    !- Name
    ,                         !- Lower Limit Value
    ,                         !- Upper Limit Value
    Continuous,               !- Numeric Type
    Dimensionless;            !- Unit Type

SCHEDULE:CONSTANT,
    EU_AlwaysOn,              !- Name
    ,                         !- Schedule Type Limits Name
    1;                        !- Hourly Value

SCHEDULE:CONSTANT,
    EU_CoolingOff,            !- Name
    ,                         !- Schedule Type Limits Name
    0;                        !- Hourly Value

SCHEDULE:FILE,
    EU_Step8_GainSchedule_3ca288d3449d4455_F0_dwelling_0_f000,    !- Name
    EU_Step8_AnyNumber_Wm2,    !- Schedule Type Limits Name
    ../../schedules/3ca288d3449d4455/3ca288d3449d4455_F0_dwelling_0_f000_gain.csv,    !- File Name
    1,                        !- Column Number
    0,                        !- Rows to Skip at Top
    8760,                     !- Number of Hours of Data
    Comma,                    !- Column Separator
    No,                       !- Interpolate to Timestep
    60,                       !- Minutes per Item
    Yes;                      !- Adjust Schedule for Daylight Savings

SCHEDULE:FILE,
    EU_Step8_GainSchedule_3ca288d3449d4455_F0_dwelling_1_f000,    !- Name
    EU_Step8_AnyNumber_Wm2,    !- Schedule Type Limits Name
    ../../schedules/3ca288d3449d4455/3ca288d3449d4455_F0_dwelling_1_f000_gain.csv,    !- File Name
    1,                        !- Column Number
    0,                        !- Rows to Skip at Top
    8760,                     !- Number of Hours of Data
    Comma,                    !- Column Separator
    No,                       !- Interpolate to Timestep
    60,                       !- Minutes per Item
    Yes;                      !- Adjust Schedule for Daylight Savings

SCHEDULE:FILE,
    EU_Step8_GainSchedule_3ca288d3449d4455_F1_dwelling_0_f000,    !- Name
    EU_Step8_AnyNumber_Wm2,    !- Schedule Type Limits Name
    ../../schedules/3ca288d3449d4455/3ca288d3449d4455_F1_dwelling_0_f000_gain.csv,    !- File Name
    1,                        !- Column Number
    0,                        !- Rows to Skip at Top
    8760,                     !- Number of Hours of Data
    Comma,                    !- Column Separator
    No,                       !- Interpolate to Timestep
    60,                       !- Minutes per Item
    Yes;                      !- Adjust Schedule for Daylight Savings

SCHEDULE:FILE,
    EU_Step8_GainSchedule_3ca288d3449d4455_F1_dwelling_1_f000,    !- Name
    EU_Step8_AnyNumber_Wm2,    !- Schedule Type Limits Name
    ../../schedules/3ca288d3449d4455/3ca288d3449d4455_F1_dwelling_1_f000_gain.csv,    !- File Name
    1,                        !- Column Number
    0,                        !- Rows to Skip at Top
    8760,                     !- Number of Hours of Data
    Comma,                    !- Column Separator
    No,                       !- Interpolate to Timestep
    60,                       !- Minutes per Item
    Yes;                      !- Adjust Schedule for Daylight Savings

MATERIAL,
    EU_InternalMass_Material,    !- Name
    MediumRough,              !- Roughness
    0.1,                      !- Thickness
    1,                        !- Conductivity
    1800,                     !- Density
    900,                      !- Specific Heat
    0.9,                      !- Thermal Absorptance
    0.7,                      !- Solar Absorptance
    0.7;                      !- Visible Absorptance

MATERIAL:NOMASS,
    EU_wall_NoMass,           !- Name
    MediumRough,              !- Roughness
    0.8714596949891068,       !- Thermal Resistance
    0.9,                      !- Thermal Absorptance
    0.7,                      !- Solar Absorptance
    0.7;                      !- Visible Absorptance

MATERIAL:NOMASS,
    EU_roof_NoMass,           !- Name
    MediumRough,              !- Roughness
    0.8422755303938418,       !- Thermal Resistance
    0.9,                      !- Thermal Absorptance
    0.7,                      !- Solar Absorptance
    0.7;                      !- Visible Absorptance

MATERIAL:NOMASS,
    EU_floor_NoMass,          !- Name
    MediumRough,              !- Roughness
    4.969986e-01,             !- Thermal Resistance
    0.9,                      !- Thermal Absorptance
    0.7,                      !- Solar Absorptance
    0.7;                      !- Visible Absorptance

CONSTRUCTION,
    EU_wall_Construction,     !- Name
    EU_wall_NoMass;           !- Outside Layer

CONSTRUCTION,
    EU_roof_Construction,     !- Name
    EU_roof_NoMass;           !- Outside Layer

CONSTRUCTION,
    EU_floor_Construction,    !- Name
    EU_floor_NoMass;          !- Outside Layer

CONSTRUCTION,
    EU_InternalMass_Construction,    !- Name
    EU_InternalMass_Material;    !- Outside Layer

GlobalGeometryRules,
    UpperLeftCorner,          !- Starting Vertex Position
    CounterClockWise,         !- Vertex Entry Direction
    World;                    !- Coordinate System

ZONE,
    3ca288d3449d4455_F0_dwelling_0,    !- Name
    0,                        !- Direction of Relative North
    0,                        !- X Origin
    0,                        !- Y Origin
    0,                        !- Z Origin
    1,                        !- Type
    1,                        !- Multiplier
    autocalculate,            !- Ceiling Height
    132.7265625,              !- Volume
    autocalculate,            !- Floor Area
    ,                         !- Zone Inside Convection Algorithm
    ,                         !- Zone Outside Convection Algorithm
    Yes;                      !- Part of Total Floor Area

ZONE,
    3ca288d3449d4455_F1_dwelling_0,    !- Name
    0,                        !- Direction of Relative North
    0,                        !- X Origin
    0,                        !- Y Origin
    0,                        !- Z Origin
    1,                        !- Type
    1,                        !- Multiplier
    autocalculate,            !- Ceiling Height
    132.727294921875,         !- Volume
    autocalculate,            !- Floor Area
    ,                         !- Zone Inside Convection Algorithm
    ,                         !- Zone Outside Convection Algorithm
    Yes;                      !- Part of Total Floor Area

ZONE,
    3ca288d3449d4455_F0_dwelling_1,    !- Name
    0,                        !- Direction of Relative North
    0,                        !- X Origin
    0,                        !- Y Origin
    0,                        !- Z Origin
    1,                        !- Type
    1,                        !- Multiplier
    autocalculate,            !- Ceiling Height
    132.72509765625,          !- Volume
    autocalculate,            !- Floor Area
    ,                         !- Zone Inside Convection Algorithm
    ,                         !- Zone Outside Convection Algorithm
    Yes;                      !- Part of Total Floor Area

ZONE,
    3ca288d3449d4455_F1_dwelling_1,    !- Name
    0,                        !- Direction of Relative North
    0,                        !- X Origin
    0,                        !- Y Origin
    0,                        !- Z Origin
    1,                        !- Type
    1,                        !- Multiplier
    autocalculate,            !- Ceiling Height
    132.725830078125,         !- Volume
    autocalculate,            !- Floor Area
    ,                         !- Zone Inside Convection Algorithm
    ,                         !- Zone Outside Convection Algorithm
    Yes;                      !- Part of Total Floor Area

BUILDINGSURFACE:DETAILED,
    Block 3ca288d3449d4455_0 Storey 0 Wall 0001,    !- Name
    wall,                     !- Surface Type
    EU_wall_Construction,     !- Construction Name
    3ca288d3449d4455_F0_dwelling_0,    !- Zone Name
    ,                         !- Space Name
    outdoors,                 !- Outside Boundary Condition
    ,                         !- Outside Boundary Condition Object
    SunExposed,               !- Sun Exposure
    WindExposed,              !- Wind Exposure
    autocalculate,            !- View Factor to Ground
    autocalculate,            !- Number of Vertices
    642462.913,               !- Vertex 1 Xcoordinate
    5070471.988,              !- Vertex 1 Ycoordinate
    3,                        !- Vertex 1 Zcoordinate
    642462.913,               !- Vertex 2 Xcoordinate
    5070471.988,              !- Vertex 2 Ycoordinate
    0,                        !- Vertex 2 Zcoordinate
    642462.512,               !- Vertex 3 Xcoordinate
    5070469.187,              !- Vertex 3 Ycoordinate
    0,                        !- Vertex 3 Zcoordinate
    642462.512,               !- Vertex 4 Xcoordinate
    5070469.187,              !- Vertex 4 Ycoordinate
    3;                        !- Vertex 4 Zcoordinate

BUILDINGSURFACE:DETAILED,
    Block 3ca288d3449d4455_0 Storey 0 Wall 0002,    !- Name
    wall,                     !- Surface Type
    EU_wall_Construction,     !- Construction Name
    3ca288d3449d4455_F0_dwelling_0,    !- Zone Name
    ,                         !- Space Name
    outdoors,                 !- Outside Boundary Condition
    ,                         !- Outside Boundary Condition Object
    SunExposed,               !- Sun Exposure
    WindExposed,              !- Wind Exposure
    autocalculate,            !- View Factor to Ground
    autocalculate,            !- Number of Vertices
    642462.512,               !- Vertex 1 Xcoordinate
    5070469.187,              !- Vertex 1 Ycoordinate
    3,                        !- Vertex 1 Zcoordinate
    642462.512,               !- Vertex 2 Xcoordinate
    5070469.187,              !- Vertex 2 Ycoordinate
    0,                        !- Vertex 2 Zcoordinate
    642460.911,               !- Vertex 3 Xcoordinate
    5070469.387,              !- Vertex 3 Ycoordinate
    0,                        !- Vertex 3 Zcoordinate
    642460.911,               !- Vertex 4 Xcoordinate
    5070469.387,              !- Vertex 4 Ycoordinate
    3;                        !- Vertex 4 Zcoordinate

BUILDINGSURFACE:DETAILED,
    Block 3ca288d3449d4455_0 Storey 0 Wall 0003,    !- Name
    wall,                     !- Surface Type
    EU_wall_Construction,     !- Construction Name
    3ca288d3449d4455_F0_dwelling_0,    !- Zone Name
    ,                         !- Space Name
    Adiabatic,                !- Outside Boundary Condition
    ,                         !- Outside Boundary Condition Object
    NoSun,                    !- Sun Exposure
    NoWind,                   !- Wind Exposure
    autocalculate,            !- View Factor to Ground
    autocalculate,            !- Number of Vertices
    642460.911,               !- Vertex 1 Xcoordinate
    5070469.387,              !- Vertex 1 Ycoordinate
    3,                        !- Vertex 1 Zcoordinate
    642460.911,               !- Vertex 2 Xcoordinate
    5070469.387,              !- Vertex 2 Ycoordinate
    0,                        !- Vertex 2 Zcoordinate
    642461.312,               !- Vertex 3 Xcoordinate
    5070472.69,               !- Vertex 3 Ycoordinate
    0,                        !- Vertex 3 Zcoordinate
    642461.312,               !- Vertex 4 Xcoordinate
    5070472.69,               !- Vertex 4 Ycoordinate
    3;                        !- Vertex 4 Zcoordinate

BUILDINGSURFACE:DETAILED,
    Block 3ca288d3449d4455_0 Storey 0 Wall 0004,    !- Name
    wall,                     !- Surface Type
    EU_wall_Construction,     !- Construction Name
    3ca288d3449d4455_F0_dwelling_0,    !- Zone Name
    ,                         !- Space Name
    outdoors,                 !- Outside Boundary Condition
    ,                         !- Outside Boundary Condition Object
    SunExposed,               !- Sun Exposure
    WindExposed,              !- Wind Exposure
    autocalculate,            !- View Factor to Ground
    autocalculate,            !- Number of Vertices
    642461.312,               !- Vertex 1 Xcoordinate
    5070472.69,               !- Vertex 1 Ycoordinate
    3,                        !- Vertex 1 Zcoordinate
    642461.312,               !- Vertex 2 Xcoordinate
    5070472.69,               !- Vertex 2 Ycoordinate
    0,                        !- Vertex 2 Zcoordinate
    642462.415,               !- Vertex 3 Xcoordinate
    5070480.895,              !- Vertex 3 Ycoordinate
    0,                        !- Vertex 3 Zcoordinate
    642462.415,               !- Vertex 4 Xcoordinate
    5070480.895,              !- Vertex 4 Ycoordinate
    3;                        !- Vertex 4 Zcoordinate

BUILDINGSURFACE:DETAILED,
    Block 3ca288d3449d4455_0 Storey 0 Wall 0005,    !- Name
    wall,                     !- Surface Type
    EU_wall_Construction,     !- Construction Name
    3ca288d3449d4455_F0_dwelling_0,    !- Zone Name
    ,                         !- Space Name
    Adiabatic,                !- Outside Boundary Condition
    ,                         !- Outside Boundary Condition Object
    NoSun,                    !- Sun Exposure
    NoWind,                   !- Wind Exposure
    autocalculate,            !- View Factor to Ground
    autocalculate,            !- Number of Vertices
    642462.415,               !- Vertex 1 Xcoordinate
    5070480.895,              !- Vertex 1 Ycoordinate
    3,                        !- Vertex 1 Zcoordinate
    642462.415,               !- Vertex 2 Xcoordinate
    5070480.895,              !- Vertex 2 Ycoordinate
    0,                        !- Vertex 2 Zcoordinate
    642463.816,               !- Vertex 3 Xcoordinate
    5070480.895,              !- Vertex 3 Ycoordinate
    0,                        !- Vertex 3 Zcoordinate
    642463.816,               !- Vertex 4 Xcoordinate
    5070480.895,              !- Vertex 4 Ycoordinate
    3;                        !- Vertex 4 Zcoordinate

BUILDINGSURFACE:DETAILED,
    Block 3ca288d3449d4455_0 Storey 0 Wall 0006,    !- Name
    wall,                     !- Surface Type
    EU_wall_Construction,     !- Construction Name
    3ca288d3449d4455_F0_dwelling_0,    !- Zone Name
    ,                         !- Space Name
    Adiabatic,                !- Outside Boundary Condition
    ,                         !- Outside Boundary Condition Object
    NoSun,                    !- Sun Exposure
    NoWind,                   !- Wind Exposure
    autocalculate,            !- View Factor to Ground
    autocalculate,            !- Number of Vertices
    642463.816,               !- Vertex 1 Xcoordinate
    5070480.895,              !- Vertex 1 Ycoordinate
    3,                        !- Vertex 1 Zcoordinate
    642463.816,               !- Vertex 2 Xcoordinate
    5070480.895,              !- Vertex 2 Ycoordinate
    0,                        !- Vertex 2 Zcoordinate
    642466.125,               !- Vertex 3 Xcoordinate
    5070481.019,              !- Vertex 3 Ycoordinate
    0,                        !- Vertex 3 Zcoordinate
    642466.125,               !- Vertex 4 Xcoordinate
    5070481.019,              !- Vertex 4 Ycoordinate
    3;                        !- Vertex 4 Zcoordinate

BUILDINGSURFACE:DETAILED,
    Block 3ca288d3449d4455_0 Storey 0 Wall 0008,    !- Name
    wall,                     !- Surface Type
    EU_wall_Construction,     !- Construction Name
    3ca288d3449d4455_F0_dwelling_0,    !- Zone Name
    ,                         !- Space Name
    outdoors,                 !- Outside Boundary Condition
    ,                         !- Outside Boundary Condition Object
    SunExposed,               !- Sun Exposure
    WindExposed,              !- Wind Exposure
    autocalculate,            !- View Factor to Ground
    autocalculate,            !- Number of Vertices
    642466.518,               !- Vertex 1 Xcoordinate
    5070472.315,              !- Vertex 1 Ycoordinate
    3,                        !- Vertex 1 Zcoordinate
    642466.518,               !- Vertex 2 Xcoordinate
    5070472.315,              !- Vertex 2 Ycoordinate
    0,                        !- Vertex 2 Zcoordinate
    642462.913,               !- Vertex 3 Xcoordinate
    5070471.988,              !- Vertex 3 Ycoordinate
    0,                        !- Vertex 3 Zcoordinate
    642462.913,               !- Vertex 4 Xcoordinate
    5070471.988,              !- Vertex 4 Ycoordinate
    3;                        !- Vertex 4 Zcoordinate

BUILDINGSURFACE:DETAILED,
    Block 3ca288d3449d4455_0 Storey 0 Floor 0001,    !- Name
    floor,                    !- Surface Type
    EU_floor_Construction,    !- Construction Name
    3ca288d3449d4455_F0_dwelling_0,    !- Zone Name
    ,                         !- Space Name
    ground,                   !- Outside Boundary Condition
    ,                         !- Outside Boundary Condition Object
    NoSun,                    !- Sun Exposure
    NoWind,                   !- Wind Exposure
    autocalculate,            !- View Factor to Ground
    autocalculate,            !- Number of Vertices
    642466.518,               !- Vertex 1 Xcoordinate
    5070472.315,              !- Vertex 1 Ycoordinate
    0,                        !- Vertex 1 Zcoordinate
    642466.125,               !- Vertex 2 Xcoordinate
    5070481.019,              !- Vertex 2 Ycoordinate
    0,                        !- Vertex 2 Zcoordinate
    642463.816,               !- Vertex 3 Xcoordinate
    5070480.895,              !- Vertex 3 Ycoordinate
    0,                        !- Vertex 3 Zcoordinate
    642462.415,               !- Vertex 4 Xcoordinate
    5070480.895,              !- Vertex 4 Ycoordinate
    0,                        !- Vertex 4 Zcoordinate
    642461.312,               !- Vertex 5 Xcoordinate
    5070472.69,               !- Vertex 5 Ycoordinate
    0,                        !- Vertex 5 Zcoordinate
    642460.911,               !- Vertex 6 Xcoordinate
    5070469.387,              !- Vertex 6 Ycoordinate
    0,                        !- Vertex 6 Zcoordinate
    642462.512,               !- Vertex 7 Xcoordinate
    5070469.187,              !- Vertex 7 Ycoordinate
    0,                        !- Vertex 7 Zcoordinate
    642462.913,               !- Vertex 8 Xcoordinate
    5070471.988,              !- Vertex 8 Ycoordinate
    0;                        !- Vertex 8 Zcoordinate

BUILDINGSURFACE:DETAILED,
    Block 3ca288d3449d4455_0 Storey 1 Wall 0001,    !- Name
    wall,                     !- Surface Type
    EU_wall_Construction,     !- Construction Name
    3ca288d3449d4455_F1_dwelling_0,    !- Zone Name
    ,                         !- Space Name
    outdoors,                 !- Outside Boundary Condition
    ,                         !- Outside Boundary Condition Object
    SunExposed,               !- Sun Exposure
    WindExposed,              !- Wind Exposure
    autocalculate,            !- View Factor to Ground
    autocalculate,            !- Number of Vertices
    642462.913,               !- Vertex 1 Xcoordinate
    5070471.988,              !- Vertex 1 Ycoordinate
    6,                        !- Vertex 1 Zcoordinate
    642462.913,               !- Vertex 2 Xcoordinate
    5070471.988,              !- Vertex 2 Ycoordinate
    3,                        !- Vertex 2 Zcoordinate
    642462.512,               !- Vertex 3 Xcoordinate
    5070469.187,              !- Vertex 3 Ycoordinate
    3,                        !- Vertex 3 Zcoordinate
    642462.512,               !- Vertex 4 Xcoordinate
    5070469.187,              !- Vertex 4 Ycoordinate
    6;                        !- Vertex 4 Zcoordinate

BUILDINGSURFACE:DETAILED,
    Block 3ca288d3449d4455_0 Storey 1 Wall 0002,    !- Name
    wall,                     !- Surface Type
    EU_wall_Construction,     !- Construction Name
    3ca288d3449d4455_F1_dwelling_0,    !- Zone Name
    ,                         !- Space Name
    outdoors,                 !- Outside Boundary Condition
    ,                         !- Outside Boundary Condition Object
    SunExposed,               !- Sun Exposure
    WindExposed,              !- Wind Exposure
    autocalculate,            !- View Factor to Ground
    autocalculate,            !- Number of Vertices
    642462.512,               !- Vertex 1 Xcoordinate
    5070469.187,              !- Vertex 1 Ycoordinate
    6,                        !- Vertex 1 Zcoordinate
    642462.512,               !- Vertex 2 Xcoordinate
    5070469.187,              !- Vertex 2 Ycoordinate
    3,                        !- Vertex 2 Zcoordinate
    642460.911,               !- Vertex 3 Xcoordinate
    5070469.387,              !- Vertex 3 Ycoordinate
    3,                        !- Vertex 3 Zcoordinate
    642460.911,               !- Vertex 4 Xcoordinate
    5070469.387,              !- Vertex 4 Ycoordinate
    6;                        !- Vertex 4 Zcoordinate

BUILDINGSURFACE:DETAILED,
    Block 3ca288d3449d4455_0 Storey 1 Wall 0003,    !- Name
    wall,                     !- Surface Type
    EU_wall_Construction,     !- Construction Name
    3ca288d3449d4455_F1_dwelling_0,    !- Zone Name
    ,                         !- Space Name
    Adiabatic,                !- Outside Boundary Condition
    ,                         !- Outside Boundary Condition Object
    NoSun,                    !- Sun Exposure
    NoWind,                   !- Wind Exposure
    autocalculate,            !- View Factor to Ground
    autocalculate,            !- Number of Vertices
    642460.911,               !- Vertex 1 Xcoordinate
    5070469.387,              !- Vertex 1 Ycoordinate
    6,                        !- Vertex 1 Zcoordinate
    642460.911,               !- Vertex 2 Xcoordinate
    5070469.387,              !- Vertex 2 Ycoordinate
    3,                        !- Vertex 2 Zcoordinate
    642461.312,               !- Vertex 3 Xcoordinate
    5070472.69,               !- Vertex 3 Ycoordinate
    3,                        !- Vertex 3 Zcoordinate
    642461.312,               !- Vertex 4 Xcoordinate
    5070472.69,               !- Vertex 4 Ycoordinate
    6;                        !- Vertex 4 Zcoordinate

BUILDINGSURFACE:DETAILED,
    Block 3ca288d3449d4455_0 Storey 1 Wall 0004,    !- Name
    wall,                     !- Surface Type
    EU_wall_Construction,     !- Construction Name
    3ca288d3449d4455_F1_dwelling_0,    !- Zone Name
    ,                         !- Space Name
    outdoors,                 !- Outside Boundary Condition
    ,                         !- Outside Boundary Condition Object
    SunExposed,               !- Sun Exposure
    WindExposed,              !- Wind Exposure
    autocalculate,            !- View Factor to Ground
    autocalculate,            !- Number of Vertices
    642461.312,               !- Vertex 1 Xcoordinate
    5070472.69,               !- Vertex 1 Ycoordinate
    6,                        !- Vertex 1 Zcoordinate
    642461.312,               !- Vertex 2 Xcoordinate
    5070472.69,               !- Vertex 2 Ycoordinate
    3,                        !- Vertex 2 Zcoordinate
    642462.415,               !- Vertex 3 Xcoordinate
    5070480.895,              !- Vertex 3 Ycoordinate
    3,                        !- Vertex 3 Zcoordinate
    642462.415,               !- Vertex 4 Xcoordinate
    5070480.895,              !- Vertex 4 Ycoordinate
    6;                        !- Vertex 4 Zcoordinate

BUILDINGSURFACE:DETAILED,
    Block 3ca288d3449d4455_0 Storey 1 Wall 0005,    !- Name
    wall,                     !- Surface Type
    EU_wall_Construction,     !- Construction Name
    3ca288d3449d4455_F1_dwelling_0,    !- Zone Name
    ,                         !- Space Name
    Adiabatic,                !- Outside Boundary Condition
    ,                         !- Outside Boundary Condition Object
    NoSun,                    !- Sun Exposure
    NoWind,                   !- Wind Exposure
    autocalculate,            !- View Factor to Ground
    autocalculate,            !- Number of Vertices
    642462.415,               !- Vertex 1 Xcoordinate
    5070480.895,              !- Vertex 1 Ycoordinate
    6,                        !- Vertex 1 Zcoordinate
    642462.415,               !- Vertex 2 Xcoordinate
    5070480.895,              !- Vertex 2 Ycoordinate
    3,                        !- Vertex 2 Zcoordinate
    642463.816,               !- Vertex 3 Xcoordinate
    5070480.895,              !- Vertex 3 Ycoordinate
    3,                        !- Vertex 3 Zcoordinate
    642463.816,               !- Vertex 4 Xcoordinate
    5070480.895,              !- Vertex 4 Ycoordinate
    6;                        !- Vertex 4 Zcoordinate

BUILDINGSURFACE:DETAILED,
    Block 3ca288d3449d4455_0 Storey 1 Wall 0006,    !- Name
    wall,                     !- Surface Type
    EU_wall_Construction,     !- Construction Name
    3ca288d3449d4455_F1_dwelling_0,    !- Zone Name
    ,                         !- Space Name
    Adiabatic,                !- Outside Boundary Condition
    ,                         !- Outside Boundary Condition Object
    NoSun,                    !- Sun Exposure
    NoWind,                   !- Wind Exposure
    autocalculate,            !- View Factor to Ground
    autocalculate,            !- Number of Vertices
    642463.816,               !- Vertex 1 Xcoordinate
    5070480.895,              !- Vertex 1 Ycoordinate
    6,                        !- Vertex 1 Zcoordinate
    642463.816,               !- Vertex 2 Xcoordinate
    5070480.895,              !- Vertex 2 Ycoordinate
    3,                        !- Vertex 2 Zcoordinate
    642466.125,               !- Vertex 3 Xcoordinate
    5070481.019,              !- Vertex 3 Ycoordinate
    3,                        !- Vertex 3 Zcoordinate
    642466.125,               !- Vertex 4 Xcoordinate
    5070481.019,              !- Vertex 4 Ycoordinate
    6;                        !- Vertex 4 Zcoordinate

BUILDINGSURFACE:DETAILED,
    Block 3ca288d3449d4455_0 Storey 1 Wall 0008,    !- Name
    wall,                     !- Surface Type
    EU_wall_Construction,     !- Construction Name
    3ca288d3449d4455_F1_dwelling_0,    !- Zone Name
    ,                         !- Space Name
    outdoors,                 !- Outside Boundary Condition
    ,                         !- Outside Boundary Condition Object
    SunExposed,               !- Sun Exposure
    WindExposed,              !- Wind Exposure
    autocalculate,            !- View Factor to Ground
    autocalculate,            !- Number of Vertices
    642466.518,               !- Vertex 1 Xcoordinate
    5070472.315,              !- Vertex 1 Ycoordinate
    6,                        !- Vertex 1 Zcoordinate
    642466.518,               !- Vertex 2 Xcoordinate
    5070472.315,              !- Vertex 2 Ycoordinate
    3,                        !- Vertex 2 Zcoordinate
    642462.913,               !- Vertex 3 Xcoordinate
    5070471.988,              !- Vertex 3 Ycoordinate
    3,                        !- Vertex 3 Zcoordinate
    642462.913,               !- Vertex 4 Xcoordinate
    5070471.988,              !- Vertex 4 Ycoordinate
    6;                        !- Vertex 4 Zcoordinate

BUILDINGSURFACE:DETAILED,
    Block 3ca288d3449d4455_0 Storey 1 Roof 0001,    !- Name
    roof,                     !- Surface Type
    EU_roof_Construction,     !- Construction Name
    3ca288d3449d4455_F1_dwelling_0,    !- Zone Name
    ,                         !- Space Name
    outdoors,                 !- Outside Boundary Condition
    ,                         !- Outside Boundary Condition Object
    NoSun,                    !- Sun Exposure
    WindExposed,              !- Wind Exposure
    autocalculate,            !- View Factor to Ground
    autocalculate,            !- Number of Vertices
    642466.125,               !- Vertex 1 Xcoordinate
    5070481.019,              !- Vertex 1 Ycoordinate
    6,                        !- Vertex 1 Zcoordinate
    642466.518,               !- Vertex 2 Xcoordinate
    5070472.315,              !- Vertex 2 Ycoordinate
    6,                        !- Vertex 2 Zcoordinate
    642462.913,               !- Vertex 3 Xcoordinate
    5070471.988,              !- Vertex 3 Ycoordinate
    6,                        !- Vertex 3 Zcoordinate
    642462.512,               !- Vertex 4 Xcoordinate
    5070469.187,              !- Vertex 4 Ycoordinate
    6,                        !- Vertex 4 Zcoordinate
    642460.911,               !- Vertex 5 Xcoordinate
    5070469.387,              !- Vertex 5 Ycoordinate
    6,                        !- Vertex 5 Zcoordinate
    642461.312,               !- Vertex 6 Xcoordinate
    5070472.69,               !- Vertex 6 Ycoordinate
    6,                        !- Vertex 6 Zcoordinate
    642462.415,               !- Vertex 7 Xcoordinate
    5070480.895,              !- Vertex 7 Ycoordinate
    6,                        !- Vertex 7 Zcoordinate
    642463.816,               !- Vertex 8 Xcoordinate
    5070480.895,              !- Vertex 8 Ycoordinate
    6;                        !- Vertex 8 Zcoordinate

BUILDINGSURFACE:DETAILED,
    Block 3ca288d3449d4455_1 Storey 0 Wall 0001,    !- Name
    wall,                     !- Surface Type
    EU_wall_Construction,     !- Construction Name
    3ca288d3449d4455_F0_dwelling_1,    !- Zone Name
    ,                         !- Space Name
    outdoors,                 !- Outside Boundary Condition
    ,                         !- Outside Boundary Condition Object
    SunExposed,               !- Sun Exposure
    WindExposed,              !- Wind Exposure
    autocalculate,            !- View Factor to Ground
    autocalculate,            !- Number of Vertices
    642471.719,               !- Vertex 1 Xcoordinate
    5070472.787,              !- Vertex 1 Ycoordinate
    3,                        !- Vertex 1 Zcoordinate
    642471.719,               !- Vertex 2 Xcoordinate
    5070472.787,              !- Vertex 2 Ycoordinate
    0,                        !- Vertex 2 Zcoordinate
    642466.518,               !- Vertex 3 Xcoordinate
    5070472.315,              !- Vertex 3 Ycoordinate
    0,                        !- Vertex 3 Zcoordinate
    642466.518,               !- Vertex 4 Xcoordinate
    5070472.315,              !- Vertex 4 Ycoordinate
    3;                        !- Vertex 4 Zcoordinate

BUILDINGSURFACE:DETAILED,
    Block 3ca288d3449d4455_1 Storey 0 Wall 0003,    !- Name
    wall,                     !- Surface Type
    EU_wall_Construction,     !- Construction Name
    3ca288d3449d4455_F0_dwelling_1,    !- Zone Name
    ,                         !- Space Name
    Adiabatic,                !- Outside Boundary Condition
    ,                         !- Outside Boundary Condition Object
    NoSun,                    !- Sun Exposure
    NoWind,                   !- Wind Exposure
    autocalculate,            !- View Factor to Ground
    autocalculate,            !- Number of Vertices
    642466.125,               !- Vertex 1 Xcoordinate
    5070481.019,              !- Vertex 1 Ycoordinate
    3,                        !- Vertex 1 Zcoordinate
    642466.125,               !- Vertex 2 Xcoordinate
    5070481.019,              !- Vertex 2 Ycoordinate
    0,                        !- Vertex 2 Zcoordinate
    642471.221,               !- Vertex 3 Xcoordinate
    5070481.293,              !- Vertex 3 Ycoordinate
    0,                        !- Vertex 3 Zcoordinate
    642471.221,               !- Vertex 4 Xcoordinate
    5070481.293,              !- Vertex 4 Ycoordinate
    3;                        !- Vertex 4 Zcoordinate

BUILDINGSURFACE:DETAILED,
    Block 3ca288d3449d4455_1 Storey 0 Wall 0004,    !- Name
    wall,                     !- Surface Type
    EU_wall_Construction,     !- Construction Name
    3ca288d3449d4455_F0_dwelling_1,    !- Zone Name
    ,                         !- Space Name
    Adiabatic,                !- Outside Boundary Condition
    ,                         !- Outside Boundary Condition Object
    NoSun,                    !- Sun Exposure
    NoWind,                   !- Wind Exposure
    autocalculate,            !- View Factor to Ground
    autocalculate,            !- Number of Vertices
    642471.221,               !- Vertex 1 Xcoordinate
    5070481.293,              !- Vertex 1 Ycoordinate
    3,                        !- Vertex 1 Zcoordinate
    642471.221,               !- Vertex 2 Xcoordinate
    5070481.293,              !- Vertex 2 Ycoordinate
    0,                        !- Vertex 2 Zcoordinate
    642471.32,                !- Vertex 3 Xcoordinate
    5070478.69,               !- Vertex 3 Ycoordinate
    0,                        !- Vertex 3 Zcoordinate
    642471.32,                !- Vertex 4 Xcoordinate
    5070478.69,               !- Vertex 4 Ycoordinate
    3;                        !- Vertex 4 Zcoordinate

BUILDINGSURFACE:DETAILED,
    Block 3ca288d3449d4455_1 Storey 0 Wall 0005,    !- Name
    wall,                     !- Surface Type
    EU_wall_Construction,     !- Construction Name
    3ca288d3449d4455_F0_dwelling_1,    !- Zone Name
    ,                         !- Space Name
    Adiabatic,                !- Outside Boundary Condition
    ,                         !- Outside Boundary Condition Object
    NoSun,                    !- Sun Exposure
    NoWind,                   !- Wind Exposure
    autocalculate,            !- View Factor to Ground
    autocalculate,            !- Number of Vertices
    642471.32,                !- Vertex 1 Xcoordinate
    5070478.69,               !- Vertex 1 Ycoordinate
    3,                        !- Vertex 1 Zcoordinate
    642471.32,                !- Vertex 2 Xcoordinate
    5070478.69,               !- Vertex 2 Ycoordinate
    0,                        !- Vertex 2 Zcoordinate
    642471.719,               !- Vertex 3 Xcoordinate
    5070472.787,              !- Vertex 3 Ycoordinate
    0,                        !- Vertex 3 Zcoordinate
    642471.719,               !- Vertex 4 Xcoordinate
    5070472.787,              !- Vertex 4 Ycoordinate
    3;                        !- Vertex 4 Zcoordinate

BUILDINGSURFACE:DETAILED,
    Block 3ca288d3449d4455_1 Storey 0 Floor 0001,    !- Name
    floor,                    !- Surface Type
    EU_floor_Construction,    !- Construction Name
    3ca288d3449d4455_F0_dwelling_1,    !- Zone Name
    ,                         !- Space Name
    ground,                   !- Outside Boundary Condition
    ,                         !- Outside Boundary Condition Object
    NoSun,                    !- Sun Exposure
    NoWind,                   !- Wind Exposure
    autocalculate,            !- View Factor to Ground
    autocalculate,            !- Number of Vertices
    642471.719,               !- Vertex 1 Xcoordinate
    5070472.787,              !- Vertex 1 Ycoordinate
    0,                        !- Vertex 1 Zcoordinate
    642471.32,                !- Vertex 2 Xcoordinate
    5070478.69,               !- Vertex 2 Ycoordinate
    0,                        !- Vertex 2 Zcoordinate
    642471.221,               !- Vertex 3 Xcoordinate
    5070481.293,              !- Vertex 3 Ycoordinate
    0,                        !- Vertex 3 Zcoordinate
    642466.125,               !- Vertex 4 Xcoordinate
    5070481.019,              !- Vertex 4 Ycoordinate
    0,                        !- Vertex 4 Zcoordinate
    642466.518,               !- Vertex 5 Xcoordinate
    5070472.315,              !- Vertex 5 Ycoordinate
    0;                        !- Vertex 5 Zcoordinate

BUILDINGSURFACE:DETAILED,
    Block 3ca288d3449d4455_1 Storey 1 Wall 0001,    !- Name
    wall,                     !- Surface Type
    EU_wall_Construction,     !- Construction Name
    3ca288d3449d4455_F1_dwelling_1,    !- Zone Name
    ,                         !- Space Name
    outdoors,                 !- Outside Boundary Condition
    ,                         !- Outside Boundary Condition Object
    SunExposed,               !- Sun Exposure
    WindExposed,              !- Wind Exposure
    autocalculate,            !- View Factor to Ground
    autocalculate,            !- Number of Vertices
    642471.719,               !- Vertex 1 Xcoordinate
    5070472.787,              !- Vertex 1 Ycoordinate
    6,                        !- Vertex 1 Zcoordinate
    642471.719,               !- Vertex 2 Xcoordinate
    5070472.787,              !- Vertex 2 Ycoordinate
    3,                        !- Vertex 2 Zcoordinate
    642466.518,               !- Vertex 3 Xcoordinate
    5070472.315,              !- Vertex 3 Ycoordinate
    3,                        !- Vertex 3 Zcoordinate
    642466.518,               !- Vertex 4 Xcoordinate
    5070472.315,              !- Vertex 4 Ycoordinate
    6;                        !- Vertex 4 Zcoordinate

BUILDINGSURFACE:DETAILED,
    Block 3ca288d3449d4455_1 Storey 1 Wall 0003,    !- Name
    wall,                     !- Surface Type
    EU_wall_Construction,     !- Construction Name
    3ca288d3449d4455_F1_dwelling_1,    !- Zone Name
    ,                         !- Space Name
    Adiabatic,                !- Outside Boundary Condition
    ,                         !- Outside Boundary Condition Object
    NoSun,                    !- Sun Exposure
    NoWind,                   !- Wind Exposure
    autocalculate,            !- View Factor to Ground
    autocalculate,            !- Number of Vertices
    642466.125,               !- Vertex 1 Xcoordinate
    5070481.019,              !- Vertex 1 Ycoordinate
    6,                        !- Vertex 1 Zcoordinate
    642466.125,               !- Vertex 2 Xcoordinate
    5070481.019,              !- Vertex 2 Ycoordinate
    3,                        !- Vertex 2 Zcoordinate
    642471.221,               !- Vertex 3 Xcoordinate
    5070481.293,              !- Vertex 3 Ycoordinate
    3,                        !- Vertex 3 Zcoordinate
    642471.221,               !- Vertex 4 Xcoordinate
    5070481.293,              !- Vertex 4 Ycoordinate
    6;                        !- Vertex 4 Zcoordinate

BUILDINGSURFACE:DETAILED,
    Block 3ca288d3449d4455_1 Storey 1 Wall 0004,    !- Name
    wall,                     !- Surface Type
    EU_wall_Construction,     !- Construction Name
    3ca288d3449d4455_F1_dwelling_1,    !- Zone Name
    ,                         !- Space Name
    Adiabatic,                !- Outside Boundary Condition
    ,                         !- Outside Boundary Condition Object
    NoSun,                    !- Sun Exposure
    NoWind,                   !- Wind Exposure
    autocalculate,            !- View Factor to Ground
    autocalculate,            !- Number of Vertices
    642471.221,               !- Vertex 1 Xcoordinate
    5070481.293,              !- Vertex 1 Ycoordinate
    6,                        !- Vertex 1 Zcoordinate
    642471.221,               !- Vertex 2 Xcoordinate
    5070481.293,              !- Vertex 2 Ycoordinate
    3,                        !- Vertex 2 Zcoordinate
    642471.32,                !- Vertex 3 Xcoordinate
    5070478.69,               !- Vertex 3 Ycoordinate
    3,                        !- Vertex 3 Zcoordinate
    642471.32,                !- Vertex 4 Xcoordinate
    5070478.69,               !- Vertex 4 Ycoordinate
    6;                        !- Vertex 4 Zcoordinate

BUILDINGSURFACE:DETAILED,
    Block 3ca288d3449d4455_1 Storey 1 Wall 0005,    !- Name
    wall,                     !- Surface Type
    EU_wall_Construction,     !- Construction Name
    3ca288d3449d4455_F1_dwelling_1,    !- Zone Name
    ,                         !- Space Name
    Adiabatic,                !- Outside Boundary Condition
    ,                         !- Outside Boundary Condition Object
    NoSun,                    !- Sun Exposure
    NoWind,                   !- Wind Exposure
    autocalculate,            !- View Factor to Ground
    autocalculate,            !- Number of Vertices
    642471.32,                !- Vertex 1 Xcoordinate
    5070478.69,               !- Vertex 1 Ycoordinate
    6,                        !- Vertex 1 Zcoordinate
    642471.32,                !- Vertex 2 Xcoordinate
    5070478.69,               !- Vertex 2 Ycoordinate
    3,                        !- Vertex 2 Zcoordinate
    642471.719,               !- Vertex 3 Xcoordinate
    5070472.787,              !- Vertex 3 Ycoordinate
    3,                        !- Vertex 3 Zcoordinate
    642471.719,               !- Vertex 4 Xcoordinate
    5070472.787,              !- Vertex 4 Ycoordinate
    6;                        !- Vertex 4 Zcoordinate

BUILDINGSURFACE:DETAILED,
    Block 3ca288d3449d4455_1 Storey 1 Roof 0001,    !- Name
    roof,                     !- Surface Type
    EU_roof_Construction,     !- Construction Name
    3ca288d3449d4455_F1_dwelling_1,    !- Zone Name
    ,                         !- Space Name
    outdoors,                 !- Outside Boundary Condition
    ,                         !- Outside Boundary Condition Object
    NoSun,                    !- Sun Exposure
    WindExposed,              !- Wind Exposure
    autocalculate,            !- View Factor to Ground
    autocalculate,            !- Number of Vertices
    642471.221,               !- Vertex 1 Xcoordinate
    5070481.293,              !- Vertex 1 Ycoordinate
    6,                        !- Vertex 1 Zcoordinate
    642471.32,                !- Vertex 2 Xcoordinate
    5070478.69,               !- Vertex 2 Ycoordinate
    6,                        !- Vertex 2 Zcoordinate
    642471.719,               !- Vertex 3 Xcoordinate
    5070472.787,              !- Vertex 3 Ycoordinate
    6,                        !- Vertex 3 Zcoordinate
    642466.518,               !- Vertex 4 Xcoordinate
    5070472.315,              !- Vertex 4 Ycoordinate
    6,                        !- Vertex 4 Zcoordinate
    642466.125,               !- Vertex 5 Xcoordinate
    5070481.019,              !- Vertex 5 Ycoordinate
    6;                        !- Vertex 5 Zcoordinate

BUILDINGSURFACE:DETAILED,
    Block 3ca288d3449d4455_0 Storey 0 Wall 0007_1,    !- Name
    wall,                     !- Surface Type
    EU_wall_Construction,     !- Construction Name
    3ca288d3449d4455_F0_dwelling_0,    !- Zone Name
    ,                         !- Space Name
    surface,                  !- Outside Boundary Condition
    Block 3ca288d3449d4455_1 Storey 0 Wall 0002_1,    !- Outside Boundary Condition Object
    NoSun,                    !- Sun Exposure
    NoWind,                   !- Wind Exposure
    autocalculate,            !- View Factor to Ground
    autocalculate,            !- Number of Vertices
    642466.125,               !- Vertex 1 Xcoordinate
    5070481.019,              !- Vertex 1 Ycoordinate
    3,                        !- Vertex 1 Zcoordinate
    642466.125,               !- Vertex 2 Xcoordinate
    5070481.019,              !- Vertex 2 Ycoordinate
    0,                        !- Vertex 2 Zcoordinate
    642466.518,               !- Vertex 3 Xcoordinate
    5070472.315,              !- Vertex 3 Ycoordinate
    0,                        !- Vertex 3 Zcoordinate
    642466.518,               !- Vertex 4 Xcoordinate
    5070472.315,              !- Vertex 4 Ycoordinate
    3;                        !- Vertex 4 Zcoordinate

BUILDINGSURFACE:DETAILED,
    Block 3ca288d3449d4455_1 Storey 0 Wall 0002_1,    !- Name
    wall,                     !- Surface Type
    EU_wall_Construction,     !- Construction Name
    3ca288d3449d4455_F0_dwelling_1,    !- Zone Name
    ,                         !- Space Name
    surface,                  !- Outside Boundary Condition
    Block 3ca288d3449d4455_0 Storey 0 Wall 0007_1,    !- Outside Boundary Condition Object
    NoSun,                    !- Sun Exposure
    NoWind,                   !- Wind Exposure
    autocalculate,            !- View Factor to Ground
    autocalculate,            !- Number of Vertices
    642466.518,               !- Vertex 1 Xcoordinate
    5070472.315,              !- Vertex 1 Ycoordinate
    3,                        !- Vertex 1 Zcoordinate
    642466.518,               !- Vertex 2 Xcoordinate
    5070472.315,              !- Vertex 2 Ycoordinate
    0,                        !- Vertex 2 Zcoordinate
    642466.125,               !- Vertex 3 Xcoordinate
    5070481.019,              !- Vertex 3 Ycoordinate
    0,                        !- Vertex 3 Zcoordinate
    642466.125,               !- Vertex 4 Xcoordinate
    5070481.019,              !- Vertex 4 Ycoordinate
    3;                        !- Vertex 4 Zcoordinate

BUILDINGSURFACE:DETAILED,
    Block 3ca288d3449d4455_0 Storey 0 Ceiling 0001_1,    !- Name
    ceiling,                  !- Surface Type
    EU_floor_Construction,    !- Construction Name
    3ca288d3449d4455_F0_dwelling_0,    !- Zone Name
    ,                         !- Space Name
    Surface,                  !- Outside Boundary Condition
    Block 3ca288d3449d4455_0 Storey 1 Floor 0001_1,    !- Outside Boundary Condition Object
    NoSun,                    !- Sun Exposure
    NoWind,                   !- Wind Exposure
    autocalculate,            !- View Factor to Ground
    autocalculate,            !- Number of Vertices
    642466.125,               !- Vertex 1 Xcoordinate
    5070481.019,              !- Vertex 1 Ycoordinate
    3,                        !- Vertex 1 Zcoordinate
    642466.5179999997,        !- Vertex 2 Xcoordinate
    5070472.315,              !- Vertex 2 Ycoordinate
    3,                        !- Vertex 2 Zcoordinate
    642462.9129999997,        !- Vertex 3 Xcoordinate
    5070471.988,              !- Vertex 3 Ycoordinate
    3,                        !- Vertex 3 Zcoordinate
    642462.5119999996,        !- Vertex 4 Xcoordinate
    5070469.187,              !- Vertex 4 Ycoordinate
    3,                        !- Vertex 4 Zcoordinate
    642460.9109999998,        !- Vertex 5 Xcoordinate
    5070469.387,              !- Vertex 5 Ycoordinate
    3,                        !- Vertex 5 Zcoordinate
    642461.3119999999,        !- Vertex 6 Xcoordinate
    5070472.69,               !- Vertex 6 Ycoordinate
    3,                        !- Vertex 6 Zcoordinate
    642462.415,               !- Vertex 7 Xcoordinate
    5070480.895,              !- Vertex 7 Ycoordinate
    3,                        !- Vertex 7 Zcoordinate
    642463.8159999996,        !- Vertex 8 Xcoordinate
    5070480.895,              !- Vertex 8 Ycoordinate
    3;                        !- Vertex 8 Zcoordinate

BUILDINGSURFACE:DETAILED,
    Block 3ca288d3449d4455_0 Storey 1 Floor 0001_1,    !- Name
    floor,                    !- Surface Type
    EU_floor_Construction,    !- Construction Name
    3ca288d3449d4455_F1_dwelling_0,    !- Zone Name
    ,                         !- Space Name
    Surface,                  !- Outside Boundary Condition
    Block 3ca288d3449d4455_0 Storey 0 Ceiling 0001_1,    !- Outside Boundary Condition Object
    NoSun,                    !- Sun Exposure
    NoWind,                   !- Wind Exposure
    autocalculate,            !- View Factor to Ground
    autocalculate,            !- Number of Vertices
    642466.5179999997,        !- Vertex 1 Xcoordinate
    5070472.315,              !- Vertex 1 Ycoordinate
    3,                        !- Vertex 1 Zcoordinate
    642466.125,               !- Vertex 2 Xcoordinate
    5070481.019,              !- Vertex 2 Ycoordinate
    3,                        !- Vertex 2 Zcoordinate
    642463.8159999996,        !- Vertex 3 Xcoordinate
    5070480.895,              !- Vertex 3 Ycoordinate
    3,                        !- Vertex 3 Zcoordinate
    642462.415,               !- Vertex 4 Xcoordinate
    5070480.895,              !- Vertex 4 Ycoordinate
    3,                        !- Vertex 4 Zcoordinate
    642461.3119999999,        !- Vertex 5 Xcoordinate
    5070472.69,               !- Vertex 5 Ycoordinate
    3,                        !- Vertex 5 Zcoordinate
    642460.9109999998,        !- Vertex 6 Xcoordinate
    5070469.387,              !- Vertex 6 Ycoordinate
    3,                        !- Vertex 6 Zcoordinate
    642462.5119999996,        !- Vertex 7 Xcoordinate
    5070469.187,              !- Vertex 7 Ycoordinate
    3,                        !- Vertex 7 Zcoordinate
    642462.9129999997,        !- Vertex 8 Xcoordinate
    5070471.988,              !- Vertex 8 Ycoordinate
    3;                        !- Vertex 8 Zcoordinate

BUILDINGSURFACE:DETAILED,
    Block 3ca288d3449d4455_0 Storey 1 Wall 0007_1,    !- Name
    wall,                     !- Surface Type
    EU_wall_Construction,     !- Construction Name
    3ca288d3449d4455_F1_dwelling_0,    !- Zone Name
    ,                         !- Space Name
    surface,                  !- Outside Boundary Condition
    Block 3ca288d3449d4455_1 Storey 1 Wall 0002_1,    !- Outside Boundary Condition Object
    NoSun,                    !- Sun Exposure
    NoWind,                   !- Wind Exposure
    autocalculate,            !- View Factor to Ground
    autocalculate,            !- Number of Vertices
    642466.125,               !- Vertex 1 Xcoordinate
    5070481.019,              !- Vertex 1 Ycoordinate
    6,                        !- Vertex 1 Zcoordinate
    642466.125,               !- Vertex 2 Xcoordinate
    5070481.019,              !- Vertex 2 Ycoordinate
    3,                        !- Vertex 2 Zcoordinate
    642466.518,               !- Vertex 3 Xcoordinate
    5070472.315,              !- Vertex 3 Ycoordinate
    3,                        !- Vertex 3 Zcoordinate
    642466.518,               !- Vertex 4 Xcoordinate
    5070472.315,              !- Vertex 4 Ycoordinate
    6;                        !- Vertex 4 Zcoordinate

BUILDINGSURFACE:DETAILED,
    Block 3ca288d3449d4455_1 Storey 1 Wall 0002_1,    !- Name
    wall,                     !- Surface Type
    EU_wall_Construction,     !- Construction Name
    3ca288d3449d4455_F1_dwelling_1,    !- Zone Name
    ,                         !- Space Name
    surface,                  !- Outside Boundary Condition
    Block 3ca288d3449d4455_0 Storey 1 Wall 0007_1,    !- Outside Boundary Condition Object
    NoSun,                    !- Sun Exposure
    NoWind,                   !- Wind Exposure
    autocalculate,            !- View Factor to Ground
    autocalculate,            !- Number of Vertices
    642466.518,               !- Vertex 1 Xcoordinate
    5070472.315,              !- Vertex 1 Ycoordinate
    6,                        !- Vertex 1 Zcoordinate
    642466.518,               !- Vertex 2 Xcoordinate
    5070472.315,              !- Vertex 2 Ycoordinate
    3,                        !- Vertex 2 Zcoordinate
    642466.125,               !- Vertex 3 Xcoordinate
    5070481.019,              !- Vertex 3 Ycoordinate
    3,                        !- Vertex 3 Zcoordinate
    642466.125,               !- Vertex 4 Xcoordinate
    5070481.019,              !- Vertex 4 Ycoordinate
    6;                        !- Vertex 4 Zcoordinate

BUILDINGSURFACE:DETAILED,
    Block 3ca288d3449d4455_1 Storey 0 Ceiling 0001_1,    !- Name
    ceiling,                  !- Surface Type
    EU_floor_Construction,    !- Construction Name
    3ca288d3449d4455_F0_dwelling_1,    !- Zone Name
    ,                         !- Space Name
    Surface,                  !- Outside Boundary Condition
    Block 3ca288d3449d4455_1 Storey 1 Floor 0001_1,    !- Outside Boundary Condition Object
    NoSun,                    !- Sun Exposure
    NoWind,                   !- Wind Exposure
    autocalculate,            !- View Factor to Ground
    autocalculate,            !- Number of Vertices
    642471.2209999999,        !- Vertex 1 Xcoordinate
    5070481.293,              !- Vertex 1 Ycoordinate
    3,                        !- Vertex 1 Zcoordinate
    642471.3199999998,        !- Vertex 2 Xcoordinate
    5070478.69,               !- Vertex 2 Ycoordinate
    3,                        !- Vertex 2 Zcoordinate
    642471.719,               !- Vertex 3 Xcoordinate
    5070472.787,              !- Vertex 3 Ycoordinate
    3,                        !- Vertex 3 Zcoordinate
    642466.5179999997,        !- Vertex 4 Xcoordinate
    5070472.315,              !- Vertex 4 Ycoordinate
    3,                        !- Vertex 4 Zcoordinate
    642466.125,               !- Vertex 5 Xcoordinate
    5070481.019,              !- Vertex 5 Ycoordinate
    3;                        !- Vertex 5 Zcoordinate

BUILDINGSURFACE:DETAILED,
    Block 3ca288d3449d4455_1 Storey 1 Floor 0001_1,    !- Name
    floor,                    !- Surface Type
    EU_floor_Construction,    !- Construction Name
    3ca288d3449d4455_F1_dwelling_1,    !- Zone Name
    ,                         !- Space Name
    Surface,                  !- Outside Boundary Condition
    Block 3ca288d3449d4455_1 Storey 0 Ceiling 0001_1,    !- Outside Boundary Condition Object
    NoSun,                    !- Sun Exposure
    NoWind,                   !- Wind Exposure
    autocalculate,            !- View Factor to Ground
    autocalculate,            !- Number of Vertices
    642471.719,               !- Vertex 1 Xcoordinate
    5070472.787,              !- Vertex 1 Ycoordinate
    3,                        !- Vertex 1 Zcoordinate
    642471.3199999998,        !- Vertex 2 Xcoordinate
    5070478.69,               !- Vertex 2 Ycoordinate
    3,                        !- Vertex 2 Zcoordinate
    642471.2209999999,        !- Vertex 3 Xcoordinate
    5070481.293,              !- Vertex 3 Ycoordinate
    3,                        !- Vertex 3 Zcoordinate
    642466.125,               !- Vertex 4 Xcoordinate
    5070481.019,              !- Vertex 4 Ycoordinate
    3,                        !- Vertex 4 Zcoordinate
    642466.5179999997,        !- Vertex 5 Xcoordinate
    5070472.315,              !- Vertex 5 Ycoordinate
    3;                        !- Vertex 5 Zcoordinate

INTERNALMASS,
    3ca288d3449d4455_F0_dwelling_0_EU_InternalMass,    !- Name
    EU_InternalMass_Construction,    !- Construction Name
    3ca288d3449d4455_F0_dwelling_0,    !- Zone or ZoneList Name
    ,                         !- Space or SpaceList Name
    44.242072999687544;       !- Surface Area

INTERNALMASS,
    3ca288d3449d4455_F0_dwelling_1_EU_InternalMass,    !- Name
    EU_InternalMass_Construction,    !- Construction Name
    3ca288d3449d4455_F0_dwelling_1,    !- Zone or ZoneList Name
    ,                         !- Space or SpaceList Name
    44.24191400189912;        !- Surface Area

INTERNALMASS,
    3ca288d3449d4455_F1_dwelling_0_EU_InternalMass,    !- Name
    EU_InternalMass_Construction,    !- Construction Name
    3ca288d3449d4455_F1_dwelling_0,    !- Zone or ZoneList Name
    ,                         !- Space or SpaceList Name
    44.242072999687544;       !- Surface Area

INTERNALMASS,
    3ca288d3449d4455_F1_dwelling_1_EU_InternalMass,    !- Name
    EU_InternalMass_Construction,    !- Construction Name
    3ca288d3449d4455_F1_dwelling_1,    !- Zone or ZoneList Name
    ,                         !- Space or SpaceList Name
    44.24191400189912;        !- Surface Area

SHADING:SITE:DETAILED,
    shade_BATIMENT0000000240879986_part0_1,    !- Name
    ,                         !- Transmittance Schedule Name
    autocalculate,            !- Number of Vertices
    642440.9472875703,        !- Vertex 1 Xcoordinate
    5070459.455925214,        !- Vertex 1 Ycoordinate
    18.9,                     !- Vertex 1 Zcoordinate
    642440.9472875703,        !- Vertex 2 Xcoordinate
    5070459.455925214,        !- Vertex 2 Ycoordinate
    0,                        !- Vertex 2 Zcoordinate
    642445.7925831743,        !- Vertex 3 Xcoordinate
    5070483.6438066205,       !- Vertex 3 Ycoordinate
    0,                        !- Vertex 3 Zcoordinate
    642445.7925831743,        !- Vertex 4 Xcoordinate
    5070483.6438066205,       !- Vertex 4 Ycoordinate
    18.9;                     !- Vertex 4 Zcoordinate

SHADING:SITE:DETAILED,
    shade_BATIMENT0000000240879986_part0_2,    !- Name
    ,                         !- Transmittance Schedule Name
    autocalculate,            !- Number of Vertices
    642445.7925831743,        !- Vertex 1 Xcoordinate
    5070483.6438066205,       !- Vertex 1 Ycoordinate
    18.9,                     !- Vertex 1 Zcoordinate
    642445.7925831743,        !- Vertex 2 Xcoordinate
    5070483.6438066205,       !- Vertex 2 Ycoordinate
    0,                        !- Vertex 2 Zcoordinate
    642463.0734728132,        !- Vertex 3 Xcoordinate
    5070480.182113665,        !- Vertex 3 Ycoordinate
    0,                        !- Vertex 3 Zcoordinate
    642463.0734728132,        !- Vertex 4 Xcoordinate
    5070480.182113665,        !- Vertex 4 Ycoordinate
    18.9;                     !- Vertex 4 Zcoordinate

SHADING:SITE:DETAILED,
    shade_BATIMENT0000000240879986_part0_3,    !- Name
    ,                         !- Transmittance Schedule Name
    autocalculate,            !- Number of Vertices
    642463.0734728132,        !- Vertex 1 Xcoordinate
    5070480.182113665,        !- Vertex 1 Ycoordinate
    18.9,                     !- Vertex 1 Zcoordinate
    642463.0734728132,        !- Vertex 2 Xcoordinate
    5070480.182113665,        !- Vertex 2 Ycoordinate
    0,                        !- Vertex 2 Zcoordinate
    642458.2281772092,        !- Vertex 3 Xcoordinate
    5070455.99423226,         !- Vertex 3 Ycoordinate
    0,                        !- Vertex 3 Zcoordinate
    642458.2281772092,        !- Vertex 4 Xcoordinate
    5070455.99423226,         !- Vertex 4 Ycoordinate
    18.9;                     !- Vertex 4 Zcoordinate

SHADING:SITE:DETAILED,
    shade_BATIMENT0000000240879986_part0_4,    !- Name
    ,                         !- Transmittance Schedule Name
    autocalculate,            !- Number of Vertices
    642458.2281772092,        !- Vertex 1 Xcoordinate
    5070455.99423226,         !- Vertex 1 Ycoordinate
    18.9,                     !- Vertex 1 Zcoordinate
    642458.2281772092,        !- Vertex 2 Xcoordinate
    5070455.99423226,         !- Vertex 2 Ycoordinate
    0,                        !- Vertex 2 Zcoordinate
    642440.9472875703,        !- Vertex 3 Xcoordinate
    5070459.455925214,        !- Vertex 3 Ycoordinate
    0,                        !- Vertex 3 Zcoordinate
    642440.9472875703,        !- Vertex 4 Xcoordinate
    5070459.455925214,        !- Vertex 4 Ycoordinate
    18.9;                     !- Vertex 4 Zcoordinate

SHADING:SITE:DETAILED,
    shade_BATIMENT0000000240879985_part0_1,    !- Name
    ,                         !- Transmittance Schedule Name
    autocalculate,            !- Number of Vertices
    642471.1568064364,        !- Vertex 1 Xcoordinate
    5070481.288507635,        !- Vertex 1 Ycoordinate
    13.1,                     !- Vertex 1 Zcoordinate
    642471.1568064364,        !- Vertex 2 Xcoordinate
    5070481.288507635,        !- Vertex 2 Ycoordinate
    0,                        !- Vertex 2 Zcoordinate
    642482.4837891308,        !- Vertex 3 Xcoordinate
    5070482.00209708,         !- Vertex 3 Ycoordinate
    0,                        !- Vertex 3 Zcoordinate
    642482.4837891308,        !- Vertex 4 Xcoordinate
    5070482.00209708,         !- Vertex 4 Ycoordinate
    13.1;                     !- Vertex 4 Zcoordinate

SHADING:SITE:DETAILED,
    shade_BATIMENT0000000240879985_part0_2,    !- Name
    ,                         !- Transmittance Schedule Name
    autocalculate,            !- Number of Vertices
    642482.4837891308,        !- Vertex 1 Xcoordinate
    5070482.00209708,         !- Vertex 1 Ycoordinate
    13.1,                     !- Vertex 1 Zcoordinate
    642482.4837891308,        !- Vertex 2 Xcoordinate
    5070482.00209708,         !- Vertex 2 Ycoordinate
    0,                        !- Vertex 2 Zcoordinate
    642483.1329452115,        !- Vertex 3 Xcoordinate
    5070471.697881271,        !- Vertex 3 Ycoordinate
    0,                        !- Vertex 3 Zcoordinate
    642483.1329452115,        !- Vertex 4 Xcoordinate
    5070471.697881271,        !- Vertex 4 Ycoordinate
    13.1;                     !- Vertex 4 Zcoordinate

SHADING:SITE:DETAILED,
    shade_BATIMENT0000000240879985_part0_3,    !- Name
    ,                         !- Transmittance Schedule Name
    autocalculate,            !- Number of Vertices
    642483.1329452115,        !- Vertex 1 Xcoordinate
    5070471.697881271,        !- Vertex 1 Ycoordinate
    13.1,                     !- Vertex 1 Zcoordinate
    642483.1329452115,        !- Vertex 2 Xcoordinate
    5070471.697881271,        !- Vertex 2 Ycoordinate
    0,                        !- Vertex 2 Zcoordinate
    642471.805962517,         !- Vertex 3 Xcoordinate
    5070470.9842918245,       !- Vertex 3 Ycoordinate
    0,                        !- Vertex 3 Zcoordinate
    642471.805962517,         !- Vertex 4 Xcoordinate
    5070470.9842918245,       !- Vertex 4 Ycoordinate
    13.1;                     !- Vertex 4 Zcoordinate

SHADING:SITE:DETAILED,
    shade_BATIMENT0000000240879985_part0_4,    !- Name
    ,                         !- Transmittance Schedule Name
    autocalculate,            !- Number of Vertices
    642471.805962517,         !- Vertex 1 Xcoordinate
    5070470.9842918245,       !- Vertex 1 Ycoordinate
    13.1,                     !- Vertex 1 Zcoordinate
    642471.805962517,         !- Vertex 2 Xcoordinate
    5070470.9842918245,       !- Vertex 2 Ycoordinate
    0,                        !- Vertex 2 Zcoordinate
    642471.1568064364,        !- Vertex 3 Xcoordinate
    5070481.288507635,        !- Vertex 3 Ycoordinate
    0,                        !- Vertex 3 Zcoordinate
    642471.1568064364,        !- Vertex 4 Xcoordinate
    5070481.288507635,        !- Vertex 4 Ycoordinate
    13.1;                     !- Vertex 4 Zcoordinate

SHADING:SITE:DETAILED,
    shade_BATIMENT0000000240879981_part0_1,    !- Name
    ,                         !- Transmittance Schedule Name
    autocalculate,            !- Number of Vertices
    642470.5233878805,        !- Vertex 1 Xcoordinate
    5070489.499255293,        !- Vertex 1 Ycoordinate
    17.9,                     !- Vertex 1 Zcoordinate
    642470.5233878805,        !- Vertex 2 Xcoordinate
    5070489.499255293,        !- Vertex 2 Ycoordinate
    0,                        !- Vertex 2 Zcoordinate
    642471.4217309076,        !- Vertex 3 Xcoordinate
    5070481.292946136,        !- Vertex 3 Ycoordinate
    0,                        !- Vertex 3 Zcoordinate
    642471.4217309076,        !- Vertex 4 Xcoordinate
    5070481.292946136,        !- Vertex 4 Ycoordinate
    17.9;                     !- Vertex 4 Zcoordinate

SHADING:SITE:DETAILED,
    shade_BATIMENT0000000240879981_part0_2,    !- Name
    ,                         !- Transmittance Schedule Name
    autocalculate,            !- Number of Vertices
    642471.4217309076,        !- Vertex 1 Xcoordinate
    5070481.292946136,        !- Vertex 1 Ycoordinate
    17.9,                     !- Vertex 1 Zcoordinate
    642471.4217309076,        !- Vertex 2 Xcoordinate
    5070481.292946136,        !- Vertex 2 Ycoordinate
    0,                        !- Vertex 2 Zcoordinate
    642459.6115435811,        !- Vertex 3 Xcoordinate
    5070479.99986808,         !- Vertex 3 Ycoordinate
    0,                        !- Vertex 3 Zcoordinate
    642459.6115435811,        !- Vertex 4 Xcoordinate
    5070479.99986808,         !- Vertex 4 Ycoordinate
    17.9;                     !- Vertex 4 Zcoordinate

SHADING:SITE:DETAILED,
    shade_BATIMENT0000000240879981_part0_3,    !- Name
    ,                         !- Transmittance Schedule Name
    autocalculate,            !- Number of Vertices
    642459.6115435811,        !- Vertex 1 Xcoordinate
    5070479.99986808,         !- Vertex 1 Ycoordinate
    17.9,                     !- Vertex 1 Zcoordinate
    642459.6115435811,        !- Vertex 2 Xcoordinate
    5070479.99986808,         !- Vertex 2 Ycoordinate
    0,                        !- Vertex 2 Zcoordinate
    642458.7132005548,        !- Vertex 3 Xcoordinate
    5070488.206177237,        !- Vertex 3 Ycoordinate
    0,                        !- Vertex 3 Zcoordinate
    642458.7132005548,        !- Vertex 4 Xcoordinate
    5070488.206177237,        !- Vertex 4 Ycoordinate
    17.9;                     !- Vertex 4 Zcoordinate

SHADING:SITE:DETAILED,
    shade_BATIMENT0000000240879981_part0_4,    !- Name
    ,                         !- Transmittance Schedule Name
    autocalculate,            !- Number of Vertices
    642458.7132005548,        !- Vertex 1 Xcoordinate
    5070488.206177237,        !- Vertex 1 Ycoordinate
    17.9,                     !- Vertex 1 Zcoordinate
    642458.7132005548,        !- Vertex 2 Xcoordinate
    5070488.206177237,        !- Vertex 2 Ycoordinate
    0,                        !- Vertex 2 Zcoordinate
    642470.5233878805,        !- Vertex 3 Xcoordinate
    5070489.499255293,        !- Vertex 3 Ycoordinate
    0,                        !- Vertex 3 Zcoordinate
    642470.5233878805,        !- Vertex 4 Xcoordinate
    5070489.499255293,        !- Vertex 4 Ycoordinate
    17.9;                     !- Vertex 4 Zcoordinate

SHADING:SITE:DETAILED,
    shade_BATIMENT0000000240879983_part0_1,    !- Name
    ,                         !- Transmittance Schedule Name
    autocalculate,            !- Number of Vertices
    642445.6489990135,        !- Vertex 1 Xcoordinate
    5070481.972548309,        !- Vertex 1 Ycoordinate
    22,                       !- Vertex 1 Zcoordinate
    642445.6489990135,        !- Vertex 2 Xcoordinate
    5070481.972548309,        !- Vertex 2 Ycoordinate
    0,                        !- Vertex 2 Zcoordinate
    642446.986693934,         !- Vertex 3 Xcoordinate
    5070509.458894767,        !- Vertex 3 Ycoordinate
    0,                        !- Vertex 3 Zcoordinate
    642446.986693934,         !- Vertex 4 Xcoordinate
    5070509.458894767,        !- Vertex 4 Ycoordinate
    22;                       !- Vertex 4 Zcoordinate

SHADING:SITE:DETAILED,
    shade_BATIMENT0000000240879983_part0_2,    !- Name
    ,                         !- Transmittance Schedule Name
    autocalculate,            !- Number of Vertices
    642446.986693934,         !- Vertex 1 Xcoordinate
    5070509.458894767,        !- Vertex 1 Ycoordinate
    22,                       !- Vertex 1 Zcoordinate
    642446.986693934,         !- Vertex 2 Xcoordinate
    5070509.458894767,        !- Vertex 2 Ycoordinate
    0,                        !- Vertex 2 Zcoordinate
    642460.4799847159,        !- Vertex 3 Xcoordinate
    5070508.802208494,        !- Vertex 3 Ycoordinate
    0,                        !- Vertex 3 Zcoordinate
    642460.4799847159,        !- Vertex 4 Xcoordinate
    5070508.802208494,        !- Vertex 4 Ycoordinate
    22;                       !- Vertex 4 Zcoordinate

SHADING:SITE:DETAILED,
    shade_BATIMENT0000000240879983_part0_3,    !- Name
    ,                         !- Transmittance Schedule Name
    autocalculate,            !- Number of Vertices
    642460.4799847159,        !- Vertex 1 Xcoordinate
    5070508.802208494,        !- Vertex 1 Ycoordinate
    22,                       !- Vertex 1 Zcoordinate
    642460.4799847159,        !- Vertex 2 Xcoordinate
    5070508.802208494,        !- Vertex 2 Ycoordinate
    0,                        !- Vertex 2 Zcoordinate
    642459.1422897954,        !- Vertex 3 Xcoordinate
    5070481.315862036,        !- Vertex 3 Ycoordinate
    0,                        !- Vertex 3 Zcoordinate
    642459.1422897954,        !- Vertex 4 Xcoordinate
    5070481.315862036,        !- Vertex 4 Ycoordinate
    22;                       !- Vertex 4 Zcoordinate

SHADING:SITE:DETAILED,
    shade_BATIMENT0000000240879983_part0_4,    !- Name
    ,                         !- Transmittance Schedule Name
    autocalculate,            !- Number of Vertices
    642459.1422897954,        !- Vertex 1 Xcoordinate
    5070481.315862036,        !- Vertex 1 Ycoordinate
    22,                       !- Vertex 1 Zcoordinate
    642459.1422897954,        !- Vertex 2 Xcoordinate
    5070481.315862036,        !- Vertex 2 Ycoordinate
    0,                        !- Vertex 2 Zcoordinate
    642445.6489990135,        !- Vertex 3 Xcoordinate
    5070481.972548309,        !- Vertex 3 Ycoordinate
    0,                        !- Vertex 3 Zcoordinate
    642445.6489990135,        !- Vertex 4 Xcoordinate
    5070481.972548309,        !- Vertex 4 Ycoordinate
    22;                       !- Vertex 4 Zcoordinate

SHADING:SITE:DETAILED,
    shade_BATIMENT0000000240879980_part0_1,    !- Name
    ,                         !- Transmittance Schedule Name
    autocalculate,            !- Number of Vertices
    642468.0659424063,        !- Vertex 1 Xcoordinate
    5070510.931017683,        !- Vertex 1 Ycoordinate
    18.8,                     !- Vertex 1 Zcoordinate
    642468.0659424063,        !- Vertex 2 Xcoordinate
    5070510.931017683,        !- Vertex 2 Ycoordinate
    0,                        !- Vertex 2 Zcoordinate
    642470.6115165262,        !- Vertex 3 Xcoordinate
    5070489.410169948,        !- Vertex 3 Ycoordinate
    0,                        !- Vertex 3 Zcoordinate
    642470.6115165262,        !- Vertex 4 Xcoordinate
    5070489.410169948,        !- Vertex 4 Ycoordinate
    18.8;                     !- Vertex 4 Zcoordinate

SHADING:SITE:DETAILED,
    shade_BATIMENT0000000240879980_part0_2,    !- Name
    ,                         !- Transmittance Schedule Name
    autocalculate,            !- Number of Vertices
    642470.6115165262,        !- Vertex 1 Xcoordinate
    5070489.410169948,        !- Vertex 1 Ycoordinate
    18.8,                     !- Vertex 1 Zcoordinate
    642470.6115165262,        !- Vertex 2 Xcoordinate
    5070489.410169948,        !- Vertex 2 Ycoordinate
    0,                        !- Vertex 2 Zcoordinate
    642462.877167713,         !- Vertex 3 Xcoordinate
    5070488.495319455,        !- Vertex 3 Ycoordinate
    0,                        !- Vertex 3 Zcoordinate
    642462.877167713,         !- Vertex 4 Xcoordinate
    5070488.495319455,        !- Vertex 4 Ycoordinate
    18.8;                     !- Vertex 4 Zcoordinate

SHADING:SITE:DETAILED,
    shade_BATIMENT0000000240879980_part0_3,    !- Name
    ,                         !- Transmittance Schedule Name
    autocalculate,            !- Number of Vertices
    642462.877167713,         !- Vertex 1 Xcoordinate
    5070488.495319455,        !- Vertex 1 Ycoordinate
    18.8,                     !- Vertex 1 Zcoordinate
    642462.877167713,         !- Vertex 2 Xcoordinate
    5070488.495319455,        !- Vertex 2 Ycoordinate
    0,                        !- Vertex 2 Zcoordinate
    642460.3315935931,        !- Vertex 3 Xcoordinate
    5070510.016167189,        !- Vertex 3 Ycoordinate
    0,                        !- Vertex 3 Zcoordinate
    642460.3315935931,        !- Vertex 4 Xcoordinate
    5070510.016167189,        !- Vertex 4 Ycoordinate
    18.8;                     !- Vertex 4 Zcoordinate

SHADING:SITE:DETAILED,
    shade_BATIMENT0000000240879980_part0_4,    !- Name
    ,                         !- Transmittance Schedule Name
    autocalculate,            !- Number of Vertices
    642460.3315935931,        !- Vertex 1 Xcoordinate
    5070510.016167189,        !- Vertex 1 Ycoordinate
    18.8,                     !- Vertex 1 Zcoordinate
    642460.3315935931,        !- Vertex 2 Xcoordinate
    5070510.016167189,        !- Vertex 2 Ycoordinate
    0,                        !- Vertex 2 Zcoordinate
    642468.0659424063,        !- Vertex 3 Xcoordinate
    5070510.931017683,        !- Vertex 3 Ycoordinate
    0,                        !- Vertex 3 Zcoordinate
    642468.0659424063,        !- Vertex 4 Xcoordinate
    5070510.931017683,        !- Vertex 4 Ycoordinate
    18.8;                     !- Vertex 4 Zcoordinate

SHADING:SITE:DETAILED,
    shade_BATIMENT0000000240879510_part0_1,    !- Name
    ,                         !- Transmittance Schedule Name
    autocalculate,            !- Number of Vertices
    642476.4565525103,        !- Vertex 1 Xcoordinate
    5070450.677362049,        !- Vertex 1 Ycoordinate
    9.5,                      !- Vertex 1 Zcoordinate
    642476.4565525103,        !- Vertex 2 Xcoordinate
    5070450.677362049,        !- Vertex 2 Ycoordinate
    0,                        !- Vertex 2 Zcoordinate
    642475.620352687,         !- Vertex 3 Xcoordinate
    5070466.380468334,        !- Vertex 3 Ycoordinate
    0,                        !- Vertex 3 Zcoordinate
    642475.620352687,         !- Vertex 4 Xcoordinate
    5070466.380468334,        !- Vertex 4 Ycoordinate
    9.5;                      !- Vertex 4 Zcoordinate

SHADING:SITE:DETAILED,
    shade_BATIMENT0000000240879510_part0_2,    !- Name
    ,                         !- Transmittance Schedule Name
    autocalculate,            !- Number of Vertices
    642475.620352687,         !- Vertex 1 Xcoordinate
    5070466.380468334,        !- Vertex 1 Ycoordinate
    9.5,                      !- Vertex 1 Zcoordinate
    642475.620352687,         !- Vertex 2 Xcoordinate
    5070466.380468334,        !- Vertex 2 Ycoordinate
    0,                        !- Vertex 2 Zcoordinate
    642486.6882440402,        !- Vertex 3 Xcoordinate
    5070466.969996822,        !- Vertex 3 Ycoordinate
    0,                        !- Vertex 3 Zcoordinate
    642486.6882440402,        !- Vertex 4 Xcoordinate
    5070466.969996822,        !- Vertex 4 Ycoordinate
    9.5;                      !- Vertex 4 Zcoordinate

SHADING:SITE:DETAILED,
    shade_BATIMENT0000000240879510_part0_3,    !- Name
    ,                         !- Transmittance Schedule Name
    autocalculate,            !- Number of Vertices
    642486.6882440402,        !- Vertex 1 Xcoordinate
    5070466.969996822,        !- Vertex 1 Ycoordinate
    9.5,                      !- Vertex 1 Zcoordinate
    642486.6882440402,        !- Vertex 2 Xcoordinate
    5070466.969996822,        !- Vertex 2 Ycoordinate
    0,                        !- Vertex 2 Zcoordinate
    642487.5246494248,        !- Vertex 3 Xcoordinate
    5070451.266726953,        !- Vertex 3 Ycoordinate
    0,                        !- Vertex 3 Zcoordinate
    642487.5246494248,        !- Vertex 4 Xcoordinate
    5070451.266726953,        !- Vertex 4 Ycoordinate
    9.5;                      !- Vertex 4 Zcoordinate

SHADING:SITE:DETAILED,
    shade_BATIMENT0000000240879510_part0_4,    !- Name
    ,                         !- Transmittance Schedule Name
    autocalculate,            !- Number of Vertices
    642487.5246494248,        !- Vertex 1 Xcoordinate
    5070451.266726953,        !- Vertex 1 Ycoordinate
    9.5,                      !- Vertex 1 Zcoordinate
    642487.5246494248,        !- Vertex 2 Xcoordinate
    5070451.266726953,        !- Vertex 2 Ycoordinate
    0,                        !- Vertex 2 Zcoordinate
    642476.4565525103,        !- Vertex 3 Xcoordinate
    5070450.677362049,        !- Vertex 3 Ycoordinate
    0,                        !- Vertex 3 Zcoordinate
    642476.4565525103,        !- Vertex 4 Xcoordinate
    5070450.677362049,        !- Vertex 4 Ycoordinate
    9.5;                      !- Vertex 4 Zcoordinate

OTHEREQUIPMENT,
    EU_Step8_InternalGain_3ca288d3449d4455_F0_dwelling_0_f000,    !- Name
    Electricity,              !- Fuel Type
    3ca288d3449d4455_F0_dwelling_0,    !- Zone or ZoneList or Space or SpaceList Name
    EU_Step8_GainSchedule_3ca288d3449d4455_F0_dwelling_0_f000,    !- Schedule Name
    Watts/Area,               !- Design Level Calculation Method
    ,                         !- Design Level
    1,                        !- Power per Zone Floor Area
    ,                         !- Power per Person
    0,                        !- Fraction Latent
    0,                        !- Fraction Radiant
    0,                        !- Fraction Lost
    0,                        !- Carbon Dioxide Generation Rate
    EU_Step8_InternalGains;    !- EndUse Subcategory

OTHEREQUIPMENT,
    EU_Step8_InternalGain_3ca288d3449d4455_F0_dwelling_1_f000,    !- Name
    Electricity,              !- Fuel Type
    3ca288d3449d4455_F0_dwelling_1,    !- Zone or ZoneList or Space or SpaceList Name
    EU_Step8_GainSchedule_3ca288d3449d4455_F0_dwelling_1_f000,    !- Schedule Name
    Watts/Area,               !- Design Level Calculation Method
    ,                         !- Design Level
    1,                        !- Power per Zone Floor Area
    ,                         !- Power per Person
    0,                        !- Fraction Latent
    0,                        !- Fraction Radiant
    0,                        !- Fraction Lost
    0,                        !- Carbon Dioxide Generation Rate
    EU_Step8_InternalGains;    !- EndUse Subcategory

OTHEREQUIPMENT,
    EU_Step8_InternalGain_3ca288d3449d4455_F1_dwelling_0_f000,    !- Name
    Electricity,              !- Fuel Type
    3ca288d3449d4455_F1_dwelling_0,    !- Zone or ZoneList or Space or SpaceList Name
    EU_Step8_GainSchedule_3ca288d3449d4455_F1_dwelling_0_f000,    !- Schedule Name
    Watts/Area,               !- Design Level Calculation Method
    ,                         !- Design Level
    1,                        !- Power per Zone Floor Area
    ,                         !- Power per Person
    0,                        !- Fraction Latent
    0,                        !- Fraction Radiant
    0,                        !- Fraction Lost
    0,                        !- Carbon Dioxide Generation Rate
    EU_Step8_InternalGains;    !- EndUse Subcategory

OTHEREQUIPMENT,
    EU_Step8_InternalGain_3ca288d3449d4455_F1_dwelling_1_f000,    !- Name
    Electricity,              !- Fuel Type
    3ca288d3449d4455_F1_dwelling_1,    !- Zone or ZoneList or Space or SpaceList Name
    EU_Step8_GainSchedule_3ca288d3449d4455_F1_dwelling_1_f000,    !- Schedule Name
    Watts/Area,               !- Design Level Calculation Method
    ,                         !- Design Level
    1,                        !- Power per Zone Floor Area
    ,                         !- Power per Person
    0,                        !- Fraction Latent
    0,                        !- Fraction Radiant
    0,                        !- Fraction Lost
    0,                        !- Carbon Dioxide Generation Rate
    EU_Step8_InternalGains;    !- EndUse Subcategory

ZONEVENTILATION:DESIGNFLOWRATE,
    EU_ConstantAir_3ca288d3449d4455_F0_dwelling_0,    !- Name
    3ca288d3449d4455_F0_dwelling_0,    !- Zone or ZoneList or Space or SpaceList Name
    EU_AlwaysOn,              !- Schedule Name
    AirChanges/Hour,          !- Design Flow Rate Calculation Method
    ,                         !- Design Flow Rate
    ,                         !- Flow Rate per Floor Area
    ,                         !- Flow Rate per Person
    0.425,                    !- Air Changes per Hour
    Natural,                  !- Ventilation Type
    0,                        !- Fan Pressure Rise
    1,                        !- Fan Total Efficiency
    1,                        !- Constant Term Coefficient
    0,                        !- Temperature Term Coefficient
    0,                        !- Velocity Term Coefficient
    0,                        !- Velocity Squared Term Coefficient
    -100,                     !- Minimum Indoor Temperature
    ,                         !- Minimum Indoor Temperature Schedule Name
    100,                      !- Maximum Indoor Temperature
    ,                         !- Maximum Indoor Temperature Schedule Name
    -100,                     !- Delta Temperature
    ,                         !- Delta Temperature Schedule Name
    -100,                     !- Minimum Outdoor Temperature
    ,                         !- Minimum Outdoor Temperature Schedule Name
    100,                      !- Maximum Outdoor Temperature
    ,                         !- Maximum Outdoor Temperature Schedule Name
    40;                       !- Maximum Wind Speed

ZONEVENTILATION:DESIGNFLOWRATE,
    EU_ConstantAir_3ca288d3449d4455_F0_dwelling_1,    !- Name
    3ca288d3449d4455_F0_dwelling_1,    !- Zone or ZoneList or Space or SpaceList Name
    EU_AlwaysOn,              !- Schedule Name
    AirChanges/Hour,          !- Design Flow Rate Calculation Method
    ,                         !- Design Flow Rate
    ,                         !- Flow Rate per Floor Area
    ,                         !- Flow Rate per Person
    0.425,                    !- Air Changes per Hour
    Natural,                  !- Ventilation Type
    0,                        !- Fan Pressure Rise
    1,                        !- Fan Total Efficiency
    1,                        !- Constant Term Coefficient
    0,                        !- Temperature Term Coefficient
    0,                        !- Velocity Term Coefficient
    0,                        !- Velocity Squared Term Coefficient
    -100,                     !- Minimum Indoor Temperature
    ,                         !- Minimum Indoor Temperature Schedule Name
    100,                      !- Maximum Indoor Temperature
    ,                         !- Maximum Indoor Temperature Schedule Name
    -100,                     !- Delta Temperature
    ,                         !- Delta Temperature Schedule Name
    -100,                     !- Minimum Outdoor Temperature
    ,                         !- Minimum Outdoor Temperature Schedule Name
    100,                      !- Maximum Outdoor Temperature
    ,                         !- Maximum Outdoor Temperature Schedule Name
    40;                       !- Maximum Wind Speed

ZONEVENTILATION:DESIGNFLOWRATE,
    EU_ConstantAir_3ca288d3449d4455_F1_dwelling_0,    !- Name
    3ca288d3449d4455_F1_dwelling_0,    !- Zone or ZoneList or Space or SpaceList Name
    EU_AlwaysOn,              !- Schedule Name
    AirChanges/Hour,          !- Design Flow Rate Calculation Method
    ,                         !- Design Flow Rate
    ,                         !- Flow Rate per Floor Area
    ,                         !- Flow Rate per Person
    0.425,                    !- Air Changes per Hour
    Natural,                  !- Ventilation Type
    0,                        !- Fan Pressure Rise
    1,                        !- Fan Total Efficiency
    1,                        !- Constant Term Coefficient
    0,                        !- Temperature Term Coefficient
    0,                        !- Velocity Term Coefficient
    0,                        !- Velocity Squared Term Coefficient
    -100,                     !- Minimum Indoor Temperature
    ,                         !- Minimum Indoor Temperature Schedule Name
    100,                      !- Maximum Indoor Temperature
    ,                         !- Maximum Indoor Temperature Schedule Name
    -100,                     !- Delta Temperature
    ,                         !- Delta Temperature Schedule Name
    -100,                     !- Minimum Outdoor Temperature
    ,                         !- Minimum Outdoor Temperature Schedule Name
    100,                      !- Maximum Outdoor Temperature
    ,                         !- Maximum Outdoor Temperature Schedule Name
    40;                       !- Maximum Wind Speed

ZONEVENTILATION:DESIGNFLOWRATE,
    EU_ConstantAir_3ca288d3449d4455_F1_dwelling_1,    !- Name
    3ca288d3449d4455_F1_dwelling_1,    !- Zone or ZoneList or Space or SpaceList Name
    EU_AlwaysOn,              !- Schedule Name
    AirChanges/Hour,          !- Design Flow Rate Calculation Method
    ,                         !- Design Flow Rate
    ,                         !- Flow Rate per Floor Area
    ,                         !- Flow Rate per Person
    0.425,                    !- Air Changes per Hour
    Natural,                  !- Ventilation Type
    0,                        !- Fan Pressure Rise
    1,                        !- Fan Total Efficiency
    1,                        !- Constant Term Coefficient
    0,                        !- Temperature Term Coefficient
    0,                        !- Velocity Term Coefficient
    0,                        !- Velocity Squared Term Coefficient
    -100,                     !- Minimum Indoor Temperature
    ,                         !- Minimum Indoor Temperature Schedule Name
    100,                      !- Maximum Indoor Temperature
    ,                         !- Maximum Indoor Temperature Schedule Name
    -100,                     !- Delta Temperature
    ,                         !- Delta Temperature Schedule Name
    -100,                     !- Minimum Outdoor Temperature
    ,                         !- Minimum Outdoor Temperature Schedule Name
    100,                      !- Maximum Outdoor Temperature
    ,                         !- Maximum Outdoor Temperature Schedule Name
    40;                       !- Maximum Wind Speed

HVACTEMPLATE:THERMOSTAT,
    EU_HeatOnly_3ca288d3449d4455_F0_dwelling_0,    !- Name
    ,                         !- Heating Setpoint Schedule Name
    20,                       !- Constant Heating Setpoint
    ,                         !- Cooling Setpoint Schedule Name
    50;                       !- Constant Cooling Setpoint

HVACTEMPLATE:THERMOSTAT,
    EU_HeatOnly_3ca288d3449d4455_F0_dwelling_1,    !- Name
    ,                         !- Heating Setpoint Schedule Name
    20,                       !- Constant Heating Setpoint
    ,                         !- Cooling Setpoint Schedule Name
    50;                       !- Constant Cooling Setpoint

HVACTEMPLATE:THERMOSTAT,
    EU_HeatOnly_3ca288d3449d4455_F1_dwelling_0,    !- Name
    ,                         !- Heating Setpoint Schedule Name
    20,                       !- Constant Heating Setpoint
    ,                         !- Cooling Setpoint Schedule Name
    50;                       !- Constant Cooling Setpoint

HVACTEMPLATE:THERMOSTAT,
    EU_HeatOnly_3ca288d3449d4455_F1_dwelling_1,    !- Name
    ,                         !- Heating Setpoint Schedule Name
    20,                       !- Constant Heating Setpoint
    ,                         !- Cooling Setpoint Schedule Name
    50;                       !- Constant Cooling Setpoint

HVACTEMPLATE:ZONE:IDEALLOADSAIRSYSTEM,
    3ca288d3449d4455_F0_dwelling_0,    !- Zone Name
    EU_HeatOnly_3ca288d3449d4455_F0_dwelling_0,    !- Template Thermostat Name
    EU_AlwaysOn,              !- System Availability Schedule Name
    50,                       !- Maximum Heating Supply Air Temperature
    13,                       !- Minimum Cooling Supply Air Temperature
    0.0156,                   !- Maximum Heating Supply Air Humidity Ratio
    0.0077,                   !- Minimum Cooling Supply Air Humidity Ratio
    NoLimit,                  !- Heating Limit
    ,                         !- Maximum Heating Air Flow Rate
    ,                         !- Maximum Sensible Heating Capacity
    NoLimit,                  !- Cooling Limit
    ,                         !- Maximum Cooling Air Flow Rate
    ,                         !- Maximum Total Cooling Capacity
    EU_AlwaysOn,              !- Heating Availability Schedule Name
    EU_CoolingOff,            !- Cooling Availability Schedule Name
    ConstantSensibleHeatRatio,    !- Dehumidification Control Type
    0.7,                      !- Cooling Sensible Heat Ratio
    60,                       !- Dehumidification Setpoint
    None,                     !- Humidification Control Type
    30,                       !- Humidification Setpoint
    None,                     !- Outdoor Air Method
    0.00944,                  !- Outdoor Air Flow Rate per Person
    0.0,                      !- Outdoor Air Flow Rate per Zone Floor Area
    0,                        !- Outdoor Air Flow Rate per Zone
    ,                         !- Design Specification Outdoor Air Object Name
    None,                     !- Demand Controlled Ventilation Type
    NoEconomizer,             !- Outdoor Air Economizer Type
    None,                     !- Heat Recovery Type
    0.70,                     !- Sensible Heat Recovery Effectiveness
    0.65;                     !- Latent Heat Recovery Effectiveness

HVACTEMPLATE:ZONE:IDEALLOADSAIRSYSTEM,
    3ca288d3449d4455_F0_dwelling_1,    !- Zone Name
    EU_HeatOnly_3ca288d3449d4455_F0_dwelling_1,    !- Template Thermostat Name
    EU_AlwaysOn,              !- System Availability Schedule Name
    50,                       !- Maximum Heating Supply Air Temperature
    13,                       !- Minimum Cooling Supply Air Temperature
    0.0156,                   !- Maximum Heating Supply Air Humidity Ratio
    0.0077,                   !- Minimum Cooling Supply Air Humidity Ratio
    NoLimit,                  !- Heating Limit
    ,                         !- Maximum Heating Air Flow Rate
    ,                         !- Maximum Sensible Heating Capacity
    NoLimit,                  !- Cooling Limit
    ,                         !- Maximum Cooling Air Flow Rate
    ,                         !- Maximum Total Cooling Capacity
    EU_AlwaysOn,              !- Heating Availability Schedule Name
    EU_CoolingOff,            !- Cooling Availability Schedule Name
    ConstantSensibleHeatRatio,    !- Dehumidification Control Type
    0.7,                      !- Cooling Sensible Heat Ratio
    60,                       !- Dehumidification Setpoint
    None,                     !- Humidification Control Type
    30,                       !- Humidification Setpoint
    None,                     !- Outdoor Air Method
    0.00944,                  !- Outdoor Air Flow Rate per Person
    0.0,                      !- Outdoor Air Flow Rate per Zone Floor Area
    0,                        !- Outdoor Air Flow Rate per Zone
    ,                         !- Design Specification Outdoor Air Object Name
    None,                     !- Demand Controlled Ventilation Type
    NoEconomizer,             !- Outdoor Air Economizer Type
    None,                     !- Heat Recovery Type
    0.70,                     !- Sensible Heat Recovery Effectiveness
    0.65;                     !- Latent Heat Recovery Effectiveness

HVACTEMPLATE:ZONE:IDEALLOADSAIRSYSTEM,
    3ca288d3449d4455_F1_dwelling_0,    !- Zone Name
    EU_HeatOnly_3ca288d3449d4455_F1_dwelling_0,    !- Template Thermostat Name
    EU_AlwaysOn,              !- System Availability Schedule Name
    50,                       !- Maximum Heating Supply Air Temperature
    13,                       !- Minimum Cooling Supply Air Temperature
    0.0156,                   !- Maximum Heating Supply Air Humidity Ratio
    0.0077,                   !- Minimum Cooling Supply Air Humidity Ratio
    NoLimit,                  !- Heating Limit
    ,                         !- Maximum Heating Air Flow Rate
    ,                         !- Maximum Sensible Heating Capacity
    NoLimit,                  !- Cooling Limit
    ,                         !- Maximum Cooling Air Flow Rate
    ,                         !- Maximum Total Cooling Capacity
    EU_AlwaysOn,              !- Heating Availability Schedule Name
    EU_CoolingOff,            !- Cooling Availability Schedule Name
    ConstantSensibleHeatRatio,    !- Dehumidification Control Type
    0.7,                      !- Cooling Sensible Heat Ratio
    60,                       !- Dehumidification Setpoint
    None,                     !- Humidification Control Type
    30,                       !- Humidification Setpoint
    None,                     !- Outdoor Air Method
    0.00944,                  !- Outdoor Air Flow Rate per Person
    0.0,                      !- Outdoor Air Flow Rate per Zone Floor Area
    0,                        !- Outdoor Air Flow Rate per Zone
    ,                         !- Design Specification Outdoor Air Object Name
    None,                     !- Demand Controlled Ventilation Type
    NoEconomizer,             !- Outdoor Air Economizer Type
    None,                     !- Heat Recovery Type
    0.70,                     !- Sensible Heat Recovery Effectiveness
    0.65;                     !- Latent Heat Recovery Effectiveness

HVACTEMPLATE:ZONE:IDEALLOADSAIRSYSTEM,
    3ca288d3449d4455_F1_dwelling_1,    !- Zone Name
    EU_HeatOnly_3ca288d3449d4455_F1_dwelling_1,    !- Template Thermostat Name
    EU_AlwaysOn,              !- System Availability Schedule Name
    50,                       !- Maximum Heating Supply Air Temperature
    13,                       !- Minimum Cooling Supply Air Temperature
    0.0156,                   !- Maximum Heating Supply Air Humidity Ratio
    0.0077,                   !- Minimum Cooling Supply Air Humidity Ratio
    NoLimit,                  !- Heating Limit
    ,                         !- Maximum Heating Air Flow Rate
    ,                         !- Maximum Sensible Heating Capacity
    NoLimit,                  !- Cooling Limit
    ,                         !- Maximum Cooling Air Flow Rate
    ,                         !- Maximum Total Cooling Capacity
    EU_AlwaysOn,              !- Heating Availability Schedule Name
    EU_CoolingOff,            !- Cooling Availability Schedule Name
    ConstantSensibleHeatRatio,    !- Dehumidification Control Type
    0.7,                      !- Cooling Sensible Heat Ratio
    60,                       !- Dehumidification Setpoint
    None,                     !- Humidification Control Type
    30,                       !- Humidification Setpoint
    None,                     !- Outdoor Air Method
    0.00944,                  !- Outdoor Air Flow Rate per Person
    0.0,                      !- Outdoor Air Flow Rate per Zone Floor Area
    0,                        !- Outdoor Air Flow Rate per Zone
    ,                         !- Design Specification Outdoor Air Object Name
    None,                     !- Demand Controlled Ventilation Type
    NoEconomizer,             !- Outdoor Air Economizer Type
    None,                     !- Heat Recovery Type
    0.70,                     !- Sensible Heat Recovery Effectiveness
    0.65;                     !- Latent Heat Recovery Effectiveness

SIZING:ZONE,
    3ca288d3449d4455_F0_dwelling_0,    !- Zone or ZoneList Name
    SupplyAirTemperature,     !- Zone Cooling Design Supply Air Temperature Input Method
    13,                       !- Zone Cooling Design Supply Air Temperature
    ,                         !- Zone Cooling Design Supply Air Temperature Difference
    SupplyAirTemperature,     !- Zone Heating Design Supply Air Temperature Input Method
    50,                       !- Zone Heating Design Supply Air Temperature
    ,                         !- Zone Heating Design Supply Air Temperature Difference
    0.008,                    !- Zone Cooling Design Supply Air Humidity Ratio
    0.008,                    !- Zone Heating Design Supply Air Humidity Ratio
    ,                         !- Design Specification Outdoor Air Object Name
    ,                         !- Zone Heating Sizing Factor
    ,                         !- Zone Cooling Sizing Factor
    DesignDay,                !- Cooling Design Air Flow Method
    0,                        !- Cooling Design Air Flow Rate
    0.000762,                 !- Cooling Minimum Air Flow per Zone Floor Area
    0,                        !- Cooling Minimum Air Flow
    0.2,                      !- Cooling Minimum Air Flow Fraction
    DesignDay,                !- Heating Design Air Flow Method
    0,                        !- Heating Design Air Flow Rate
    0.002032,                 !- Heating Maximum Air Flow per Zone Floor Area
    0.1415762,                !- Heating Maximum Air Flow
    0.3,                      !- Heating Maximum Air Flow Fraction
    ,                         !- Design Specification Zone Air Distribution Object Name
    No,                       !- Account for Dedicated Outdoor Air System
    NeutralSupplyAir,         !- Dedicated Outdoor Air System Control Strategy
    autosize,                 !- Dedicated Outdoor Air Low Setpoint Temperature for Design
    autosize,                 !- Dedicated Outdoor Air High Setpoint Temperature for Design
    Sensible Load Only No Latent Load,    !- Zone Load Sizing Method
    HumidityRatioDifference,    !- Zone Latent Cooling Design Supply Air Humidity Ratio Input Method
    ,                         !- Zone Dehumidification Design Supply Air Humidity Ratio
    0.005,                    !- Zone Cooling Design Supply Air Humidity Ratio Difference
    HumidityRatioDifference,    !- Zone Latent Heating Design Supply Air Humidity Ratio Input Method
    ,                         !- Zone Humidification Design Supply Air Humidity Ratio
    0.005;                    !- Zone Humidification Design Supply Air Humidity Ratio Difference

SIZING:ZONE,
    3ca288d3449d4455_F0_dwelling_1,    !- Zone or ZoneList Name
    SupplyAirTemperature,     !- Zone Cooling Design Supply Air Temperature Input Method
    13,                       !- Zone Cooling Design Supply Air Temperature
    ,                         !- Zone Cooling Design Supply Air Temperature Difference
    SupplyAirTemperature,     !- Zone Heating Design Supply Air Temperature Input Method
    50,                       !- Zone Heating Design Supply Air Temperature
    ,                         !- Zone Heating Design Supply Air Temperature Difference
    0.008,                    !- Zone Cooling Design Supply Air Humidity Ratio
    0.008,                    !- Zone Heating Design Supply Air Humidity Ratio
    ,                         !- Design Specification Outdoor Air Object Name
    ,                         !- Zone Heating Sizing Factor
    ,                         !- Zone Cooling Sizing Factor
    DesignDay,                !- Cooling Design Air Flow Method
    0,                        !- Cooling Design Air Flow Rate
    0.000762,                 !- Cooling Minimum Air Flow per Zone Floor Area
    0,                        !- Cooling Minimum Air Flow
    0.2,                      !- Cooling Minimum Air Flow Fraction
    DesignDay,                !- Heating Design Air Flow Method
    0,                        !- Heating Design Air Flow Rate
    0.002032,                 !- Heating Maximum Air Flow per Zone Floor Area
    0.1415762,                !- Heating Maximum Air Flow
    0.3,                      !- Heating Maximum Air Flow Fraction
    ,                         !- Design Specification Zone Air Distribution Object Name
    No,                       !- Account for Dedicated Outdoor Air System
    NeutralSupplyAir,         !- Dedicated Outdoor Air System Control Strategy
    autosize,                 !- Dedicated Outdoor Air Low Setpoint Temperature for Design
    autosize,                 !- Dedicated Outdoor Air High Setpoint Temperature for Design
    Sensible Load Only No Latent Load,    !- Zone Load Sizing Method
    HumidityRatioDifference,    !- Zone Latent Cooling Design Supply Air Humidity Ratio Input Method
    ,                         !- Zone Dehumidification Design Supply Air Humidity Ratio
    0.005,                    !- Zone Cooling Design Supply Air Humidity Ratio Difference
    HumidityRatioDifference,    !- Zone Latent Heating Design Supply Air Humidity Ratio Input Method
    ,                         !- Zone Humidification Design Supply Air Humidity Ratio
    0.005;                    !- Zone Humidification Design Supply Air Humidity Ratio Difference

SIZING:ZONE,
    3ca288d3449d4455_F1_dwelling_0,    !- Zone or ZoneList Name
    SupplyAirTemperature,     !- Zone Cooling Design Supply Air Temperature Input Method
    13,                       !- Zone Cooling Design Supply Air Temperature
    ,                         !- Zone Cooling Design Supply Air Temperature Difference
    SupplyAirTemperature,     !- Zone Heating Design Supply Air Temperature Input Method
    50,                       !- Zone Heating Design Supply Air Temperature
    ,                         !- Zone Heating Design Supply Air Temperature Difference
    0.008,                    !- Zone Cooling Design Supply Air Humidity Ratio
    0.008,                    !- Zone Heating Design Supply Air Humidity Ratio
    ,                         !- Design Specification Outdoor Air Object Name
    ,                         !- Zone Heating Sizing Factor
    ,                         !- Zone Cooling Sizing Factor
    DesignDay,                !- Cooling Design Air Flow Method
    0,                        !- Cooling Design Air Flow Rate
    0.000762,                 !- Cooling Minimum Air Flow per Zone Floor Area
    0,                        !- Cooling Minimum Air Flow
    0.2,                      !- Cooling Minimum Air Flow Fraction
    DesignDay,                !- Heating Design Air Flow Method
    0,                        !- Heating Design Air Flow Rate
    0.002032,                 !- Heating Maximum Air Flow per Zone Floor Area
    0.1415762,                !- Heating Maximum Air Flow
    0.3,                      !- Heating Maximum Air Flow Fraction
    ,                         !- Design Specification Zone Air Distribution Object Name
    No,                       !- Account for Dedicated Outdoor Air System
    NeutralSupplyAir,         !- Dedicated Outdoor Air System Control Strategy
    autosize,                 !- Dedicated Outdoor Air Low Setpoint Temperature for Design
    autosize,                 !- Dedicated Outdoor Air High Setpoint Temperature for Design
    Sensible Load Only No Latent Load,    !- Zone Load Sizing Method
    HumidityRatioDifference,    !- Zone Latent Cooling Design Supply Air Humidity Ratio Input Method
    ,                         !- Zone Dehumidification Design Supply Air Humidity Ratio
    0.005,                    !- Zone Cooling Design Supply Air Humidity Ratio Difference
    HumidityRatioDifference,    !- Zone Latent Heating Design Supply Air Humidity Ratio Input Method
    ,                         !- Zone Humidification Design Supply Air Humidity Ratio
    0.005;                    !- Zone Humidification Design Supply Air Humidity Ratio Difference

SIZING:ZONE,
    3ca288d3449d4455_F1_dwelling_1,    !- Zone or ZoneList Name
    SupplyAirTemperature,     !- Zone Cooling Design Supply Air Temperature Input Method
    13,                       !- Zone Cooling Design Supply Air Temperature
    ,                         !- Zone Cooling Design Supply Air Temperature Difference
    SupplyAirTemperature,     !- Zone Heating Design Supply Air Temperature Input Method
    50,                       !- Zone Heating Design Supply Air Temperature
    ,                         !- Zone Heating Design Supply Air Temperature Difference
    0.008,                    !- Zone Cooling Design Supply Air Humidity Ratio
    0.008,                    !- Zone Heating Design Supply Air Humidity Ratio
    ,                         !- Design Specification Outdoor Air Object Name
    ,                         !- Zone Heating Sizing Factor
    ,                         !- Zone Cooling Sizing Factor
    DesignDay,                !- Cooling Design Air Flow Method
    0,                        !- Cooling Design Air Flow Rate
    0.000762,                 !- Cooling Minimum Air Flow per Zone Floor Area
    0,                        !- Cooling Minimum Air Flow
    0.2,                      !- Cooling Minimum Air Flow Fraction
    DesignDay,                !- Heating Design Air Flow Method
    0,                        !- Heating Design Air Flow Rate
    0.002032,                 !- Heating Maximum Air Flow per Zone Floor Area
    0.1415762,                !- Heating Maximum Air Flow
    0.3,                      !- Heating Maximum Air Flow Fraction
    ,                         !- Design Specification Zone Air Distribution Object Name
    No,                       !- Account for Dedicated Outdoor Air System
    NeutralSupplyAir,         !- Dedicated Outdoor Air System Control Strategy
    autosize,                 !- Dedicated Outdoor Air Low Setpoint Temperature for Design
    autosize,                 !- Dedicated Outdoor Air High Setpoint Temperature for Design
    Sensible Load Only No Latent Load,    !- Zone Load Sizing Method
    HumidityRatioDifference,    !- Zone Latent Cooling Design Supply Air Humidity Ratio Input Method
    ,                         !- Zone Dehumidification Design Supply Air Humidity Ratio
    0.005,                    !- Zone Cooling Design Supply Air Humidity Ratio Difference
    HumidityRatioDifference,    !- Zone Latent Heating Design Supply Air Humidity Ratio Input Method
    ,                         !- Zone Humidification Design Supply Air Humidity Ratio
    0.005;                    !- Zone Humidification Design Supply Air Humidity Ratio Difference

OUTPUT:VARIABLE,
    *,                        !- Key Value
    Zone Ideal Loads Zone Total Heating Energy,    !- Variable Name
    Hourly;                   !- Reporting Frequency

OUTPUT:SQLITE,
    SimpleAndTabular,         !- Option Type
    UseOutputControlTableStyle;    !- Unit Conversion for Tabular Data