!- Windows Line endings 

Version,
    23.1;                     !- Version Identifier

SimulationControl,
    Yes,                      !- Do Zone Sizing Calculation
    Yes,                      !- Do System Sizing Calculation
    Yes,                      !- Do Plant Sizing Calculation
    No,                       !- Run Simulation for Sizing Periods
    Yes,                      !- Run Simulation for Weather File Run Periods
    No,                       !- Do HVAC Sizing Simulation for Sizing Periods
    1;                        !- Maximum Number of HVAC Sizing Simulation Passes

Building,
    EU S2 Campaign,           !- Name
    0,                        !- North Axis
    City,                     !- Terrain
    ,                         !- Loads Convergence Tolerance Value
    ,                         !- Temperature Convergence Tolerance Value
    FullExterior,             !- Solar Distribution
    ,                         !- Maximum Number of Warmup Days
    ;                         !- Minimum Number of Warmup Days

ShadowCalculation,
    PolygonClipping,          !- Shading Calculation Method
    Periodic,                 !- Shading Calculation Update Frequency Method
    1;                        !- Shading Calculation Update Frequency

HeatBalanceAlgorithm,
    ConductionTransferFunction,    !- Algorithm
    200,                      !- Surface Temperature Upper Limit
    0.1,                      !- Minimum Surface Convection Heat Transfer Coefficient Value
    10000000;                 !- Maximum Surface Convection Heat Transfer Coefficient Value

Timestep,
    12;                       !- Number of Timesteps per Hour

Site:Location,
    Lyon-Bron,                !- Name
    45.75,                    !- Latitude
    5,                        !- Longitude
    1,                        !- Time Zone
    198;                      !- Elevation

SizingPeriod:WeatherFileDays,
    AnnualSizingPeriod,       !- Name
    1,                        !- Begin Month
    1,                        !- Begin Day of Month
    12,                       !- End Month
    31,                       !- End Day of Month
    Monday,                   !- Day of Week for Start Day
    No,                       !- Use Weather File Daylight Saving Period
    No;                       !- Use Weather File Rain and Snow Indicators

RunPeriod,
    RunPeriod1,               !- Name
    1,                        !- Begin Month
    1,                        !- Begin Day of Month
    ,                         !- Begin Year
    12,                       !- End Month
    31,                       !- End Day of Month
    ,                         !- End Year
    Sunday,                   !- Day of Week for Start Day
    No,                       !- Use Weather File Holidays and Special Days
    No,                       !- Use Weather File Daylight Saving Period
    No,                       !- Apply Weekend Holiday Rule
    Yes,                      !- Use Weather File Rain Indicators
    Yes;                      !- Use Weather File Snow Indicators

ScheduleTypeLimits,
    Any Number;               !- Name

SCHEDULETYPELIMITS,
    EU_Step8_AnyNumber_Wm2,    !- Name
    ,                         !- Lower Limit Value
    ,                         !- Upper Limit Value
    Continuous,               !- Numeric Type
    Dimensionless;            !- Unit Type

SCHEDULE:CONSTANT,
    EU_AlwaysOn,              !- Name
    ,                         !- Schedule Type Limits Name
    1;                        !- Hourly Value

SCHEDULE:CONSTANT,
    EU_CoolingOff,            !- Name
    ,                         !- Schedule Type Limits Name
    0;                        !- Hourly Value

SCHEDULE:FILE,
    EU_Step8_GainSchedule_9431a9276163ac65_F0_dwelling_0_f000,    !- Name
    EU_Step8_AnyNumber_Wm2,    !- Schedule Type Limits Name
    ../../schedules/9431a9276163ac65/9431a9276163ac65_F0_dwelling_0_f000_gain.csv,    !- File Name
    1,                        !- Column Number
    0,                        !- Rows to Skip at Top
    8760,                     !- Number of Hours of Data
    Comma,                    !- Column Separator
    No,                       !- Interpolate to Timestep
    60,                       !- Minutes per Item
    Yes;                      !- Adjust Schedule for Daylight Savings

SCHEDULE:FILE,
    EU_Step8_GainSchedule_9431a9276163ac65_F1_dwelling_0_f000,    !- Name
    EU_Step8_AnyNumber_Wm2,    !- Schedule Type Limits Name
    ../../schedules/9431a9276163ac65/9431a9276163ac65_F1_dwelling_0_f000_gain.csv,    !- File Name
    1,                        !- Column Number
    0,                        !- Rows to Skip at Top
    8760,                     !- Number of Hours of Data
    Comma,                    !- Column Separator
    No,                       !- Interpolate to Timestep
    60,                       !- Minutes per Item
    Yes;                      !- Adjust Schedule for Daylight Savings

SCHEDULE:FILE,
    EU_Step8_GainSchedule_9431a9276163ac65_F2_dwelling_0_f000,    !- Name
    EU_Step8_AnyNumber_Wm2,    !- Schedule Type Limits Name
    ../../schedules/9431a9276163ac65/9431a9276163ac65_F2_dwelling_0_f000_gain.csv,    !- File Name
    1,                        !- Column Number
    0,                        !- Rows to Skip at Top
    8760,                     !- Number of Hours of Data
    Comma,                    !- Column Separator
    No,                       !- Interpolate to Timestep
    60,                       !- Minutes per Item
    Yes;                      !- Adjust Schedule for Daylight Savings

SCHEDULE:FILE,
    EU_Step8_GainSchedule_9431a9276163ac65_F3_dwelling_0_f000,    !- Name
    EU_Step8_AnyNumber_Wm2,    !- Schedule Type Limits Name
    ../../schedules/9431a9276163ac65/9431a9276163ac65_F3_dwelling_0_f000_gain.csv,    !- File Name
    1,                        !- Column Number
    0,                        !- Rows to Skip at Top
    8760,                     !- Number of Hours of Data
    Comma,                    !- Column Separator
    No,                       !- Interpolate to Timestep
    60,                       !- Minutes per Item
    Yes;                      !- Adjust Schedule for Daylight Savings

MATERIAL,
    EU_InternalMass_Material,    !- Name
    MediumRough,              !- Roughness
    0.1,                      !- Thickness
    1,                        !- Conductivity
    1800,                     !- Density
    900,                      !- Specific Heat
    0.9,                      !- Thermal Absorptance
    0.7,                      !- Solar Absorptance
    0.7;                      !- Visible Absorptance

MATERIAL:NOMASS,
    EU_wall_NoMass,           !- Name
    MediumRough,              !- Roughness
    0.8714596949891068,       !- Thermal Resistance
    0.9,                      !- Thermal Absorptance
    0.7,                      !- Solar Absorptance
    0.7;                      !- Visible Absorptance

MATERIAL:NOMASS,
    EU_roof_NoMass,           !- Name
    MediumRough,              !- Roughness
    0.8422755303938418,       !- Thermal Resistance
    0.9,                      !- Thermal Absorptance
    0.7,                      !- Solar Absorptance
    0.7;                      !- Visible Absorptance

MATERIAL:NOMASS,
    EU_floor_NoMass,          !- Name
    MediumRough,              !- Roughness
    4.969986e-01,             !- Thermal Resistance
    0.9,                      !- Thermal Absorptance
    0.7,                      !- Solar Absorptance
    0.7;                      !- Visible Absorptance

CONSTRUCTION,
    EU_wall_Construction,     !- Name
    EU_wall_NoMass;           !- Outside Layer

CONSTRUCTION,
    EU_roof_Construction,     !- Name
    EU_roof_NoMass;           !- Outside Layer

CONSTRUCTION,
    EU_floor_Construction,    !- Name
    EU_floor_NoMass;          !- Outside Layer

CONSTRUCTION,
    EU_InternalMass_Construction,    !- Name
    EU_InternalMass_Material;    !- Outside Layer

GlobalGeometryRules,
    UpperLeftCorner,          !- Starting Vertex Position
    CounterClockWise,         !- Vertex Entry Direction
    World;                    !- Coordinate System

ZONE,
    9431a9276163ac65_F0_dwelling_0,    !- Name
    0,                        !- Direction of Relative North
    0,                        !- X Origin
    0,                        !- Y Origin
    0,                        !- Z Origin
    1,                        !- Type
    1,                        !- Multiplier
    autocalculate,            !- Ceiling Height
    181.455322265625,         !- Volume
    autocalculate,            !- Floor Area
    ,                         !- Zone Inside Convection Algorithm
    ,                         !- Zone Outside Convection Algorithm
    Yes;                      !- Part of Total Floor Area

ZONE,
    9431a9276163ac65_F1_dwelling_0,    !- Name
    0,                        !- Direction of Relative North
    0,                        !- X Origin
    0,                        !- Y Origin
    0,                        !- Z Origin
    1,                        !- Type
    1,                        !- Multiplier
    autocalculate,            !- Ceiling Height
    181.453125,               !- Volume
    autocalculate,            !- Floor Area
    ,                         !- Zone Inside Convection Algorithm
    ,                         !- Zone Outside Convection Algorithm
    Yes;                      !- Part of Total Floor Area

ZONE,
    9431a9276163ac65_F2_dwelling_0,    !- Name
    0,                        !- Direction of Relative North
    0,                        !- X Origin
    0,                        !- Y Origin
    0,                        !- Z Origin
    1,                        !- Type
    1,                        !- Multiplier
    autocalculate,            !- Ceiling Height
    181.453125,               !- Volume
    autocalculate,            !- Floor Area
    ,                         !- Zone Inside Convection Algorithm
    ,                         !- Zone Outside Convection Algorithm
    Yes;                      !- Part of Total Floor Area

ZONE,
    9431a9276163ac65_F3_dwelling_0,    !- Name
    0,                        !- Direction of Relative North
    0,                        !- X Origin
    0,                        !- Y Origin
    0,                        !- Z Origin
    1,                        !- Type
    1,                        !- Multiplier
    autocalculate,            !- Ceiling Height
    362.90625,                !- Volume
    autocalculate,            !- Floor Area
    ,                         !- Zone Inside Convection Algorithm
    ,                         !- Zone Outside Convection Algorithm
    Yes;                      !- Part of Total Floor Area

BUILDINGSURFACE:DETAILED,
    Block 9431a9276163ac65_0 Storey 0 Wall 0001,    !- Name
    wall,                     !- Surface Type
    EU_wall_Construction,     !- Construction Name
    9431a9276163ac65_F0_dwelling_0,    !- Zone Name
    ,                         !- Space Name
    Adiabatic,                !- Outside Boundary Condition
    ,                         !- Outside Boundary Condition Object
    NoSun,                    !- Sun Exposure
    NoWind,                   !- Wind Exposure
    autocalculate,            !- View Factor to Ground
    autocalculate,            !- Number of Vertices
    642167.172,               !- Vertex 1 Xcoordinate
    5070368.799,              !- Vertex 1 Ycoordinate
    3,                        !- Vertex 1 Zcoordinate
    642167.172,               !- Vertex 2 Xcoordinate
    5070368.799,              !- Vertex 2 Ycoordinate
    0,                        !- Vertex 2 Zcoordinate
    642175.478,               !- Vertex 3 Xcoordinate
    5070368.997,              !- Vertex 3 Ycoordinate
    0,                        !- Vertex 3 Zcoordinate
    642175.478,               !- Vertex 4 Xcoordinate
    5070368.997,              !- Vertex 4 Ycoordinate
    3;                        !- Vertex 4 Zcoordinate

BUILDINGSURFACE:DETAILED,
    Block 9431a9276163ac65_0 Storey 0 Wall 0002,    !- Name
    wall,                     !- Surface Type
    EU_wall_Construction,     !- Construction Name
    9431a9276163ac65_F0_dwelling_0,    !- Zone Name
    ,                         !- Space Name
    Adiabatic,                !- Outside Boundary Condition
    ,                         !- Outside Boundary Condition Object
    NoSun,                    !- Sun Exposure
    NoWind,                   !- Wind Exposure
    autocalculate,            !- View Factor to Ground
    autocalculate,            !- Number of Vertices
    642175.478,               !- Vertex 1 Xcoordinate
    5070368.997,              !- Vertex 1 Ycoordinate
    3,                        !- Vertex 1 Zcoordinate
    642175.478,               !- Vertex 2 Xcoordinate
    5070368.997,              !- Vertex 2 Ycoordinate
    0,                        !- Vertex 2 Zcoordinate
    642175.776,               !- Vertex 3 Xcoordinate
    5070361.592,              !- Vertex 3 Ycoordinate
    0,                        !- Vertex 3 Zcoordinate
    642175.776,               !- Vertex 4 Xcoordinate
    5070361.592,              !- Vertex 4 Ycoordinate
    3;                        !- Vertex 4 Zcoordinate

BUILDINGSURFACE:DETAILED,
    Block 9431a9276163ac65_0 Storey 0 Wall 0003,    !- Name
    wall,                     !- Surface Type
    EU_wall_Construction,     !- Construction Name
    9431a9276163ac65_F0_dwelling_0,    !- Zone Name
    ,                         !- Space Name
    Adiabatic,                !- Outside Boundary Condition
    ,                         !- Outside Boundary Condition Object
    NoSun,                    !- Sun Exposure
    NoWind,                   !- Wind Exposure
    autocalculate,            !- View Factor to Ground
    autocalculate,            !- Number of Vertices
    642175.776,               !- Vertex 1 Xcoordinate
    5070361.592,              !- Vertex 1 Ycoordinate
    3,                        !- Vertex 1 Zcoordinate
    642175.776,               !- Vertex 2 Xcoordinate
    5070361.592,              !- Vertex 2 Ycoordinate
    0,                        !- Vertex 2 Zcoordinate
    642167.771,               !- Vertex 3 Xcoordinate
    5070361.393,              !- Vertex 3 Ycoordinate
    0,                        !- Vertex 3 Zcoordinate
    642167.771,               !- Vertex 4 Xcoordinate
    5070361.393,              !- Vertex 4 Ycoordinate
    3;                        !- Vertex 4 Zcoordinate

BUILDINGSURFACE:DETAILED,
    Block 9431a9276163ac65_0 Storey 0 Wall 0004,    !- Name
    wall,                     !- Surface Type
    EU_wall_Construction,     !- Construction Name
    9431a9276163ac65_F0_dwelling_0,    !- Zone Name
    ,                         !- Space Name
    Adiabatic,                !- Outside Boundary Condition
    ,                         !- Outside Boundary Condition Object
    NoSun,                    !- Sun Exposure
    NoWind,                   !- Wind Exposure
    autocalculate,            !- View Factor to Ground
    autocalculate,            !- Number of Vertices
    642167.771,               !- Vertex 1 Xcoordinate
    5070361.393,              !- Vertex 1 Ycoordinate
    3,                        !- Vertex 1 Zcoordinate
    642167.771,               !- Vertex 2 Xcoordinate
    5070361.393,              !- Vertex 2 Ycoordinate
    0,                        !- Vertex 2 Zcoordinate
    642167.172,               !- Vertex 3 Xcoordinate
    5070368.799,              !- Vertex 3 Ycoordinate
    0,                        !- Vertex 3 Zcoordinate
    642167.172,               !- Vertex 4 Xcoordinate
    5070368.799,              !- Vertex 4 Ycoordinate
    3;                        !- Vertex 4 Zcoordinate

BUILDINGSURFACE:DETAILED,
    Block 9431a9276163ac65_0 Storey 0 Floor 0001,    !- Name
    floor,                    !- Surface Type
    EU_floor_Construction,    !- Construction Name
    9431a9276163ac65_F0_dwelling_0,    !- Zone Name
    ,                         !- Space Name
    ground,                   !- Outside Boundary Condition
    ,                         !- Outside Boundary Condition Object
    NoSun,                    !- Sun Exposure
    NoWind,                   !- Wind Exposure
    autocalculate,            !- View Factor to Ground
    autocalculate,            !- Number of Vertices
    642175.776,               !- Vertex 1 Xcoordinate
    5070361.592,              !- Vertex 1 Ycoordinate
    0,                        !- Vertex 1 Zcoordinate
    642175.478,               !- Vertex 2 Xcoordinate
    5070368.997,              !- Vertex 2 Ycoordinate
    0,                        !- Vertex 2 Zcoordinate
    642167.172,               !- Vertex 3 Xcoordinate
    5070368.799,              !- Vertex 3 Ycoordinate
    0,                        !- Vertex 3 Zcoordinate
    642167.771,               !- Vertex 4 Xcoordinate
    5070361.393,              !- Vertex 4 Ycoordinate
    0;                        !- Vertex 4 Zcoordinate

BUILDINGSURFACE:DETAILED,
    Block 9431a9276163ac65_0 Storey 1 Wall 0001,    !- Name
    wall,                     !- Surface Type
    EU_wall_Construction,     !- Construction Name
    9431a9276163ac65_F1_dwelling_0,    !- Zone Name
    ,                         !- Space Name
    Adiabatic,                !- Outside Boundary Condition
    ,                         !- Outside Boundary Condition Object
    NoSun,                    !- Sun Exposure
    NoWind,                   !- Wind Exposure
    autocalculate,            !- View Factor to Ground
    autocalculate,            !- Number of Vertices
    642167.172,               !- Vertex 1 Xcoordinate
    5070368.799,              !- Vertex 1 Ycoordinate
    6,                        !- Vertex 1 Zcoordinate
    642167.172,               !- Vertex 2 Xcoordinate
    5070368.799,              !- Vertex 2 Ycoordinate
    3,                        !- Vertex 2 Zcoordinate
    642175.478,               !- Vertex 3 Xcoordinate
    5070368.997,              !- Vertex 3 Ycoordinate
    3,                        !- Vertex 3 Zcoordinate
    642175.478,               !- Vertex 4 Xcoordinate
    5070368.997,              !- Vertex 4 Ycoordinate
    6;                        !- Vertex 4 Zcoordinate

BUILDINGSURFACE:DETAILED,
    Block 9431a9276163ac65_0 Storey 1 Wall 0002,    !- Name
    wall,                     !- Surface Type
    EU_wall_Construction,     !- Construction Name
    9431a9276163ac65_F1_dwelling_0,    !- Zone Name
    ,                         !- Space Name
    Adiabatic,                !- Outside Boundary Condition
    ,                         !- Outside Boundary Condition Object
    NoSun,                    !- Sun Exposure
    NoWind,                   !- Wind Exposure
    autocalculate,            !- View Factor to Ground
    autocalculate,            !- Number of Vertices
    642175.478,               !- Vertex 1 Xcoordinate
    5070368.997,              !- Vertex 1 Ycoordinate
    6,                        !- Vertex 1 Zcoordinate
    642175.478,               !- Vertex 2 Xcoordinate
    5070368.997,              !- Vertex 2 Ycoordinate
    3,                        !- Vertex 2 Zcoordinate
    642175.776,               !- Vertex 3 Xcoordinate
    5070361.592,              !- Vertex 3 Ycoordinate
    3,                        !- Vertex 3 Zcoordinate
    642175.776,               !- Vertex 4 Xcoordinate
    5070361.592,              !- Vertex 4 Ycoordinate
    6;                        !- Vertex 4 Zcoordinate

BUILDINGSURFACE:DETAILED,
    Block 9431a9276163ac65_0 Storey 1 Wall 0003,    !- Name
    wall,                     !- Surface Type
    EU_wall_Construction,     !- Construction Name
    9431a9276163ac65_F1_dwelling_0,    !- Zone Name
    ,                         !- Space Name
    Adiabatic,                !- Outside Boundary Condition
    ,                         !- Outside Boundary Condition Object
    NoSun,                    !- Sun Exposure
    NoWind,                   !- Wind Exposure
    autocalculate,            !- View Factor to Ground
    autocalculate,            !- Number of Vertices
    642175.776,               !- Vertex 1 Xcoordinate
    5070361.592,              !- Vertex 1 Ycoordinate
    6,                        !- Vertex 1 Zcoordinate
    642175.776,               !- Vertex 2 Xcoordinate
    5070361.592,              !- Vertex 2 Ycoordinate
    3,                        !- Vertex 2 Zcoordinate
    642167.771,               !- Vertex 3 Xcoordinate
    5070361.393,              !- Vertex 3 Ycoordinate
    3,                        !- Vertex 3 Zcoordinate
    642167.771,               !- Vertex 4 Xcoordinate
    5070361.393,              !- Vertex 4 Ycoordinate
    6;                        !- Vertex 4 Zcoordinate

BUILDINGSURFACE:DETAILED,
    Block 9431a9276163ac65_0 Storey 1 Wall 0004,    !- Name
    wall,                     !- Surface Type
    EU_wall_Construction,     !- Construction Name
    9431a9276163ac65_F1_dwelling_0,    !- Zone Name
    ,                         !- Space Name
    Adiabatic,                !- Outside Boundary Condition
    ,                         !- Outside Boundary Condition Object
    NoSun,                    !- Sun Exposure
    NoWind,                   !- Wind Exposure
    autocalculate,            !- View Factor to Ground
    autocalculate,            !- Number of Vertices
    642167.771,               !- Vertex 1 Xcoordinate
    5070361.393,              !- Vertex 1 Ycoordinate
    6,                        !- Vertex 1 Zcoordinate
    642167.771,               !- Vertex 2 Xcoordinate
    5070361.393,              !- Vertex 2 Ycoordinate
    3,                        !- Vertex 2 Zcoordinate
    642167.172,               !- Vertex 3 Xcoordinate
    5070368.799,              !- Vertex 3 Ycoordinate
    3,                        !- Vertex 3 Zcoordinate
    642167.172,               !- Vertex 4 Xcoordinate
    5070368.799,              !- Vertex 4 Ycoordinate
    6;                        !- Vertex 4 Zcoordinate

BUILDINGSURFACE:DETAILED,
    Block 9431a9276163ac65_0 Storey 2 Wall 0001,    !- Name
    wall,                     !- Surface Type
    EU_wall_Construction,     !- Construction Name
    9431a9276163ac65_F2_dwelling_0,    !- Zone Name
    ,                         !- Space Name
    Adiabatic,                !- Outside Boundary Condition
    ,                         !- Outside Boundary Condition Object
    NoSun,                    !- Sun Exposure
    NoWind,                   !- Wind Exposure
    autocalculate,            !- View Factor to Ground
    autocalculate,            !- Number of Vertices
    642167.172,               !- Vertex 1 Xcoordinate
    5070368.799,              !- Vertex 1 Ycoordinate
    9,                        !- Vertex 1 Zcoordinate
    642167.172,               !- Vertex 2 Xcoordinate
    5070368.799,              !- Vertex 2 Ycoordinate
    6,                        !- Vertex 2 Zcoordinate
    642175.478,               !- Vertex 3 Xcoordinate
    5070368.997,              !- Vertex 3 Ycoordinate
    6,                        !- Vertex 3 Zcoordinate
    642175.478,               !- Vertex 4 Xcoordinate
    5070368.997,              !- Vertex 4 Ycoordinate
    9;                        !- Vertex 4 Zcoordinate

BUILDINGSURFACE:DETAILED,
    Block 9431a9276163ac65_0 Storey 2 Wall 0002,    !- Name
    wall,                     !- Surface Type
    EU_wall_Construction,     !- Construction Name
    9431a9276163ac65_F2_dwelling_0,    !- Zone Name
    ,                         !- Space Name
    Adiabatic,                !- Outside Boundary Condition
    ,                         !- Outside Boundary Condition Object
    NoSun,                    !- Sun Exposure
    NoWind,                   !- Wind Exposure
    autocalculate,            !- View Factor to Ground
    autocalculate,            !- Number of Vertices
    642175.478,               !- Vertex 1 Xcoordinate
    5070368.997,              !- Vertex 1 Ycoordinate
    9,                        !- Vertex 1 Zcoordinate
    642175.478,               !- Vertex 2 Xcoordinate
    5070368.997,              !- Vertex 2 Ycoordinate
    6,                        !- Vertex 2 Zcoordinate
    642175.776,               !- Vertex 3 Xcoordinate
    5070361.592,              !- Vertex 3 Ycoordinate
    6,                        !- Vertex 3 Zcoordinate
    642175.776,               !- Vertex 4 Xcoordinate
    5070361.592,              !- Vertex 4 Ycoordinate
    9;                        !- Vertex 4 Zcoordinate

BUILDINGSURFACE:DETAILED,
    Block 9431a9276163ac65_0 Storey 2 Wall 0003,    !- Name
    wall,                     !- Surface Type
    EU_wall_Construction,     !- Construction Name
    9431a9276163ac65_F2_dwelling_0,    !- Zone Name
    ,                         !- Space Name
    Adiabatic,                !- Outside Boundary Condition
    ,                         !- Outside Boundary Condition Object
    NoSun,                    !- Sun Exposure
    NoWind,                   !- Wind Exposure
    autocalculate,            !- View Factor to Ground
    autocalculate,            !- Number of Vertices
    642175.776,               !- Vertex 1 Xcoordinate
    5070361.592,              !- Vertex 1 Ycoordinate
    9,                        !- Vertex 1 Zcoordinate
    642175.776,               !- Vertex 2 Xcoordinate
    5070361.592,              !- Vertex 2 Ycoordinate
    6,                        !- Vertex 2 Zcoordinate
    642167.771,               !- Vertex 3 Xcoordinate
    5070361.393,              !- Vertex 3 Ycoordinate
    6,                        !- Vertex 3 Zcoordinate
    642167.771,               !- Vertex 4 Xcoordinate
    5070361.393,              !- Vertex 4 Ycoordinate
    9;                        !- Vertex 4 Zcoordinate

BUILDINGSURFACE:DETAILED,
    Block 9431a9276163ac65_0 Storey 2 Wall 0004,    !- Name
    wall,                     !- Surface Type
    EU_wall_Construction,     !- Construction Name
    9431a9276163ac65_F2_dwelling_0,    !- Zone Name
    ,                         !- Space Name
    Adiabatic,                !- Outside Boundary Condition
    ,                         !- Outside Boundary Condition Object
    NoSun,                    !- Sun Exposure
    NoWind,                   !- Wind Exposure
    autocalculate,            !- View Factor to Ground
    autocalculate,            !- Number of Vertices
    642167.771,               !- Vertex 1 Xcoordinate
    5070361.393,              !- Vertex 1 Ycoordinate
    9,                        !- Vertex 1 Zcoordinate
    642167.771,               !- Vertex 2 Xcoordinate
    5070361.393,              !- Vertex 2 Ycoordinate
    6,                        !- Vertex 2 Zcoordinate
    642167.172,               !- Vertex 3 Xcoordinate
    5070368.799,              !- Vertex 3 Ycoordinate
    6,                        !- Vertex 3 Zcoordinate
    642167.172,               !- Vertex 4 Xcoordinate
    5070368.799,              !- Vertex 4 Ycoordinate
    9;                        !- Vertex 4 Zcoordinate

BUILDINGSURFACE:DETAILED,
    Block 9431a9276163ac65_0 Storey 3 Wall 0001,    !- Name
    wall,                     !- Surface Type
    EU_wall_Construction,     !- Construction Name
    9431a9276163ac65_F3_dwelling_0,    !- Zone Name
    ,                         !- Space Name
    Adiabatic,                !- Outside Boundary Condition
    ,                         !- Outside Boundary Condition Object
    NoSun,                    !- Sun Exposure
    NoWind,                   !- Wind Exposure
    autocalculate,            !- View Factor to Ground
    autocalculate,            !- Number of Vertices
    642167.172,               !- Vertex 1 Xcoordinate
    5070368.799,              !- Vertex 1 Ycoordinate
    12,                       !- Vertex 1 Zcoordinate
    642167.172,               !- Vertex 2 Xcoordinate
    5070368.799,              !- Vertex 2 Ycoordinate
    9,                        !- Vertex 2 Zcoordinate
    642175.478,               !- Vertex 3 Xcoordinate
    5070368.997,              !- Vertex 3 Ycoordinate
    9,                        !- Vertex 3 Zcoordinate
    642175.478,               !- Vertex 4 Xcoordinate
    5070368.997,              !- Vertex 4 Ycoordinate
    12;                       !- Vertex 4 Zcoordinate

BUILDINGSURFACE:DETAILED,
    Block 9431a9276163ac65_0 Storey 3 Wall 0002,    !- Name
    wall,                     !- Surface Type
    EU_wall_Construction,     !- Construction Name
    9431a9276163ac65_F3_dwelling_0,    !- Zone Name
    ,                         !- Space Name
    Adiabatic,                !- Outside Boundary Condition
    ,                         !- Outside Boundary Condition Object
    NoSun,                    !- Sun Exposure
    NoWind,                   !- Wind Exposure
    autocalculate,            !- View Factor to Ground
    autocalculate,            !- Number of Vertices
    642175.478,               !- Vertex 1 Xcoordinate
    5070368.997,              !- Vertex 1 Ycoordinate
    12,                       !- Vertex 1 Zcoordinate
    642175.478,               !- Vertex 2 Xcoordinate
    5070368.997,              !- Vertex 2 Ycoordinate
    9,                        !- Vertex 2 Zcoordinate
    642175.776,               !- Vertex 3 Xcoordinate
    5070361.592,              !- Vertex 3 Ycoordinate
    9,                        !- Vertex 3 Zcoordinate
    642175.776,               !- Vertex 4 Xcoordinate
    5070361.592,              !- Vertex 4 Ycoordinate
    12;                       !- Vertex 4 Zcoordinate

BUILDINGSURFACE:DETAILED,
    Block 9431a9276163ac65_0 Storey 3 Wall 0003,    !- Name
    wall,                     !- Surface Type
    EU_wall_Construction,     !- Construction Name
    9431a9276163ac65_F3_dwelling_0,    !- Zone Name
    ,                         !- Space Name
    Adiabatic,                !- Outside Boundary Condition
    ,                         !- Outside Boundary Condition Object
    NoSun,                    !- Sun Exposure
    NoWind,                   !- Wind Exposure
    autocalculate,            !- View Factor to Ground
    autocalculate,            !- Number of Vertices
    642175.776,               !- Vertex 1 Xcoordinate
    5070361.592,              !- Vertex 1 Ycoordinate
    12,                       !- Vertex 1 Zcoordinate
    642175.776,               !- Vertex 2 Xcoordinate
    5070361.592,              !- Vertex 2 Ycoordinate
    9,                        !- Vertex 2 Zcoordinate
    642167.771,               !- Vertex 3 Xcoordinate
    5070361.393,              !- Vertex 3 Ycoordinate
    9,                        !- Vertex 3 Zcoordinate
    642167.771,               !- Vertex 4 Xcoordinate
    5070361.393,              !- Vertex 4 Ycoordinate
    12;                       !- Vertex 4 Zcoordinate

BUILDINGSURFACE:DETAILED,
    Block 9431a9276163ac65_0 Storey 3 Wall 0004,    !- Name
    wall,                     !- Surface Type
    EU_wall_Construction,     !- Construction Name
    9431a9276163ac65_F3_dwelling_0,    !- Zone Name
    ,                         !- Space Name
    Adiabatic,                !- Outside Boundary Condition
    ,                         !- Outside Boundary Condition Object
    NoSun,                    !- Sun Exposure
    NoWind,                   !- Wind Exposure
    autocalculate,            !- View Factor to Ground
    autocalculate,            !- Number of Vertices
    642167.771,               !- Vertex 1 Xcoordinate
    5070361.393,              !- Vertex 1 Ycoordinate
    12,                       !- Vertex 1 Zcoordinate
    642167.771,               !- Vertex 2 Xcoordinate
    5070361.393,              !- Vertex 2 Ycoordinate
    9,                        !- Vertex 2 Zcoordinate
    642167.172,               !- Vertex 3 Xcoordinate
    5070368.799,              !- Vertex 3 Ycoordinate
    9,                        !- Vertex 3 Zcoordinate
    642167.172,               !- Vertex 4 Xcoordinate
    5070368.799,              !- Vertex 4 Ycoordinate
    12;                       !- Vertex 4 Zcoordinate

BUILDINGSURFACE:DETAILED,
    Block 9431a9276163ac65_0 Storey 3 Roof 0001,    !- Name
    roof,                     !- Surface Type
    EU_roof_Construction,     !- Construction Name
    9431a9276163ac65_F3_dwelling_0,    !- Zone Name
    ,                         !- Space Name
    outdoors,                 !- Outside Boundary Condition
    ,                         !- Outside Boundary Condition Object
    NoSun,                    !- Sun Exposure
    WindExposed,              !- Wind Exposure
    autocalculate,            !- View Factor to Ground
    autocalculate,            !- Number of Vertices
    642175.478,               !- Vertex 1 Xcoordinate
    5070368.997,              !- Vertex 1 Ycoordinate
    12,                       !- Vertex 1 Zcoordinate
    642175.776,               !- Vertex 2 Xcoordinate
    5070361.592,              !- Vertex 2 Ycoordinate
    12,                       !- Vertex 2 Zcoordinate
    642167.771,               !- Vertex 3 Xcoordinate
    5070361.393,              !- Vertex 3 Ycoordinate
    12,                       !- Vertex 3 Zcoordinate
    642167.172,               !- Vertex 4 Xcoordinate
    5070368.799,              !- Vertex 4 Ycoordinate
    12;                       !- Vertex 4 Zcoordinate

BUILDINGSURFACE:DETAILED,
    Block 9431a9276163ac65_0 Storey 0 Ceiling 0001_1,    !- Name
    ceiling,                  !- Surface Type
    EU_floor_Construction,    !- Construction Name
    9431a9276163ac65_F0_dwelling_0,    !- Zone Name
    ,                         !- Space Name
    Surface,                  !- Outside Boundary Condition
    Block 9431a9276163ac65_0 Storey 1 Floor 0001_1,    !- Outside Boundary Condition Object
    NoSun,                    !- Sun Exposure
    NoWind,                   !- Wind Exposure
    autocalculate,            !- View Factor to Ground
    autocalculate,            !- Number of Vertices
    642175.4779999997,        !- Vertex 1 Xcoordinate
    5070368.997,              !- Vertex 1 Ycoordinate
    3,                        !- Vertex 1 Zcoordinate
    642175.7759999996,        !- Vertex 2 Xcoordinate
    5070361.592,              !- Vertex 2 Ycoordinate
    3,                        !- Vertex 2 Zcoordinate
    642167.7709999997,        !- Vertex 3 Xcoordinate
    5070361.393,              !- Vertex 3 Ycoordinate
    3,                        !- Vertex 3 Zcoordinate
    642167.1719999998,        !- Vertex 4 Xcoordinate
    5070368.799,              !- Vertex 4 Ycoordinate
    3;                        !- Vertex 4 Zcoordinate

BUILDINGSURFACE:DETAILED,
    Block 9431a9276163ac65_0 Storey 1 Floor 0001_1,    !- Name
    floor,                    !- Surface Type
    EU_floor_Construction,    !- Construction Name
    9431a9276163ac65_F1_dwelling_0,    !- Zone Name
    ,                         !- Space Name
    Surface,                  !- Outside Boundary Condition
    Block 9431a9276163ac65_0 Storey 0 Ceiling 0001_1,    !- Outside Boundary Condition Object
    NoSun,                    !- Sun Exposure
    NoWind,                   !- Wind Exposure
    autocalculate,            !- View Factor to Ground
    autocalculate,            !- Number of Vertices
    642175.7759999996,        !- Vertex 1 Xcoordinate
    5070361.592,              !- Vertex 1 Ycoordinate
    3,                        !- Vertex 1 Zcoordinate
    642175.4779999997,        !- Vertex 2 Xcoordinate
    5070368.997,              !- Vertex 2 Ycoordinate
    3,                        !- Vertex 2 Zcoordinate
    642167.1719999998,        !- Vertex 3 Xcoordinate
    5070368.799,              !- Vertex 3 Ycoordinate
    3,                        !- Vertex 3 Zcoordinate
    642167.7709999997,        !- Vertex 4 Xcoordinate
    5070361.393,              !- Vertex 4 Ycoordinate
    3;                        !- Vertex 4 Zcoordinate

BUILDINGSURFACE:DETAILED,
    Block 9431a9276163ac65_0 Storey 1 Ceiling 0001_1,    !- Name
    ceiling,                  !- Surface Type
    EU_floor_Construction,    !- Construction Name
    9431a9276163ac65_F1_dwelling_0,    !- Zone Name
    ,                         !- Space Name
    Surface,                  !- Outside Boundary Condition
    Block 9431a9276163ac65_0 Storey 2 Floor 0001_1,    !- Outside Boundary Condition Object
    NoSun,                    !- Sun Exposure
    NoWind,                   !- Wind Exposure
    autocalculate,            !- View Factor to Ground
    autocalculate,            !- Number of Vertices
    642175.4779999997,        !- Vertex 1 Xcoordinate
    5070368.997,              !- Vertex 1 Ycoordinate
    6,                        !- Vertex 1 Zcoordinate
    642175.7759999996,        !- Vertex 2 Xcoordinate
    5070361.592,              !- Vertex 2 Ycoordinate
    6,                        !- Vertex 2 Zcoordinate
    642167.7709999997,        !- Vertex 3 Xcoordinate
    5070361.393,              !- Vertex 3 Ycoordinate
    6,                        !- Vertex 3 Zcoordinate
    642167.1719999998,        !- Vertex 4 Xcoordinate
    5070368.799,              !- Vertex 4 Ycoordinate
    6;                        !- Vertex 4 Zcoordinate

BUILDINGSURFACE:DETAILED,
    Block 9431a9276163ac65_0 Storey 2 Floor 0001_1,    !- Name
    floor,                    !- Surface Type
    EU_floor_Construction,    !- Construction Name
    9431a9276163ac65_F2_dwelling_0,    !- Zone Name
    ,                         !- Space Name
    Surface,                  !- Outside Boundary Condition
    Block 9431a9276163ac65_0 Storey 1 Ceiling 0001_1,    !- Outside Boundary Condition Object
    NoSun,                    !- Sun Exposure
    NoWind,                   !- Wind Exposure
    autocalculate,            !- View Factor to Ground
    autocalculate,            !- Number of Vertices
    642175.7759999996,        !- Vertex 1 Xcoordinate
    5070361.592,              !- Vertex 1 Ycoordinate
    6,                        !- Vertex 1 Zcoordinate
    642175.4779999997,        !- Vertex 2 Xcoordinate
    5070368.997,              !- Vertex 2 Ycoordinate
    6,                        !- Vertex 2 Zcoordinate
    642167.1719999998,        !- Vertex 3 Xcoordinate
    5070368.799,              !- Vertex 3 Ycoordinate
    6,                        !- Vertex 3 Zcoordinate
    642167.7709999997,        !- Vertex 4 Xcoordinate
    5070361.393,              !- Vertex 4 Ycoordinate
    6;                        !- Vertex 4 Zcoordinate

BUILDINGSURFACE:DETAILED,
    Block 9431a9276163ac65_0 Storey 2 Ceiling 0001_1,    !- Name
    ceiling,                  !- Surface Type
    EU_floor_Construction,    !- Construction Name
    9431a9276163ac65_F2_dwelling_0,    !- Zone Name
    ,                         !- Space Name
    Surface,                  !- Outside Boundary Condition
    Block 9431a9276163ac65_0 Storey 3 Floor 0001_1,    !- Outside Boundary Condition Object
    NoSun,                    !- Sun Exposure
    NoWind,                   !- Wind Exposure
    autocalculate,            !- View Factor to Ground
    autocalculate,            !- Number of Vertices
    642175.4779999997,        !- Vertex 1 Xcoordinate
    5070368.997,              !- Vertex 1 Ycoordinate
    9,                        !- Vertex 1 Zcoordinate
    642175.7759999996,        !- Vertex 2 Xcoordinate
    5070361.592,              !- Vertex 2 Ycoordinate
    9,                        !- Vertex 2 Zcoordinate
    642167.7709999997,        !- Vertex 3 Xcoordinate
    5070361.393,              !- Vertex 3 Ycoordinate
    9,                        !- Vertex 3 Zcoordinate
    642167.1719999998,        !- Vertex 4 Xcoordinate
    5070368.799,              !- Vertex 4 Ycoordinate
    9;                        !- Vertex 4 Zcoordinate

BUILDINGSURFACE:DETAILED,
    Block 9431a9276163ac65_0 Storey 3 Floor 0001_1,    !- Name
    floor,                    !- Surface Type
    EU_floor_Construction,    !- Construction Name
    9431a9276163ac65_F3_dwelling_0,    !- Zone Name
    ,                         !- Space Name
    Surface,                  !- Outside Boundary Condition
    Block 9431a9276163ac65_0 Storey 2 Ceiling 0001_1,    !- Outside Boundary Condition Object
    NoSun,                    !- Sun Exposure
    NoWind,                   !- Wind Exposure
    autocalculate,            !- View Factor to Ground
    autocalculate,            !- Number of Vertices
    642175.7759999996,        !- Vertex 1 Xcoordinate
    5070361.592,              !- Vertex 1 Ycoordinate
    9,                        !- Vertex 1 Zcoordinate
    642175.4779999997,        !- Vertex 2 Xcoordinate
    5070368.997,              !- Vertex 2 Ycoordinate
    9,                        !- Vertex 2 Zcoordinate
    642167.1719999998,        !- Vertex 3 Xcoordinate
    5070368.799,              !- Vertex 3 Ycoordinate
    9,                        !- Vertex 3 Zcoordinate
    642167.7709999997,        !- Vertex 4 Xcoordinate
    5070361.393,              !- Vertex 4 Ycoordinate
    9;                        !- Vertex 4 Zcoordinate

INTERNALMASS,
    9431a9276163ac65_F0_dwelling_0_EU_InternalMass,    !- Name
    EU_InternalMass_Construction,    !- Construction Name
    9431a9276163ac65_F0_dwelling_0,    !- Zone or ZoneList Name
    ,                         !- Space or SpaceList Name
    60.48458250273138;        !- Surface Area

INTERNALMASS,
    9431a9276163ac65_F1_dwelling_0_EU_InternalMass,    !- Name
    EU_InternalMass_Construction,    !- Construction Name
    9431a9276163ac65_F1_dwelling_0,    !- Zone or ZoneList Name
    ,                         !- Space or SpaceList Name
    60.48458250273138;        !- Surface Area

INTERNALMASS,
    9431a9276163ac65_F2_dwelling_0_EU_InternalMass,    !- Name
    EU_InternalMass_Construction,    !- Construction Name
    9431a9276163ac65_F2_dwelling_0,    !- Zone or ZoneList Name
    ,                         !- Space or SpaceList Name
    60.48458250273138;        !- Surface Area

INTERNALMASS,
    9431a9276163ac65_F3_dwelling_0_EU_InternalMass,    !- Name
    EU_InternalMass_Construction,    !- Construction Name
    9431a9276163ac65_F3_dwelling_0,    !- Zone or ZoneList Name
    ,                         !- Space or SpaceList Name
    60.48458250273138;        !- Surface Area

SHADING:SITE:DETAILED,
    shade_BATIMENT0000000240880123_part0_1,    !- Name
    ,                         !- Transmittance Schedule Name
    autocalculate,            !- Number of Vertices
    642200.8340584319,        !- Vertex 1 Xcoordinate
    5070352.836877452,        !- Vertex 1 Ycoordinate
    26.9,                     !- Vertex 1 Zcoordinate
    642200.8340584319,        !- Vertex 2 Xcoordinate
    5070352.836877452,        !- Vertex 2 Ycoordinate
    0,                        !- Vertex 2 Zcoordinate
    642198.972271109,         !- Vertex 3 Xcoordinate
    5070288.433163884,        !- Vertex 3 Ycoordinate
    0,                        !- Vertex 3 Zcoordinate
    642198.972271109,         !- Vertex 4 Xcoordinate
    5070288.433163884,        !- Vertex 4 Ycoordinate
    26.9;                     !- Vertex 4 Zcoordinate

SHADING:SITE:DETAILED,
    shade_BATIMENT0000000240880123_part0_2,    !- Name
    ,                         !- Transmittance Schedule Name
    autocalculate,            !- Number of Vertices
    642198.972271109,         !- Vertex 1 Xcoordinate
    5070288.433163884,        !- Vertex 1 Ycoordinate
    26.9,                     !- Vertex 1 Zcoordinate
    642198.972271109,         !- Vertex 2 Xcoordinate
    5070288.433163884,        !- Vertex 2 Ycoordinate
    0,                        !- Vertex 2 Zcoordinate
    642115.5315723064,        !- Vertex 3 Xcoordinate
    5070290.845678995,        !- Vertex 3 Ycoordinate
    0,                        !- Vertex 3 Zcoordinate
    642115.5315723064,        !- Vertex 4 Xcoordinate
    5070290.845678995,        !- Vertex 4 Ycoordinate
    26.9;                     !- Vertex 4 Zcoordinate

SHADING:SITE:DETAILED,
    shade_BATIMENT0000000240880123_part0_3,    !- Name
    ,                         !- Transmittance Schedule Name
    autocalculate,            !- Number of Vertices
    642115.5315723064,        !- Vertex 1 Xcoordinate
    5070290.845678995,        !- Vertex 1 Ycoordinate
    26.9,                     !- Vertex 1 Zcoordinate
    642115.5315723064,        !- Vertex 2 Xcoordinate
    5070290.845678995,        !- Vertex 2 Ycoordinate
    0,                        !- Vertex 2 Zcoordinate
    642117.3934798088,        !- Vertex 3 Xcoordinate
    5070355.249148689,        !- Vertex 3 Ycoordinate
    0,                        !- Vertex 3 Zcoordinate
    642117.3934798088,        !- Vertex 4 Xcoordinate
    5070355.249148689,        !- Vertex 4 Ycoordinate
    26.9;                     !- Vertex 4 Zcoordinate

SHADING:SITE:DETAILED,
    shade_BATIMENT0000000240880123_part0_4,    !- Name
    ,                         !- Transmittance Schedule Name
    autocalculate,            !- Number of Vertices
    642117.3934798088,        !- Vertex 1 Xcoordinate
    5070355.249148689,        !- Vertex 1 Ycoordinate
    26.9,                     !- Vertex 1 Zcoordinate
    642117.3934798088,        !- Vertex 2 Xcoordinate
    5070355.249148689,        !- Vertex 2 Ycoordinate
    0,                        !- Vertex 2 Zcoordinate
    642200.8340584319,        !- Vertex 3 Xcoordinate
    5070352.836877452,        !- Vertex 3 Ycoordinate
    0,                        !- Vertex 3 Zcoordinate
    642200.8340584319,        !- Vertex 4 Xcoordinate
    5070352.836877452,        !- Vertex 4 Ycoordinate
    26.9;                     !- Vertex 4 Zcoordinate

SHADING:SITE:DETAILED,
    shade_BATIMENT0000000240879766_part0_1,    !- Name
    ,                         !- Transmittance Schedule Name
    autocalculate,            !- Number of Vertices
    642153.0600197301,        !- Vertex 1 Xcoordinate
    5070361.097958752,        !- Vertex 1 Ycoordinate
    25,                       !- Vertex 1 Zcoordinate
    642153.0600197301,        !- Vertex 2 Xcoordinate
    5070361.097958752,        !- Vertex 2 Ycoordinate
    0,                        !- Vertex 2 Zcoordinate
    642137.9492172871,        !- Vertex 3 Xcoordinate
    5070360.701196449,        !- Vertex 3 Ycoordinate
    0,                        !- Vertex 3 Zcoordinate
    642137.9492172871,        !- Vertex 4 Xcoordinate
    5070360.701196449,        !- Vertex 4 Ycoordinate
    25;                       !- Vertex 4 Zcoordinate

SHADING:SITE:DETAILED,
    shade_BATIMENT0000000240879766_part0_2,    !- Name
    ,                         !- Transmittance Schedule Name
    autocalculate,            !- Number of Vertices
    642137.9492172871,        !- Vertex 1 Xcoordinate
    5070360.701196449,        !- Vertex 1 Ycoordinate
    25,                       !- Vertex 1 Zcoordinate
    642137.9492172871,        !- Vertex 2 Xcoordinate
    5070360.701196449,        !- Vertex 2 Ycoordinate
    0,                        !- Vertex 2 Zcoordinate
    642137.736091096,         !- Vertex 3 Xcoordinate
    5070368.813912125,        !- Vertex 3 Ycoordinate
    0,                        !- Vertex 3 Zcoordinate
    642137.736091096,         !- Vertex 4 Xcoordinate
    5070368.813912125,        !- Vertex 4 Ycoordinate
    25;                       !- Vertex 4 Zcoordinate

SHADING:SITE:DETAILED,
    shade_BATIMENT0000000240879766_part0_3,    !- Name
    ,                         !- Transmittance Schedule Name
    autocalculate,            !- Number of Vertices
    642137.736091096,         !- Vertex 1 Xcoordinate
    5070368.813912125,        !- Vertex 1 Ycoordinate
    25,                       !- Vertex 1 Zcoordinate
    642137.736091096,         !- Vertex 2 Xcoordinate
    5070368.813912125,        !- Vertex 2 Ycoordinate
    0,                        !- Vertex 2 Zcoordinate
    642152.8468935393,        !- Vertex 3 Xcoordinate
    5070369.210674424,        !- Vertex 3 Ycoordinate
    0,                        !- Vertex 3 Zcoordinate
    642152.8468935393,        !- Vertex 4 Xcoordinate
    5070369.210674424,        !- Vertex 4 Ycoordinate
    25;                       !- Vertex 4 Zcoordinate

SHADING:SITE:DETAILED,
    shade_BATIMENT0000000240879766_part0_4,    !- Name
    ,                         !- Transmittance Schedule Name
    autocalculate,            !- Number of Vertices
    642152.8468935393,        !- Vertex 1 Xcoordinate
    5070369.210674424,        !- Vertex 1 Ycoordinate
    25,                       !- Vertex 1 Zcoordinate
    642152.8468935393,        !- Vertex 2 Xcoordinate
    5070369.210674424,        !- Vertex 2 Ycoordinate
    0,                        !- Vertex 2 Zcoordinate
    642153.0600197301,        !- Vertex 3 Xcoordinate
    5070361.097958752,        !- Vertex 3 Ycoordinate
    0,                        !- Vertex 3 Zcoordinate
    642153.0600197301,        !- Vertex 4 Xcoordinate
    5070361.097958752,        !- Vertex 4 Ycoordinate
    25;                       !- Vertex 4 Zcoordinate

SHADING:SITE:DETAILED,
    shade_BATIMENT0000000240879642_part0_1,    !- Name
    ,                         !- Transmittance Schedule Name
    autocalculate,            !- Number of Vertices
    642196.9966837472,        !- Vertex 1 Xcoordinate
    5070362.286487817,        !- Vertex 1 Ycoordinate
    5.7,                      !- Vertex 1 Zcoordinate
    642196.9966837472,        !- Vertex 2 Xcoordinate
    5070362.286487817,        !- Vertex 2 Ycoordinate
    0,                        !- Vertex 2 Zcoordinate
    642181.5803555911,        !- Vertex 3 Xcoordinate
    5070361.790421373,        !- Vertex 3 Ycoordinate
    0,                        !- Vertex 3 Zcoordinate
    642181.5803555911,        !- Vertex 4 Xcoordinate
    5070361.790421373,        !- Vertex 4 Ycoordinate
    5.7;                      !- Vertex 4 Zcoordinate

SHADING:SITE:DETAILED,
    shade_BATIMENT0000000240879642_part0_2,    !- Name
    ,                         !- Transmittance Schedule Name
    autocalculate,            !- Number of Vertices
    642181.5803555911,        !- Vertex 1 Xcoordinate
    5070361.790421373,        !- Vertex 1 Ycoordinate
    5.7,                      !- Vertex 1 Zcoordinate
    642181.5803555911,        !- Vertex 2 Xcoordinate
    5070361.790421373,        !- Vertex 2 Ycoordinate
    0,                        !- Vertex 2 Zcoordinate
    642181.3777045559,        !- Vertex 3 Xcoordinate
    5070368.093917535,        !- Vertex 3 Ycoordinate
    0,                        !- Vertex 3 Zcoordinate
    642181.3777045559,        !- Vertex 4 Xcoordinate
    5070368.093917535,        !- Vertex 4 Ycoordinate
    5.7;                      !- Vertex 4 Zcoordinate

SHADING:SITE:DETAILED,
    shade_BATIMENT0000000240879642_part0_3,    !- Name
    ,                         !- Transmittance Schedule Name
    autocalculate,            !- Number of Vertices
    642181.3777045559,        !- Vertex 1 Xcoordinate
    5070368.093917535,        !- Vertex 1 Ycoordinate
    5.7,                      !- Vertex 1 Zcoordinate
    642181.3777045559,        !- Vertex 2 Xcoordinate
    5070368.093917535,        !- Vertex 2 Ycoordinate
    0,                        !- Vertex 2 Zcoordinate
    642196.7935764989,        !- Vertex 3 Xcoordinate
    5070368.590175817,        !- Vertex 3 Ycoordinate
    0,                        !- Vertex 3 Zcoordinate
    642196.7935764989,        !- Vertex 4 Xcoordinate
    5070368.590175817,        !- Vertex 4 Ycoordinate
    5.7;                      !- Vertex 4 Zcoordinate

SHADING:SITE:DETAILED,
    shade_BATIMENT0000000240879642_part0_4,    !- Name
    ,                         !- Transmittance Schedule Name
    autocalculate,            !- Number of Vertices
    642196.7935764989,        !- Vertex 1 Xcoordinate
    5070368.590175817,        !- Vertex 1 Ycoordinate
    5.7,                      !- Vertex 1 Zcoordinate
    642196.7935764989,        !- Vertex 2 Xcoordinate
    5070368.590175817,        !- Vertex 2 Ycoordinate
    0,                        !- Vertex 2 Zcoordinate
    642196.9966837472,        !- Vertex 3 Xcoordinate
    5070362.286487817,        !- Vertex 3 Ycoordinate
    0,                        !- Vertex 3 Zcoordinate
    642196.9966837472,        !- Vertex 4 Xcoordinate
    5070362.286487817,        !- Vertex 4 Ycoordinate
    5.7;                      !- Vertex 4 Zcoordinate

SHADING:SITE:DETAILED,
    shade_BATIMENT0000000240879764_part0_1,    !- Name
    ,                         !- Transmittance Schedule Name
    autocalculate,            !- Number of Vertices
    642151.6637492151,        !- Vertex 1 Xcoordinate
    5070376.9095256,          !- Vertex 1 Ycoordinate
    26.2,                     !- Vertex 1 Zcoordinate
    642151.6637492151,        !- Vertex 2 Xcoordinate
    5070376.9095256,          !- Vertex 2 Ycoordinate
    0,                        !- Vertex 2 Zcoordinate
    642135.3517345649,        !- Vertex 3 Xcoordinate
    5070376.112908467,        !- Vertex 3 Ycoordinate
    0,                        !- Vertex 3 Zcoordinate
    642135.3517345649,        !- Vertex 4 Xcoordinate
    5070376.112908467,        !- Vertex 4 Ycoordinate
    26.2;                     !- Vertex 4 Zcoordinate

SHADING:SITE:DETAILED,
    shade_BATIMENT0000000240879764_part0_2,    !- Name
    ,                         !- Transmittance Schedule Name
    autocalculate,            !- Number of Vertices
    642135.3517345649,        !- Vertex 1 Xcoordinate
    5070376.112908467,        !- Vertex 1 Ycoordinate
    26.2,                     !- Vertex 1 Zcoordinate
    642135.3517345649,        !- Vertex 2 Xcoordinate
    5070376.112908467,        !- Vertex 2 Ycoordinate
    0,                        !- Vertex 2 Zcoordinate
    642134.97524381,          !- Vertex 3 Xcoordinate
    5070383.82425972,         !- Vertex 3 Ycoordinate
    0,                        !- Vertex 3 Zcoordinate
    642134.97524381,          !- Vertex 4 Xcoordinate
    5070383.82425972,         !- Vertex 4 Ycoordinate
    26.2;                     !- Vertex 4 Zcoordinate

SHADING:SITE:DETAILED,
    shade_BATIMENT0000000240879764_part0_3,    !- Name
    ,                         !- Transmittance Schedule Name
    autocalculate,            !- Number of Vertices
    642134.97524381,          !- Vertex 1 Xcoordinate
    5070383.82425972,         !- Vertex 1 Ycoordinate
    26.2,                     !- Vertex 1 Zcoordinate
    642134.97524381,          !- Vertex 2 Xcoordinate
    5070383.82425972,         !- Vertex 2 Ycoordinate
    0,                        !- Vertex 2 Zcoordinate
    642151.28725846,          !- Vertex 3 Xcoordinate
    5070384.620876857,        !- Vertex 3 Ycoordinate
    0,                        !- Vertex 3 Zcoordinate
    642151.28725846,          !- Vertex 4 Xcoordinate
    5070384.620876857,        !- Vertex 4 Ycoordinate
    26.2;                     !- Vertex 4 Zcoordinate

SHADING:SITE:DETAILED,
    shade_BATIMENT0000000240879764_part0_4,    !- Name
    ,                         !- Transmittance Schedule Name
    autocalculate,            !- Number of Vertices
    642151.28725846,          !- Vertex 1 Xcoordinate
    5070384.620876857,        !- Vertex 1 Ycoordinate
    26.2,                     !- Vertex 1 Zcoordinate
    642151.28725846,          !- Vertex 2 Xcoordinate
    5070384.620876857,        !- Vertex 2 Ycoordinate
    0,                        !- Vertex 2 Zcoordinate
    642151.6637492151,        !- Vertex 3 Xcoordinate
    5070376.9095256,          !- Vertex 3 Ycoordinate
    0,                        !- Vertex 3 Zcoordinate
    642151.6637492151,        !- Vertex 4 Xcoordinate
    5070376.9095256,          !- Vertex 4 Ycoordinate
    26.2;                     !- Vertex 4 Zcoordinate

SHADING:SITE:DETAILED,
    shade_BATIMENT0000000240881335_part0_1,    !- Name
    ,                         !- Transmittance Schedule Name
    autocalculate,            !- Number of Vertices
    642159.6718519297,        !- Vertex 1 Xcoordinate
    5070379.367278509,        !- Vertex 1 Ycoordinate
    21.1,                     !- Vertex 1 Zcoordinate
    642159.6718519297,        !- Vertex 2 Xcoordinate
    5070379.367278509,        !- Vertex 2 Ycoordinate
    0,                        !- Vertex 2 Zcoordinate
    642175.0813051063,        !- Vertex 3 Xcoordinate
    5070380.0052193375,       !- Vertex 3 Ycoordinate
    0,                        !- Vertex 3 Zcoordinate
    642175.0813051063,        !- Vertex 4 Xcoordinate
    5070380.0052193375,       !- Vertex 4 Ycoordinate
    21.1;                     !- Vertex 4 Zcoordinate

SHADING:SITE:DETAILED,
    shade_BATIMENT0000000240881335_part0_2,    !- Name
    ,                         !- Transmittance Schedule Name
    autocalculate,            !- Number of Vertices
    642175.0813051063,        !- Vertex 1 Xcoordinate
    5070380.0052193375,       !- Vertex 1 Ycoordinate
    21.1,                     !- Vertex 1 Zcoordinate
    642175.0813051063,        !- Vertex 2 Xcoordinate
    5070380.0052193375,       !- Vertex 2 Ycoordinate
    0,                        !- Vertex 2 Zcoordinate
    642175.8378954049,        !- Vertex 3 Xcoordinate
    5070361.727071178,        !- Vertex 3 Ycoordinate
    0,                        !- Vertex 3 Zcoordinate
    642175.8378954049,        !- Vertex 4 Xcoordinate
    5070361.727071178,        !- Vertex 4 Ycoordinate
    21.1;                     !- Vertex 4 Zcoordinate

SHADING:SITE:DETAILED,
    shade_BATIMENT0000000240881335_part0_3,    !- Name
    ,                         !- Transmittance Schedule Name
    autocalculate,            !- Number of Vertices
    642175.8378954049,        !- Vertex 1 Xcoordinate
    5070361.727071178,        !- Vertex 1 Ycoordinate
    21.1,                     !- Vertex 1 Zcoordinate
    642175.8378954049,        !- Vertex 2 Xcoordinate
    5070361.727071178,        !- Vertex 2 Ycoordinate
    0,                        !- Vertex 2 Zcoordinate
    642160.4283595174,        !- Vertex 3 Xcoordinate
    5070361.089286103,        !- Vertex 3 Ycoordinate
    0,                        !- Vertex 3 Zcoordinate
    642160.4283595174,        !- Vertex 4 Xcoordinate
    5070361.089286103,        !- Vertex 4 Ycoordinate
    21.1;                     !- Vertex 4 Zcoordinate

SHADING:SITE:DETAILED,
    shade_BATIMENT0000000240881335_part0_4,    !- Name
    ,                         !- Transmittance Schedule Name
    autocalculate,            !- Number of Vertices
    642160.4283595174,        !- Vertex 1 Xcoordinate
    5070361.089286103,        !- Vertex 1 Ycoordinate
    21.1,                     !- Vertex 1 Zcoordinate
    642160.4283595174,        !- Vertex 2 Xcoordinate
    5070361.089286103,        !- Vertex 2 Ycoordinate
    0,                        !- Vertex 2 Zcoordinate
    642159.6718519297,        !- Vertex 3 Xcoordinate
    5070379.367278509,        !- Vertex 3 Ycoordinate
    0,                        !- Vertex 3 Zcoordinate
    642159.6718519297,        !- Vertex 4 Xcoordinate
    5070379.367278509,        !- Vertex 4 Ycoordinate
    21.1;                     !- Vertex 4 Zcoordinate

SHADING:SITE:DETAILED,
    shade_BATIMENT0000000240879767_part0_1,    !- Name
    ,                         !- Transmittance Schedule Name
    autocalculate,            !- Number of Vertices
    642159.369127938,         !- Vertex 1 Xcoordinate
    5070385.062479864,        !- Vertex 1 Ycoordinate
    29.5,                     !- Vertex 1 Zcoordinate
    642159.369127938,         !- Vertex 2 Xcoordinate
    5070385.062479864,        !- Vertex 2 Ycoordinate
    0,                        !- Vertex 2 Zcoordinate
    642160.6718868321,        !- Vertex 3 Xcoordinate
    5070361.195476996,        !- Vertex 3 Ycoordinate
    0,                        !- Vertex 3 Zcoordinate
    642160.6718868321,        !- Vertex 4 Xcoordinate
    5070361.195476996,        !- Vertex 4 Ycoordinate
    29.5;                     !- Vertex 4 Zcoordinate

SHADING:SITE:DETAILED,
    shade_BATIMENT0000000240879767_part0_2,    !- Name
    ,                         !- Transmittance Schedule Name
    autocalculate,            !- Number of Vertices
    642160.6718868321,        !- Vertex 1 Xcoordinate
    5070361.195476996,        !- Vertex 1 Ycoordinate
    29.5,                     !- Vertex 1 Zcoordinate
    642160.6718868321,        !- Vertex 2 Xcoordinate
    5070361.195476996,        !- Vertex 2 Ycoordinate
    0,                        !- Vertex 2 Zcoordinate
    642152.4684325409,        !- Vertex 3 Xcoordinate
    5070360.747698819,        !- Vertex 3 Ycoordinate
    0,                        !- Vertex 3 Zcoordinate
    642152.4684325409,        !- Vertex 4 Xcoordinate
    5070360.747698819,        !- Vertex 4 Ycoordinate
    29.5;                     !- Vertex 4 Zcoordinate

SHADING:SITE:DETAILED,
    shade_BATIMENT0000000240879767_part0_3,    !- Name
    ,                         !- Transmittance Schedule Name
    autocalculate,            !- Number of Vertices
    642152.4684325409,        !- Vertex 1 Xcoordinate
    5070360.747698819,        !- Vertex 1 Ycoordinate
    29.5,                     !- Vertex 1 Zcoordinate
    642152.4684325409,        !- Vertex 2 Xcoordinate
    5070360.747698819,        !- Vertex 2 Ycoordinate
    0,                        !- Vertex 2 Zcoordinate
    642151.1654522866,        !- Vertex 3 Xcoordinate
    5070384.614791772,        !- Vertex 3 Ycoordinate
    0,                        !- Vertex 3 Zcoordinate
    642151.1654522866,        !- Vertex 4 Xcoordinate
    5070384.614791772,        !- Vertex 4 Ycoordinate
    29.5;                     !- Vertex 4 Zcoordinate

SHADING:SITE:DETAILED,
    shade_BATIMENT0000000240879767_part0_4,    !- Name
    ,                         !- Transmittance Schedule Name
    autocalculate,            !- Number of Vertices
    642151.1654522866,        !- Vertex 1 Xcoordinate
    5070384.614791772,        !- Vertex 1 Ycoordinate
    29.5,                     !- Vertex 1 Zcoordinate
    642151.1654522866,        !- Vertex 2 Xcoordinate
    5070384.614791772,        !- Vertex 2 Ycoordinate
    0,                        !- Vertex 2 Zcoordinate
    642159.369127938,         !- Vertex 3 Xcoordinate
    5070385.062479864,        !- Vertex 3 Ycoordinate
    0,                        !- Vertex 3 Zcoordinate
    642159.369127938,         !- Vertex 4 Xcoordinate
    5070385.062479864,        !- Vertex 4 Ycoordinate
    29.5;                     !- Vertex 4 Zcoordinate

SHADING:SITE:DETAILED,
    shade_BATIMENT0000000240879650_part0_1,    !- Name
    ,                         !- Transmittance Schedule Name
    autocalculate,            !- Number of Vertices
    642180.5869539917,        !- Vertex 1 Xcoordinate
    5070386.408334669,        !- Vertex 1 Ycoordinate
    15.9,                     !- Vertex 1 Zcoordinate
    642180.5869539917,        !- Vertex 2 Xcoordinate
    5070386.408334669,        !- Vertex 2 Ycoordinate
    0,                        !- Vertex 2 Zcoordinate
    642196.3986135238,        !- Vertex 3 Xcoordinate
    5070386.803454478,        !- Vertex 3 Ycoordinate
    0,                        !- Vertex 3 Zcoordinate
    642196.3986135238,        !- Vertex 4 Xcoordinate
    5070386.803454478,        !- Vertex 4 Ycoordinate
    15.9;                     !- Vertex 4 Zcoordinate

SHADING:SITE:DETAILED,
    shade_BATIMENT0000000240879650_part0_2,    !- Name
    ,                         !- Transmittance Schedule Name
    autocalculate,            !- Number of Vertices
    642196.3986135238,        !- Vertex 1 Xcoordinate
    5070386.803454478,        !- Vertex 1 Ycoordinate
    15.9,                     !- Vertex 1 Zcoordinate
    642196.3986135238,        !- Vertex 2 Xcoordinate
    5070386.803454478,        !- Vertex 2 Ycoordinate
    0,                        !- Vertex 2 Zcoordinate
    642196.6085112421,        !- Vertex 3 Xcoordinate
    5070378.394317734,        !- Vertex 3 Ycoordinate
    0,                        !- Vertex 3 Zcoordinate
    642196.6085112421,        !- Vertex 4 Xcoordinate
    5070378.394317734,        !- Vertex 4 Ycoordinate
    15.9;                     !- Vertex 4 Zcoordinate

SHADING:SITE:DETAILED,
    shade_BATIMENT0000000240879650_part0_3,    !- Name
    ,                         !- Transmittance Schedule Name
    autocalculate,            !- Number of Vertices
    642196.6085112421,        !- Vertex 1 Xcoordinate
    5070378.394317734,        !- Vertex 1 Ycoordinate
    15.9,                     !- Vertex 1 Zcoordinate
    642196.6085112421,        !- Vertex 2 Xcoordinate
    5070378.394317734,        !- Vertex 2 Ycoordinate
    0,                        !- Vertex 2 Zcoordinate
    642180.7968517098,        !- Vertex 3 Xcoordinate
    5070377.999197927,        !- Vertex 3 Ycoordinate
    0,                        !- Vertex 3 Zcoordinate
    642180.7968517098,        !- Vertex 4 Xcoordinate
    5070377.999197927,        !- Vertex 4 Ycoordinate
    15.9;                     !- Vertex 4 Zcoordinate

SHADING:SITE:DETAILED,
    shade_BATIMENT0000000240879650_part0_4,    !- Name
    ,                         !- Transmittance Schedule Name
    autocalculate,            !- Number of Vertices
    642180.7968517098,        !- Vertex 1 Xcoordinate
    5070377.999197927,        !- Vertex 1 Ycoordinate
    15.9,                     !- Vertex 1 Zcoordinate
    642180.7968517098,        !- Vertex 2 Xcoordinate
    5070377.999197927,        !- Vertex 2 Ycoordinate
    0,                        !- Vertex 2 Zcoordinate
    642180.5869539917,        !- Vertex 3 Xcoordinate
    5070386.408334669,        !- Vertex 3 Ycoordinate
    0,                        !- Vertex 3 Zcoordinate
    642180.5869539917,        !- Vertex 4 Xcoordinate
    5070386.408334669,        !- Vertex 4 Ycoordinate
    15.9;                     !- Vertex 4 Zcoordinate

SHADING:SITE:DETAILED,
    shade_BATIMENT0000000240879768_part0_1,    !- Name
    ,                         !- Transmittance Schedule Name
    autocalculate,            !- Number of Vertices
    642174.7829336802,        !- Vertex 1 Xcoordinate
    5070386.008766437,        !- Vertex 1 Ycoordinate
    14.1,                     !- Vertex 1 Zcoordinate
    642174.7829336802,        !- Vertex 2 Xcoordinate
    5070386.008766437,        !- Vertex 2 Ycoordinate
    0,                        !- Vertex 2 Zcoordinate
    642175.0813051063,        !- Vertex 3 Xcoordinate
    5070380.0052193375,       !- Vertex 3 Ycoordinate
    0,                        !- Vertex 3 Zcoordinate
    642175.0813051063,        !- Vertex 4 Xcoordinate
    5070380.0052193375,       !- Vertex 4 Ycoordinate
    14.1;                     !- Vertex 4 Zcoordinate

SHADING:SITE:DETAILED,
    shade_BATIMENT0000000240879768_part0_2,    !- Name
    ,                         !- Transmittance Schedule Name
    autocalculate,            !- Number of Vertices
    642175.0813051063,        !- Vertex 1 Xcoordinate
    5070380.0052193375,       !- Vertex 1 Ycoordinate
    14.1,                     !- Vertex 1 Zcoordinate
    642175.0813051063,        !- Vertex 2 Xcoordinate
    5070380.0052193375,       !- Vertex 2 Ycoordinate
    0,                        !- Vertex 2 Zcoordinate
    642159.6583722185,        !- Vertex 3 Xcoordinate
    5070379.238962564,        !- Vertex 3 Ycoordinate
    0,                        !- Vertex 3 Zcoordinate
    642159.6583722185,        !- Vertex 4 Xcoordinate
    5070379.238962564,        !- Vertex 4 Ycoordinate
    14.1;                     !- Vertex 4 Zcoordinate

SHADING:SITE:DETAILED,
    shade_BATIMENT0000000240879768_part0_3,    !- Name
    ,                         !- Transmittance Schedule Name
    autocalculate,            !- Number of Vertices
    642159.6583722185,        !- Vertex 1 Xcoordinate
    5070379.238962564,        !- Vertex 1 Ycoordinate
    14.1,                     !- Vertex 1 Zcoordinate
    642159.6583722185,        !- Vertex 2 Xcoordinate
    5070379.238962564,        !- Vertex 2 Ycoordinate
    0,                        !- Vertex 2 Zcoordinate
    642159.3600007922,        !- Vertex 3 Xcoordinate
    5070385.242509664,        !- Vertex 3 Ycoordinate
    0,                        !- Vertex 3 Zcoordinate
    642159.3600007922,        !- Vertex 4 Xcoordinate
    5070385.242509664,        !- Vertex 4 Ycoordinate
    14.1;                     !- Vertex 4 Zcoordinate

SHADING:SITE:DETAILED,
    shade_BATIMENT0000000240879768_part0_4,    !- Name
    ,                         !- Transmittance Schedule Name
    autocalculate,            !- Number of Vertices
    642159.3600007922,        !- Vertex 1 Xcoordinate
    5070385.242509664,        !- Vertex 1 Ycoordinate
    14.1,                     !- Vertex 1 Zcoordinate
    642159.3600007922,        !- Vertex 2 Xcoordinate
    5070385.242509664,        !- Vertex 2 Ycoordinate
    0,                        !- Vertex 2 Zcoordinate
    642174.7829336802,        !- Vertex 3 Xcoordinate
    5070386.008766437,        !- Vertex 3 Ycoordinate
    0,                        !- Vertex 3 Zcoordinate
    642174.7829336802,        !- Vertex 4 Xcoordinate
    5070386.008766437,        !- Vertex 4 Ycoordinate
    14.1;                     !- Vertex 4 Zcoordinate

OTHEREQUIPMENT,
    EU_Step8_InternalGain_9431a9276163ac65_F0_dwelling_0_f000,    !- Name
    Electricity,              !- Fuel Type
    9431a9276163ac65_F0_dwelling_0,    !- Zone or ZoneList or Space or SpaceList Name
    EU_Step8_GainSchedule_9431a9276163ac65_F0_dwelling_0_f000,    !- Schedule Name
    Watts/Area,               !- Design Level Calculation Method
    ,                         !- Design Level
    1,                        !- Power per Zone Floor Area
    ,                         !- Power per Person
    0,                        !- Fraction Latent
    0,                        !- Fraction Radiant
    0,                        !- Fraction Lost
    0,                        !- Carbon Dioxide Generation Rate
    EU_Step8_InternalGains;    !- EndUse Subcategory

OTHEREQUIPMENT,
    EU_Step8_InternalGain_9431a9276163ac65_F1_dwelling_0_f000,    !- Name
    Electricity,              !- Fuel Type
    9431a9276163ac65_F1_dwelling_0,    !- Zone or ZoneList or Space or SpaceList Name
    EU_Step8_GainSchedule_9431a9276163ac65_F1_dwelling_0_f000,    !- Schedule Name
    Watts/Area,               !- Design Level Calculation Method
    ,                         !- Design Level
    1,                        !- Power per Zone Floor Area
    ,                         !- Power per Person
    0,                        !- Fraction Latent
    0,                        !- Fraction Radiant
    0,                        !- Fraction Lost
    0,                        !- Carbon Dioxide Generation Rate
    EU_Step8_InternalGains;    !- EndUse Subcategory

OTHEREQUIPMENT,
    EU_Step8_InternalGain_9431a9276163ac65_F2_dwelling_0_f000,    !- Name
    Electricity,              !- Fuel Type
    9431a9276163ac65_F2_dwelling_0,    !- Zone or ZoneList or Space or SpaceList Name
    EU_Step8_GainSchedule_9431a9276163ac65_F2_dwelling_0_f000,    !- Schedule Name
    Watts/Area,               !- Design Level Calculation Method
    ,                         !- Design Level
    1,                        !- Power per Zone Floor Area
    ,                         !- Power per Person
    0,                        !- Fraction Latent
    0,                        !- Fraction Radiant
    0,                        !- Fraction Lost
    0,                        !- Carbon Dioxide Generation Rate
    EU_Step8_InternalGains;    !- EndUse Subcategory

OTHEREQUIPMENT,
    EU_Step8_InternalGain_9431a9276163ac65_F3_dwelling_0_f000,    !- Name
    Electricity,              !- Fuel Type
    9431a9276163ac65_F3_dwelling_0,    !- Zone or ZoneList or Space or SpaceList Name
    EU_Step8_GainSchedule_9431a9276163ac65_F3_dwelling_0_f000,    !- Schedule Name
    Watts/Area,               !- Design Level Calculation Method
    ,                         !- Design Level
    1,                        !- Power per Zone Floor Area
    ,                         !- Power per Person
    0,                        !- Fraction Latent
    0,                        !- Fraction Radiant
    0,                        !- Fraction Lost
    0,                        !- Carbon Dioxide Generation Rate
    EU_Step8_InternalGains;    !- EndUse Subcategory

ZONEVENTILATION:DESIGNFLOWRATE,
    EU_ConstantAir_9431a9276163ac65_F0_dwelling_0,    !- Name
    9431a9276163ac65_F0_dwelling_0,    !- Zone or ZoneList or Space or SpaceList Name
    EU_AlwaysOn,              !- Schedule Name
    AirChanges/Hour,          !- Design Flow Rate Calculation Method
    ,                         !- Design Flow Rate
    ,                         !- Flow Rate per Floor Area
    ,                         !- Flow Rate per Person
    0.425,                    !- Air Changes per Hour
    Natural,                  !- Ventilation Type
    0,                        !- Fan Pressure Rise
    1,                        !- Fan Total Efficiency
    1,                        !- Constant Term Coefficient
    0,                        !- Temperature Term Coefficient
    0,                        !- Velocity Term Coefficient
    0,                        !- Velocity Squared Term Coefficient
    -100,                     !- Minimum Indoor Temperature
    ,                         !- Minimum Indoor Temperature Schedule Name
    100,                      !- Maximum Indoor Temperature
    ,                         !- Maximum Indoor Temperature Schedule Name
    -100,                     !- Delta Temperature
    ,                         !- Delta Temperature Schedule Name
    -100,                     !- Minimum Outdoor Temperature
    ,                         !- Minimum Outdoor Temperature Schedule Name
    100,                      !- Maximum Outdoor Temperature
    ,                         !- Maximum Outdoor Temperature Schedule Name
    40;                       !- Maximum Wind Speed

ZONEVENTILATION:DESIGNFLOWRATE,
    EU_ConstantAir_9431a9276163ac65_F1_dwelling_0,    !- Name
    9431a9276163ac65_F1_dwelling_0,    !- Zone or ZoneList or Space or SpaceList Name
    EU_AlwaysOn,              !- Schedule Name
    AirChanges/Hour,          !- Design Flow Rate Calculation Method
    ,                         !- Design Flow Rate
    ,                         !- Flow Rate per Floor Area
    ,                         !- Flow Rate per Person
    0.425,                    !- Air Changes per Hour
    Natural,                  !- Ventilation Type
    0,                        !- Fan Pressure Rise
    1,                        !- Fan Total Efficiency
    1,                        !- Constant Term Coefficient
    0,                        !- Temperature Term Coefficient
    0,                        !- Velocity Term Coefficient
    0,                        !- Velocity Squared Term Coefficient
    -100,                     !- Minimum Indoor Temperature
    ,                         !- Minimum Indoor Temperature Schedule Name
    100,                      !- Maximum Indoor Temperature
    ,                         !- Maximum Indoor Temperature Schedule Name
    -100,                     !- Delta Temperature
    ,                         !- Delta Temperature Schedule Name
    -100,                     !- Minimum Outdoor Temperature
    ,                         !- Minimum Outdoor Temperature Schedule Name
    100,                      !- Maximum Outdoor Temperature
    ,                         !- Maximum Outdoor Temperature Schedule Name
    40;                       !- Maximum Wind Speed

ZONEVENTILATION:DESIGNFLOWRATE,
    EU_ConstantAir_9431a9276163ac65_F2_dwelling_0,    !- Name
    9431a9276163ac65_F2_dwelling_0,    !- Zone or ZoneList or Space or SpaceList Name
    EU_AlwaysOn,              !- Schedule Name
    AirChanges/Hour,          !- Design Flow Rate Calculation Method
    ,                         !- Design Flow Rate
    ,                         !- Flow Rate per Floor Area
    ,                         !- Flow Rate per Person
    0.425,                    !- Air Changes per Hour
    Natural,                  !- Ventilation Type
    0,                        !- Fan Pressure Rise
    1,                        !- Fan Total Efficiency
    1,                        !- Constant Term Coefficient
    0,                        !- Temperature Term Coefficient
    0,                        !- Velocity Term Coefficient
    0,                        !- Velocity Squared Term Coefficient
    -100,                     !- Minimum Indoor Temperature
    ,                         !- Minimum Indoor Temperature Schedule Name
    100,                      !- Maximum Indoor Temperature
    ,                         !- Maximum Indoor Temperature Schedule Name
    -100,                     !- Delta Temperature
    ,                         !- Delta Temperature Schedule Name
    -100,                     !- Minimum Outdoor Temperature
    ,                         !- Minimum Outdoor Temperature Schedule Name
    100,                      !- Maximum Outdoor Temperature
    ,                         !- Maximum Outdoor Temperature Schedule Name
    40;                       !- Maximum Wind Speed

ZONEVENTILATION:DESIGNFLOWRATE,
    EU_ConstantAir_9431a9276163ac65_F3_dwelling_0,    !- Name
    9431a9276163ac65_F3_dwelling_0,    !- Zone or ZoneList or Space or SpaceList Name
    EU_AlwaysOn,              !- Schedule Name
    AirChanges/Hour,          !- Design Flow Rate Calculation Method
    ,                         !- Design Flow Rate
    ,                         !- Flow Rate per Floor Area
    ,                         !- Flow Rate per Person
    0.425,                    !- Air Changes per Hour
    Natural,                  !- Ventilation Type
    0,                        !- Fan Pressure Rise
    1,                        !- Fan Total Efficiency
    1,                        !- Constant Term Coefficient
    0,                        !- Temperature Term Coefficient
    0,                        !- Velocity Term Coefficient
    0,                        !- Velocity Squared Term Coefficient
    -100,                     !- Minimum Indoor Temperature
    ,                         !- Minimum Indoor Temperature Schedule Name
    100,                      !- Maximum Indoor Temperature
    ,                         !- Maximum Indoor Temperature Schedule Name
    -100,                     !- Delta Temperature
    ,                         !- Delta Temperature Schedule Name
    -100,                     !- Minimum Outdoor Temperature
    ,                         !- Minimum Outdoor Temperature Schedule Name
    100,                      !- Maximum Outdoor Temperature
    ,                         !- Maximum Outdoor Temperature Schedule Name
    40;                       !- Maximum Wind Speed

HVACTEMPLATE:THERMOSTAT,
    EU_HeatOnly_9431a9276163ac65_F0_dwelling_0,    !- Name
    ,                         !- Heating Setpoint Schedule Name
    20,                       !- Constant Heating Setpoint
    ,                         !- Cooling Setpoint Schedule Name
    50;                       !- Constant Cooling Setpoint

HVACTEMPLATE:THERMOSTAT,
    EU_HeatOnly_9431a9276163ac65_F1_dwelling_0,    !- Name
    ,                         !- Heating Setpoint Schedule Name
    20,                       !- Constant Heating Setpoint
    ,                         !- Cooling Setpoint Schedule Name
    50;                       !- Constant Cooling Setpoint

HVACTEMPLATE:THERMOSTAT,
    EU_HeatOnly_9431a9276163ac65_F2_dwelling_0,    !- Name
    ,                         !- Heating Setpoint Schedule Name
    20,                       !- Constant Heating Setpoint
    ,                         !- Cooling Setpoint Schedule Name
    50;                       !- Constant Cooling Setpoint

HVACTEMPLATE:THERMOSTAT,
    EU_HeatOnly_9431a9276163ac65_F3_dwelling_0,    !- Name
    ,                         !- Heating Setpoint Schedule Name
    20,                       !- Constant Heating Setpoint
    ,                         !- Cooling Setpoint Schedule Name
    50;                       !- Constant Cooling Setpoint

HVACTEMPLATE:ZONE:IDEALLOADSAIRSYSTEM,
    9431a9276163ac65_F0_dwelling_0,    !- Zone Name
    EU_HeatOnly_9431a9276163ac65_F0_dwelling_0,    !- Template Thermostat Name
    EU_AlwaysOn,              !- System Availability Schedule Name
    50,                       !- Maximum Heating Supply Air Temperature
    13,                       !- Minimum Cooling Supply Air Temperature
    0.0156,                   !- Maximum Heating Supply Air Humidity Ratio
    0.0077,                   !- Minimum Cooling Supply Air Humidity Ratio
    NoLimit,                  !- Heating Limit
    ,                         !- Maximum Heating Air Flow Rate
    ,                         !- Maximum Sensible Heating Capacity
    NoLimit,                  !- Cooling Limit
    ,                         !- Maximum Cooling Air Flow Rate
    ,                         !- Maximum Total Cooling Capacity
    EU_AlwaysOn,              !- Heating Availability Schedule Name
    EU_CoolingOff,            !- Cooling Availability Schedule Name
    ConstantSensibleHeatRatio,    !- Dehumidification Control Type
    0.7,                      !- Cooling Sensible Heat Ratio
    60,                       !- Dehumidification Setpoint
    None,                     !- Humidification Control Type
    30,                       !- Humidification Setpoint
    None,                     !- Outdoor Air Method
    0.00944,                  !- Outdoor Air Flow Rate per Person
    0.0,                      !- Outdoor Air Flow Rate per Zone Floor Area
    0,                        !- Outdoor Air Flow Rate per Zone
    ,                         !- Design Specification Outdoor Air Object Name
    None,                     !- Demand Controlled Ventilation Type
    NoEconomizer,             !- Outdoor Air Economizer Type
    None,                     !- Heat Recovery Type
    0.70,                     !- Sensible Heat Recovery Effectiveness
    0.65;                     !- Latent Heat Recovery Effectiveness

HVACTEMPLATE:ZONE:IDEALLOADSAIRSYSTEM,
    9431a9276163ac65_F1_dwelling_0,    !- Zone Name
    EU_HeatOnly_9431a9276163ac65_F1_dwelling_0,    !- Template Thermostat Name
    EU_AlwaysOn,              !- System Availability Schedule Name
    50,                       !- Maximum Heating Supply Air Temperature
    13,                       !- Minimum Cooling Supply Air Temperature
    0.0156,                   !- Maximum Heating Supply Air Humidity Ratio
    0.0077,                   !- Minimum Cooling Supply Air Humidity Ratio
    NoLimit,                  !- Heating Limit
    ,                         !- Maximum Heating Air Flow Rate
    ,                         !- Maximum Sensible Heating Capacity
    NoLimit,                  !- Cooling Limit
    ,                         !- Maximum Cooling Air Flow Rate
    ,                         !- Maximum Total Cooling Capacity
    EU_AlwaysOn,              !- Heating Availability Schedule Name
    EU_CoolingOff,            !- Cooling Availability Schedule Name
    ConstantSensibleHeatRatio,    !- Dehumidification Control Type
    0.7,                      !- Cooling Sensible Heat Ratio
    60,                       !- Dehumidification Setpoint
    None,                     !- Humidification Control Type
    30,                       !- Humidification Setpoint
    None,                     !- Outdoor Air Method
    0.00944,                  !- Outdoor Air Flow Rate per Person
    0.0,                      !- Outdoor Air Flow Rate per Zone Floor Area
    0,                        !- Outdoor Air Flow Rate per Zone
    ,                         !- Design Specification Outdoor Air Object Name
    None,                     !- Demand Controlled Ventilation Type
    NoEconomizer,             !- Outdoor Air Economizer Type
    None,                     !- Heat Recovery Type
    0.70,                     !- Sensible Heat Recovery Effectiveness
    0.65;                     !- Latent Heat Recovery Effectiveness

HVACTEMPLATE:ZONE:IDEALLOADSAIRSYSTEM,
    9431a9276163ac65_F2_dwelling_0,    !- Zone Name
    EU_HeatOnly_9431a9276163ac65_F2_dwelling_0,    !- Template Thermostat Name
    EU_AlwaysOn,              !- System Availability Schedule Name
    50,                       !- Maximum Heating Supply Air Temperature
    13,                       !- Minimum Cooling Supply Air Temperature
    0.0156,                   !- Maximum Heating Supply Air Humidity Ratio
    0.0077,                   !- Minimum Cooling Supply Air Humidity Ratio
    NoLimit,                  !- Heating Limit
    ,                         !- Maximum Heating Air Flow Rate
    ,                         !- Maximum Sensible Heating Capacity
    NoLimit,                  !- Cooling Limit
    ,                         !- Maximum Cooling Air Flow Rate
    ,                         !- Maximum Total Cooling Capacity
    EU_AlwaysOn,              !- Heating Availability Schedule Name
    EU_CoolingOff,            !- Cooling Availability Schedule Name
    ConstantSensibleHeatRatio,    !- Dehumidification Control Type
    0.7,                      !- Cooling Sensible Heat Ratio
    60,                       !- Dehumidification Setpoint
    None,                     !- Humidification Control Type
    30,                       !- Humidification Setpoint
    None,                     !- Outdoor Air Method
    0.00944,                  !- Outdoor Air Flow Rate per Person
    0.0,                      !- Outdoor Air Flow Rate per Zone Floor Area
    0,                        !- Outdoor Air Flow Rate per Zone
    ,                         !- Design Specification Outdoor Air Object Name
    None,                     !- Demand Controlled Ventilation Type
    NoEconomizer,             !- Outdoor Air Economizer Type
    None,                     !- Heat Recovery Type
    0.70,                     !- Sensible Heat Recovery Effectiveness
    0.65;                     !- Latent Heat Recovery Effectiveness

HVACTEMPLATE:ZONE:IDEALLOADSAIRSYSTEM,
    9431a9276163ac65_F3_dwelling_0,    !- Zone Name
    EU_HeatOnly_9431a9276163ac65_F3_dwelling_0,    !- Template Thermostat Name
    EU_AlwaysOn,              !- System Availability Schedule Name
    50,                       !- Maximum Heating Supply Air Temperature
    13,                       !- Minimum Cooling Supply Air Temperature
    0.0156,                   !- Maximum Heating Supply Air Humidity Ratio
    0.0077,                   !- Minimum Cooling Supply Air Humidity Ratio
    NoLimit,                  !- Heating Limit
    ,                         !- Maximum Heating Air Flow Rate
    ,                         !- Maximum Sensible Heating Capacity
    NoLimit,                  !- Cooling Limit
    ,                         !- Maximum Cooling Air Flow Rate
    ,                         !- Maximum Total Cooling Capacity
    EU_AlwaysOn,              !- Heating Availability Schedule Name
    EU_CoolingOff,            !- Cooling Availability Schedule Name
    ConstantSensibleHeatRatio,    !- Dehumidification Control Type
    0.7,                      !- Cooling Sensible Heat Ratio
    60,                       !- Dehumidification Setpoint
    None,                     !- Humidification Control Type
    30,                       !- Humidification Setpoint
    None,                     !- Outdoor Air Method
    0.00944,                  !- Outdoor Air Flow Rate per Person
    0.0,                      !- Outdoor Air Flow Rate per Zone Floor Area
    0,                        !- Outdoor Air Flow Rate per Zone
    ,                         !- Design Specification Outdoor Air Object Name
    None,                     !- Demand Controlled Ventilation Type
    NoEconomizer,             !- Outdoor Air Economizer Type
    None,                     !- Heat Recovery Type
    0.70,                     !- Sensible Heat Recovery Effectiveness
    0.65;                     !- Latent Heat Recovery Effectiveness

SIZING:ZONE,
    9431a9276163ac65_F0_dwelling_0,    !- Zone or ZoneList Name
    SupplyAirTemperature,     !- Zone Cooling Design Supply Air Temperature Input Method
    13,                       !- Zone Cooling Design Supply Air Temperature
    ,                         !- Zone Cooling Design Supply Air Temperature Difference
    SupplyAirTemperature,     !- Zone Heating Design Supply Air Temperature Input Method
    50,                       !- Zone Heating Design Supply Air Temperature
    ,                         !- Zone Heating Design Supply Air Temperature Difference
    0.008,                    !- Zone Cooling Design Supply Air Humidity Ratio
    0.008,                    !- Zone Heating Design Supply Air Humidity Ratio
    ,                         !- Design Specification Outdoor Air Object Name
    ,                         !- Zone Heating Sizing Factor
    ,                         !- Zone Cooling Sizing Factor
    DesignDay,                !- Cooling Design Air Flow Method
    0,                        !- Cooling Design Air Flow Rate
    0.000762,                 !- Cooling Minimum Air Flow per Zone Floor Area
    0,                        !- Cooling Minimum Air Flow
    0.2,                      !- Cooling Minimum Air Flow Fraction
    DesignDay,                !- Heating Design Air Flow Method
    0,                        !- Heating Design Air Flow Rate
    0.002032,                 !- Heating Maximum Air Flow per Zone Floor Area
    0.1415762,                !- Heating Maximum Air Flow
    0.3,                      !- Heating Maximum Air Flow Fraction
    ,                         !- Design Specification Zone Air Distribution Object Name
    No,                       !- Account for Dedicated Outdoor Air System
    NeutralSupplyAir,         !- Dedicated Outdoor Air System Control Strategy
    autosize,                 !- Dedicated Outdoor Air Low Setpoint Temperature for Design
    autosize,                 !- Dedicated Outdoor Air High Setpoint Temperature for Design
    Sensible Load Only No Latent Load,    !- Zone Load Sizing Method
    HumidityRatioDifference,    !- Zone Latent Cooling Design Supply Air Humidity Ratio Input Method
    ,                         !- Zone Dehumidification Design Supply Air Humidity Ratio
    0.005,                    !- Zone Cooling Design Supply Air Humidity Ratio Difference
    HumidityRatioDifference,    !- Zone Latent Heating Design Supply Air Humidity Ratio Input Method
    ,                         !- Zone Humidification Design Supply Air Humidity Ratio
    0.005;                    !- Zone Humidification Design Supply Air Humidity Ratio Difference

SIZING:ZONE,
    9431a9276163ac65_F1_dwelling_0,    !- Zone or ZoneList Name
    SupplyAirTemperature,     !- Zone Cooling Design Supply Air Temperature Input Method
    13,                       !- Zone Cooling Design Supply Air Temperature
    ,                         !- Zone Cooling Design Supply Air Temperature Difference
    SupplyAirTemperature,     !- Zone Heating Design Supply Air Temperature Input Method
    50,                       !- Zone Heating Design Supply Air Temperature
    ,                         !- Zone Heating Design Supply Air Temperature Difference
    0.008,                    !- Zone Cooling Design Supply Air Humidity Ratio
    0.008,                    !- Zone Heating Design Supply Air Humidity Ratio
    ,                         !- Design Specification Outdoor Air Object Name
    ,                         !- Zone Heating Sizing Factor
    ,                         !- Zone Cooling Sizing Factor
    DesignDay,                !- Cooling Design Air Flow Method
    0,                        !- Cooling Design Air Flow Rate
    0.000762,                 !- Cooling Minimum Air Flow per Zone Floor Area
    0,                        !- Cooling Minimum Air Flow
    0.2,                      !- Cooling Minimum Air Flow Fraction
    DesignDay,                !- Heating Design Air Flow Method
    0,                        !- Heating Design Air Flow Rate
    0.002032,                 !- Heating Maximum Air Flow per Zone Floor Area
    0.1415762,                !- Heating Maximum Air Flow
    0.3,                      !- Heating Maximum Air Flow Fraction
    ,                         !- Design Specification Zone Air Distribution Object Name
    No,                       !- Account for Dedicated Outdoor Air System
    NeutralSupplyAir,         !- Dedicated Outdoor Air System Control Strategy
    autosize,                 !- Dedicated Outdoor Air Low Setpoint Temperature for Design
    autosize,                 !- Dedicated Outdoor Air High Setpoint Temperature for Design
    Sensible Load Only No Latent Load,    !- Zone Load Sizing Method
    HumidityRatioDifference,    !- Zone Latent Cooling Design Supply Air Humidity Ratio Input Method
    ,                         !- Zone Dehumidification Design Supply Air Humidity Ratio
    0.005,                    !- Zone Cooling Design Supply Air Humidity Ratio Difference
    HumidityRatioDifference,    !- Zone Latent Heating Design Supply Air Humidity Ratio Input Method
    ,                         !- Zone Humidification Design Supply Air Humidity Ratio
    0.005;                    !- Zone Humidification Design Supply Air Humidity Ratio Difference

SIZING:ZONE,
    9431a9276163ac65_F2_dwelling_0,    !- Zone or ZoneList Name
    SupplyAirTemperature,     !- Zone Cooling Design Supply Air Temperature Input Method
    13,                       !- Zone Cooling Design Supply Air Temperature
    ,                         !- Zone Cooling Design Supply Air Temperature Difference
    SupplyAirTemperature,     !- Zone Heating Design Supply Air Temperature Input Method
    50,                       !- Zone Heating Design Supply Air Temperature
    ,                         !- Zone Heating Design Supply Air Temperature Difference
    0.008,                    !- Zone Cooling Design Supply Air Humidity Ratio
    0.008,                    !- Zone Heating Design Supply Air Humidity Ratio
    ,                         !- Design Specification Outdoor Air Object Name
    ,                         !- Zone Heating Sizing Factor
    ,                         !- Zone Cooling Sizing Factor
    DesignDay,                !- Cooling Design Air Flow Method
    0,                        !- Cooling Design Air Flow Rate
    0.000762,                 !- Cooling Minimum Air Flow per Zone Floor Area
    0,                        !- Cooling Minimum Air Flow
    0.2,                      !- Cooling Minimum Air Flow Fraction
    DesignDay,                !- Heating Design Air Flow Method
    0,                        !- Heating Design Air Flow Rate
    0.002032,                 !- Heating Maximum Air Flow per Zone Floor Area
    0.1415762,                !- Heating Maximum Air Flow
    0.3,                      !- Heating Maximum Air Flow Fraction
    ,                         !- Design Specification Zone Air Distribution Object Name
    No,                       !- Account for Dedicated Outdoor Air System
    NeutralSupplyAir,         !- Dedicated Outdoor Air System Control Strategy
    autosize,                 !- Dedicated Outdoor Air Low Setpoint Temperature for Design
    autosize,                 !- Dedicated Outdoor Air High Setpoint Temperature for Design
    Sensible Load Only No Latent Load,    !- Zone Load Sizing Method
    HumidityRatioDifference,    !- Zone Latent Cooling Design Supply Air Humidity Ratio Input Method
    ,                         !- Zone Dehumidification Design Supply Air Humidity Ratio
    0.005,                    !- Zone Cooling Design Supply Air Humidity Ratio Difference
    HumidityRatioDifference,    !- Zone Latent Heating Design Supply Air Humidity Ratio Input Method
    ,                         !- Zone Humidification Design Supply Air Humidity Ratio
    0.005;                    !- Zone Humidification Design Supply Air Humidity Ratio Difference

SIZING:ZONE,
    9431a9276163ac65_F3_dwelling_0,    !- Zone or ZoneList Name
    SupplyAirTemperature,     !- Zone Cooling Design Supply Air Temperature Input Method
    13,                       !- Zone Cooling Design Supply Air Temperature
    ,                         !- Zone Cooling Design Supply Air Temperature Difference
    SupplyAirTemperature,     !- Zone Heating Design Supply Air Temperature Input Method
    50,                       !- Zone Heating Design Supply Air Temperature
    ,                         !- Zone Heating Design Supply Air Temperature Difference
    0.008,                    !- Zone Cooling Design Supply Air Humidity Ratio
    0.008,                    !- Zone Heating Design Supply Air Humidity Ratio
    ,                         !- Design Specification Outdoor Air Object Name
    ,                         !- Zone Heating Sizing Factor
    ,                         !- Zone Cooling Sizing Factor
    DesignDay,                !- Cooling Design Air Flow Method
    0,                        !- Cooling Design Air Flow Rate
    0.000762,                 !- Cooling Minimum Air Flow per Zone Floor Area
    0,                        !- Cooling Minimum Air Flow
    0.2,                      !- Cooling Minimum Air Flow Fraction
    DesignDay,                !- Heating Design Air Flow Method
    0,                        !- Heating Design Air Flow Rate
    0.002032,                 !- Heating Maximum Air Flow per Zone Floor Area
    0.1415762,                !- Heating Maximum Air Flow
    0.3,                      !- Heating Maximum Air Flow Fraction
    ,                         !- Design Specification Zone Air Distribution Object Name
    No,                       !- Account for Dedicated Outdoor Air System
    NeutralSupplyAir,         !- Dedicated Outdoor Air System Control Strategy
    autosize,                 !- Dedicated Outdoor Air Low Setpoint Temperature for Design
    autosize,                 !- Dedicated Outdoor Air High Setpoint Temperature for Design
    Sensible Load Only No Latent Load,    !- Zone Load Sizing Method
    HumidityRatioDifference,    !- Zone Latent Cooling Design Supply Air Humidity Ratio Input Method
    ,                         !- Zone Dehumidification Design Supply Air Humidity Ratio
    0.005,                    !- Zone Cooling Design Supply Air Humidity Ratio Difference
    HumidityRatioDifference,    !- Zone Latent Heating Design Supply Air Humidity Ratio Input Method
    ,                         !- Zone Humidification Design Supply Air Humidity Ratio
    0.005;                    !- Zone Humidification Design Supply Air Humidity Ratio Difference

OUTPUT:VARIABLE,
    *,                        !- Key Value
    Zone Ideal Loads Zone Total Heating Energy,    !- Variable Name
    Hourly;                   !- Reporting Frequency

OUTPUT:SQLITE,
    SimpleAndTabular,         !- Option Type
    UseOutputControlTableStyle;    !- Unit Conversion for Tabular Data