!- Windows Line endings 

Version,
    23.1;                     !- Version Identifier

SimulationControl,
    Yes,                      !- Do Zone Sizing Calculation
    Yes,                      !- Do System Sizing Calculation
    Yes,                      !- Do Plant Sizing Calculation
    No,                       !- Run Simulation for Sizing Periods
    Yes,                      !- Run Simulation for Weather File Run Periods
    No,                       !- Do HVAC Sizing Simulation for Sizing Periods
    1;                        !- Maximum Number of HVAC Sizing Simulation Passes

Building,
    EU S2 Campaign,           !- Name
    0,                        !- North Axis
    City,                     !- Terrain
    ,                         !- Loads Convergence Tolerance Value
    ,                         !- Temperature Convergence Tolerance Value
    FullExterior,             !- Solar Distribution
    ,                         !- Maximum Number of Warmup Days
    ;                         !- Minimum Number of Warmup Days

ShadowCalculation,
    PolygonClipping,          !- Shading Calculation Method
    Periodic,                 !- Shading Calculation Update Frequency Method
    1;                        !- Shading Calculation Update Frequency

HeatBalanceAlgorithm,
    ConductionTransferFunction,    !- Algorithm
    200,                      !- Surface Temperature Upper Limit
    0.1,                      !- Minimum Surface Convection Heat Transfer Coefficient Value
    10000000;                 !- Maximum Surface Convection Heat Transfer Coefficient Value

Timestep,
    12;                       !- Number of Timesteps per Hour

Site:Location,
    Madrid,                   !- Name
    40.5,                     !- Latitude
    -3.5,                     !- Longitude
    1,                        !- Time Zone
    609;                      !- Elevation

SizingPeriod:WeatherFileDays,
    AnnualSizingPeriod,       !- Name
    1,                        !- Begin Month
    1,                        !- Begin Day of Month
    12,                       !- End Month
    31,                       !- End Day of Month
    Monday,                   !- Day of Week for Start Day
    No,                       !- Use Weather File Daylight Saving Period
    No;                       !- Use Weather File Rain and Snow Indicators

RunPeriod,
    RunPeriod1,               !- Name
    1,                        !- Begin Month
    1,                        !- Begin Day of Month
    ,                         !- Begin Year
    12,                       !- End Month
    31,                       !- End Day of Month
    ,                         !- End Year
    Sunday,                   !- Day of Week for Start Day
    No,                       !- Use Weather File Holidays and Special Days
    No,                       !- Use Weather File Daylight Saving Period
    No,                       !- Apply Weekend Holiday Rule
    Yes,                      !- Use Weather File Rain Indicators
    Yes;                      !- Use Weather File Snow Indicators

ScheduleTypeLimits,
    Any Number;               !- Name

SCHEDULETYPELIMITS,
    EU_Step8_AnyNumber_Wm2,    !- Name
    ,                         !- Lower Limit Value
    ,                         !- Upper Limit Value
    Continuous,               !- Numeric Type
    Dimensionless;            !- Unit Type

SCHEDULE:CONSTANT,
    EU_AlwaysOn,              !- Name
    ,                         !- Schedule Type Limits Name
    1;                        !- Hourly Value

SCHEDULE:CONSTANT,
    EU_CoolingOff,            !- Name
    ,                         !- Schedule Type Limits Name
    0;                        !- Hourly Value

SCHEDULE:FILE,
    EU_Step8_GainSchedule_55bfe984d2402a9b_F0_dwelling_0_f000,    !- Name
    EU_Step8_AnyNumber_Wm2,    !- Schedule Type Limits Name
    ../../schedules/55bfe984d2402a9b/55bfe984d2402a9b_F0_dwelling_0_f000_gain.csv,    !- File Name
    1,                        !- Column Number
    0,                        !- Rows to Skip at Top
    8760,                     !- Number of Hours of Data
    Comma,                    !- Column Separator
    No,                       !- Interpolate to Timestep
    60,                       !- Minutes per Item
    Yes;                      !- Adjust Schedule for Daylight Savings

SCHEDULE:FILE,
    EU_Step8_GainSchedule_55bfe984d2402a9b_F0_dwelling_1_f000,    !- Name
    EU_Step8_AnyNumber_Wm2,    !- Schedule Type Limits Name
    ../../schedules/55bfe984d2402a9b/55bfe984d2402a9b_F0_dwelling_1_f000_gain.csv,    !- File Name
    1,                        !- Column Number
    0,                        !- Rows to Skip at Top
    8760,                     !- Number of Hours of Data
    Comma,                    !- Column Separator
    No,                       !- Interpolate to Timestep
    60,                       !- Minutes per Item
    Yes;                      !- Adjust Schedule for Daylight Savings

SCHEDULE:FILE,
    EU_Step8_GainSchedule_55bfe984d2402a9b_F1_dwelling_0_f000,    !- Name
    EU_Step8_AnyNumber_Wm2,    !- Schedule Type Limits Name
    ../../schedules/55bfe984d2402a9b/55bfe984d2402a9b_F1_dwelling_0_f000_gain.csv,    !- File Name
    1,                        !- Column Number
    0,                        !- Rows to Skip at Top
    8760,                     !- Number of Hours of Data
    Comma,                    !- Column Separator
    No,                       !- Interpolate to Timestep
    60,                       !- Minutes per Item
    Yes;                      !- Adjust Schedule for Daylight Savings

SCHEDULE:FILE,
    EU_Step8_GainSchedule_55bfe984d2402a9b_F2_dwelling_0_f000,    !- Name
    EU_Step8_AnyNumber_Wm2,    !- Schedule Type Limits Name
    ../../schedules/55bfe984d2402a9b/55bfe984d2402a9b_F2_dwelling_0_f000_gain.csv,    !- File Name
    1,                        !- Column Number
    0,                        !- Rows to Skip at Top
    8760,                     !- Number of Hours of Data
    Comma,                    !- Column Separator
    No,                       !- Interpolate to Timestep
    60,                       !- Minutes per Item
    Yes;                      !- Adjust Schedule for Daylight Savings

MATERIAL,
    EU_InternalMass_Material,    !- Name
    MediumRough,              !- Roughness
    0.1,                      !- Thickness
    1,                        !- Conductivity
    1800,                     !- Density
    900,                      !- Specific Heat
    0.9,                      !- Thermal Absorptance
    0.7,                      !- Solar Absorptance
    0.7;                      !- Visible Absorptance

MATERIAL:NOMASS,
    EU_wall_NoMass,           !- Name
    MediumRough,              !- Roughness
    4.596726e-01,             !- Thermal Resistance
    0.9,                      !- Thermal Absorptance
    0.7,                      !- Solar Absorptance
    0.7;                      !- Visible Absorptance

MATERIAL:NOMASS,
    EU_roof_NoMass,           !- Name
    MediumRough,              !- Roughness
    4.958147e-01,             !- Thermal Resistance
    0.9,                      !- Thermal Absorptance
    0.7,                      !- Solar Absorptance
    0.7;                      !- Visible Absorptance

MATERIAL:NOMASS,
    EU_floor_NoMass,          !- Name
    MediumRough,              !- Roughness
    0.7889415933683683,       !- Thermal Resistance
    0.9,                      !- Thermal Absorptance
    0.7,                      !- Solar Absorptance
    0.7;                      !- Visible Absorptance

CONSTRUCTION,
    EU_wall_Construction,     !- Name
    EU_wall_NoMass;           !- Outside Layer

CONSTRUCTION,
    EU_roof_Construction,     !- Name
    EU_roof_NoMass;           !- Outside Layer

CONSTRUCTION,
    EU_floor_Construction,    !- Name
    EU_floor_NoMass;          !- Outside Layer

CONSTRUCTION,
    EU_InternalMass_Construction,    !- Name
    EU_InternalMass_Material;    !- Outside Layer

GlobalGeometryRules,
    UpperLeftCorner,          !- Starting Vertex Position
    CounterClockWise,         !- Vertex Entry Direction
    World;                    !- Coordinate System

ZONE,
    55bfe984d2402a9b_F0_dwelling_0,    !- Name
    0,                        !- Direction of Relative North
    0,                        !- X Origin
    0,                        !- Y Origin
    0,                        !- Z Origin
    1,                        !- Type
    1,                        !- Multiplier
    autocalculate,            !- Ceiling Height
    231.984375,               !- Volume
    autocalculate,            !- Floor Area
    ,                         !- Zone Inside Convection Algorithm
    ,                         !- Zone Outside Convection Algorithm
    Yes;                      !- Part of Total Floor Area

ZONE,
    55bfe984d2402a9b_F1_dwelling_0,    !- Name
    0,                        !- Direction of Relative North
    0,                        !- X Origin
    0,                        !- Y Origin
    0,                        !- Z Origin
    1,                        !- Type
    1,                        !- Multiplier
    autocalculate,            !- Ceiling Height
    193.6746826171875,        !- Volume
    autocalculate,            !- Floor Area
    ,                         !- Zone Inside Convection Algorithm
    ,                         !- Zone Outside Convection Algorithm
    Yes;                      !- Part of Total Floor Area

ZONE,
    55bfe984d2402a9b_F2_dwelling_0,    !- Name
    0,                        !- Direction of Relative North
    0,                        !- X Origin
    0,                        !- Y Origin
    0,                        !- Z Origin
    1,                        !- Type
    1,                        !- Multiplier
    autocalculate,            !- Ceiling Height
    193.675048828125,         !- Volume
    autocalculate,            !- Floor Area
    ,                         !- Zone Inside Convection Algorithm
    ,                         !- Zone Outside Convection Algorithm
    Yes;                      !- Part of Total Floor Area

ZONE,
    55bfe984d2402a9b_F0_dwelling_1,    !- Name
    0,                        !- Direction of Relative North
    0,                        !- X Origin
    0,                        !- Y Origin
    0,                        !- Z Origin
    1,                        !- Type
    1,                        !- Multiplier
    autocalculate,            !- Ceiling Height
    231.984375,               !- Volume
    autocalculate,            !- Floor Area
    ,                         !- Zone Inside Convection Algorithm
    ,                         !- Zone Outside Convection Algorithm
    Yes;                      !- Part of Total Floor Area

ZONE,
    55bfe984d2402a9b_F0_circulation,    !- Name
    0,                        !- Direction of Relative North
    0,                        !- X Origin
    0,                        !- Y Origin
    0,                        !- Z Origin
    1,                        !- Type
    1,                        !- Multiplier
    autocalculate,            !- Ceiling Height
    425.659423828125,         !- Volume
    autocalculate,            !- Floor Area
    ,                         !- Zone Inside Convection Algorithm
    ,                         !- Zone Outside Convection Algorithm
    Yes;                      !- Part of Total Floor Area

BUILDINGSURFACE:DETAILED,
    Block 55bfe984d2402a9b_0 Storey 0 Wall 0001,    !- Name
    wall,                     !- Surface Type
    EU_wall_Construction,     !- Construction Name
    55bfe984d2402a9b_F0_dwelling_0,    !- Zone Name
    ,                         !- Space Name
    Adiabatic,                !- Outside Boundary Condition
    ,                         !- Outside Boundary Condition Object
    NoSun,                    !- Sun Exposure
    NoWind,                   !- Wind Exposure
    autocalculate,            !- View Factor to Ground
    autocalculate,            !- Number of Vertices
    439937.9844396472,        !- Vertex 1 Xcoordinate
    4479020.126504461,        !- Vertex 1 Ycoordinate
    3,                        !- Vertex 1 Zcoordinate
    439937.9844396472,        !- Vertex 2 Xcoordinate
    4479020.126504461,        !- Vertex 2 Ycoordinate
    0,                        !- Vertex 2 Zcoordinate
    439936.747627196,         !- Vertex 3 Xcoordinate
    4479028.246940042,        !- Vertex 3 Ycoordinate
    0,                        !- Vertex 3 Zcoordinate
    439936.747627196,         !- Vertex 4 Xcoordinate
    4479028.246940042,        !- Vertex 4 Ycoordinate
    3;                        !- Vertex 4 Zcoordinate

BUILDINGSURFACE:DETAILED,
    Block 55bfe984d2402a9b_0 Storey 0 Wall 0002,    !- Name
    wall,                     !- Surface Type
    EU_wall_Construction,     !- Construction Name
    55bfe984d2402a9b_F0_dwelling_0,    !- Zone Name
    ,                         !- Space Name
    outdoors,                 !- Outside Boundary Condition
    ,                         !- Outside Boundary Condition Object
    SunExposed,               !- Sun Exposure
    WindExposed,              !- Wind Exposure
    autocalculate,            !- View Factor to Ground
    autocalculate,            !- Number of Vertices
    439936.747627196,         !- Vertex 1 Xcoordinate
    4479028.246940042,        !- Vertex 1 Ycoordinate
    3,                        !- Vertex 1 Zcoordinate
    439936.747627196,         !- Vertex 2 Xcoordinate
    4479028.246940042,        !- Vertex 2 Ycoordinate
    0,                        !- Vertex 2 Zcoordinate
    439928.20920233784,       !- Vertex 3 Xcoordinate
    4479026.946092816,        !- Vertex 3 Ycoordinate
    0,                        !- Vertex 3 Zcoordinate
    439928.20920233784,       !- Vertex 4 Xcoordinate
    4479026.946092816,        !- Vertex 4 Ycoordinate
    3;                        !- Vertex 4 Zcoordinate

BUILDINGSURFACE:DETAILED,
    Block 55bfe984d2402a9b_0 Storey 0 Wall 0004,    !- Name
    wall,                     !- Surface Type
    EU_wall_Construction,     !- Construction Name
    55bfe984d2402a9b_F0_dwelling_0,    !- Zone Name
    ,                         !- Space Name
    outdoors,                 !- Outside Boundary Condition
    ,                         !- Outside Boundary Condition Object
    SunExposed,               !- Sun Exposure
    WindExposed,              !- Wind Exposure
    autocalculate,            !- View Factor to Ground
    autocalculate,            !- Number of Vertices
    439928.6422066548,        !- Vertex 1 Xcoordinate
    4479024.103947474,        !- Vertex 1 Ycoordinate
    3,                        !- Vertex 1 Zcoordinate
    439928.6422066548,        !- Vertex 2 Xcoordinate
    4479024.103947474,        !- Vertex 2 Ycoordinate
    0,                        !- Vertex 2 Zcoordinate
    439931.20370671595,       !- Vertex 3 Xcoordinate
    4479024.494195139,        !- Vertex 3 Ycoordinate
    0,                        !- Vertex 3 Zcoordinate
    439931.20370671595,       !- Vertex 4 Xcoordinate
    4479024.494195139,        !- Vertex 4 Ycoordinate
    3;                        !- Vertex 4 Zcoordinate

BUILDINGSURFACE:DETAILED,
    Block 55bfe984d2402a9b_0 Storey 0 Wall 0006,    !- Name
    wall,                     !- Surface Type
    EU_wall_Construction,     !- Construction Name
    55bfe984d2402a9b_F0_dwelling_0,    !- Zone Name
    ,                         !- Space Name
    outdoors,                 !- Outside Boundary Condition
    ,                         !- Outside Boundary Condition Object
    SunExposed,               !- Sun Exposure
    WindExposed,              !- Wind Exposure
    autocalculate,            !- View Factor to Ground
    autocalculate,            !- Number of Vertices
    439931.5748485222,        !- Vertex 1 Xcoordinate
    4479022.058101745,        !- Vertex 1 Ycoordinate
    3,                        !- Vertex 1 Zcoordinate
    439931.5748485222,        !- Vertex 2 Xcoordinate
    4479022.058101745,        !- Vertex 2 Ycoordinate
    0,                        !- Vertex 2 Zcoordinate
    439929.01334846107,       !- Vertex 3 Xcoordinate
    4479021.66785408,         !- Vertex 3 Ycoordinate
    0,                        !- Vertex 3 Zcoordinate
    439929.01334846107,       !- Vertex 4 Xcoordinate
    4479021.66785408,         !- Vertex 4 Ycoordinate
    3;                        !- Vertex 4 Zcoordinate

BUILDINGSURFACE:DETAILED,
    Block 55bfe984d2402a9b_0 Storey 0 Wall 0008,    !- Name
    wall,                     !- Surface Type
    EU_wall_Construction,     !- Construction Name
    55bfe984d2402a9b_F0_dwelling_0,    !- Zone Name
    ,                         !- Space Name
    outdoors,                 !- Outside Boundary Condition
    ,                         !- Outside Boundary Condition Object
    SunExposed,               !- Sun Exposure
    WindExposed,              !- Wind Exposure
    autocalculate,            !- View Factor to Ground
    autocalculate,            !- Number of Vertices
    439929.446352779,         !- Vertex 1 Xcoordinate
    4479018.825708731,        !- Vertex 1 Ycoordinate
    3,                        !- Vertex 1 Zcoordinate
    439929.446352779,         !- Vertex 2 Xcoordinate
    4479018.825708731,        !- Vertex 2 Ycoordinate
    0,                        !- Vertex 2 Zcoordinate
    439937.9844396472,        !- Vertex 3 Xcoordinate
    4479020.126504461,        !- Vertex 3 Ycoordinate
    0,                        !- Vertex 3 Zcoordinate
    439937.9844396472,        !- Vertex 4 Xcoordinate
    4479020.126504461,        !- Vertex 4 Ycoordinate
    3;                        !- Vertex 4 Zcoordinate

BUILDINGSURFACE:DETAILED,
    Block 55bfe984d2402a9b_0 Storey 1 Wall 0001,    !- Name
    wall,                     !- Surface Type
    EU_wall_Construction,     !- Construction Name
    55bfe984d2402a9b_F1_dwelling_0,    !- Zone Name
    ,                         !- Space Name
    Adiabatic,                !- Outside Boundary Condition
    ,                         !- Outside Boundary Condition Object
    NoSun,                    !- Sun Exposure
    NoWind,                   !- Wind Exposure
    autocalculate,            !- View Factor to Ground
    autocalculate,            !- Number of Vertices
    439937.9844396472,        !- Vertex 1 Xcoordinate
    4479020.126504461,        !- Vertex 1 Ycoordinate
    6,                        !- Vertex 1 Zcoordinate
    439937.9844396472,        !- Vertex 2 Xcoordinate
    4479020.126504461,        !- Vertex 2 Ycoordinate
    3,                        !- Vertex 2 Zcoordinate
    439936.747627196,         !- Vertex 3 Xcoordinate
    4479028.246940042,        !- Vertex 3 Ycoordinate
    3,                        !- Vertex 3 Zcoordinate
    439936.747627196,         !- Vertex 4 Xcoordinate
    4479028.246940042,        !- Vertex 4 Ycoordinate
    6;                        !- Vertex 4 Zcoordinate

BUILDINGSURFACE:DETAILED,
    Block 55bfe984d2402a9b_0 Storey 1 Wall 0002,    !- Name
    wall,                     !- Surface Type
    EU_wall_Construction,     !- Construction Name
    55bfe984d2402a9b_F1_dwelling_0,    !- Zone Name
    ,                         !- Space Name
    outdoors,                 !- Outside Boundary Condition
    ,                         !- Outside Boundary Condition Object
    SunExposed,               !- Sun Exposure
    WindExposed,              !- Wind Exposure
    autocalculate,            !- View Factor to Ground
    autocalculate,            !- Number of Vertices
    439936.747627196,         !- Vertex 1 Xcoordinate
    4479028.246940042,        !- Vertex 1 Ycoordinate
    6,                        !- Vertex 1 Zcoordinate
    439936.747627196,         !- Vertex 2 Xcoordinate
    4479028.246940042,        !- Vertex 2 Ycoordinate
    3,                        !- Vertex 2 Zcoordinate
    439928.20920233784,       !- Vertex 3 Xcoordinate
    4479026.946092816,        !- Vertex 3 Ycoordinate
    3,                        !- Vertex 3 Zcoordinate
    439928.20920233784,       !- Vertex 4 Xcoordinate
    4479026.946092816,        !- Vertex 4 Ycoordinate
    6;                        !- Vertex 4 Zcoordinate

BUILDINGSURFACE:DETAILED,
    Block 55bfe984d2402a9b_0 Storey 1 Wall 0003,    !- Name
    wall,                     !- Surface Type
    EU_wall_Construction,     !- Construction Name
    55bfe984d2402a9b_F1_dwelling_0,    !- Zone Name
    ,                         !- Space Name
    outdoors,                 !- Outside Boundary Condition
    ,                         !- Outside Boundary Condition Object
    SunExposed,               !- Sun Exposure
    WindExposed,              !- Wind Exposure
    autocalculate,            !- View Factor to Ground
    autocalculate,            !- Number of Vertices
    439928.20920233784,       !- Vertex 1 Xcoordinate
    4479026.946092816,        !- Vertex 1 Ycoordinate
    6,                        !- Vertex 1 Zcoordinate
    439928.20920233784,       !- Vertex 2 Xcoordinate
    4479026.946092816,        !- Vertex 2 Ycoordinate
    3,                        !- Vertex 2 Zcoordinate
    439928.6422066548,        !- Vertex 3 Xcoordinate
    4479024.103947474,        !- Vertex 3 Ycoordinate
    3,                        !- Vertex 3 Zcoordinate
    439928.6422066548,        !- Vertex 4 Xcoordinate
    4479024.103947474,        !- Vertex 4 Ycoordinate
    6;                        !- Vertex 4 Zcoordinate

BUILDINGSURFACE:DETAILED,
    Block 55bfe984d2402a9b_0 Storey 1 Wall 0004,    !- Name
    wall,                     !- Surface Type
    EU_wall_Construction,     !- Construction Name
    55bfe984d2402a9b_F1_dwelling_0,    !- Zone Name
    ,                         !- Space Name
    outdoors,                 !- Outside Boundary Condition
    ,                         !- Outside Boundary Condition Object
    SunExposed,               !- Sun Exposure
    WindExposed,              !- Wind Exposure
    autocalculate,            !- View Factor to Ground
    autocalculate,            !- Number of Vertices
    439928.6422066548,        !- Vertex 1 Xcoordinate
    4479024.103947474,        !- Vertex 1 Ycoordinate
    6,                        !- Vertex 1 Zcoordinate
    439928.6422066548,        !- Vertex 2 Xcoordinate
    4479024.103947474,        !- Vertex 2 Ycoordinate
    3,                        !- Vertex 2 Zcoordinate
    439931.20370671595,       !- Vertex 3 Xcoordinate
    4479024.494195139,        !- Vertex 3 Ycoordinate
    3,                        !- Vertex 3 Zcoordinate
    439931.20370671595,       !- Vertex 4 Xcoordinate
    4479024.494195139,        !- Vertex 4 Ycoordinate
    6;                        !- Vertex 4 Zcoordinate

BUILDINGSURFACE:DETAILED,
    Block 55bfe984d2402a9b_0 Storey 1 Wall 0005,    !- Name
    wall,                     !- Surface Type
    EU_wall_Construction,     !- Construction Name
    55bfe984d2402a9b_F1_dwelling_0,    !- Zone Name
    ,                         !- Space Name
    outdoors,                 !- Outside Boundary Condition
    ,                         !- Outside Boundary Condition Object
    SunExposed,               !- Sun Exposure
    WindExposed,              !- Wind Exposure
    autocalculate,            !- View Factor to Ground
    autocalculate,            !- Number of Vertices
    439931.20370671595,       !- Vertex 1 Xcoordinate
    4479024.494195139,        !- Vertex 1 Ycoordinate
    6,                        !- Vertex 1 Zcoordinate
    439931.20370671595,       !- Vertex 2 Xcoordinate
    4479024.494195139,        !- Vertex 2 Ycoordinate
    3,                        !- Vertex 2 Zcoordinate
    439931.5748485222,        !- Vertex 3 Xcoordinate
    4479022.058101745,        !- Vertex 3 Ycoordinate
    3,                        !- Vertex 3 Zcoordinate
    439931.5748485222,        !- Vertex 4 Xcoordinate
    4479022.058101745,        !- Vertex 4 Ycoordinate
    6;                        !- Vertex 4 Zcoordinate

BUILDINGSURFACE:DETAILED,
    Block 55bfe984d2402a9b_0 Storey 1 Wall 0006,    !- Name
    wall,                     !- Surface Type
    EU_wall_Construction,     !- Construction Name
    55bfe984d2402a9b_F1_dwelling_0,    !- Zone Name
    ,                         !- Space Name
    outdoors,                 !- Outside Boundary Condition
    ,                         !- Outside Boundary Condition Object
    SunExposed,               !- Sun Exposure
    WindExposed,              !- Wind Exposure
    autocalculate,            !- View Factor to Ground
    autocalculate,            !- Number of Vertices
    439931.5748485222,        !- Vertex 1 Xcoordinate
    4479022.058101745,        !- Vertex 1 Ycoordinate
    6,                        !- Vertex 1 Zcoordinate
    439931.5748485222,        !- Vertex 2 Xcoordinate
    4479022.058101745,        !- Vertex 2 Ycoordinate
    3,                        !- Vertex 2 Zcoordinate
    439929.01334846107,       !- Vertex 3 Xcoordinate
    4479021.66785408,         !- Vertex 3 Ycoordinate
    3,                        !- Vertex 3 Zcoordinate
    439929.01334846107,       !- Vertex 4 Xcoordinate
    4479021.66785408,         !- Vertex 4 Ycoordinate
    6;                        !- Vertex 4 Zcoordinate

BUILDINGSURFACE:DETAILED,
    Block 55bfe984d2402a9b_0 Storey 1 Wall 0007,    !- Name
    wall,                     !- Surface Type
    EU_wall_Construction,     !- Construction Name
    55bfe984d2402a9b_F1_dwelling_0,    !- Zone Name
    ,                         !- Space Name
    outdoors,                 !- Outside Boundary Condition
    ,                         !- Outside Boundary Condition Object
    SunExposed,               !- Sun Exposure
    WindExposed,              !- Wind Exposure
    autocalculate,            !- View Factor to Ground
    autocalculate,            !- Number of Vertices
    439929.01334846107,       !- Vertex 1 Xcoordinate
    4479021.66785408,         !- Vertex 1 Ycoordinate
    6,                        !- Vertex 1 Zcoordinate
    439929.01334846107,       !- Vertex 2 Xcoordinate
    4479021.66785408,         !- Vertex 2 Ycoordinate
    3,                        !- Vertex 2 Zcoordinate
    439929.446352779,         !- Vertex 3 Xcoordinate
    4479018.825708731,        !- Vertex 3 Ycoordinate
    3,                        !- Vertex 3 Zcoordinate
    439929.446352779,         !- Vertex 4 Xcoordinate
    4479018.825708731,        !- Vertex 4 Ycoordinate
    6;                        !- Vertex 4 Zcoordinate

BUILDINGSURFACE:DETAILED,
    Block 55bfe984d2402a9b_0 Storey 1 Wall 0008,    !- Name
    wall,                     !- Surface Type
    EU_wall_Construction,     !- Construction Name
    55bfe984d2402a9b_F1_dwelling_0,    !- Zone Name
    ,                         !- Space Name
    outdoors,                 !- Outside Boundary Condition
    ,                         !- Outside Boundary Condition Object
    SunExposed,               !- Sun Exposure
    WindExposed,              !- Wind Exposure
    autocalculate,            !- View Factor to Ground
    autocalculate,            !- Number of Vertices
    439929.446352779,         !- Vertex 1 Xcoordinate
    4479018.825708731,        !- Vertex 1 Ycoordinate
    6,                        !- Vertex 1 Zcoordinate
    439929.446352779,         !- Vertex 2 Xcoordinate
    4479018.825708731,        !- Vertex 2 Ycoordinate
    3,                        !- Vertex 2 Zcoordinate
    439937.9844396472,        !- Vertex 3 Xcoordinate
    4479020.126504461,        !- Vertex 3 Ycoordinate
    3,                        !- Vertex 3 Zcoordinate
    439937.9844396472,        !- Vertex 4 Xcoordinate
    4479020.126504461,        !- Vertex 4 Ycoordinate
    6;                        !- Vertex 4 Zcoordinate

BUILDINGSURFACE:DETAILED,
    Block 55bfe984d2402a9b_0 Storey 2 Wall 0001,    !- Name
    wall,                     !- Surface Type
    EU_wall_Construction,     !- Construction Name
    55bfe984d2402a9b_F2_dwelling_0,    !- Zone Name
    ,                         !- Space Name
    Adiabatic,                !- Outside Boundary Condition
    ,                         !- Outside Boundary Condition Object
    NoSun,                    !- Sun Exposure
    NoWind,                   !- Wind Exposure
    autocalculate,            !- View Factor to Ground
    autocalculate,            !- Number of Vertices
    439937.9844396472,        !- Vertex 1 Xcoordinate
    4479020.126504461,        !- Vertex 1 Ycoordinate
    9,                        !- Vertex 1 Zcoordinate
    439937.9844396472,        !- Vertex 2 Xcoordinate
    4479020.126504461,        !- Vertex 2 Ycoordinate
    6,                        !- Vertex 2 Zcoordinate
    439936.747627196,         !- Vertex 3 Xcoordinate
    4479028.246940042,        !- Vertex 3 Ycoordinate
    6,                        !- Vertex 3 Zcoordinate
    439936.747627196,         !- Vertex 4 Xcoordinate
    4479028.246940042,        !- Vertex 4 Ycoordinate
    9;                        !- Vertex 4 Zcoordinate

BUILDINGSURFACE:DETAILED,
    Block 55bfe984d2402a9b_0 Storey 2 Wall 0002,    !- Name
    wall,                     !- Surface Type
    EU_wall_Construction,     !- Construction Name
    55bfe984d2402a9b_F2_dwelling_0,    !- Zone Name
    ,                         !- Space Name
    outdoors,                 !- Outside Boundary Condition
    ,                         !- Outside Boundary Condition Object
    SunExposed,               !- Sun Exposure
    WindExposed,              !- Wind Exposure
    autocalculate,            !- View Factor to Ground
    autocalculate,            !- Number of Vertices
    439936.747627196,         !- Vertex 1 Xcoordinate
    4479028.246940042,        !- Vertex 1 Ycoordinate
    9,                        !- Vertex 1 Zcoordinate
    439936.747627196,         !- Vertex 2 Xcoordinate
    4479028.246940042,        !- Vertex 2 Ycoordinate
    6,                        !- Vertex 2 Zcoordinate
    439928.20920233784,       !- Vertex 3 Xcoordinate
    4479026.946092816,        !- Vertex 3 Ycoordinate
    6,                        !- Vertex 3 Zcoordinate
    439928.20920233784,       !- Vertex 4 Xcoordinate
    4479026.946092816,        !- Vertex 4 Ycoordinate
    9;                        !- Vertex 4 Zcoordinate

BUILDINGSURFACE:DETAILED,
    Block 55bfe984d2402a9b_0 Storey 2 Wall 0003,    !- Name
    wall,                     !- Surface Type
    EU_wall_Construction,     !- Construction Name
    55bfe984d2402a9b_F2_dwelling_0,    !- Zone Name
    ,                         !- Space Name
    outdoors,                 !- Outside Boundary Condition
    ,                         !- Outside Boundary Condition Object
    SunExposed,               !- Sun Exposure
    WindExposed,              !- Wind Exposure
    autocalculate,            !- View Factor to Ground
    autocalculate,            !- Number of Vertices
    439928.20920233784,       !- Vertex 1 Xcoordinate
    4479026.946092816,        !- Vertex 1 Ycoordinate
    9,                        !- Vertex 1 Zcoordinate
    439928.20920233784,       !- Vertex 2 Xcoordinate
    4479026.946092816,        !- Vertex 2 Ycoordinate
    6,                        !- Vertex 2 Zcoordinate
    439928.6422066548,        !- Vertex 3 Xcoordinate
    4479024.103947474,        !- Vertex 3 Ycoordinate
    6,                        !- Vertex 3 Zcoordinate
    439928.6422066548,        !- Vertex 4 Xcoordinate
    4479024.103947474,        !- Vertex 4 Ycoordinate
    9;                        !- Vertex 4 Zcoordinate

BUILDINGSURFACE:DETAILED,
    Block 55bfe984d2402a9b_0 Storey 2 Wall 0004,    !- Name
    wall,                     !- Surface Type
    EU_wall_Construction,     !- Construction Name
    55bfe984d2402a9b_F2_dwelling_0,    !- Zone Name
    ,                         !- Space Name
    outdoors,                 !- Outside Boundary Condition
    ,                         !- Outside Boundary Condition Object
    SunExposed,               !- Sun Exposure
    WindExposed,              !- Wind Exposure
    autocalculate,            !- View Factor to Ground
    autocalculate,            !- Number of Vertices
    439928.6422066548,        !- Vertex 1 Xcoordinate
    4479024.103947474,        !- Vertex 1 Ycoordinate
    9,                        !- Vertex 1 Zcoordinate
    439928.6422066548,        !- Vertex 2 Xcoordinate
    4479024.103947474,        !- Vertex 2 Ycoordinate
    6,                        !- Vertex 2 Zcoordinate
    439931.20370671595,       !- Vertex 3 Xcoordinate
    4479024.494195139,        !- Vertex 3 Ycoordinate
    6,                        !- Vertex 3 Zcoordinate
    439931.20370671595,       !- Vertex 4 Xcoordinate
    4479024.494195139,        !- Vertex 4 Ycoordinate
    9;                        !- Vertex 4 Zcoordinate

BUILDINGSURFACE:DETAILED,
    Block 55bfe984d2402a9b_0 Storey 2 Wall 0005,    !- Name
    wall,                     !- Surface Type
    EU_wall_Construction,     !- Construction Name
    55bfe984d2402a9b_F2_dwelling_0,    !- Zone Name
    ,                         !- Space Name
    outdoors,                 !- Outside Boundary Condition
    ,                         !- Outside Boundary Condition Object
    SunExposed,               !- Sun Exposure
    WindExposed,              !- Wind Exposure
    autocalculate,            !- View Factor to Ground
    autocalculate,            !- Number of Vertices
    439931.20370671595,       !- Vertex 1 Xcoordinate
    4479024.494195139,        !- Vertex 1 Ycoordinate
    9,                        !- Vertex 1 Zcoordinate
    439931.20370671595,       !- Vertex 2 Xcoordinate
    4479024.494195139,        !- Vertex 2 Ycoordinate
    6,                        !- Vertex 2 Zcoordinate
    439931.5748485222,        !- Vertex 3 Xcoordinate
    4479022.058101745,        !- Vertex 3 Ycoordinate
    6,                        !- Vertex 3 Zcoordinate
    439931.5748485222,        !- Vertex 4 Xcoordinate
    4479022.058101745,        !- Vertex 4 Ycoordinate
    9;                        !- Vertex 4 Zcoordinate

BUILDINGSURFACE:DETAILED,
    Block 55bfe984d2402a9b_0 Storey 2 Wall 0006,    !- Name
    wall,                     !- Surface Type
    EU_wall_Construction,     !- Construction Name
    55bfe984d2402a9b_F2_dwelling_0,    !- Zone Name
    ,                         !- Space Name
    outdoors,                 !- Outside Boundary Condition
    ,                         !- Outside Boundary Condition Object
    SunExposed,               !- Sun Exposure
    WindExposed,              !- Wind Exposure
    autocalculate,            !- View Factor to Ground
    autocalculate,            !- Number of Vertices
    439931.5748485222,        !- Vertex 1 Xcoordinate
    4479022.058101745,        !- Vertex 1 Ycoordinate
    9,                        !- Vertex 1 Zcoordinate
    439931.5748485222,        !- Vertex 2 Xcoordinate
    4479022.058101745,        !- Vertex 2 Ycoordinate
    6,                        !- Vertex 2 Zcoordinate
    439929.01334846107,       !- Vertex 3 Xcoordinate
    4479021.66785408,         !- Vertex 3 Ycoordinate
    6,                        !- Vertex 3 Zcoordinate
    439929.01334846107,       !- Vertex 4 Xcoordinate
    4479021.66785408,         !- Vertex 4 Ycoordinate
    9;                        !- Vertex 4 Zcoordinate

BUILDINGSURFACE:DETAILED,
    Block 55bfe984d2402a9b_0 Storey 2 Wall 0007,    !- Name
    wall,                     !- Surface Type
    EU_wall_Construction,     !- Construction Name
    55bfe984d2402a9b_F2_dwelling_0,    !- Zone Name
    ,                         !- Space Name
    outdoors,                 !- Outside Boundary Condition
    ,                         !- Outside Boundary Condition Object
    SunExposed,               !- Sun Exposure
    WindExposed,              !- Wind Exposure
    autocalculate,            !- View Factor to Ground
    autocalculate,            !- Number of Vertices
    439929.01334846107,       !- Vertex 1 Xcoordinate
    4479021.66785408,         !- Vertex 1 Ycoordinate
    9,                        !- Vertex 1 Zcoordinate
    439929.01334846107,       !- Vertex 2 Xcoordinate
    4479021.66785408,         !- Vertex 2 Ycoordinate
    6,                        !- Vertex 2 Zcoordinate
    439929.446352779,         !- Vertex 3 Xcoordinate
    4479018.825708731,        !- Vertex 3 Ycoordinate
    6,                        !- Vertex 3 Zcoordinate
    439929.446352779,         !- Vertex 4 Xcoordinate
    4479018.825708731,        !- Vertex 4 Ycoordinate
    9;                        !- Vertex 4 Zcoordinate

BUILDINGSURFACE:DETAILED,
    Block 55bfe984d2402a9b_0 Storey 2 Wall 0008,    !- Name
    wall,                     !- Surface Type
    EU_wall_Construction,     !- Construction Name
    55bfe984d2402a9b_F2_dwelling_0,    !- Zone Name
    ,                         !- Space Name
    outdoors,                 !- Outside Boundary Condition
    ,                         !- Outside Boundary Condition Object
    SunExposed,               !- Sun Exposure
    WindExposed,              !- Wind Exposure
    autocalculate,            !- View Factor to Ground
    autocalculate,            !- Number of Vertices
    439929.446352779,         !- Vertex 1 Xcoordinate
    4479018.825708731,        !- Vertex 1 Ycoordinate
    9,                        !- Vertex 1 Zcoordinate
    439929.446352779,         !- Vertex 2 Xcoordinate
    4479018.825708731,        !- Vertex 2 Ycoordinate
    6,                        !- Vertex 2 Zcoordinate
    439937.9844396472,        !- Vertex 3 Xcoordinate
    4479020.126504461,        !- Vertex 3 Ycoordinate
    6,                        !- Vertex 3 Zcoordinate
    439937.9844396472,        !- Vertex 4 Xcoordinate
    4479020.126504461,        !- Vertex 4 Ycoordinate
    9;                        !- Vertex 4 Zcoordinate

BUILDINGSURFACE:DETAILED,
    Block 55bfe984d2402a9b_0 Storey 2 Roof 0001,    !- Name
    roof,                     !- Surface Type
    EU_roof_Construction,     !- Construction Name
    55bfe984d2402a9b_F2_dwelling_0,    !- Zone Name
    ,                         !- Space Name
    outdoors,                 !- Outside Boundary Condition
    ,                         !- Outside Boundary Condition Object
    SunExposed,               !- Sun Exposure
    WindExposed,              !- Wind Exposure
    autocalculate,            !- View Factor to Ground
    autocalculate,            !- Number of Vertices
    439937.9844396472,        !- Vertex 1 Xcoordinate
    4479020.126504461,        !- Vertex 1 Ycoordinate
    9,                        !- Vertex 1 Zcoordinate
    439936.747627196,         !- Vertex 2 Xcoordinate
    4479028.246940042,        !- Vertex 2 Ycoordinate
    9,                        !- Vertex 2 Zcoordinate
    439928.20920233784,       !- Vertex 3 Xcoordinate
    4479026.946092816,        !- Vertex 3 Ycoordinate
    9,                        !- Vertex 3 Zcoordinate
    439928.6422066548,        !- Vertex 4 Xcoordinate
    4479024.103947474,        !- Vertex 4 Ycoordinate
    9,                        !- Vertex 4 Zcoordinate
    439931.20370671595,       !- Vertex 5 Xcoordinate
    4479024.494195139,        !- Vertex 5 Ycoordinate
    9,                        !- Vertex 5 Zcoordinate
    439931.5748485222,        !- Vertex 6 Xcoordinate
    4479022.058101745,        !- Vertex 6 Ycoordinate
    9,                        !- Vertex 6 Zcoordinate
    439929.01334846107,       !- Vertex 7 Xcoordinate
    4479021.66785408,         !- Vertex 7 Ycoordinate
    9,                        !- Vertex 7 Zcoordinate
    439929.446352779,         !- Vertex 8 Xcoordinate
    4479018.825708731,        !- Vertex 8 Ycoordinate
    9;                        !- Vertex 8 Zcoordinate

BUILDINGSURFACE:DETAILED,
    Block 55bfe984d2402a9b_1 Storey 0 Wall 0001,    !- Name
    wall,                     !- Surface Type
    EU_wall_Construction,     !- Construction Name
    55bfe984d2402a9b_F0_dwelling_1,    !- Zone Name
    ,                         !- Space Name
    outdoors,                 !- Outside Boundary Condition
    ,                         !- Outside Boundary Condition Object
    SunExposed,               !- Sun Exposure
    WindExposed,              !- Wind Exposure
    autocalculate,            !- View Factor to Ground
    autocalculate,            !- Number of Vertices
    439920.9079279169,        !- Vertex 1 Xcoordinate
    4479017.524861508,        !- Vertex 1 Ycoordinate
    3,                        !- Vertex 1 Zcoordinate
    439920.9079279169,        !- Vertex 2 Xcoordinate
    4479017.524861508,        !- Vertex 2 Ycoordinate
    0,                        !- Vertex 2 Zcoordinate
    439929.446352779,         !- Vertex 3 Xcoordinate
    4479018.825708731,        !- Vertex 3 Ycoordinate
    0,                        !- Vertex 3 Zcoordinate
    439929.446352779,         !- Vertex 4 Xcoordinate
    4479018.825708731,        !- Vertex 4 Ycoordinate
    3;                        !- Vertex 4 Zcoordinate

BUILDINGSURFACE:DETAILED,
    Block 55bfe984d2402a9b_1 Storey 0 Wall 0003,    !- Name
    wall,                     !- Surface Type
    EU_wall_Construction,     !- Construction Name
    55bfe984d2402a9b_F0_dwelling_1,    !- Zone Name
    ,                         !- Space Name
    outdoors,                 !- Outside Boundary Condition
    ,                         !- Outside Boundary Condition Object
    SunExposed,               !- Sun Exposure
    WindExposed,              !- Wind Exposure
    autocalculate,            !- View Factor to Ground
    autocalculate,            !- Number of Vertices
    439929.01334846107,       !- Vertex 1 Xcoordinate
    4479021.66785408,         !- Vertex 1 Ycoordinate
    3,                        !- Vertex 1 Zcoordinate
    439929.01334846107,       !- Vertex 2 Xcoordinate
    4479021.66785408,         !- Vertex 2 Ycoordinate
    0,                        !- Vertex 2 Zcoordinate
    439926.4518483965,        !- Vertex 3 Xcoordinate
    4479021.277606415,        !- Vertex 3 Ycoordinate
    0,                        !- Vertex 3 Zcoordinate
    439926.4518483965,        !- Vertex 4 Xcoordinate
    4479021.277606415,        !- Vertex 4 Ycoordinate
    3;                        !- Vertex 4 Zcoordinate

BUILDINGSURFACE:DETAILED,
    Block 55bfe984d2402a9b_1 Storey 0 Wall 0004,    !- Name
    wall,                     !- Surface Type
    EU_wall_Construction,     !- Construction Name
    55bfe984d2402a9b_F0_dwelling_1,    !- Zone Name
    ,                         !- Space Name
    outdoors,                 !- Outside Boundary Condition
    ,                         !- Outside Boundary Condition Object
    SunExposed,               !- Sun Exposure
    WindExposed,              !- Wind Exposure
    autocalculate,            !- View Factor to Ground
    autocalculate,            !- Number of Vertices
    439926.4518483965,        !- Vertex 1 Xcoordinate
    4479021.277606415,        !- Vertex 1 Ycoordinate
    3,                        !- Vertex 1 Zcoordinate
    439926.4518483965,        !- Vertex 2 Xcoordinate
    4479021.277606415,        !- Vertex 2 Ycoordinate
    0,                        !- Vertex 2 Zcoordinate
    439926.08070659015,       !- Vertex 3 Xcoordinate
    4479023.713699809,        !- Vertex 3 Ycoordinate
    0,                        !- Vertex 3 Zcoordinate
    439926.08070659015,       !- Vertex 4 Xcoordinate
    4479023.713699809,        !- Vertex 4 Ycoordinate
    3;                        !- Vertex 4 Zcoordinate

BUILDINGSURFACE:DETAILED,
    Block 55bfe984d2402a9b_1 Storey 0 Wall 0005,    !- Name
    wall,                     !- Surface Type
    EU_wall_Construction,     !- Construction Name
    55bfe984d2402a9b_F0_dwelling_1,    !- Zone Name
    ,                         !- Space Name
    outdoors,                 !- Outside Boundary Condition
    ,                         !- Outside Boundary Condition Object
    SunExposed,               !- Sun Exposure
    WindExposed,              !- Wind Exposure
    autocalculate,            !- View Factor to Ground
    autocalculate,            !- Number of Vertices
    439926.08070659015,       !- Vertex 1 Xcoordinate
    4479023.713699809,        !- Vertex 1 Ycoordinate
    3,                        !- Vertex 1 Zcoordinate
    439926.08070659015,       !- Vertex 2 Xcoordinate
    4479023.713699809,        !- Vertex 2 Ycoordinate
    0,                        !- Vertex 2 Zcoordinate
    439928.6422066548,        !- Vertex 3 Xcoordinate
    4479024.103947474,        !- Vertex 3 Ycoordinate
    0,                        !- Vertex 3 Zcoordinate
    439928.6422066548,        !- Vertex 4 Xcoordinate
    4479024.103947474,        !- Vertex 4 Ycoordinate
    3;                        !- Vertex 4 Zcoordinate

BUILDINGSURFACE:DETAILED,
    Block 55bfe984d2402a9b_1 Storey 0 Wall 0007,    !- Name
    wall,                     !- Surface Type
    EU_wall_Construction,     !- Construction Name
    55bfe984d2402a9b_F0_dwelling_1,    !- Zone Name
    ,                         !- Space Name
    Adiabatic,                !- Outside Boundary Condition
    ,                         !- Outside Boundary Condition Object
    NoSun,                    !- Sun Exposure
    NoWind,                   !- Wind Exposure
    autocalculate,            !- View Factor to Ground
    autocalculate,            !- Number of Vertices
    439928.20920233784,       !- Vertex 1 Xcoordinate
    4479026.946092816,        !- Vertex 1 Ycoordinate
    3,                        !- Vertex 1 Zcoordinate
    439928.20920233784,       !- Vertex 2 Xcoordinate
    4479026.946092816,        !- Vertex 2 Ycoordinate
    0,                        !- Vertex 2 Zcoordinate
    439919.67111546634,       !- Vertex 3 Xcoordinate
    4479025.645297084,        !- Vertex 3 Ycoordinate
    0,                        !- Vertex 3 Zcoordinate
    439919.67111546634,       !- Vertex 4 Xcoordinate
    4479025.645297084,        !- Vertex 4 Ycoordinate
    3;                        !- Vertex 4 Zcoordinate

BUILDINGSURFACE:DETAILED,
    Block 55bfe984d2402a9b_1 Storey 0 Wall 0008,    !- Name
    wall,                     !- Surface Type
    EU_wall_Construction,     !- Construction Name
    55bfe984d2402a9b_F0_dwelling_1,    !- Zone Name
    ,                         !- Space Name
    Adiabatic,                !- Outside Boundary Condition
    ,                         !- Outside Boundary Condition Object
    NoSun,                    !- Sun Exposure
    NoWind,                   !- Wind Exposure
    autocalculate,            !- View Factor to Ground
    autocalculate,            !- Number of Vertices
    439919.67111546634,       !- Vertex 1 Xcoordinate
    4479025.645297084,        !- Vertex 1 Ycoordinate
    3,                        !- Vertex 1 Zcoordinate
    439919.67111546634,       !- Vertex 2 Xcoordinate
    4479025.645297084,        !- Vertex 2 Ycoordinate
    0,                        !- Vertex 2 Zcoordinate
    439920.9079279169,        !- Vertex 3 Xcoordinate
    4479017.524861508,        !- Vertex 3 Ycoordinate
    0,                        !- Vertex 3 Zcoordinate
    439920.9079279169,        !- Vertex 4 Xcoordinate
    4479017.524861508,        !- Vertex 4 Ycoordinate
    3;                        !- Vertex 4 Zcoordinate

BUILDINGSURFACE:DETAILED,
    Block 55bfe984d2402a9b_circulation Storey 0 Wall 0001,    !- Name
    wall,                     !- Surface Type
    EU_wall_Construction,     !- Construction Name
    55bfe984d2402a9b_F0_circulation,    !- Zone Name
    ,                         !- Space Name
    outdoors,                 !- Outside Boundary Condition
    ,                         !- Outside Boundary Condition Object
    SunExposed,               !- Sun Exposure
    WindExposed,              !- Wind Exposure
    autocalculate,            !- View Factor to Ground
    autocalculate,            !- Number of Vertices
    439926.0807065904,        !- Vertex 1 Xcoordinate
    4479023.7136998065,       !- Vertex 1 Ycoordinate
    3,                        !- Vertex 1 Zcoordinate
    439926.0807065904,        !- Vertex 2 Xcoordinate
    4479023.7136998065,       !- Vertex 2 Ycoordinate
    0,                        !- Vertex 2 Zcoordinate
    439926.4518483966,        !- Vertex 3 Xcoordinate
    4479021.277606413,        !- Vertex 3 Ycoordinate
    0,                        !- Vertex 3 Zcoordinate
    439926.4518483966,        !- Vertex 4 Xcoordinate
    4479021.277606413,        !- Vertex 4 Ycoordinate
    3;                        !- Vertex 4 Zcoordinate

BUILDINGSURFACE:DETAILED,
    Block 55bfe984d2402a9b_circulation Storey 0 Wall 0002,    !- Name
    wall,                     !- Surface Type
    EU_wall_Construction,     !- Construction Name
    55bfe984d2402a9b_F0_circulation,    !- Zone Name
    ,                         !- Space Name
    outdoors,                 !- Outside Boundary Condition
    ,                         !- Outside Boundary Condition Object
    SunExposed,               !- Sun Exposure
    WindExposed,              !- Wind Exposure
    autocalculate,            !- View Factor to Ground
    autocalculate,            !- Number of Vertices
    439926.4518483966,        !- Vertex 1 Xcoordinate
    4479021.277606413,        !- Vertex 1 Ycoordinate
    3,                        !- Vertex 1 Zcoordinate
    439926.4518483966,        !- Vertex 2 Xcoordinate
    4479021.277606413,        !- Vertex 2 Ycoordinate
    0,                        !- Vertex 2 Zcoordinate
    439931.57484852255,       !- Vertex 3 Xcoordinate
    4479022.058101743,        !- Vertex 3 Ycoordinate
    0,                        !- Vertex 3 Zcoordinate
    439931.57484852255,       !- Vertex 4 Xcoordinate
    4479022.058101743,        !- Vertex 4 Ycoordinate
    3;                        !- Vertex 4 Zcoordinate

BUILDINGSURFACE:DETAILED,
    Block 55bfe984d2402a9b_circulation Storey 0 Wall 0004,    !- Name
    wall,                     !- Surface Type
    EU_wall_Construction,     !- Construction Name
    55bfe984d2402a9b_F0_circulation,    !- Zone Name
    ,                         !- Space Name
    outdoors,                 !- Outside Boundary Condition
    ,                         !- Outside Boundary Condition Object
    SunExposed,               !- Sun Exposure
    WindExposed,              !- Wind Exposure
    autocalculate,            !- View Factor to Ground
    autocalculate,            !- Number of Vertices
    439931.2037067163,        !- Vertex 1 Xcoordinate
    4479024.494195137,        !- Vertex 1 Ycoordinate
    3,                        !- Vertex 1 Zcoordinate
    439931.2037067163,        !- Vertex 2 Xcoordinate
    4479024.494195137,        !- Vertex 2 Ycoordinate
    0,                        !- Vertex 2 Zcoordinate
    439926.0807065904,        !- Vertex 3 Xcoordinate
    4479023.7136998065,       !- Vertex 3 Ycoordinate
    0,                        !- Vertex 3 Zcoordinate
    439926.0807065904,        !- Vertex 4 Xcoordinate
    4479023.7136998065,       !- Vertex 4 Ycoordinate
    3;                        !- Vertex 4 Zcoordinate

BUILDINGSURFACE:DETAILED,
    Block 55bfe984d2402a9b_0 Storey 0 Wall 0003_1,    !- Name
    wall,                     !- Surface Type
    EU_wall_Construction,     !- Construction Name
    55bfe984d2402a9b_F0_dwelling_0,    !- Zone Name
    ,                         !- Space Name
    surface,                  !- Outside Boundary Condition
    Block 55bfe984d2402a9b_1 Storey 0 Wall 0006_1,    !- Outside Boundary Condition Object
    NoSun,                    !- Sun Exposure
    NoWind,                   !- Wind Exposure
    autocalculate,            !- View Factor to Ground
    autocalculate,            !- Number of Vertices
    439928.2092023377,        !- Vertex 1 Xcoordinate
    4479026.946092816,        !- Vertex 1 Ycoordinate
    3,                        !- Vertex 1 Zcoordinate
    439928.2092023377,        !- Vertex 2 Xcoordinate
    4479026.946092816,        !- Vertex 2 Ycoordinate
    0,                        !- Vertex 2 Zcoordinate
    439928.64220665465,       !- Vertex 3 Xcoordinate
    4479024.103947474,        !- Vertex 3 Ycoordinate
    0,                        !- Vertex 3 Zcoordinate
    439928.64220665465,       !- Vertex 4 Xcoordinate
    4479024.103947474,        !- Vertex 4 Ycoordinate
    3;                        !- Vertex 4 Zcoordinate

BUILDINGSURFACE:DETAILED,
    Block 55bfe984d2402a9b_1 Storey 0 Wall 0006_1,    !- Name
    wall,                     !- Surface Type
    EU_wall_Construction,     !- Construction Name
    55bfe984d2402a9b_F0_dwelling_1,    !- Zone Name
    ,                         !- Space Name
    surface,                  !- Outside Boundary Condition
    Block 55bfe984d2402a9b_0 Storey 0 Wall 0003_1,    !- Outside Boundary Condition Object
    NoSun,                    !- Sun Exposure
    NoWind,                   !- Wind Exposure
    autocalculate,            !- View Factor to Ground
    autocalculate,            !- Number of Vertices
    439928.6422066549,        !- Vertex 1 Xcoordinate
    4479024.103947474,        !- Vertex 1 Ycoordinate
    3,                        !- Vertex 1 Zcoordinate
    439928.6422066549,        !- Vertex 2 Xcoordinate
    4479024.103947474,        !- Vertex 2 Ycoordinate
    0,                        !- Vertex 2 Zcoordinate
    439928.20920233795,       !- Vertex 3 Xcoordinate
    4479026.946092816,        !- Vertex 3 Ycoordinate
    0,                        !- Vertex 3 Zcoordinate
    439928.20920233795,       !- Vertex 4 Xcoordinate
    4479026.946092816,        !- Vertex 4 Ycoordinate
    3;                        !- Vertex 4 Zcoordinate

BUILDINGSURFACE:DETAILED,
    Block 55bfe984d2402a9b_0 Storey 0 Wall 0005_1,    !- Name
    wall,                     !- Surface Type
    EU_wall_Construction,     !- Construction Name
    55bfe984d2402a9b_F0_dwelling_0,    !- Zone Name
    ,                         !- Space Name
    surface,                  !- Outside Boundary Condition
    Block 55bfe984d2402a9b_circulation Storey 0 Wall 0003_1,    !- Outside Boundary Condition Object
    NoSun,                    !- Sun Exposure
    NoWind,                   !- Wind Exposure
    autocalculate,            !- View Factor to Ground
    autocalculate,            !- Number of Vertices
    439931.2037067163,        !- Vertex 1 Xcoordinate
    4479024.494195137,        !- Vertex 1 Ycoordinate
    3,                        !- Vertex 1 Zcoordinate
    439931.2037067163,        !- Vertex 2 Xcoordinate
    4479024.494195137,        !- Vertex 2 Ycoordinate
    0,                        !- Vertex 2 Zcoordinate
    439931.57484852226,       !- Vertex 3 Xcoordinate
    4479022.058101745,        !- Vertex 3 Ycoordinate
    0,                        !- Vertex 3 Zcoordinate
    439931.57484852226,       !- Vertex 4 Xcoordinate
    4479022.058101745,        !- Vertex 4 Ycoordinate
    3;                        !- Vertex 4 Zcoordinate

BUILDINGSURFACE:DETAILED,
    Block 55bfe984d2402a9b_circulation Storey 0 Wall 0003_1,    !- Name
    wall,                     !- Surface Type
    EU_wall_Construction,     !- Construction Name
    55bfe984d2402a9b_F0_circulation,    !- Zone Name
    ,                         !- Space Name
    surface,                  !- Outside Boundary Condition
    Block 55bfe984d2402a9b_0 Storey 0 Wall 0005_1,    !- Outside Boundary Condition Object
    NoSun,                    !- Sun Exposure
    NoWind,                   !- Wind Exposure
    autocalculate,            !- View Factor to Ground
    autocalculate,            !- Number of Vertices
    439931.57484852226,       !- Vertex 1 Xcoordinate
    4479022.058101745,        !- Vertex 1 Ycoordinate
    3,                        !- Vertex 1 Zcoordinate
    439931.57484852226,       !- Vertex 2 Xcoordinate
    4479022.058101745,        !- Vertex 2 Ycoordinate
    0,                        !- Vertex 2 Zcoordinate
    439931.2037067163,        !- Vertex 3 Xcoordinate
    4479024.494195137,        !- Vertex 3 Ycoordinate
    0,                        !- Vertex 3 Zcoordinate
    439931.2037067163,        !- Vertex 4 Xcoordinate
    4479024.494195137,        !- Vertex 4 Ycoordinate
    3;                        !- Vertex 4 Zcoordinate

BUILDINGSURFACE:DETAILED,
    Block 55bfe984d2402a9b_0 Storey 0 Wall 0007_1,    !- Name
    wall,                     !- Surface Type
    EU_wall_Construction,     !- Construction Name
    55bfe984d2402a9b_F0_dwelling_0,    !- Zone Name
    ,                         !- Space Name
    surface,                  !- Outside Boundary Condition
    Block 55bfe984d2402a9b_1 Storey 0 Wall 0002_1,    !- Outside Boundary Condition Object
    NoSun,                    !- Sun Exposure
    NoWind,                   !- Wind Exposure
    autocalculate,            !- View Factor to Ground
    autocalculate,            !- Number of Vertices
    439929.0133484611,        !- Vertex 1 Xcoordinate
    4479021.66785408,         !- Vertex 1 Ycoordinate
    3,                        !- Vertex 1 Zcoordinate
    439929.0133484611,        !- Vertex 2 Xcoordinate
    4479021.66785408,         !- Vertex 2 Ycoordinate
    0,                        !- Vertex 2 Zcoordinate
    439929.44635277905,       !- Vertex 3 Xcoordinate
    4479018.825708731,        !- Vertex 3 Ycoordinate
    0,                        !- Vertex 3 Zcoordinate
    439929.44635277905,       !- Vertex 4 Xcoordinate
    4479018.825708731,        !- Vertex 4 Ycoordinate
    3;                        !- Vertex 4 Zcoordinate

BUILDINGSURFACE:DETAILED,
    Block 55bfe984d2402a9b_1 Storey 0 Wall 0002_1,    !- Name
    wall,                     !- Surface Type
    EU_wall_Construction,     !- Construction Name
    55bfe984d2402a9b_F0_dwelling_1,    !- Zone Name
    ,                         !- Space Name
    surface,                  !- Outside Boundary Condition
    Block 55bfe984d2402a9b_0 Storey 0 Wall 0007_1,    !- Outside Boundary Condition Object
    NoSun,                    !- Sun Exposure
    NoWind,                   !- Wind Exposure
    autocalculate,            !- View Factor to Ground
    autocalculate,            !- Number of Vertices
    439929.44635277905,       !- Vertex 1 Xcoordinate
    4479018.825708731,        !- Vertex 1 Ycoordinate
    3,                        !- Vertex 1 Zcoordinate
    439929.44635277905,       !- Vertex 2 Xcoordinate
    4479018.825708731,        !- Vertex 2 Ycoordinate
    0,                        !- Vertex 2 Zcoordinate
    439929.0133484611,        !- Vertex 3 Xcoordinate
    4479021.66785408,         !- Vertex 3 Ycoordinate
    0,                        !- Vertex 3 Zcoordinate
    439929.0133484611,        !- Vertex 4 Xcoordinate
    4479021.66785408,         !- Vertex 4 Ycoordinate
    3;                        !- Vertex 4 Zcoordinate

BUILDINGSURFACE:DETAILED,
    Block 55bfe984d2402a9b_0 Storey 0 Floor 0001_1,    !- Name
    floor,                    !- Surface Type
    EU_floor_Construction,    !- Construction Name
    55bfe984d2402a9b_F0_dwelling_0,    !- Zone Name
    ,                         !- Space Name
    ground,                   !- Outside Boundary Condition
    ,                         !- Outside Boundary Condition Object
    NoSun,                    !- Sun Exposure
    NoWind,                   !- Wind Exposure
    autocalculate,            !- View Factor to Ground
    autocalculate,            !- Number of Vertices
    439931.2037067162,        !- Vertex 1 Xcoordinate
    4479024.494195137,        !- Vertex 1 Ycoordinate
    0,                        !- Vertex 1 Zcoordinate
    439931.57484852197,       !- Vertex 2 Xcoordinate
    4479022.058101745,        !- Vertex 2 Ycoordinate
    0,                        !- Vertex 2 Zcoordinate
    439929.01334846066,       !- Vertex 3 Xcoordinate
    4479021.66785408,         !- Vertex 3 Ycoordinate
    0,                        !- Vertex 3 Zcoordinate
    439929.01334846066,       !- Vertex 4 Xcoordinate
    4479021.667854079,        !- Vertex 4 Ycoordinate
    0,                        !- Vertex 4 Zcoordinate
    439926.45184839657,       !- Vertex 5 Xcoordinate
    4479021.277606413,        !- Vertex 5 Ycoordinate
    0,                        !- Vertex 5 Zcoordinate
    439926.0807065903,        !- Vertex 6 Xcoordinate
    4479023.7136998065,       !- Vertex 6 Ycoordinate
    0;                        !- Vertex 6 Zcoordinate

BUILDINGSURFACE:DETAILED,
    Block 55bfe984d2402a9b_0 Storey 0 Floor 0001_2,    !- Name
    floor,                    !- Surface Type
    EU_floor_Construction,    !- Construction Name
    55bfe984d2402a9b_F0_dwelling_0,    !- Zone Name
    ,                         !- Space Name
    ground,                   !- Outside Boundary Condition
    ,                         !- Outside Boundary Condition Object
    NoSun,                    !- Sun Exposure
    NoWind,                   !- Wind Exposure
    autocalculate,            !- View Factor to Ground
    autocalculate,            !- Number of Vertices
    439936.7476271959,        !- Vertex 1 Xcoordinate
    4479028.246940042,        !- Vertex 1 Ycoordinate
    0,                        !- Vertex 1 Zcoordinate
    439937.9844396468,        !- Vertex 2 Xcoordinate
    4479020.126504461,        !- Vertex 2 Ycoordinate
    0,                        !- Vertex 2 Zcoordinate
    439929.44635277893,       !- Vertex 3 Xcoordinate
    4479018.825708731,        !- Vertex 3 Ycoordinate
    0,                        !- Vertex 3 Zcoordinate
    439929.01334846066,       !- Vertex 4 Xcoordinate
    4479021.667854079,        !- Vertex 4 Ycoordinate
    0,                        !- Vertex 4 Zcoordinate
    439931.57484852243,       !- Vertex 5 Xcoordinate
    4479022.058101743,        !- Vertex 5 Ycoordinate
    0,                        !- Vertex 5 Zcoordinate
    439931.2037067162,        !- Vertex 6 Xcoordinate
    4479024.494195137,        !- Vertex 6 Ycoordinate
    0,                        !- Vertex 6 Zcoordinate
    439931.2037067157,        !- Vertex 7 Xcoordinate
    4479024.494195139,        !- Vertex 7 Ycoordinate
    0,                        !- Vertex 7 Zcoordinate
    439928.6422066544,        !- Vertex 8 Xcoordinate
    4479024.103947474,        !- Vertex 8 Ycoordinate
    0,                        !- Vertex 8 Zcoordinate
    439928.20920233754,       !- Vertex 9 Xcoordinate
    4479026.946092816,        !- Vertex 9 Ycoordinate
    0;                        !- Vertex 9 Zcoordinate

BUILDINGSURFACE:DETAILED,
    Block 55bfe984d2402a9b_circulation Storey 0 Floor 0001_1,    !- Name
    floor,                    !- Surface Type
    EU_floor_Construction,    !- Construction Name
    55bfe984d2402a9b_F0_circulation,    !- Zone Name
    ,                         !- Space Name
    ground,                   !- Outside Boundary Condition
    ,                         !- Outside Boundary Condition Object
    NoSun,                    !- Sun Exposure
    NoWind,                   !- Wind Exposure
    autocalculate,            !- View Factor to Ground
    autocalculate,            !- Number of Vertices
    439931.2037067162,        !- Vertex 1 Xcoordinate
    4479024.494195137,        !- Vertex 1 Ycoordinate
    0,                        !- Vertex 1 Zcoordinate
    439931.57484852197,       !- Vertex 2 Xcoordinate
    4479022.058101745,        !- Vertex 2 Ycoordinate
    0,                        !- Vertex 2 Zcoordinate
    439929.01334846066,       !- Vertex 3 Xcoordinate
    4479021.66785408,         !- Vertex 3 Ycoordinate
    0,                        !- Vertex 3 Zcoordinate
    439926.4518483963,        !- Vertex 4 Xcoordinate
    4479021.277606415,        !- Vertex 4 Ycoordinate
    0,                        !- Vertex 4 Zcoordinate
    439926.0807065903,        !- Vertex 5 Xcoordinate
    4479023.7136998065,       !- Vertex 5 Ycoordinate
    0;                        !- Vertex 5 Zcoordinate

BUILDINGSURFACE:DETAILED,
    Block 55bfe984d2402a9b_circulation Storey 0 Floor 0001_2,    !- Name
    floor,                    !- Surface Type
    EU_floor_Construction,    !- Construction Name
    55bfe984d2402a9b_F0_circulation,    !- Zone Name
    ,                         !- Space Name
    ground,                   !- Outside Boundary Condition
    ,                         !- Outside Boundary Condition Object
    NoSun,                    !- Sun Exposure
    NoWind,                   !- Wind Exposure
    autocalculate,            !- View Factor to Ground
    autocalculate,            !- Number of Vertices
    439936.7476271959,        !- Vertex 1 Xcoordinate
    4479028.246940042,        !- Vertex 1 Ycoordinate
    0,                        !- Vertex 1 Zcoordinate
    439937.9844396468,        !- Vertex 2 Xcoordinate
    4479020.126504461,        !- Vertex 2 Ycoordinate
    0,                        !- Vertex 2 Zcoordinate
    439929.44635277893,       !- Vertex 3 Xcoordinate
    4479018.825708731,        !- Vertex 3 Ycoordinate
    0,                        !- Vertex 3 Zcoordinate
    439929.01334846066,       !- Vertex 4 Xcoordinate
    4479021.667854079,        !- Vertex 4 Ycoordinate
    0,                        !- Vertex 4 Zcoordinate
    439931.57484852243,       !- Vertex 5 Xcoordinate
    4479022.058101743,        !- Vertex 5 Ycoordinate
    0,                        !- Vertex 5 Zcoordinate
    439931.2037067162,        !- Vertex 6 Xcoordinate
    4479024.494195137,        !- Vertex 6 Ycoordinate
    0,                        !- Vertex 6 Zcoordinate
    439931.2037067157,        !- Vertex 7 Xcoordinate
    4479024.494195139,        !- Vertex 7 Ycoordinate
    0,                        !- Vertex 7 Zcoordinate
    439928.6422066544,        !- Vertex 8 Xcoordinate
    4479024.103947474,        !- Vertex 8 Ycoordinate
    0,                        !- Vertex 8 Zcoordinate
    439928.20920233754,       !- Vertex 9 Xcoordinate
    4479026.946092816,        !- Vertex 9 Ycoordinate
    0;                        !- Vertex 9 Zcoordinate

BUILDINGSURFACE:DETAILED,
    Block 55bfe984d2402a9b_circulation Storey 0 Floor 0001_3,    !- Name
    floor,                    !- Surface Type
    EU_floor_Construction,    !- Construction Name
    55bfe984d2402a9b_F0_circulation,    !- Zone Name
    ,                         !- Space Name
    ground,                   !- Outside Boundary Condition
    ,                         !- Outside Boundary Condition Object
    NoSun,                    !- Sun Exposure
    NoWind,                   !- Wind Exposure
    autocalculate,            !- View Factor to Ground
    autocalculate,            !- Number of Vertices
    439928.20920233754,       !- Vertex 1 Xcoordinate
    4479026.946092816,        !- Vertex 1 Ycoordinate
    0,                        !- Vertex 1 Zcoordinate
    439928.6422066544,        !- Vertex 2 Xcoordinate
    4479024.103947474,        !- Vertex 2 Ycoordinate
    0,                        !- Vertex 2 Zcoordinate
    439926.08070658986,       !- Vertex 3 Xcoordinate
    4479023.713699809,        !- Vertex 3 Ycoordinate
    0,                        !- Vertex 3 Zcoordinate
    439926.4518483961,        !- Vertex 4 Xcoordinate
    4479021.277606415,        !- Vertex 4 Ycoordinate
    0,                        !- Vertex 4 Zcoordinate
    439926.45184839657,       !- Vertex 5 Xcoordinate
    4479021.277606413,        !- Vertex 5 Ycoordinate
    0,                        !- Vertex 5 Zcoordinate
    439929.01334846066,       !- Vertex 6 Xcoordinate
    4479021.667854079,        !- Vertex 6 Ycoordinate
    0,                        !- Vertex 6 Zcoordinate
    439929.44635277893,       !- Vertex 7 Xcoordinate
    4479018.825708731,        !- Vertex 7 Ycoordinate
    0,                        !- Vertex 7 Zcoordinate
    439920.90792791685,       !- Vertex 8 Xcoordinate
    4479017.524861508,        !- Vertex 8 Ycoordinate
    0,                        !- Vertex 8 Zcoordinate
    439919.6711154659,        !- Vertex 9 Xcoordinate
    4479025.645297084,        !- Vertex 9 Ycoordinate
    0;                        !- Vertex 9 Zcoordinate

BUILDINGSURFACE:DETAILED,
    Block 55bfe984d2402a9b_0 Storey 0 Ceiling 0001_1,    !- Name
    ceiling,                  !- Surface Type
    EU_floor_Construction,    !- Construction Name
    55bfe984d2402a9b_F0_dwelling_0,    !- Zone Name
    ,                         !- Space Name
    Surface,                  !- Outside Boundary Condition
    Block 55bfe984d2402a9b_0 Storey 1 Floor 0001_1,    !- Outside Boundary Condition Object
    NoSun,                    !- Sun Exposure
    NoWind,                   !- Wind Exposure
    autocalculate,            !- View Factor to Ground
    autocalculate,            !- Number of Vertices
    439937.9844396468,        !- Vertex 1 Xcoordinate
    4479020.126504461,        !- Vertex 1 Ycoordinate
    3,                        !- Vertex 1 Zcoordinate
    439936.7476271959,        !- Vertex 2 Xcoordinate
    4479028.246940042,        !- Vertex 2 Ycoordinate
    3,                        !- Vertex 2 Zcoordinate
    439928.20920233754,       !- Vertex 3 Xcoordinate
    4479026.946092816,        !- Vertex 3 Ycoordinate
    3,                        !- Vertex 3 Zcoordinate
    439928.6422066544,        !- Vertex 4 Xcoordinate
    4479024.103947474,        !- Vertex 4 Ycoordinate
    3,                        !- Vertex 4 Zcoordinate
    439931.2037067157,        !- Vertex 5 Xcoordinate
    4479024.494195139,        !- Vertex 5 Ycoordinate
    3,                        !- Vertex 5 Zcoordinate
    439931.2037067162,        !- Vertex 6 Xcoordinate
    4479024.494195137,        !- Vertex 6 Ycoordinate
    3,                        !- Vertex 6 Zcoordinate
    439931.57484852243,       !- Vertex 7 Xcoordinate
    4479022.058101743,        !- Vertex 7 Ycoordinate
    3,                        !- Vertex 7 Zcoordinate
    439929.0133484608,        !- Vertex 8 Xcoordinate
    4479021.667854079,        !- Vertex 8 Ycoordinate
    3,                        !- Vertex 8 Zcoordinate
    439929.44635277893,       !- Vertex 9 Xcoordinate
    4479018.825708731,        !- Vertex 9 Ycoordinate
    3;                        !- Vertex 9 Zcoordinate

BUILDINGSURFACE:DETAILED,
    Block 55bfe984d2402a9b_0 Storey 0 Ceiling 0001_2,    !- Name
    ceiling,                  !- Surface Type
    EU_floor_Construction,    !- Construction Name
    55bfe984d2402a9b_F0_dwelling_0,    !- Zone Name
    ,                         !- Space Name
    outdoors,                 !- Outside Boundary Condition
    ,                         !- Outside Boundary Condition Object
    SunExposed,               !- Sun Exposure
    WindExposed,              !- Wind Exposure
    autocalculate,            !- View Factor to Ground
    autocalculate,            !- Number of Vertices
    439931.57484852197,       !- Vertex 1 Xcoordinate
    4479022.058101745,        !- Vertex 1 Ycoordinate
    3,                        !- Vertex 1 Zcoordinate
    439931.203706716,         !- Vertex 2 Xcoordinate
    4479024.494195137,        !- Vertex 2 Ycoordinate
    3,                        !- Vertex 2 Zcoordinate
    439926.0807065903,        !- Vertex 3 Xcoordinate
    4479023.7136998065,       !- Vertex 3 Ycoordinate
    3,                        !- Vertex 3 Zcoordinate
    439926.45184839657,       !- Vertex 4 Xcoordinate
    4479021.277606413,        !- Vertex 4 Ycoordinate
    3,                        !- Vertex 4 Zcoordinate
    439929.01334846066,       !- Vertex 5 Xcoordinate
    4479021.667854079,        !- Vertex 5 Ycoordinate
    3,                        !- Vertex 5 Zcoordinate
    439929.01334846066,       !- Vertex 6 Xcoordinate
    4479021.66785408,         !- Vertex 6 Ycoordinate
    3;                        !- Vertex 6 Zcoordinate

BUILDINGSURFACE:DETAILED,
    Block 55bfe984d2402a9b_0 Storey 1 Floor 0001_1,    !- Name
    floor,                    !- Surface Type
    EU_floor_Construction,    !- Construction Name
    55bfe984d2402a9b_F1_dwelling_0,    !- Zone Name
    ,                         !- Space Name
    Surface,                  !- Outside Boundary Condition
    Block 55bfe984d2402a9b_0 Storey 0 Ceiling 0001_1,    !- Outside Boundary Condition Object
    NoSun,                    !- Sun Exposure
    NoWind,                   !- Wind Exposure
    autocalculate,            !- View Factor to Ground
    autocalculate,            !- Number of Vertices
    439936.7476271959,        !- Vertex 1 Xcoordinate
    4479028.246940042,        !- Vertex 1 Ycoordinate
    3,                        !- Vertex 1 Zcoordinate
    439937.9844396468,        !- Vertex 2 Xcoordinate
    4479020.126504461,        !- Vertex 2 Ycoordinate
    3,                        !- Vertex 2 Zcoordinate
    439929.44635277893,       !- Vertex 3 Xcoordinate
    4479018.825708731,        !- Vertex 3 Ycoordinate
    3,                        !- Vertex 3 Zcoordinate
    439929.0133484608,        !- Vertex 4 Xcoordinate
    4479021.667854079,        !- Vertex 4 Ycoordinate
    3,                        !- Vertex 4 Zcoordinate
    439931.57484852243,       !- Vertex 5 Xcoordinate
    4479022.058101743,        !- Vertex 5 Ycoordinate
    3,                        !- Vertex 5 Zcoordinate
    439931.2037067162,        !- Vertex 6 Xcoordinate
    4479024.494195137,        !- Vertex 6 Ycoordinate
    3,                        !- Vertex 6 Zcoordinate
    439931.2037067157,        !- Vertex 7 Xcoordinate
    4479024.494195139,        !- Vertex 7 Ycoordinate
    3,                        !- Vertex 7 Zcoordinate
    439928.6422066544,        !- Vertex 8 Xcoordinate
    4479024.103947474,        !- Vertex 8 Ycoordinate
    3,                        !- Vertex 8 Zcoordinate
    439928.20920233754,       !- Vertex 9 Xcoordinate
    4479026.946092816,        !- Vertex 9 Ycoordinate
    3;                        !- Vertex 9 Zcoordinate

BUILDINGSURFACE:DETAILED,
    Block 55bfe984d2402a9b_circulation Storey 0 Roof 0001_1,    !- Name
    roof,                     !- Surface Type
    EU_roof_Construction,     !- Construction Name
    55bfe984d2402a9b_F0_circulation,    !- Zone Name
    ,                         !- Space Name
    outdoors,                 !- Outside Boundary Condition
    ,                         !- Outside Boundary Condition Object
    SunExposed,               !- Sun Exposure
    WindExposed,              !- Wind Exposure
    autocalculate,            !- View Factor to Ground
    autocalculate,            !- Number of Vertices
    439937.9844396468,        !- Vertex 1 Xcoordinate
    4479020.126504461,        !- Vertex 1 Ycoordinate
    3,                        !- Vertex 1 Zcoordinate
    439936.7476271959,        !- Vertex 2 Xcoordinate
    4479028.246940042,        !- Vertex 2 Ycoordinate
    3,                        !- Vertex 2 Zcoordinate
    439928.20920233754,       !- Vertex 3 Xcoordinate
    4479026.946092816,        !- Vertex 3 Ycoordinate
    3,                        !- Vertex 3 Zcoordinate
    439928.6422066544,        !- Vertex 4 Xcoordinate
    4479024.103947474,        !- Vertex 4 Ycoordinate
    3,                        !- Vertex 4 Zcoordinate
    439931.2037067157,        !- Vertex 5 Xcoordinate
    4479024.494195139,        !- Vertex 5 Ycoordinate
    3,                        !- Vertex 5 Zcoordinate
    439931.2037067162,        !- Vertex 6 Xcoordinate
    4479024.494195137,        !- Vertex 6 Ycoordinate
    3,                        !- Vertex 6 Zcoordinate
    439931.57484852243,       !- Vertex 7 Xcoordinate
    4479022.058101743,        !- Vertex 7 Ycoordinate
    3,                        !- Vertex 7 Zcoordinate
    439929.01334846066,       !- Vertex 8 Xcoordinate
    4479021.667854079,        !- Vertex 8 Ycoordinate
    3,                        !- Vertex 8 Zcoordinate
    439929.44635277893,       !- Vertex 9 Xcoordinate
    4479018.825708731,        !- Vertex 9 Ycoordinate
    3;                        !- Vertex 9 Zcoordinate

BUILDINGSURFACE:DETAILED,
    Block 55bfe984d2402a9b_circulation Storey 0 Roof 0001_2,    !- Name
    roof,                     !- Surface Type
    EU_roof_Construction,     !- Construction Name
    55bfe984d2402a9b_F0_circulation,    !- Zone Name
    ,                         !- Space Name
    outdoors,                 !- Outside Boundary Condition
    ,                         !- Outside Boundary Condition Object
    SunExposed,               !- Sun Exposure
    WindExposed,              !- Wind Exposure
    autocalculate,            !- View Factor to Ground
    autocalculate,            !- Number of Vertices
    439931.57484852197,       !- Vertex 1 Xcoordinate
    4479022.058101745,        !- Vertex 1 Ycoordinate
    3,                        !- Vertex 1 Zcoordinate
    439931.2037067162,        !- Vertex 2 Xcoordinate
    4479024.494195137,        !- Vertex 2 Ycoordinate
    3,                        !- Vertex 2 Zcoordinate
    439926.0807065903,        !- Vertex 3 Xcoordinate
    4479023.7136998065,       !- Vertex 3 Ycoordinate
    3,                        !- Vertex 3 Zcoordinate
    439926.4518483963,        !- Vertex 4 Xcoordinate
    4479021.277606415,        !- Vertex 4 Ycoordinate
    3,                        !- Vertex 4 Zcoordinate
    439929.01334846066,       !- Vertex 5 Xcoordinate
    4479021.66785408,         !- Vertex 5 Ycoordinate
    3;                        !- Vertex 5 Zcoordinate

BUILDINGSURFACE:DETAILED,
    Block 55bfe984d2402a9b_circulation Storey 0 Roof 0001_3,    !- Name
    roof,                     !- Surface Type
    EU_roof_Construction,     !- Construction Name
    55bfe984d2402a9b_F0_circulation,    !- Zone Name
    ,                         !- Space Name
    outdoors,                 !- Outside Boundary Condition
    ,                         !- Outside Boundary Condition Object
    SunExposed,               !- Sun Exposure
    WindExposed,              !- Wind Exposure
    autocalculate,            !- View Factor to Ground
    autocalculate,            !- Number of Vertices
    439929.44635277893,       !- Vertex 1 Xcoordinate
    4479018.825708731,        !- Vertex 1 Ycoordinate
    3,                        !- Vertex 1 Zcoordinate
    439929.01334846066,       !- Vertex 2 Xcoordinate
    4479021.667854079,        !- Vertex 2 Ycoordinate
    3,                        !- Vertex 2 Zcoordinate
    439926.45184839657,       !- Vertex 3 Xcoordinate
    4479021.277606413,        !- Vertex 3 Ycoordinate
    3,                        !- Vertex 3 Zcoordinate
    439926.4518483961,        !- Vertex 4 Xcoordinate
    4479021.277606415,        !- Vertex 4 Ycoordinate
    3,                        !- Vertex 4 Zcoordinate
    439926.08070658986,       !- Vertex 5 Xcoordinate
    4479023.713699809,        !- Vertex 5 Ycoordinate
    3,                        !- Vertex 5 Zcoordinate
    439928.6422066544,        !- Vertex 6 Xcoordinate
    4479024.103947474,        !- Vertex 6 Ycoordinate
    3,                        !- Vertex 6 Zcoordinate
    439928.20920233754,       !- Vertex 7 Xcoordinate
    4479026.946092816,        !- Vertex 7 Ycoordinate
    3,                        !- Vertex 7 Zcoordinate
    439919.6711154659,        !- Vertex 8 Xcoordinate
    4479025.645297084,        !- Vertex 8 Ycoordinate
    3,                        !- Vertex 8 Zcoordinate
    439920.90792791685,       !- Vertex 9 Xcoordinate
    4479017.524861508,        !- Vertex 9 Ycoordinate
    3;                        !- Vertex 9 Zcoordinate

BUILDINGSURFACE:DETAILED,
    Block 55bfe984d2402a9b_0 Storey 1 Ceiling 0001_1,    !- Name
    ceiling,                  !- Surface Type
    EU_floor_Construction,    !- Construction Name
    55bfe984d2402a9b_F1_dwelling_0,    !- Zone Name
    ,                         !- Space Name
    Surface,                  !- Outside Boundary Condition
    Block 55bfe984d2402a9b_0 Storey 2 Floor 0001_1,    !- Outside Boundary Condition Object
    NoSun,                    !- Sun Exposure
    NoWind,                   !- Wind Exposure
    autocalculate,            !- View Factor to Ground
    autocalculate,            !- Number of Vertices
    439937.9844396468,        !- Vertex 1 Xcoordinate
    4479020.126504461,        !- Vertex 1 Ycoordinate
    6,                        !- Vertex 1 Zcoordinate
    439936.7476271959,        !- Vertex 2 Xcoordinate
    4479028.246940042,        !- Vertex 2 Ycoordinate
    6,                        !- Vertex 2 Zcoordinate
    439928.20920233754,       !- Vertex 3 Xcoordinate
    4479026.946092816,        !- Vertex 3 Ycoordinate
    6,                        !- Vertex 3 Zcoordinate
    439928.6422066544,        !- Vertex 4 Xcoordinate
    4479024.103947474,        !- Vertex 4 Ycoordinate
    6,                        !- Vertex 4 Zcoordinate
    439931.2037067157,        !- Vertex 5 Xcoordinate
    4479024.494195139,        !- Vertex 5 Ycoordinate
    6,                        !- Vertex 5 Zcoordinate
    439931.57484852197,       !- Vertex 6 Xcoordinate
    4479022.058101745,        !- Vertex 6 Ycoordinate
    6,                        !- Vertex 6 Zcoordinate
    439929.01334846066,       !- Vertex 7 Xcoordinate
    4479021.66785408,         !- Vertex 7 Ycoordinate
    6,                        !- Vertex 7 Zcoordinate
    439929.44635277893,       !- Vertex 8 Xcoordinate
    4479018.825708731,        !- Vertex 8 Ycoordinate
    6;                        !- Vertex 8 Zcoordinate

BUILDINGSURFACE:DETAILED,
    Block 55bfe984d2402a9b_0 Storey 2 Floor 0001_1,    !- Name
    floor,                    !- Surface Type
    EU_floor_Construction,    !- Construction Name
    55bfe984d2402a9b_F2_dwelling_0,    !- Zone Name
    ,                         !- Space Name
    Surface,                  !- Outside Boundary Condition
    Block 55bfe984d2402a9b_0 Storey 1 Ceiling 0001_1,    !- Outside Boundary Condition Object
    NoSun,                    !- Sun Exposure
    NoWind,                   !- Wind Exposure
    autocalculate,            !- View Factor to Ground
    autocalculate,            !- Number of Vertices
    439936.7476271959,        !- Vertex 1 Xcoordinate
    4479028.246940042,        !- Vertex 1 Ycoordinate
    6,                        !- Vertex 1 Zcoordinate
    439937.9844396468,        !- Vertex 2 Xcoordinate
    4479020.126504461,        !- Vertex 2 Ycoordinate
    6,                        !- Vertex 2 Zcoordinate
    439929.44635277893,       !- Vertex 3 Xcoordinate
    4479018.825708731,        !- Vertex 3 Ycoordinate
    6,                        !- Vertex 3 Zcoordinate
    439929.01334846066,       !- Vertex 4 Xcoordinate
    4479021.66785408,         !- Vertex 4 Ycoordinate
    6,                        !- Vertex 4 Zcoordinate
    439931.57484852197,       !- Vertex 5 Xcoordinate
    4479022.058101745,        !- Vertex 5 Ycoordinate
    6,                        !- Vertex 5 Zcoordinate
    439931.2037067157,        !- Vertex 6 Xcoordinate
    4479024.494195139,        !- Vertex 6 Ycoordinate
    6,                        !- Vertex 6 Zcoordinate
    439928.6422066544,        !- Vertex 7 Xcoordinate
    4479024.103947474,        !- Vertex 7 Ycoordinate
    6,                        !- Vertex 7 Zcoordinate
    439928.20920233754,       !- Vertex 8 Xcoordinate
    4479026.946092816,        !- Vertex 8 Ycoordinate
    6;                        !- Vertex 8 Zcoordinate

BUILDINGSURFACE:DETAILED,
    Block 55bfe984d2402a9b_1 Storey 0 Floor 0001_1,    !- Name
    floor,                    !- Surface Type
    EU_floor_Construction,    !- Construction Name
    55bfe984d2402a9b_F0_dwelling_1,    !- Zone Name
    ,                         !- Space Name
    ground,                   !- Outside Boundary Condition
    ,                         !- Outside Boundary Condition Object
    NoSun,                    !- Sun Exposure
    NoWind,                   !- Wind Exposure
    autocalculate,            !- View Factor to Ground
    autocalculate,            !- Number of Vertices
    439928.20920233754,       !- Vertex 1 Xcoordinate
    4479026.946092816,        !- Vertex 1 Ycoordinate
    0,                        !- Vertex 1 Zcoordinate
    439928.6422066544,        !- Vertex 2 Xcoordinate
    4479024.103947474,        !- Vertex 2 Ycoordinate
    0,                        !- Vertex 2 Zcoordinate
    439926.08070658986,       !- Vertex 3 Xcoordinate
    4479023.713699809,        !- Vertex 3 Ycoordinate
    0,                        !- Vertex 3 Zcoordinate
    439926.4518483961,        !- Vertex 4 Xcoordinate
    4479021.277606415,        !- Vertex 4 Ycoordinate
    0,                        !- Vertex 4 Zcoordinate
    439926.45184839657,       !- Vertex 5 Xcoordinate
    4479021.277606413,        !- Vertex 5 Ycoordinate
    0,                        !- Vertex 5 Zcoordinate
    439929.01334846066,       !- Vertex 6 Xcoordinate
    4479021.667854079,        !- Vertex 6 Ycoordinate
    0,                        !- Vertex 6 Zcoordinate
    439929.44635277893,       !- Vertex 7 Xcoordinate
    4479018.825708731,        !- Vertex 7 Ycoordinate
    0,                        !- Vertex 7 Zcoordinate
    439920.90792791685,       !- Vertex 8 Xcoordinate
    4479017.524861508,        !- Vertex 8 Ycoordinate
    0,                        !- Vertex 8 Zcoordinate
    439919.6711154659,        !- Vertex 9 Xcoordinate
    4479025.645297084,        !- Vertex 9 Ycoordinate
    0;                        !- Vertex 9 Zcoordinate

BUILDINGSURFACE:DETAILED,
    Block 55bfe984d2402a9b_1 Storey 0 Floor 0001_2,    !- Name
    floor,                    !- Surface Type
    EU_floor_Construction,    !- Construction Name
    55bfe984d2402a9b_F0_dwelling_1,    !- Zone Name
    ,                         !- Space Name
    ground,                   !- Outside Boundary Condition
    ,                         !- Outside Boundary Condition Object
    NoSun,                    !- Sun Exposure
    NoWind,                   !- Wind Exposure
    autocalculate,            !- View Factor to Ground
    autocalculate,            !- Number of Vertices
    439931.2037067162,        !- Vertex 1 Xcoordinate
    4479024.494195137,        !- Vertex 1 Ycoordinate
    0,                        !- Vertex 1 Zcoordinate
    439931.57484852243,       !- Vertex 2 Xcoordinate
    4479022.058101743,        !- Vertex 2 Ycoordinate
    0,                        !- Vertex 2 Zcoordinate
    439929.01334846066,       !- Vertex 3 Xcoordinate
    4479021.667854079,        !- Vertex 3 Ycoordinate
    0,                        !- Vertex 3 Zcoordinate
    439929.01334846066,       !- Vertex 4 Xcoordinate
    4479021.66785408,         !- Vertex 4 Ycoordinate
    0,                        !- Vertex 4 Zcoordinate
    439926.4518483961,        !- Vertex 5 Xcoordinate
    4479021.277606415,        !- Vertex 5 Ycoordinate
    0,                        !- Vertex 5 Zcoordinate
    439926.0807065903,        !- Vertex 6 Xcoordinate
    4479023.7136998065,       !- Vertex 6 Ycoordinate
    0;                        !- Vertex 6 Zcoordinate

BUILDINGSURFACE:DETAILED,
    Block 55bfe984d2402a9b_1 Storey 0 Roof 0001_1,    !- Name
    roof,                     !- Surface Type
    EU_roof_Construction,     !- Construction Name
    55bfe984d2402a9b_F0_dwelling_1,    !- Zone Name
    ,                         !- Space Name
    outdoors,                 !- Outside Boundary Condition
    ,                         !- Outside Boundary Condition Object
    SunExposed,               !- Sun Exposure
    WindExposed,              !- Wind Exposure
    autocalculate,            !- View Factor to Ground
    autocalculate,            !- Number of Vertices
    439931.57484852243,       !- Vertex 1 Xcoordinate
    4479022.058101743,        !- Vertex 1 Ycoordinate
    3,                        !- Vertex 1 Zcoordinate
    439931.2037067162,        !- Vertex 2 Xcoordinate
    4479024.494195137,        !- Vertex 2 Ycoordinate
    3,                        !- Vertex 2 Zcoordinate
    439926.0807065903,        !- Vertex 3 Xcoordinate
    4479023.7136998065,       !- Vertex 3 Ycoordinate
    3,                        !- Vertex 3 Zcoordinate
    439926.4518483961,        !- Vertex 4 Xcoordinate
    4479021.277606415,        !- Vertex 4 Ycoordinate
    3,                        !- Vertex 4 Zcoordinate
    439929.01334846066,       !- Vertex 5 Xcoordinate
    4479021.66785408,         !- Vertex 5 Ycoordinate
    3,                        !- Vertex 5 Zcoordinate
    439929.01334846066,       !- Vertex 6 Xcoordinate
    4479021.667854079,        !- Vertex 6 Ycoordinate
    3;                        !- Vertex 6 Zcoordinate

BUILDINGSURFACE:DETAILED,
    Block 55bfe984d2402a9b_1 Storey 0 Roof 0001_2,    !- Name
    roof,                     !- Surface Type
    EU_roof_Construction,     !- Construction Name
    55bfe984d2402a9b_F0_dwelling_1,    !- Zone Name
    ,                         !- Space Name
    outdoors,                 !- Outside Boundary Condition
    ,                         !- Outside Boundary Condition Object
    SunExposed,               !- Sun Exposure
    WindExposed,              !- Wind Exposure
    autocalculate,            !- View Factor to Ground
    autocalculate,            !- Number of Vertices
    439929.44635277893,       !- Vertex 1 Xcoordinate
    4479018.825708731,        !- Vertex 1 Ycoordinate
    3,                        !- Vertex 1 Zcoordinate
    439929.01334846066,       !- Vertex 2 Xcoordinate
    4479021.667854079,        !- Vertex 2 Ycoordinate
    3,                        !- Vertex 2 Zcoordinate
    439926.45184839657,       !- Vertex 3 Xcoordinate
    4479021.277606413,        !- Vertex 3 Ycoordinate
    3,                        !- Vertex 3 Zcoordinate
    439926.4518483961,        !- Vertex 4 Xcoordinate
    4479021.277606415,        !- Vertex 4 Ycoordinate
    3,                        !- Vertex 4 Zcoordinate
    439926.08070658986,       !- Vertex 5 Xcoordinate
    4479023.713699809,        !- Vertex 5 Ycoordinate
    3,                        !- Vertex 5 Zcoordinate
    439928.6422066544,        !- Vertex 6 Xcoordinate
    4479024.103947474,        !- Vertex 6 Ycoordinate
    3,                        !- Vertex 6 Zcoordinate
    439928.20920233754,       !- Vertex 7 Xcoordinate
    4479026.946092816,        !- Vertex 7 Ycoordinate
    3,                        !- Vertex 7 Zcoordinate
    439919.6711154659,        !- Vertex 8 Xcoordinate
    4479025.645297084,        !- Vertex 8 Ycoordinate
    3,                        !- Vertex 8 Zcoordinate
    439920.90792791685,       !- Vertex 9 Xcoordinate
    4479017.524861508,        !- Vertex 9 Ycoordinate
    3;                        !- Vertex 9 Zcoordinate

INTERNALMASS,
    55bfe984d2402a9b_F0_dwelling_0_EU_InternalMass,    !- Name
    EU_InternalMass_Construction,    !- Construction Name
    55bfe984d2402a9b_F0_dwelling_0,    !- Zone or ZoneList Name
    ,                         !- Space or SpaceList Name
    64.55833829895464;        !- Surface Area

INTERNALMASS,
    55bfe984d2402a9b_F0_dwelling_1_EU_InternalMass,    !- Name
    EU_InternalMass_Construction,    !- Construction Name
    55bfe984d2402a9b_F0_dwelling_1,    !- Zone or ZoneList Name
    ,                         !- Space or SpaceList Name
    64.55833829820196;        !- Surface Area

INTERNALMASS,
    55bfe984d2402a9b_F1_dwelling_0_EU_InternalMass,    !- Name
    EU_InternalMass_Construction,    !- Construction Name
    55bfe984d2402a9b_F1_dwelling_0,    !- Zone or ZoneList Name
    ,                         !- Space or SpaceList Name
    142.00367468009097;       !- Surface Area

INTERNALMASS,
    55bfe984d2402a9b_F2_dwelling_0_EU_InternalMass,    !- Name
    EU_InternalMass_Construction,    !- Construction Name
    55bfe984d2402a9b_F2_dwelling_0,    !- Zone or ZoneList Name
    ,                         !- Space or SpaceList Name
    142.00367468009097;       !- Surface Area

SHADING:SITE:DETAILED,
    shade_way/435399153_1,    !- Name
    ,                         !- Transmittance Schedule Name
    autocalculate,            !- Number of Vertices
    439957.1664541942,        !- Vertex 1 Xcoordinate
    4479022.153502166,        !- Vertex 1 Ycoordinate
    9,                        !- Vertex 1 Zcoordinate
    439957.1664541942,        !- Vertex 2 Xcoordinate
    4479022.153502166,        !- Vertex 2 Ycoordinate
    0,                        !- Vertex 2 Zcoordinate
    439952.1954059929,        !- Vertex 3 Xcoordinate
    4479058.093995311,        !- Vertex 3 Ycoordinate
    0,                        !- Vertex 3 Zcoordinate
    439952.1954059929,        !- Vertex 4 Xcoordinate
    4479058.093995311,        !- Vertex 4 Ycoordinate
    9;                        !- Vertex 4 Zcoordinate

SHADING:SITE:DETAILED,
    shade_way/435399153_2,    !- Name
    ,                         !- Transmittance Schedule Name
    autocalculate,            !- Number of Vertices
    439952.1954059929,        !- Vertex 1 Xcoordinate
    4479058.093995311,        !- Vertex 1 Ycoordinate
    9,                        !- Vertex 1 Zcoordinate
    439952.1954059929,        !- Vertex 2 Xcoordinate
    4479058.093995311,        !- Vertex 2 Ycoordinate
    0,                        !- Vertex 2 Zcoordinate
    439975.9377811061,        !- Vertex 3 Xcoordinate
    4479061.377881562,        !- Vertex 3 Ycoordinate
    0,                        !- Vertex 3 Zcoordinate
    439975.9377811061,        !- Vertex 4 Xcoordinate
    4479061.377881562,        !- Vertex 4 Ycoordinate
    9;                        !- Vertex 4 Zcoordinate

SHADING:SITE:DETAILED,
    shade_way/435399153_3,    !- Name
    ,                         !- Transmittance Schedule Name
    autocalculate,            !- Number of Vertices
    439975.9377811061,        !- Vertex 1 Xcoordinate
    4479061.377881562,        !- Vertex 1 Ycoordinate
    9,                        !- Vertex 1 Zcoordinate
    439975.9377811061,        !- Vertex 2 Xcoordinate
    4479061.377881562,        !- Vertex 2 Ycoordinate
    0,                        !- Vertex 2 Zcoordinate
    439980.90882930736,       !- Vertex 3 Xcoordinate
    4479025.437388417,        !- Vertex 3 Ycoordinate
    0,                        !- Vertex 3 Zcoordinate
    439980.90882930736,       !- Vertex 4 Xcoordinate
    4479025.437388417,        !- Vertex 4 Ycoordinate
    9;                        !- Vertex 4 Zcoordinate

SHADING:SITE:DETAILED,
    shade_way/435399153_4,    !- Name
    ,                         !- Transmittance Schedule Name
    autocalculate,            !- Number of Vertices
    439980.90882930736,       !- Vertex 1 Xcoordinate
    4479025.437388417,        !- Vertex 1 Ycoordinate
    9,                        !- Vertex 1 Zcoordinate
    439980.90882930736,       !- Vertex 2 Xcoordinate
    4479025.437388417,        !- Vertex 2 Ycoordinate
    0,                        !- Vertex 2 Zcoordinate
    439957.1664541942,        !- Vertex 3 Xcoordinate
    4479022.153502166,        !- Vertex 3 Ycoordinate
    0,                        !- Vertex 3 Zcoordinate
    439957.1664541942,        !- Vertex 4 Xcoordinate
    4479022.153502166,        !- Vertex 4 Ycoordinate
    9;                        !- Vertex 4 Zcoordinate

SHADING:SITE:DETAILED,
    shade_way/435449438_1,    !- Name
    ,                         !- Transmittance Schedule Name
    autocalculate,            !- Number of Vertices
    439901.36314445315,       !- Vertex 1 Xcoordinate
    4478987.569929053,        !- Vertex 1 Ycoordinate
    15,                       !- Vertex 1 Zcoordinate
    439901.36314445315,       !- Vertex 2 Xcoordinate
    4478987.569929053,        !- Vertex 2 Ycoordinate
    0,                        !- Vertex 2 Zcoordinate
    439898.92239276145,       !- Vertex 3 Xcoordinate
    4479003.058233819,        !- Vertex 3 Ycoordinate
    0,                        !- Vertex 3 Zcoordinate
    439898.92239276145,       !- Vertex 4 Xcoordinate
    4479003.058233819,        !- Vertex 4 Ycoordinate
    15;                       !- Vertex 4 Zcoordinate

SHADING:SITE:DETAILED,
    shade_way/435449438_2,    !- Name
    ,                         !- Transmittance Schedule Name
    autocalculate,            !- Number of Vertices
    439898.92239276145,       !- Vertex 1 Xcoordinate
    4479003.058233819,        !- Vertex 1 Ycoordinate
    15,                       !- Vertex 1 Zcoordinate
    439898.92239276145,       !- Vertex 2 Xcoordinate
    4479003.058233819,        !- Vertex 2 Ycoordinate
    0,                        !- Vertex 2 Zcoordinate
    439910.4980140478,        !- Vertex 3 Xcoordinate
    4479004.8822479155,       !- Vertex 3 Ycoordinate
    0,                        !- Vertex 3 Zcoordinate
    439910.4980140478,        !- Vertex 4 Xcoordinate
    4479004.8822479155,       !- Vertex 4 Ycoordinate
    15;                       !- Vertex 4 Zcoordinate

SHADING:SITE:DETAILED,
    shade_way/435449438_3,    !- Name
    ,                         !- Transmittance Schedule Name
    autocalculate,            !- Number of Vertices
    439910.4980140478,        !- Vertex 1 Xcoordinate
    4479004.8822479155,       !- Vertex 1 Ycoordinate
    15,                       !- Vertex 1 Zcoordinate
    439910.4980140478,        !- Vertex 2 Xcoordinate
    4479004.8822479155,       !- Vertex 2 Ycoordinate
    0,                        !- Vertex 2 Zcoordinate
    439912.9383808282,        !- Vertex 3 Xcoordinate
    4478989.393718933,        !- Vertex 3 Ycoordinate
    0,                        !- Vertex 3 Zcoordinate
    439912.9383808282,        !- Vertex 4 Xcoordinate
    4478989.393718933,        !- Vertex 4 Ycoordinate
    15;                       !- Vertex 4 Zcoordinate

SHADING:SITE:DETAILED,
    shade_way/435449438_4,    !- Name
    ,                         !- Transmittance Schedule Name
    autocalculate,            !- Number of Vertices
    439912.9383808282,        !- Vertex 1 Xcoordinate
    4478989.393718933,        !- Vertex 1 Ycoordinate
    15,                       !- Vertex 1 Zcoordinate
    439912.9383808282,        !- Vertex 2 Xcoordinate
    4478989.393718933,        !- Vertex 2 Ycoordinate
    0,                        !- Vertex 2 Zcoordinate
    439901.36314445315,       !- Vertex 3 Xcoordinate
    4478987.569929053,        !- Vertex 3 Ycoordinate
    0,                        !- Vertex 3 Zcoordinate
    439901.36314445315,       !- Vertex 4 Xcoordinate
    4478987.569929053,        !- Vertex 4 Ycoordinate
    15;                       !- Vertex 4 Zcoordinate

SHADING:SITE:DETAILED,
    shade_way/435449439_1,    !- Name
    ,                         !- Transmittance Schedule Name
    autocalculate,            !- Number of Vertices
    439919.75160768867,       !- Vertex 1 Xcoordinate
    4479006.611873694,        !- Vertex 1 Ycoordinate
    12,                       !- Vertex 1 Zcoordinate
    439919.75160768867,       !- Vertex 2 Xcoordinate
    4479006.611873694,        !- Vertex 2 Ycoordinate
    0,                        !- Vertex 2 Zcoordinate
    439922.1218719987,        !- Vertex 3 Xcoordinate
    4478994.679648846,        !- Vertex 3 Ycoordinate
    0,                        !- Vertex 3 Zcoordinate
    439922.1218719987,        !- Vertex 4 Xcoordinate
    4478994.679648846,        !- Vertex 4 Ycoordinate
    12;                       !- Vertex 4 Zcoordinate

SHADING:SITE:DETAILED,
    shade_way/435449439_2,    !- Name
    ,                         !- Transmittance Schedule Name
    autocalculate,            !- Number of Vertices
    439922.1218719987,        !- Vertex 1 Xcoordinate
    4478994.679648846,        !- Vertex 1 Ycoordinate
    12,                       !- Vertex 1 Zcoordinate
    439922.1218719987,        !- Vertex 2 Xcoordinate
    4478994.679648846,        !- Vertex 2 Ycoordinate
    0,                        !- Vertex 2 Zcoordinate
    439912.38710249495,       !- Vertex 3 Xcoordinate
    4478992.746175317,        !- Vertex 3 Ycoordinate
    0,                        !- Vertex 3 Zcoordinate
    439912.38710249495,       !- Vertex 4 Xcoordinate
    4478992.746175317,        !- Vertex 4 Ycoordinate
    12;                       !- Vertex 4 Zcoordinate

SHADING:SITE:DETAILED,
    shade_way/435449439_3,    !- Name
    ,                         !- Transmittance Schedule Name
    autocalculate,            !- Number of Vertices
    439912.38710249495,       !- Vertex 1 Xcoordinate
    4478992.746175317,        !- Vertex 1 Ycoordinate
    12,                       !- Vertex 1 Zcoordinate
    439912.38710249495,       !- Vertex 2 Xcoordinate
    4478992.746175317,        !- Vertex 2 Ycoordinate
    0,                        !- Vertex 2 Zcoordinate
    439910.01761882426,       !- Vertex 3 Xcoordinate
    4479004.678677967,        !- Vertex 3 Ycoordinate
    0,                        !- Vertex 3 Zcoordinate
    439910.01761882426,       !- Vertex 4 Xcoordinate
    4479004.678677967,        !- Vertex 4 Ycoordinate
    12;                       !- Vertex 4 Zcoordinate

SHADING:SITE:DETAILED,
    shade_way/435449439_4,    !- Name
    ,                         !- Transmittance Schedule Name
    autocalculate,            !- Number of Vertices
    439910.01761882426,       !- Vertex 1 Xcoordinate
    4479004.678677967,        !- Vertex 1 Ycoordinate
    12,                       !- Vertex 1 Zcoordinate
    439910.01761882426,       !- Vertex 2 Xcoordinate
    4479004.678677967,        !- Vertex 2 Ycoordinate
    0,                        !- Vertex 2 Zcoordinate
    439919.75160768867,       !- Vertex 3 Xcoordinate
    4479006.611873694,        !- Vertex 3 Ycoordinate
    0,                        !- Vertex 3 Zcoordinate
    439919.75160768867,       !- Vertex 4 Xcoordinate
    4479006.611873694,        !- Vertex 4 Ycoordinate
    12;                       !- Vertex 4 Zcoordinate

SHADING:SITE:DETAILED,
    shade_relation/12771675_1,    !- Name
    ,                         !- Transmittance Schedule Name
    autocalculate,            !- Number of Vertices
    439926.4263959579,        !- Vertex 1 Xcoordinate
    4478995.3777535455,       !- Vertex 1 Ycoordinate
    9,                        !- Vertex 1 Zcoordinate
    439926.4263959579,        !- Vertex 2 Xcoordinate
    4478995.3777535455,       !- Vertex 2 Ycoordinate
    0,                        !- Vertex 2 Zcoordinate
    439923.70219065796,       !- Vertex 3 Xcoordinate
    4479006.7001861455,       !- Vertex 3 Ycoordinate
    0,                        !- Vertex 3 Zcoordinate
    439923.70219065796,       !- Vertex 4 Xcoordinate
    4479006.7001861455,       !- Vertex 4 Ycoordinate
    9;                        !- Vertex 4 Zcoordinate

SHADING:SITE:DETAILED,
    shade_relation/12771675_2,    !- Name
    ,                         !- Transmittance Schedule Name
    autocalculate,            !- Number of Vertices
    439923.70219065796,       !- Vertex 1 Xcoordinate
    4479006.7001861455,       !- Vertex 1 Ycoordinate
    9,                        !- Vertex 1 Zcoordinate
    439923.70219065796,       !- Vertex 2 Xcoordinate
    4479006.7001861455,       !- Vertex 2 Ycoordinate
    0,                        !- Vertex 2 Zcoordinate
    439948.9410654228,        !- Vertex 3 Xcoordinate
    4479012.772830561,        !- Vertex 3 Ycoordinate
    0,                        !- Vertex 3 Zcoordinate
    439948.9410654228,        !- Vertex 4 Xcoordinate
    4479012.772830561,        !- Vertex 4 Ycoordinate
    9;                        !- Vertex 4 Zcoordinate

SHADING:SITE:DETAILED,
    shade_relation/12771675_3,    !- Name
    ,                         !- Transmittance Schedule Name
    autocalculate,            !- Number of Vertices
    439948.9410654228,        !- Vertex 1 Xcoordinate
    4479012.772830561,        !- Vertex 1 Ycoordinate
    9,                        !- Vertex 1 Zcoordinate
    439948.9410654228,        !- Vertex 2 Xcoordinate
    4479012.772830561,        !- Vertex 2 Ycoordinate
    0,                        !- Vertex 2 Zcoordinate
    439951.6652707225,        !- Vertex 3 Xcoordinate
    4479001.450397963,        !- Vertex 3 Ycoordinate
    0,                        !- Vertex 3 Zcoordinate
    439951.6652707225,        !- Vertex 4 Xcoordinate
    4479001.450397963,        !- Vertex 4 Ycoordinate
    9;                        !- Vertex 4 Zcoordinate

SHADING:SITE:DETAILED,
    shade_relation/12771675_4,    !- Name
    ,                         !- Transmittance Schedule Name
    autocalculate,            !- Number of Vertices
    439951.6652707225,        !- Vertex 1 Xcoordinate
    4479001.450397963,        !- Vertex 1 Ycoordinate
    9,                        !- Vertex 1 Zcoordinate
    439951.6652707225,        !- Vertex 2 Xcoordinate
    4479001.450397963,        !- Vertex 2 Ycoordinate
    0,                        !- Vertex 2 Zcoordinate
    439926.4263959579,        !- Vertex 3 Xcoordinate
    4478995.3777535455,       !- Vertex 3 Ycoordinate
    0,                        !- Vertex 3 Zcoordinate
    439926.4263959579,        !- Vertex 4 Xcoordinate
    4478995.3777535455,       !- Vertex 4 Ycoordinate
    9;                        !- Vertex 4 Zcoordinate

SHADING:SITE:DETAILED,
    shade_way/435449623_1,    !- Name
    ,                         !- Transmittance Schedule Name
    autocalculate,            !- Number of Vertices
    439905.52200130164,       !- Vertex 1 Xcoordinate
    4479034.042967996,        !- Vertex 1 Ycoordinate
    15,                       !- Vertex 1 Zcoordinate
    439905.52200130164,       !- Vertex 2 Xcoordinate
    4479034.042967996,        !- Vertex 2 Ycoordinate
    0,                        !- Vertex 2 Zcoordinate
    439908.34254890174,       !- Vertex 3 Xcoordinate
    4479015.488513183,        !- Vertex 3 Ycoordinate
    0,                        !- Vertex 3 Zcoordinate
    439908.34254890174,       !- Vertex 4 Xcoordinate
    4479015.488513183,        !- Vertex 4 Ycoordinate
    15;                       !- Vertex 4 Zcoordinate

SHADING:SITE:DETAILED,
    shade_way/435449623_2,    !- Name
    ,                         !- Transmittance Schedule Name
    autocalculate,            !- Number of Vertices
    439908.34254890174,       !- Vertex 1 Xcoordinate
    4479015.488513183,        !- Vertex 1 Ycoordinate
    15,                       !- Vertex 1 Zcoordinate
    439908.34254890174,       !- Vertex 2 Xcoordinate
    4479015.488513183,        !- Vertex 2 Ycoordinate
    0,                        !- Vertex 2 Zcoordinate
    439893.0427011115,        !- Vertex 3 Xcoordinate
    4479013.162729023,        !- Vertex 3 Ycoordinate
    0,                        !- Vertex 3 Zcoordinate
    439893.0427011115,        !- Vertex 4 Xcoordinate
    4479013.162729023,        !- Vertex 4 Ycoordinate
    15;                       !- Vertex 4 Zcoordinate

SHADING:SITE:DETAILED,
    shade_way/435449623_3,    !- Name
    ,                         !- Transmittance Schedule Name
    autocalculate,            !- Number of Vertices
    439893.0427011115,        !- Vertex 1 Xcoordinate
    4479013.162729023,        !- Vertex 1 Ycoordinate
    15,                       !- Vertex 1 Zcoordinate
    439893.0427011115,        !- Vertex 2 Xcoordinate
    4479013.162729023,        !- Vertex 2 Ycoordinate
    0,                        !- Vertex 2 Zcoordinate
    439890.22256688576,       !- Vertex 3 Xcoordinate
    4479031.717609406,        !- Vertex 3 Ycoordinate
    0,                        !- Vertex 3 Zcoordinate
    439890.22256688576,       !- Vertex 4 Xcoordinate
    4479031.717609406,        !- Vertex 4 Ycoordinate
    15;                       !- Vertex 4 Zcoordinate

SHADING:SITE:DETAILED,
    shade_way/435449623_4,    !- Name
    ,                         !- Transmittance Schedule Name
    autocalculate,            !- Number of Vertices
    439890.22256688576,       !- Vertex 1 Xcoordinate
    4479031.717609406,        !- Vertex 1 Ycoordinate
    15,                       !- Vertex 1 Zcoordinate
    439890.22256688576,       !- Vertex 2 Xcoordinate
    4479031.717609406,        !- Vertex 2 Ycoordinate
    0,                        !- Vertex 2 Zcoordinate
    439905.52200130164,       !- Vertex 3 Xcoordinate
    4479034.042967996,        !- Vertex 3 Ycoordinate
    0,                        !- Vertex 3 Zcoordinate
    439905.52200130164,       !- Vertex 4 Xcoordinate
    4479034.042967996,        !- Vertex 4 Ycoordinate
    15;                       !- Vertex 4 Zcoordinate

SHADING:SITE:DETAILED,
    shade_way/435449622_1,    !- Name
    ,                         !- Transmittance Schedule Name
    autocalculate,            !- Number of Vertices
    439917.2756790129,        !- Vertex 1 Xcoordinate
    4479040.000648246,        !- Vertex 1 Ycoordinate
    15,                       !- Vertex 1 Zcoordinate
    439917.2756790129,        !- Vertex 2 Xcoordinate
    4479040.000648246,        !- Vertex 2 Ycoordinate
    0,                        !- Vertex 2 Zcoordinate
    439920.96541747695,       !- Vertex 3 Xcoordinate
    4479017.512086143,        !- Vertex 3 Ycoordinate
    0,                        !- Vertex 3 Zcoordinate
    439920.96541747695,       !- Vertex 4 Xcoordinate
    4479017.512086143,        !- Vertex 4 Ycoordinate
    15;                       !- Vertex 4 Zcoordinate

SHADING:SITE:DETAILED,
    shade_way/435449622_2,    !- Name
    ,                         !- Transmittance Schedule Name
    autocalculate,            !- Number of Vertices
    439920.96541747695,       !- Vertex 1 Xcoordinate
    4479017.512086143,        !- Vertex 1 Ycoordinate
    15,                       !- Vertex 1 Zcoordinate
    439920.96541747695,       !- Vertex 2 Xcoordinate
    4479017.512086143,        !- Vertex 2 Ycoordinate
    0,                        !- Vertex 2 Zcoordinate
    439908.35076591896,       !- Vertex 3 Xcoordinate
    4479015.44249489,         !- Vertex 3 Ycoordinate
    0,                        !- Vertex 3 Zcoordinate
    439908.35076591896,       !- Vertex 4 Xcoordinate
    4479015.44249489,         !- Vertex 4 Ycoordinate
    15;                       !- Vertex 4 Zcoordinate

SHADING:SITE:DETAILED,
    shade_way/435449622_3,    !- Name
    ,                         !- Transmittance Schedule Name
    autocalculate,            !- Number of Vertices
    439908.35076591896,       !- Vertex 1 Xcoordinate
    4479015.44249489,         !- Vertex 1 Ycoordinate
    15,                       !- Vertex 1 Zcoordinate
    439908.35076591896,       !- Vertex 2 Xcoordinate
    4479015.44249489,         !- Vertex 2 Ycoordinate
    0,                        !- Vertex 2 Zcoordinate
    439904.66147803457,       !- Vertex 3 Xcoordinate
    4479037.931287792,        !- Vertex 3 Ycoordinate
    0,                        !- Vertex 3 Zcoordinate
    439904.66147803457,       !- Vertex 4 Xcoordinate
    4479037.931287792,        !- Vertex 4 Ycoordinate
    15;                       !- Vertex 4 Zcoordinate

SHADING:SITE:DETAILED,
    shade_way/435449622_4,    !- Name
    ,                         !- Transmittance Schedule Name
    autocalculate,            !- Number of Vertices
    439904.66147803457,       !- Vertex 1 Xcoordinate
    4479037.931287792,        !- Vertex 1 Ycoordinate
    15,                       !- Vertex 1 Zcoordinate
    439904.66147803457,       !- Vertex 2 Xcoordinate
    4479037.931287792,        !- Vertex 2 Ycoordinate
    0,                        !- Vertex 2 Zcoordinate
    439917.2756790129,        !- Vertex 3 Xcoordinate
    4479040.000648246,        !- Vertex 3 Ycoordinate
    0,                        !- Vertex 3 Zcoordinate
    439917.2756790129,        !- Vertex 4 Xcoordinate
    4479040.000648246,        !- Vertex 4 Ycoordinate
    15;                       !- Vertex 4 Zcoordinate

SHADING:SITE:DETAILED,
    shade_way/949683584_1,    !- Name
    ,                         !- Transmittance Schedule Name
    autocalculate,            !- Number of Vertices
    439930.02295745246,       !- Vertex 1 Xcoordinate
    4479027.252466367,        !- Vertex 1 Ycoordinate
    12,                       !- Vertex 1 Zcoordinate
    439930.02295745246,       !- Vertex 2 Xcoordinate
    4479027.252466367,        !- Vertex 2 Ycoordinate
    0,                        !- Vertex 2 Zcoordinate
    439928.9293768823,        !- Vertex 3 Xcoordinate
    4479034.676547717,        !- Vertex 3 Ycoordinate
    0,                        !- Vertex 3 Zcoordinate
    439928.9293768823,        !- Vertex 4 Xcoordinate
    4479034.676547717,        !- Vertex 4 Ycoordinate
    12;                       !- Vertex 4 Zcoordinate

SHADING:SITE:DETAILED,
    shade_way/949683584_2,    !- Name
    ,                         !- Transmittance Schedule Name
    autocalculate,            !- Number of Vertices
    439928.9293768823,        !- Vertex 1 Xcoordinate
    4479034.676547717,        !- Vertex 1 Ycoordinate
    12,                       !- Vertex 1 Zcoordinate
    439928.9293768823,        !- Vertex 2 Xcoordinate
    4479034.676547717,        !- Vertex 2 Ycoordinate
    0,                        !- Vertex 2 Zcoordinate
    439935.7566953046,        !- Vertex 3 Xcoordinate
    4479035.682282677,        !- Vertex 3 Ycoordinate
    0,                        !- Vertex 3 Zcoordinate
    439935.7566953046,        !- Vertex 4 Xcoordinate
    4479035.682282677,        !- Vertex 4 Ycoordinate
    12;                       !- Vertex 4 Zcoordinate

SHADING:SITE:DETAILED,
    shade_way/949683584_3,    !- Name
    ,                         !- Transmittance Schedule Name
    autocalculate,            !- Number of Vertices
    439935.7566953046,        !- Vertex 1 Xcoordinate
    4479035.682282677,        !- Vertex 1 Ycoordinate
    12,                       !- Vertex 1 Zcoordinate
    439935.7566953046,        !- Vertex 2 Xcoordinate
    4479035.682282677,        !- Vertex 2 Ycoordinate
    0,                        !- Vertex 2 Zcoordinate
    439936.85027587396,       !- Vertex 3 Xcoordinate
    4479028.258201326,        !- Vertex 3 Ycoordinate
    0,                        !- Vertex 3 Zcoordinate
    439936.85027587396,       !- Vertex 4 Xcoordinate
    4479028.258201326,        !- Vertex 4 Ycoordinate
    12;                       !- Vertex 4 Zcoordinate

SHADING:SITE:DETAILED,
    shade_way/949683584_4,    !- Name
    ,                         !- Transmittance Schedule Name
    autocalculate,            !- Number of Vertices
    439936.85027587396,       !- Vertex 1 Xcoordinate
    4479028.258201326,        !- Vertex 1 Ycoordinate
    12,                       !- Vertex 1 Zcoordinate
    439936.85027587396,       !- Vertex 2 Xcoordinate
    4479028.258201326,        !- Vertex 2 Ycoordinate
    0,                        !- Vertex 2 Zcoordinate
    439930.02295745246,       !- Vertex 3 Xcoordinate
    4479027.252466367,        !- Vertex 3 Ycoordinate
    0,                        !- Vertex 3 Zcoordinate
    439930.02295745246,       !- Vertex 4 Xcoordinate
    4479027.252466367,        !- Vertex 4 Ycoordinate
    12;                       !- Vertex 4 Zcoordinate

SHADING:SITE:DETAILED,
    shade_way/949683583_1,    !- Name
    ,                         !- Transmittance Schedule Name
    autocalculate,            !- Number of Vertices
    439919.6384943852,        !- Vertex 1 Xcoordinate
    4479025.56645035,         !- Vertex 1 Ycoordinate
    12,                       !- Vertex 1 Zcoordinate
    439919.6384943852,        !- Vertex 2 Xcoordinate
    4479025.56645035,         !- Vertex 2 Ycoordinate
    0,                        !- Vertex 2 Zcoordinate
    439916.09054274525,       !- Vertex 3 Xcoordinate
    4479047.115774925,        !- Vertex 3 Ycoordinate
    0,                        !- Vertex 3 Zcoordinate
    439916.09054274525,       !- Vertex 4 Xcoordinate
    4479047.115774925,        !- Vertex 4 Ycoordinate
    12;                       !- Vertex 4 Zcoordinate

SHADING:SITE:DETAILED,
    shade_way/949683583_2,    !- Name
    ,                         !- Transmittance Schedule Name
    autocalculate,            !- Number of Vertices
    439916.09054274525,       !- Vertex 1 Xcoordinate
    4479047.115774925,        !- Vertex 1 Ycoordinate
    12,                       !- Vertex 1 Zcoordinate
    439916.09054274525,       !- Vertex 2 Xcoordinate
    4479047.115774925,        !- Vertex 2 Ycoordinate
    0,                        !- Vertex 2 Zcoordinate
    439928.41053023824,       !- Vertex 3 Xcoordinate
    4479049.14417817,         !- Vertex 3 Ycoordinate
    0,                        !- Vertex 3 Zcoordinate
    439928.41053023824,       !- Vertex 4 Xcoordinate
    4479049.14417817,         !- Vertex 4 Ycoordinate
    12;                       !- Vertex 4 Zcoordinate

SHADING:SITE:DETAILED,
    shade_way/949683583_3,    !- Name
    ,                         !- Transmittance Schedule Name
    autocalculate,            !- Number of Vertices
    439928.41053023824,       !- Vertex 1 Xcoordinate
    4479049.14417817,         !- Vertex 1 Ycoordinate
    12,                       !- Vertex 1 Zcoordinate
    439928.41053023824,       !- Vertex 2 Xcoordinate
    4479049.14417817,         !- Vertex 2 Ycoordinate
    0,                        !- Vertex 2 Zcoordinate
    439931.95848187816,       !- Vertex 3 Xcoordinate
    4479027.594853594,        !- Vertex 3 Ycoordinate
    0,                        !- Vertex 3 Zcoordinate
    439931.95848187816,       !- Vertex 4 Xcoordinate
    4479027.594853594,        !- Vertex 4 Ycoordinate
    12;                       !- Vertex 4 Zcoordinate

SHADING:SITE:DETAILED,
    shade_way/949683583_4,    !- Name
    ,                         !- Transmittance Schedule Name
    autocalculate,            !- Number of Vertices
    439931.95848187816,       !- Vertex 1 Xcoordinate
    4479027.594853594,        !- Vertex 1 Ycoordinate
    12,                       !- Vertex 1 Zcoordinate
    439931.95848187816,       !- Vertex 2 Xcoordinate
    4479027.594853594,        !- Vertex 2 Ycoordinate
    0,                        !- Vertex 2 Zcoordinate
    439919.6384943852,        !- Vertex 3 Xcoordinate
    4479025.56645035,         !- Vertex 3 Ycoordinate
    0,                        !- Vertex 3 Zcoordinate
    439919.6384943852,        !- Vertex 4 Xcoordinate
    4479025.56645035,         !- Vertex 4 Ycoordinate
    12;                       !- Vertex 4 Zcoordinate

SHADING:SITE:DETAILED,
    shade_way/435449619_1,    !- Name
    ,                         !- Transmittance Schedule Name
    autocalculate,            !- Number of Vertices
    439942.6498120713,        !- Vertex 1 Xcoordinate
    4479063.134586991,        !- Vertex 1 Ycoordinate
    9,                        !- Vertex 1 Zcoordinate
    439942.6498120713,        !- Vertex 2 Xcoordinate
    4479063.134586991,        !- Vertex 2 Ycoordinate
    0,                        !- Vertex 2 Zcoordinate
    439948.28051825904,       !- Vertex 3 Xcoordinate
    4479021.613269328,        !- Vertex 3 Ycoordinate
    0,                        !- Vertex 3 Zcoordinate
    439948.28051825904,       !- Vertex 4 Xcoordinate
    4479021.613269328,        !- Vertex 4 Ycoordinate
    9;                        !- Vertex 4 Zcoordinate

SHADING:SITE:DETAILED,
    shade_way/435449619_2,    !- Name
    ,                         !- Transmittance Schedule Name
    autocalculate,            !- Number of Vertices
    439948.28051825904,       !- Vertex 1 Xcoordinate
    4479021.613269328,        !- Vertex 1 Ycoordinate
    9,                        !- Vertex 1 Zcoordinate
    439948.28051825904,       !- Vertex 2 Xcoordinate
    4479021.613269328,        !- Vertex 2 Ycoordinate
    0,                        !- Vertex 2 Zcoordinate
    439937.87728629686,       !- Vertex 3 Xcoordinate
    4479020.202486962,        !- Vertex 3 Ycoordinate
    0,                        !- Vertex 3 Zcoordinate
    439937.87728629686,       !- Vertex 4 Xcoordinate
    4479020.202486962,        !- Vertex 4 Ycoordinate
    9;                        !- Vertex 4 Zcoordinate

SHADING:SITE:DETAILED,
    shade_way/435449619_3,    !- Name
    ,                         !- Transmittance Schedule Name
    autocalculate,            !- Number of Vertices
    439937.87728629686,       !- Vertex 1 Xcoordinate
    4479020.202486962,        !- Vertex 1 Ycoordinate
    9,                        !- Vertex 1 Zcoordinate
    439937.87728629686,       !- Vertex 2 Xcoordinate
    4479020.202486962,        !- Vertex 2 Ycoordinate
    0,                        !- Vertex 2 Zcoordinate
    439932.2465801091,        !- Vertex 3 Xcoordinate
    4479061.723804624,        !- Vertex 3 Ycoordinate
    0,                        !- Vertex 3 Zcoordinate
    439932.2465801091,        !- Vertex 4 Xcoordinate
    4479061.723804624,        !- Vertex 4 Ycoordinate
    9;                        !- Vertex 4 Zcoordinate

SHADING:SITE:DETAILED,
    shade_way/435449619_4,    !- Name
    ,                         !- Transmittance Schedule Name
    autocalculate,            !- Number of Vertices
    439932.2465801091,        !- Vertex 1 Xcoordinate
    4479061.723804624,        !- Vertex 1 Ycoordinate
    9,                        !- Vertex 1 Zcoordinate
    439932.2465801091,        !- Vertex 2 Xcoordinate
    4479061.723804624,        !- Vertex 2 Ycoordinate
    0,                        !- Vertex 2 Zcoordinate
    439942.6498120713,        !- Vertex 3 Xcoordinate
    4479063.134586991,        !- Vertex 3 Ycoordinate
    0,                        !- Vertex 3 Zcoordinate
    439942.6498120713,        !- Vertex 4 Xcoordinate
    4479063.134586991,        !- Vertex 4 Ycoordinate
    9;                        !- Vertex 4 Zcoordinate

SHADING:SITE:DETAILED,
    shade_way/949683582_1,    !- Name
    ,                         !- Transmittance Schedule Name
    autocalculate,            !- Number of Vertices
    439935.4346980079,        !- Vertex 1 Xcoordinate
    4479063.275902742,        !- Vertex 1 Ycoordinate
    12,                       !- Vertex 1 Zcoordinate
    439935.4346980079,        !- Vertex 2 Xcoordinate
    4479063.275902742,        !- Vertex 2 Ycoordinate
    0,                        !- Vertex 2 Zcoordinate
    439939.0027599142,        !- Vertex 3 Xcoordinate
    4479035.76129697,         !- Vertex 3 Ycoordinate
    0,                        !- Vertex 3 Zcoordinate
    439939.0027599142,        !- Vertex 4 Xcoordinate
    4479035.76129697,         !- Vertex 4 Ycoordinate
    12;                       !- Vertex 4 Zcoordinate

SHADING:SITE:DETAILED,
    shade_way/949683582_2,    !- Name
    ,                         !- Transmittance Schedule Name
    autocalculate,            !- Number of Vertices
    439939.0027599142,        !- Vertex 1 Xcoordinate
    4479035.76129697,         !- Vertex 1 Ycoordinate
    12,                       !- Vertex 1 Zcoordinate
    439939.0027599142,        !- Vertex 2 Xcoordinate
    4479035.76129697,         !- Vertex 2 Ycoordinate
    0,                        !- Vertex 2 Zcoordinate
    439928.92558508593,       !- Vertex 3 Xcoordinate
    4479034.454482636,        !- Vertex 3 Ycoordinate
    0,                        !- Vertex 3 Zcoordinate
    439928.92558508593,       !- Vertex 4 Xcoordinate
    4479034.454482636,        !- Vertex 4 Ycoordinate
    12;                       !- Vertex 4 Zcoordinate

SHADING:SITE:DETAILED,
    shade_way/949683582_3,    !- Name
    ,                         !- Transmittance Schedule Name
    autocalculate,            !- Number of Vertices
    439928.92558508593,       !- Vertex 1 Xcoordinate
    4479034.454482636,        !- Vertex 1 Ycoordinate
    12,                       !- Vertex 1 Zcoordinate
    439928.92558508593,       !- Vertex 2 Xcoordinate
    4479034.454482636,        !- Vertex 2 Ycoordinate
    0,                        !- Vertex 2 Zcoordinate
    439925.3572778214,        !- Vertex 3 Xcoordinate
    4479061.968979642,        !- Vertex 3 Ycoordinate
    0,                        !- Vertex 3 Zcoordinate
    439925.3572778214,        !- Vertex 4 Xcoordinate
    4479061.968979642,        !- Vertex 4 Ycoordinate
    12;                       !- Vertex 4 Zcoordinate

SHADING:SITE:DETAILED,
    shade_way/949683582_4,    !- Name
    ,                         !- Transmittance Schedule Name
    autocalculate,            !- Number of Vertices
    439925.3572778214,        !- Vertex 1 Xcoordinate
    4479061.968979642,        !- Vertex 1 Ycoordinate
    12,                       !- Vertex 1 Zcoordinate
    439925.3572778214,        !- Vertex 2 Xcoordinate
    4479061.968979642,        !- Vertex 2 Ycoordinate
    0,                        !- Vertex 2 Zcoordinate
    439935.4346980079,        !- Vertex 3 Xcoordinate
    4479063.275902742,        !- Vertex 3 Ycoordinate
    0,                        !- Vertex 3 Zcoordinate
    439935.4346980079,        !- Vertex 4 Xcoordinate
    4479063.275902742,        !- Vertex 4 Ycoordinate
    12;                       !- Vertex 4 Zcoordinate

OTHEREQUIPMENT,
    EU_Step8_InternalGain_55bfe984d2402a9b_F0_dwelling_0_f000,    !- Name
    Electricity,              !- Fuel Type
    55bfe984d2402a9b_F0_dwelling_0,    !- Zone or ZoneList or Space or SpaceList Name
    EU_Step8_GainSchedule_55bfe984d2402a9b_F0_dwelling_0_f000,    !- Schedule Name
    Watts/Area,               !- Design Level Calculation Method
    ,                         !- Design Level
    1,                        !- Power per Zone Floor Area
    ,                         !- Power per Person
    0,                        !- Fraction Latent
    0,                        !- Fraction Radiant
    0,                        !- Fraction Lost
    0,                        !- Carbon Dioxide Generation Rate
    EU_Step8_InternalGains;    !- EndUse Subcategory

OTHEREQUIPMENT,
    EU_Step8_InternalGain_55bfe984d2402a9b_F0_dwelling_1_f000,    !- Name
    Electricity,              !- Fuel Type
    55bfe984d2402a9b_F0_dwelling_1,    !- Zone or ZoneList or Space or SpaceList Name
    EU_Step8_GainSchedule_55bfe984d2402a9b_F0_dwelling_1_f000,    !- Schedule Name
    Watts/Area,               !- Design Level Calculation Method
    ,                         !- Design Level
    1,                        !- Power per Zone Floor Area
    ,                         !- Power per Person
    0,                        !- Fraction Latent
    0,                        !- Fraction Radiant
    0,                        !- Fraction Lost
    0,                        !- Carbon Dioxide Generation Rate
    EU_Step8_InternalGains;    !- EndUse Subcategory

OTHEREQUIPMENT,
    EU_Step8_InternalGain_55bfe984d2402a9b_F1_dwelling_0_f000,    !- Name
    Electricity,              !- Fuel Type
    55bfe984d2402a9b_F1_dwelling_0,    !- Zone or ZoneList or Space or SpaceList Name
    EU_Step8_GainSchedule_55bfe984d2402a9b_F1_dwelling_0_f000,    !- Schedule Name
    Watts/Area,               !- Design Level Calculation Method
    ,                         !- Design Level
    1,                        !- Power per Zone Floor Area
    ,                         !- Power per Person
    0,                        !- Fraction Latent
    0,                        !- Fraction Radiant
    0,                        !- Fraction Lost
    0,                        !- Carbon Dioxide Generation Rate
    EU_Step8_InternalGains;    !- EndUse Subcategory

OTHEREQUIPMENT,
    EU_Step8_InternalGain_55bfe984d2402a9b_F2_dwelling_0_f000,    !- Name
    Electricity,              !- Fuel Type
    55bfe984d2402a9b_F2_dwelling_0,    !- Zone or ZoneList or Space or SpaceList Name
    EU_Step8_GainSchedule_55bfe984d2402a9b_F2_dwelling_0_f000,    !- Schedule Name
    Watts/Area,               !- Design Level Calculation Method
    ,                         !- Design Level
    1,                        !- Power per Zone Floor Area
    ,                         !- Power per Person
    0,                        !- Fraction Latent
    0,                        !- Fraction Radiant
    0,                        !- Fraction Lost
    0,                        !- Carbon Dioxide Generation Rate
    EU_Step8_InternalGains;    !- EndUse Subcategory

ZONEINFILTRATION:DESIGNFLOWRATE,
    EU_Circulation_Infiltration_55bfe984d2402a9b_F0_circulation,    !- Name
    55bfe984d2402a9b_F0_circulation,    !- Zone or ZoneList or Space or SpaceList Name
    EU_AlwaysOn,              !- Schedule Name
    Flow/Area,                !- Design Flow Rate Calculation Method
    ,                         !- Design Flow Rate
    0.0005,                   !- Flow Rate per Floor Area
    ,                         !- Flow Rate per Exterior Surface Area
    ,                         !- Air Changes per Hour
    1,                        !- Constant Term Coefficient
    0,                        !- Temperature Term Coefficient
    0,                        !- Velocity Term Coefficient
    0;                        !- Velocity Squared Term Coefficient

ZONEVENTILATION:DESIGNFLOWRATE,
    EU_ConstantAir_55bfe984d2402a9b_F0_dwelling_0,    !- Name
    55bfe984d2402a9b_F0_dwelling_0,    !- Zone or ZoneList or Space or SpaceList Name
    EU_AlwaysOn,              !- Schedule Name
    AirChanges/Hour,          !- Design Flow Rate Calculation Method
    ,                         !- Design Flow Rate
    ,                         !- Flow Rate per Floor Area
    ,                         !- Flow Rate per Person
    0.7191608241903235,       !- Air Changes per Hour
    Natural,                  !- Ventilation Type
    0,                        !- Fan Pressure Rise
    1,                        !- Fan Total Efficiency
    1,                        !- Constant Term Coefficient
    0,                        !- Temperature Term Coefficient
    0,                        !- Velocity Term Coefficient
    0,                        !- Velocity Squared Term Coefficient
    -100,                     !- Minimum Indoor Temperature
    ,                         !- Minimum Indoor Temperature Schedule Name
    100,                      !- Maximum Indoor Temperature
    ,                         !- Maximum Indoor Temperature Schedule Name
    -100,                     !- Delta Temperature
    ,                         !- Delta Temperature Schedule Name
    -100,                     !- Minimum Outdoor Temperature
    ,                         !- Minimum Outdoor Temperature Schedule Name
    100,                      !- Maximum Outdoor Temperature
    ,                         !- Maximum Outdoor Temperature Schedule Name
    40;                       !- Maximum Wind Speed

ZONEVENTILATION:DESIGNFLOWRATE,
    EU_ConstantAir_55bfe984d2402a9b_F0_dwelling_1,    !- Name
    55bfe984d2402a9b_F0_dwelling_1,    !- Zone or ZoneList or Space or SpaceList Name
    EU_AlwaysOn,              !- Schedule Name
    AirChanges/Hour,          !- Design Flow Rate Calculation Method
    ,                         !- Design Flow Rate
    ,                         !- Flow Rate per Floor Area
    ,                         !- Flow Rate per Person
    0.7191608241903235,       !- Air Changes per Hour
    Natural,                  !- Ventilation Type
    0,                        !- Fan Pressure Rise
    1,                        !- Fan Total Efficiency
    1,                        !- Constant Term Coefficient
    0,                        !- Temperature Term Coefficient
    0,                        !- Velocity Term Coefficient
    0,                        !- Velocity Squared Term Coefficient
    -100,                     !- Minimum Indoor Temperature
    ,                         !- Minimum Indoor Temperature Schedule Name
    100,                      !- Maximum Indoor Temperature
    ,                         !- Maximum Indoor Temperature Schedule Name
    -100,                     !- Delta Temperature
    ,                         !- Delta Temperature Schedule Name
    -100,                     !- Minimum Outdoor Temperature
    ,                         !- Minimum Outdoor Temperature Schedule Name
    100,                      !- Maximum Outdoor Temperature
    ,                         !- Maximum Outdoor Temperature Schedule Name
    40;                       !- Maximum Wind Speed

ZONEVENTILATION:DESIGNFLOWRATE,
    EU_ConstantAir_55bfe984d2402a9b_F1_dwelling_0,    !- Name
    55bfe984d2402a9b_F1_dwelling_0,    !- Zone or ZoneList or Space or SpaceList Name
    EU_AlwaysOn,              !- Schedule Name
    AirChanges/Hour,          !- Design Flow Rate Calculation Method
    ,                         !- Design Flow Rate
    ,                         !- Flow Rate per Floor Area
    ,                         !- Flow Rate per Person
    0.7191608241903235,       !- Air Changes per Hour
    Natural,                  !- Ventilation Type
    0,                        !- Fan Pressure Rise
    1,                        !- Fan Total Efficiency
    1,                        !- Constant Term Coefficient
    0,                        !- Temperature Term Coefficient
    0,                        !- Velocity Term Coefficient
    0,                        !- Velocity Squared Term Coefficient
    -100,                     !- Minimum Indoor Temperature
    ,                         !- Minimum Indoor Temperature Schedule Name
    100,                      !- Maximum Indoor Temperature
    ,                         !- Maximum Indoor Temperature Schedule Name
    -100,                     !- Delta Temperature
    ,                         !- Delta Temperature Schedule Name
    -100,                     !- Minimum Outdoor Temperature
    ,                         !- Minimum Outdoor Temperature Schedule Name
    100,                      !- Maximum Outdoor Temperature
    ,                         !- Maximum Outdoor Temperature Schedule Name
    40;                       !- Maximum Wind Speed

ZONEVENTILATION:DESIGNFLOWRATE,
    EU_ConstantAir_55bfe984d2402a9b_F2_dwelling_0,    !- Name
    55bfe984d2402a9b_F2_dwelling_0,    !- Zone or ZoneList or Space or SpaceList Name
    EU_AlwaysOn,              !- Schedule Name
    AirChanges/Hour,          !- Design Flow Rate Calculation Method
    ,                         !- Design Flow Rate
    ,                         !- Flow Rate per Floor Area
    ,                         !- Flow Rate per Person
    0.7191608241903235,       !- Air Changes per Hour
    Natural,                  !- Ventilation Type
    0,                        !- Fan Pressure Rise
    1,                        !- Fan Total Efficiency
    1,                        !- Constant Term Coefficient
    0,                        !- Temperature Term Coefficient
    0,                        !- Velocity Term Coefficient
    0,                        !- Velocity Squared Term Coefficient
    -100,                     !- Minimum Indoor Temperature
    ,                         !- Minimum Indoor Temperature Schedule Name
    100,                      !- Maximum Indoor Temperature
    ,                         !- Maximum Indoor Temperature Schedule Name
    -100,                     !- Delta Temperature
    ,                         !- Delta Temperature Schedule Name
    -100,                     !- Minimum Outdoor Temperature
    ,                         !- Minimum Outdoor Temperature Schedule Name
    100,                      !- Maximum Outdoor Temperature
    ,                         !- Maximum Outdoor Temperature Schedule Name
    40;                       !- Maximum Wind Speed

HVACTEMPLATE:THERMOSTAT,
    EU_HeatOnly_55bfe984d2402a9b_F0_dwelling_0,    !- Name
    ,                         !- Heating Setpoint Schedule Name
    20,                       !- Constant Heating Setpoint
    ,                         !- Cooling Setpoint Schedule Name
    50;                       !- Constant Cooling Setpoint

HVACTEMPLATE:THERMOSTAT,
    EU_HeatOnly_55bfe984d2402a9b_F0_dwelling_1,    !- Name
    ,                         !- Heating Setpoint Schedule Name
    20,                       !- Constant Heating Setpoint
    ,                         !- Cooling Setpoint Schedule Name
    50;                       !- Constant Cooling Setpoint

HVACTEMPLATE:THERMOSTAT,
    EU_HeatOnly_55bfe984d2402a9b_F1_dwelling_0,    !- Name
    ,                         !- Heating Setpoint Schedule Name
    20,                       !- Constant Heating Setpoint
    ,                         !- Cooling Setpoint Schedule Name
    50;                       !- Constant Cooling Setpoint

HVACTEMPLATE:THERMOSTAT,
    EU_HeatOnly_55bfe984d2402a9b_F2_dwelling_0,    !- Name
    ,                         !- Heating Setpoint Schedule Name
    20,                       !- Constant Heating Setpoint
    ,                         !- Cooling Setpoint Schedule Name
    50;                       !- Constant Cooling Setpoint

HVACTEMPLATE:ZONE:IDEALLOADSAIRSYSTEM,
    55bfe984d2402a9b_F0_dwelling_0,    !- Zone Name
    EU_HeatOnly_55bfe984d2402a9b_F0_dwelling_0,    !- Template Thermostat Name
    EU_AlwaysOn,              !- System Availability Schedule Name
    50,                       !- Maximum Heating Supply Air Temperature
    13,                       !- Minimum Cooling Supply Air Temperature
    0.0156,                   !- Maximum Heating Supply Air Humidity Ratio
    0.0077,                   !- Minimum Cooling Supply Air Humidity Ratio
    NoLimit,                  !- Heating Limit
    ,                         !- Maximum Heating Air Flow Rate
    ,                         !- Maximum Sensible Heating Capacity
    NoLimit,                  !- Cooling Limit
    ,                         !- Maximum Cooling Air Flow Rate
    ,                         !- Maximum Total Cooling Capacity
    EU_AlwaysOn,              !- Heating Availability Schedule Name
    EU_CoolingOff,            !- Cooling Availability Schedule Name
    ConstantSensibleHeatRatio,    !- Dehumidification Control Type
    0.7,                      !- Cooling Sensible Heat Ratio
    60,                       !- Dehumidification Setpoint
    None,                     !- Humidification Control Type
    30,                       !- Humidification Setpoint
    None,                     !- Outdoor Air Method
    0.00944,                  !- Outdoor Air Flow Rate per Person
    0.0,                      !- Outdoor Air Flow Rate per Zone Floor Area
    0,                        !- Outdoor Air Flow Rate per Zone
    ,                         !- Design Specification Outdoor Air Object Name
    None,                     !- Demand Controlled Ventilation Type
    NoEconomizer,             !- Outdoor Air Economizer Type
    None,                     !- Heat Recovery Type
    0.70,                     !- Sensible Heat Recovery Effectiveness
    0.65;                     !- Latent Heat Recovery Effectiveness

HVACTEMPLATE:ZONE:IDEALLOADSAIRSYSTEM,
    55bfe984d2402a9b_F0_dwelling_1,    !- Zone Name
    EU_HeatOnly_55bfe984d2402a9b_F0_dwelling_1,    !- Template Thermostat Name
    EU_AlwaysOn,              !- System Availability Schedule Name
    50,                       !- Maximum Heating Supply Air Temperature
    13,                       !- Minimum Cooling Supply Air Temperature
    0.0156,                   !- Maximum Heating Supply Air Humidity Ratio
    0.0077,                   !- Minimum Cooling Supply Air Humidity Ratio
    NoLimit,                  !- Heating Limit
    ,                         !- Maximum Heating Air Flow Rate
    ,                         !- Maximum Sensible Heating Capacity
    NoLimit,                  !- Cooling Limit
    ,                         !- Maximum Cooling Air Flow Rate
    ,                         !- Maximum Total Cooling Capacity
    EU_AlwaysOn,              !- Heating Availability Schedule Name
    EU_CoolingOff,            !- Cooling Availability Schedule Name
    ConstantSensibleHeatRatio,    !- Dehumidification Control Type
    0.7,                      !- Cooling Sensible Heat Ratio
    60,                       !- Dehumidification Setpoint
    None,                     !- Humidification Control Type
    30,                       !- Humidification Setpoint
    None,                     !- Outdoor Air Method
    0.00944,                  !- Outdoor Air Flow Rate per Person
    0.0,                      !- Outdoor Air Flow Rate per Zone Floor Area
    0,                        !- Outdoor Air Flow Rate per Zone
    ,                         !- Design Specification Outdoor Air Object Name
    None,                     !- Demand Controlled Ventilation Type
    NoEconomizer,             !- Outdoor Air Economizer Type
    None,                     !- Heat Recovery Type
    0.70,                     !- Sensible Heat Recovery Effectiveness
    0.65;                     !- Latent Heat Recovery Effectiveness

HVACTEMPLATE:ZONE:IDEALLOADSAIRSYSTEM,
    55bfe984d2402a9b_F1_dwelling_0,    !- Zone Name
    EU_HeatOnly_55bfe984d2402a9b_F1_dwelling_0,    !- Template Thermostat Name
    EU_AlwaysOn,              !- System Availability Schedule Name
    50,                       !- Maximum Heating Supply Air Temperature
    13,                       !- Minimum Cooling Supply Air Temperature
    0.0156,                   !- Maximum Heating Supply Air Humidity Ratio
    0.0077,                   !- Minimum Cooling Supply Air Humidity Ratio
    NoLimit,                  !- Heating Limit
    ,                         !- Maximum Heating Air Flow Rate
    ,                         !- Maximum Sensible Heating Capacity
    NoLimit,                  !- Cooling Limit
    ,                         !- Maximum Cooling Air Flow Rate
    ,                         !- Maximum Total Cooling Capacity
    EU_AlwaysOn,              !- Heating Availability Schedule Name
    EU_CoolingOff,            !- Cooling Availability Schedule Name
    ConstantSensibleHeatRatio,    !- Dehumidification Control Type
    0.7,                      !- Cooling Sensible Heat Ratio
    60,                       !- Dehumidification Setpoint
    None,                     !- Humidification Control Type
    30,                       !- Humidification Setpoint
    None,                     !- Outdoor Air Method
    0.00944,                  !- Outdoor Air Flow Rate per Person
    0.0,                      !- Outdoor Air Flow Rate per Zone Floor Area
    0,                        !- Outdoor Air Flow Rate per Zone
    ,                         !- Design Specification Outdoor Air Object Name
    None,                     !- Demand Controlled Ventilation Type
    NoEconomizer,             !- Outdoor Air Economizer Type
    None,                     !- Heat Recovery Type
    0.70,                     !- Sensible Heat Recovery Effectiveness
    0.65;                     !- Latent Heat Recovery Effectiveness

HVACTEMPLATE:ZONE:IDEALLOADSAIRSYSTEM,
    55bfe984d2402a9b_F2_dwelling_0,    !- Zone Name
    EU_HeatOnly_55bfe984d2402a9b_F2_dwelling_0,    !- Template Thermostat Name
    EU_AlwaysOn,              !- System Availability Schedule Name
    50,                       !- Maximum Heating Supply Air Temperature
    13,                       !- Minimum Cooling Supply Air Temperature
    0.0156,                   !- Maximum Heating Supply Air Humidity Ratio
    0.0077,                   !- Minimum Cooling Supply Air Humidity Ratio
    NoLimit,                  !- Heating Limit
    ,                         !- Maximum Heating Air Flow Rate
    ,                         !- Maximum Sensible Heating Capacity
    NoLimit,                  !- Cooling Limit
    ,                         !- Maximum Cooling Air Flow Rate
    ,                         !- Maximum Total Cooling Capacity
    EU_AlwaysOn,              !- Heating Availability Schedule Name
    EU_CoolingOff,            !- Cooling Availability Schedule Name
    ConstantSensibleHeatRatio,    !- Dehumidification Control Type
    0.7,                      !- Cooling Sensible Heat Ratio
    60,                       !- Dehumidification Setpoint
    None,                     !- Humidification Control Type
    30,                       !- Humidification Setpoint
    None,                     !- Outdoor Air Method
    0.00944,                  !- Outdoor Air Flow Rate per Person
    0.0,                      !- Outdoor Air Flow Rate per Zone Floor Area
    0,                        !- Outdoor Air Flow Rate per Zone
    ,                         !- Design Specification Outdoor Air Object Name
    None,                     !- Demand Controlled Ventilation Type
    NoEconomizer,             !- Outdoor Air Economizer Type
    None,                     !- Heat Recovery Type
    0.70,                     !- Sensible Heat Recovery Effectiveness
    0.65;                     !- Latent Heat Recovery Effectiveness

SIZING:ZONE,
    55bfe984d2402a9b_F0_dwelling_0,    !- Zone or ZoneList Name
    SupplyAirTemperature,     !- Zone Cooling Design Supply Air Temperature Input Method
    13,                       !- Zone Cooling Design Supply Air Temperature
    ,                         !- Zone Cooling Design Supply Air Temperature Difference
    SupplyAirTemperature,     !- Zone Heating Design Supply Air Temperature Input Method
    50,                       !- Zone Heating Design Supply Air Temperature
    ,                         !- Zone Heating Design Supply Air Temperature Difference
    0.008,                    !- Zone Cooling Design Supply Air Humidity Ratio
    0.008,                    !- Zone Heating Design Supply Air Humidity Ratio
    ,                         !- Design Specification Outdoor Air Object Name
    ,                         !- Zone Heating Sizing Factor
    ,                         !- Zone Cooling Sizing Factor
    DesignDay,                !- Cooling Design Air Flow Method
    0,                        !- Cooling Design Air Flow Rate
    0.000762,                 !- Cooling Minimum Air Flow per Zone Floor Area
    0,                        !- Cooling Minimum Air Flow
    0.2,                      !- Cooling Minimum Air Flow Fraction
    DesignDay,                !- Heating Design Air Flow Method
    0,                        !- Heating Design Air Flow Rate
    0.002032,                 !- Heating Maximum Air Flow per Zone Floor Area
    0.1415762,                !- Heating Maximum Air Flow
    0.3,                      !- Heating Maximum Air Flow Fraction
    ,                         !- Design Specification Zone Air Distribution Object Name
    No,                       !- Account for Dedicated Outdoor Air System
    NeutralSupplyAir,         !- Dedicated Outdoor Air System Control Strategy
    autosize,                 !- Dedicated Outdoor Air Low Setpoint Temperature for Design
    autosize,                 !- Dedicated Outdoor Air High Setpoint Temperature for Design
    Sensible Load Only No Latent Load,    !- Zone Load Sizing Method
    HumidityRatioDifference,    !- Zone Latent Cooling Design Supply Air Humidity Ratio Input Method
    ,                         !- Zone Dehumidification Design Supply Air Humidity Ratio
    0.005,                    !- Zone Cooling Design Supply Air Humidity Ratio Difference
    HumidityRatioDifference,    !- Zone Latent Heating Design Supply Air Humidity Ratio Input Method
    ,                         !- Zone Humidification Design Supply Air Humidity Ratio
    0.005;                    !- Zone Humidification Design Supply Air Humidity Ratio Difference

SIZING:ZONE,
    55bfe984d2402a9b_F0_dwelling_1,    !- Zone or ZoneList Name
    SupplyAirTemperature,     !- Zone Cooling Design Supply Air Temperature Input Method
    13,                       !- Zone Cooling Design Supply Air Temperature
    ,                         !- Zone Cooling Design Supply Air Temperature Difference
    SupplyAirTemperature,     !- Zone Heating Design Supply Air Temperature Input Method
    50,                       !- Zone Heating Design Supply Air Temperature
    ,                         !- Zone Heating Design Supply Air Temperature Difference
    0.008,                    !- Zone Cooling Design Supply Air Humidity Ratio
    0.008,                    !- Zone Heating Design Supply Air Humidity Ratio
    ,                         !- Design Specification Outdoor Air Object Name
    ,                         !- Zone Heating Sizing Factor
    ,                         !- Zone Cooling Sizing Factor
    DesignDay,                !- Cooling Design Air Flow Method
    0,                        !- Cooling Design Air Flow Rate
    0.000762,                 !- Cooling Minimum Air Flow per Zone Floor Area
    0,                        !- Cooling Minimum Air Flow
    0.2,                      !- Cooling Minimum Air Flow Fraction
    DesignDay,                !- Heating Design Air Flow Method
    0,                        !- Heating Design Air Flow Rate
    0.002032,                 !- Heating Maximum Air Flow per Zone Floor Area
    0.1415762,                !- Heating Maximum Air Flow
    0.3,                      !- Heating Maximum Air Flow Fraction
    ,                         !- Design Specification Zone Air Distribution Object Name
    No,                       !- Account for Dedicated Outdoor Air System
    NeutralSupplyAir,         !- Dedicated Outdoor Air System Control Strategy
    autosize,                 !- Dedicated Outdoor Air Low Setpoint Temperature for Design
    autosize,                 !- Dedicated Outdoor Air High Setpoint Temperature for Design
    Sensible Load Only No Latent Load,    !- Zone Load Sizing Method
    HumidityRatioDifference,    !- Zone Latent Cooling Design Supply Air Humidity Ratio Input Method
    ,                         !- Zone Dehumidification Design Supply Air Humidity Ratio
    0.005,                    !- Zone Cooling Design Supply Air Humidity Ratio Difference
    HumidityRatioDifference,    !- Zone Latent Heating Design Supply Air Humidity Ratio Input Method
    ,                         !- Zone Humidification Design Supply Air Humidity Ratio
    0.005;                    !- Zone Humidification Design Supply Air Humidity Ratio Difference

SIZING:ZONE,
    55bfe984d2402a9b_F1_dwelling_0,    !- Zone or ZoneList Name
    SupplyAirTemperature,     !- Zone Cooling Design Supply Air Temperature Input Method
    13,                       !- Zone Cooling Design Supply Air Temperature
    ,                         !- Zone Cooling Design Supply Air Temperature Difference
    SupplyAirTemperature,     !- Zone Heating Design Supply Air Temperature Input Method
    50,                       !- Zone Heating Design Supply Air Temperature
    ,                         !- Zone Heating Design Supply Air Temperature Difference
    0.008,                    !- Zone Cooling Design Supply Air Humidity Ratio
    0.008,                    !- Zone Heating Design Supply Air Humidity Ratio
    ,                         !- Design Specification Outdoor Air Object Name
    ,                         !- Zone Heating Sizing Factor
    ,                         !- Zone Cooling Sizing Factor
    DesignDay,                !- Cooling Design Air Flow Method
    0,                        !- Cooling Design Air Flow Rate
    0.000762,                 !- Cooling Minimum Air Flow per Zone Floor Area
    0,                        !- Cooling Minimum Air Flow
    0.2,                      !- Cooling Minimum Air Flow Fraction
    DesignDay,                !- Heating Design Air Flow Method
    0,                        !- Heating Design Air Flow Rate
    0.002032,                 !- Heating Maximum Air Flow per Zone Floor Area
    0.1415762,                !- Heating Maximum Air Flow
    0.3,                      !- Heating Maximum Air Flow Fraction
    ,                         !- Design Specification Zone Air Distribution Object Name
    No,                       !- Account for Dedicated Outdoor Air System
    NeutralSupplyAir,         !- Dedicated Outdoor Air System Control Strategy
    autosize,                 !- Dedicated Outdoor Air Low Setpoint Temperature for Design
    autosize,                 !- Dedicated Outdoor Air High Setpoint Temperature for Design
    Sensible Load Only No Latent Load,    !- Zone Load Sizing Method
    HumidityRatioDifference,    !- Zone Latent Cooling Design Supply Air Humidity Ratio Input Method
    ,                         !- Zone Dehumidification Design Supply Air Humidity Ratio
    0.005,                    !- Zone Cooling Design Supply Air Humidity Ratio Difference
    HumidityRatioDifference,    !- Zone Latent Heating Design Supply Air Humidity Ratio Input Method
    ,                         !- Zone Humidification Design Supply Air Humidity Ratio
    0.005;                    !- Zone Humidification Design Supply Air Humidity Ratio Difference

SIZING:ZONE,
    55bfe984d2402a9b_F2_dwelling_0,    !- Zone or ZoneList Name
    SupplyAirTemperature,     !- Zone Cooling Design Supply Air Temperature Input Method
    13,                       !- Zone Cooling Design Supply Air Temperature
    ,                         !- Zone Cooling Design Supply Air Temperature Difference
    SupplyAirTemperature,     !- Zone Heating Design Supply Air Temperature Input Method
    50,                       !- Zone Heating Design Supply Air Temperature
    ,                         !- Zone Heating Design Supply Air Temperature Difference
    0.008,                    !- Zone Cooling Design Supply Air Humidity Ratio
    0.008,                    !- Zone Heating Design Supply Air Humidity Ratio
    ,                         !- Design Specification Outdoor Air Object Name
    ,                         !- Zone Heating Sizing Factor
    ,                         !- Zone Cooling Sizing Factor
    DesignDay,                !- Cooling Design Air Flow Method
    0,                        !- Cooling Design Air Flow Rate
    0.000762,                 !- Cooling Minimum Air Flow per Zone Floor Area
    0,                        !- Cooling Minimum Air Flow
    0.2,                      !- Cooling Minimum Air Flow Fraction
    DesignDay,                !- Heating Design Air Flow Method
    0,                        !- Heating Design Air Flow Rate
    0.002032,                 !- Heating Maximum Air Flow per Zone Floor Area
    0.1415762,                !- Heating Maximum Air Flow
    0.3,                      !- Heating Maximum Air Flow Fraction
    ,                         !- Design Specification Zone Air Distribution Object Name
    No,                       !- Account for Dedicated Outdoor Air System
    NeutralSupplyAir,         !- Dedicated Outdoor Air System Control Strategy
    autosize,                 !- Dedicated Outdoor Air Low Setpoint Temperature for Design
    autosize,                 !- Dedicated Outdoor Air High Setpoint Temperature for Design
    Sensible Load Only No Latent Load,    !- Zone Load Sizing Method
    HumidityRatioDifference,    !- Zone Latent Cooling Design Supply Air Humidity Ratio Input Method
    ,                         !- Zone Dehumidification Design Supply Air Humidity Ratio
    0.005,                    !- Zone Cooling Design Supply Air Humidity Ratio Difference
    HumidityRatioDifference,    !- Zone Latent Heating Design Supply Air Humidity Ratio Input Method
    ,                         !- Zone Humidification Design Supply Air Humidity Ratio
    0.005;                    !- Zone Humidification Design Supply Air Humidity Ratio Difference

OUTPUT:VARIABLE,
    *,                        !- Key Value
    Zone Ideal Loads Zone Total Heating Energy,    !- Variable Name
    Hourly;                   !- Reporting Frequency

OUTPUT:SQLITE,
    SimpleAndTabular,         !- Option Type
    UseOutputControlTableStyle;    !- Unit Conversion for Tabular Data