!- Windows Line endings 

Version,
    23.1;                     !- Version Identifier

SimulationControl,
    Yes,                      !- Do Zone Sizing Calculation
    Yes,                      !- Do System Sizing Calculation
    Yes,                      !- Do Plant Sizing Calculation
    No,                       !- Run Simulation for Sizing Periods
    Yes,                      !- Run Simulation for Weather File Run Periods
    No,                       !- Do HVAC Sizing Simulation for Sizing Periods
    1;                        !- Maximum Number of HVAC Sizing Simulation Passes

Building,
    EU S2 Campaign,           !- Name
    0,                        !- North Axis
    City,                     !- Terrain
    ,                         !- Loads Convergence Tolerance Value
    ,                         !- Temperature Convergence Tolerance Value
    FullExterior,             !- Solar Distribution
    ,                         !- Maximum Number of Warmup Days
    ;                         !- Minimum Number of Warmup Days

ShadowCalculation,
    PolygonClipping,          !- Shading Calculation Method
    Periodic,                 !- Shading Calculation Update Frequency Method
    1;                        !- Shading Calculation Update Frequency

HeatBalanceAlgorithm,
    ConductionTransferFunction,    !- Algorithm
    200,                      !- Surface Temperature Upper Limit
    0.1,                      !- Minimum Surface Convection Heat Transfer Coefficient Value
    10000000;                 !- Maximum Surface Convection Heat Transfer Coefficient Value

Timestep,
    12;                       !- Number of Timesteps per Hour

Site:Location,
    Madrid,                   !- Name
    40.5,                     !- Latitude
    -3.5,                     !- Longitude
    1,                        !- Time Zone
    609;                      !- Elevation

SizingPeriod:WeatherFileDays,
    AnnualSizingPeriod,       !- Name
    1,                        !- Begin Month
    1,                        !- Begin Day of Month
    12,                       !- End Month
    31,                       !- End Day of Month
    Monday,                   !- Day of Week for Start Day
    No,                       !- Use Weather File Daylight Saving Period
    No;                       !- Use Weather File Rain and Snow Indicators

RunPeriod,
    RunPeriod1,               !- Name
    1,                        !- Begin Month
    1,                        !- Begin Day of Month
    ,                         !- Begin Year
    12,                       !- End Month
    31,                       !- End Day of Month
    ,                         !- End Year
    Sunday,                   !- Day of Week for Start Day
    No,                       !- Use Weather File Holidays and Special Days
    No,                       !- Use Weather File Daylight Saving Period
    No,                       !- Apply Weekend Holiday Rule
    Yes,                      !- Use Weather File Rain Indicators
    Yes;                      !- Use Weather File Snow Indicators

ScheduleTypeLimits,
    Any Number;               !- Name

SCHEDULETYPELIMITS,
    EU_Step8_AnyNumber_Wm2,    !- Name
    ,                         !- Lower Limit Value
    ,                         !- Upper Limit Value
    Continuous,               !- Numeric Type
    Dimensionless;            !- Unit Type

SCHEDULE:CONSTANT,
    EU_AlwaysOn,              !- Name
    ,                         !- Schedule Type Limits Name
    1;                        !- Hourly Value

SCHEDULE:CONSTANT,
    EU_CoolingOff,            !- Name
    ,                         !- Schedule Type Limits Name
    0;                        !- Hourly Value

SCHEDULE:FILE,
    EU_Step8_GainSchedule_bd58b1efd04a92f0_F0_whole_f000,    !- Name
    EU_Step8_AnyNumber_Wm2,    !- Schedule Type Limits Name
    ../../schedules/bd58b1efd04a92f0/bd58b1efd04a92f0_F0_whole_f000_gain.csv,    !- File Name
    1,                        !- Column Number
    0,                        !- Rows to Skip at Top
    8760,                     !- Number of Hours of Data
    Comma,                    !- Column Separator
    No,                       !- Interpolate to Timestep
    60,                       !- Minutes per Item
    Yes;                      !- Adjust Schedule for Daylight Savings

SCHEDULE:FILE,
    EU_Step8_GainSchedule_bd58b1efd04a92f0_F1_whole_f000,    !- Name
    EU_Step8_AnyNumber_Wm2,    !- Schedule Type Limits Name
    ../../schedules/bd58b1efd04a92f0/bd58b1efd04a92f0_F1_whole_f000_gain.csv,    !- File Name
    1,                        !- Column Number
    0,                        !- Rows to Skip at Top
    8760,                     !- Number of Hours of Data
    Comma,                    !- Column Separator
    No,                       !- Interpolate to Timestep
    60,                       !- Minutes per Item
    Yes;                      !- Adjust Schedule for Daylight Savings

SCHEDULE:FILE,
    EU_Step8_GainSchedule_bd58b1efd04a92f0_F2_whole_f000,    !- Name
    EU_Step8_AnyNumber_Wm2,    !- Schedule Type Limits Name
    ../../schedules/bd58b1efd04a92f0/bd58b1efd04a92f0_F2_whole_f000_gain.csv,    !- File Name
    1,                        !- Column Number
    0,                        !- Rows to Skip at Top
    8760,                     !- Number of Hours of Data
    Comma,                    !- Column Separator
    No,                       !- Interpolate to Timestep
    60,                       !- Minutes per Item
    Yes;                      !- Adjust Schedule for Daylight Savings

SCHEDULE:FILE,
    EU_Step8_GainSchedule_bd58b1efd04a92f0_F3_whole_f000,    !- Name
    EU_Step8_AnyNumber_Wm2,    !- Schedule Type Limits Name
    ../../schedules/bd58b1efd04a92f0/bd58b1efd04a92f0_F3_whole_f000_gain.csv,    !- File Name
    1,                        !- Column Number
    0,                        !- Rows to Skip at Top
    8760,                     !- Number of Hours of Data
    Comma,                    !- Column Separator
    No,                       !- Interpolate to Timestep
    60,                       !- Minutes per Item
    Yes;                      !- Adjust Schedule for Daylight Savings

SCHEDULE:FILE,
    EU_Step8_GainSchedule_bd58b1efd04a92f0_F4_whole_f000,    !- Name
    EU_Step8_AnyNumber_Wm2,    !- Schedule Type Limits Name
    ../../schedules/bd58b1efd04a92f0/bd58b1efd04a92f0_F4_whole_f000_gain.csv,    !- File Name
    1,                        !- Column Number
    0,                        !- Rows to Skip at Top
    8760,                     !- Number of Hours of Data
    Comma,                    !- Column Separator
    No,                       !- Interpolate to Timestep
    60,                       !- Minutes per Item
    Yes;                      !- Adjust Schedule for Daylight Savings

MATERIAL,
    EU_InternalMass_Material,    !- Name
    MediumRough,              !- Roughness
    0.1,                      !- Thickness
    1,                        !- Conductivity
    1800,                     !- Density
    900,                      !- Specific Heat
    0.9,                      !- Thermal Absorptance
    0.7,                      !- Solar Absorptance
    0.7;                      !- Visible Absorptance

MATERIAL:NOMASS,
    EU_wall_NoMass,           !- Name
    MediumRough,              !- Roughness
    4.197386e-01,             !- Thermal Resistance
    0.9,                      !- Thermal Absorptance
    0.7,                      !- Solar Absorptance
    0.7;                      !- Visible Absorptance

MATERIAL:NOMASS,
    EU_roof_NoMass,           !- Name
    MediumRough,              !- Roughness
    0.3521646044882231,       !- Thermal Resistance
    0.9,                      !- Thermal Absorptance
    0.7,                      !- Solar Absorptance
    0.7;                      !- Visible Absorptance

MATERIAL:NOMASS,
    EU_floor_NoMass,          !- Name
    MediumRough,              !- Roughness
    0.6082843168432945,       !- Thermal Resistance
    0.9,                      !- Thermal Absorptance
    0.7,                      !- Solar Absorptance
    0.7;                      !- Visible Absorptance

CONSTRUCTION,
    EU_wall_Construction,     !- Name
    EU_wall_NoMass;           !- Outside Layer

CONSTRUCTION,
    EU_roof_Construction,     !- Name
    EU_roof_NoMass;           !- Outside Layer

CONSTRUCTION,
    EU_floor_Construction,    !- Name
    EU_floor_NoMass;          !- Outside Layer

CONSTRUCTION,
    EU_InternalMass_Construction,    !- Name
    EU_InternalMass_Material;    !- Outside Layer

GlobalGeometryRules,
    UpperLeftCorner,          !- Starting Vertex Position
    CounterClockWise,         !- Vertex Entry Direction
    World;                    !- Coordinate System

ZONE,
    bd58b1efd04a92f0_F0_whole,    !- Name
    0,                        !- Direction of Relative North
    0,                        !- X Origin
    0,                        !- Y Origin
    0,                        !- Z Origin
    1,                        !- Type
    1,                        !- Multiplier
    autocalculate,            !- Ceiling Height
    828.6690673828125,        !- Volume
    autocalculate,            !- Floor Area
    ,                         !- Zone Inside Convection Algorithm
    ,                         !- Zone Outside Convection Algorithm
    Yes;                      !- Part of Total Floor Area

ZONE,
    bd58b1efd04a92f0_F1_whole,    !- Name
    0,                        !- Direction of Relative North
    0,                        !- X Origin
    0,                        !- Y Origin
    0,                        !- Z Origin
    1,                        !- Type
    1,                        !- Multiplier
    autocalculate,            !- Ceiling Height
    828.6676025390625,        !- Volume
    autocalculate,            !- Floor Area
    ,                         !- Zone Inside Convection Algorithm
    ,                         !- Zone Outside Convection Algorithm
    Yes;                      !- Part of Total Floor Area

ZONE,
    bd58b1efd04a92f0_F2_whole,    !- Name
    0,                        !- Direction of Relative North
    0,                        !- X Origin
    0,                        !- Y Origin
    0,                        !- Z Origin
    1,                        !- Type
    1,                        !- Multiplier
    autocalculate,            !- Ceiling Height
    828.6676025390625,        !- Volume
    autocalculate,            !- Floor Area
    ,                         !- Zone Inside Convection Algorithm
    ,                         !- Zone Outside Convection Algorithm
    Yes;                      !- Part of Total Floor Area

ZONE,
    bd58b1efd04a92f0_F3_whole,    !- Name
    0,                        !- Direction of Relative North
    0,                        !- X Origin
    0,                        !- Y Origin
    0,                        !- Z Origin
    1,                        !- Type
    1,                        !- Multiplier
    autocalculate,            !- Ceiling Height
    828.6676025390625,        !- Volume
    autocalculate,            !- Floor Area
    ,                         !- Zone Inside Convection Algorithm
    ,                         !- Zone Outside Convection Algorithm
    Yes;                      !- Part of Total Floor Area

ZONE,
    bd58b1efd04a92f0_F4_whole,    !- Name
    0,                        !- Direction of Relative North
    0,                        !- X Origin
    0,                        !- Y Origin
    0,                        !- Z Origin
    1,                        !- Type
    1,                        !- Multiplier
    autocalculate,            !- Ceiling Height
    828.6676025390625,        !- Volume
    autocalculate,            !- Floor Area
    ,                         !- Zone Inside Convection Algorithm
    ,                         !- Zone Outside Convection Algorithm
    Yes;                      !- Part of Total Floor Area

BUILDINGSURFACE:DETAILED,
    Block bd58b1efd04a92f0_whole Storey 0 Wall 0001,    !- Name
    wall,                     !- Surface Type
    EU_wall_Construction,     !- Construction Name
    bd58b1efd04a92f0_F0_whole,    !- Zone Name
    ,                         !- Space Name
    Adiabatic,                !- Outside Boundary Condition
    ,                         !- Outside Boundary Condition Object
    NoSun,                    !- Sun Exposure
    NoWind,                   !- Wind Exposure
    autocalculate,            !- View Factor to Ground
    autocalculate,            !- Number of Vertices
    440250.1694162695,        !- Vertex 1 Xcoordinate
    4478749.080943585,        !- Vertex 1 Ycoordinate
    3,                        !- Vertex 1 Zcoordinate
    440250.1694162695,        !- Vertex 2 Xcoordinate
    4478749.080943585,        !- Vertex 2 Ycoordinate
    0,                        !- Vertex 2 Zcoordinate
    440249.490804835,         !- Vertex 3 Xcoordinate
    4478751.173299425,        !- Vertex 3 Ycoordinate
    0,                        !- Vertex 3 Zcoordinate
    440249.490804835,         !- Vertex 4 Xcoordinate
    4478751.173299425,        !- Vertex 4 Ycoordinate
    3;                        !- Vertex 4 Zcoordinate

BUILDINGSURFACE:DETAILED,
    Block bd58b1efd04a92f0_whole Storey 0 Wall 0002,    !- Name
    wall,                     !- Surface Type
    EU_wall_Construction,     !- Construction Name
    bd58b1efd04a92f0_F0_whole,    !- Zone Name
    ,                         !- Space Name
    outdoors,                 !- Outside Boundary Condition
    ,                         !- Outside Boundary Condition Object
    SunExposed,               !- Sun Exposure
    WindExposed,              !- Wind Exposure
    autocalculate,            !- View Factor to Ground
    autocalculate,            !- Number of Vertices
    440249.490804835,         !- Vertex 1 Xcoordinate
    4478751.173299425,        !- Vertex 1 Ycoordinate
    3,                        !- Vertex 1 Zcoordinate
    440249.490804835,         !- Vertex 2 Xcoordinate
    4478751.173299425,        !- Vertex 2 Ycoordinate
    0,                        !- Vertex 2 Zcoordinate
    440236.6483811929,        !- Vertex 3 Xcoordinate
    4478746.34707923,         !- Vertex 3 Ycoordinate
    0,                        !- Vertex 3 Zcoordinate
    440236.6483811929,        !- Vertex 4 Xcoordinate
    4478746.34707923,         !- Vertex 4 Ycoordinate
    3;                        !- Vertex 4 Zcoordinate

BUILDINGSURFACE:DETAILED,
    Block bd58b1efd04a92f0_whole Storey 0 Wall 0003,    !- Name
    wall,                     !- Surface Type
    EU_wall_Construction,     !- Construction Name
    bd58b1efd04a92f0_F0_whole,    !- Zone Name
    ,                         !- Space Name
    outdoors,                 !- Outside Boundary Condition
    ,                         !- Outside Boundary Condition Object
    SunExposed,               !- Sun Exposure
    WindExposed,              !- Wind Exposure
    autocalculate,            !- View Factor to Ground
    autocalculate,            !- Number of Vertices
    440236.6483811929,        !- Vertex 1 Xcoordinate
    4478746.34707923,         !- Vertex 1 Ycoordinate
    3,                        !- Vertex 1 Zcoordinate
    440236.6483811929,        !- Vertex 2 Xcoordinate
    4478746.34707923,         !- Vertex 2 Ycoordinate
    0,                        !- Vertex 2 Zcoordinate
    440238.7041778221,        !- Vertex 3 Xcoordinate
    4478740.447274228,        !- Vertex 3 Ycoordinate
    0,                        !- Vertex 3 Zcoordinate
    440238.7041778221,        !- Vertex 4 Xcoordinate
    4478740.447274228,        !- Vertex 4 Ycoordinate
    3;                        !- Vertex 4 Zcoordinate

BUILDINGSURFACE:DETAILED,
    Block bd58b1efd04a92f0_whole Storey 0 Wall 0004,    !- Name
    wall,                     !- Surface Type
    EU_wall_Construction,     !- Construction Name
    bd58b1efd04a92f0_F0_whole,    !- Zone Name
    ,                         !- Space Name
    outdoors,                 !- Outside Boundary Condition
    ,                         !- Outside Boundary Condition Object
    SunExposed,               !- Sun Exposure
    WindExposed,              !- Wind Exposure
    autocalculate,            !- View Factor to Ground
    autocalculate,            !- Number of Vertices
    440238.7041778221,        !- Vertex 1 Xcoordinate
    4478740.447274228,        !- Vertex 1 Ycoordinate
    3,                        !- Vertex 1 Zcoordinate
    440238.7041778221,        !- Vertex 2 Xcoordinate
    4478740.447274228,        !- Vertex 2 Ycoordinate
    0,                        !- Vertex 2 Zcoordinate
    440244.5556283519,        !- Vertex 3 Xcoordinate
    4478742.654017074,        !- Vertex 3 Ycoordinate
    0,                        !- Vertex 3 Zcoordinate
    440244.5556283519,        !- Vertex 4 Xcoordinate
    4478742.654017074,        !- Vertex 4 Ycoordinate
    3;                        !- Vertex 4 Zcoordinate

BUILDINGSURFACE:DETAILED,
    Block bd58b1efd04a92f0_whole Storey 0 Wall 0005,    !- Name
    wall,                     !- Surface Type
    EU_wall_Construction,     !- Construction Name
    bd58b1efd04a92f0_F0_whole,    !- Zone Name
    ,                         !- Space Name
    outdoors,                 !- Outside Boundary Condition
    ,                         !- Outside Boundary Condition Object
    SunExposed,               !- Sun Exposure
    WindExposed,              !- Wind Exposure
    autocalculate,            !- View Factor to Ground
    autocalculate,            !- Number of Vertices
    440244.5556283519,        !- Vertex 1 Xcoordinate
    4478742.654017074,        !- Vertex 1 Ycoordinate
    3,                        !- Vertex 1 Zcoordinate
    440244.5556283519,        !- Vertex 2 Xcoordinate
    4478742.654017074,        !- Vertex 2 Ycoordinate
    0,                        !- Vertex 2 Zcoordinate
    440245.2351252364,        !- Vertex 3 Xcoordinate
    4478740.672661166,        !- Vertex 3 Ycoordinate
    0,                        !- Vertex 3 Zcoordinate
    440245.2351252364,        !- Vertex 4 Xcoordinate
    4478740.672661166,        !- Vertex 4 Ycoordinate
    3;                        !- Vertex 4 Zcoordinate

BUILDINGSURFACE:DETAILED,
    Block bd58b1efd04a92f0_whole Storey 0 Wall 0006,    !- Name
    wall,                     !- Surface Type
    EU_wall_Construction,     !- Construction Name
    bd58b1efd04a92f0_F0_whole,    !- Zone Name
    ,                         !- Space Name
    outdoors,                 !- Outside Boundary Condition
    ,                         !- Outside Boundary Condition Object
    SunExposed,               !- Sun Exposure
    WindExposed,              !- Wind Exposure
    autocalculate,            !- View Factor to Ground
    autocalculate,            !- Number of Vertices
    440245.2351252364,        !- Vertex 1 Xcoordinate
    4478740.672661166,        !- Vertex 1 Ycoordinate
    3,                        !- Vertex 1 Zcoordinate
    440245.2351252364,        !- Vertex 2 Xcoordinate
    4478740.672661166,        !- Vertex 2 Ycoordinate
    0,                        !- Vertex 2 Zcoordinate
    440239.38358477724,       !- Vertex 3 Xcoordinate
    4478738.454817745,        !- Vertex 3 Ycoordinate
    0,                        !- Vertex 3 Zcoordinate
    440239.38358477724,       !- Vertex 4 Xcoordinate
    4478738.454817745,        !- Vertex 4 Ycoordinate
    3;                        !- Vertex 4 Zcoordinate

BUILDINGSURFACE:DETAILED,
    Block bd58b1efd04a92f0_whole Storey 0 Wall 0007,    !- Name
    wall,                     !- Surface Type
    EU_wall_Construction,     !- Construction Name
    bd58b1efd04a92f0_F0_whole,    !- Zone Name
    ,                         !- Space Name
    outdoors,                 !- Outside Boundary Condition
    ,                         !- Outside Boundary Condition Object
    SunExposed,               !- Sun Exposure
    WindExposed,              !- Wind Exposure
    autocalculate,            !- View Factor to Ground
    autocalculate,            !- Number of Vertices
    440239.38358477724,       !- Vertex 1 Xcoordinate
    4478738.454817745,        !- Vertex 1 Ycoordinate
    3,                        !- Vertex 1 Zcoordinate
    440239.38358477724,       !- Vertex 2 Xcoordinate
    4478738.454817745,        !- Vertex 2 Ycoordinate
    0,                        !- Vertex 2 Zcoordinate
    440241.1989917561,        !- Vertex 3 Xcoordinate
    4478733.245178581,        !- Vertex 3 Ycoordinate
    0,                        !- Vertex 3 Zcoordinate
    440241.1989917561,        !- Vertex 4 Xcoordinate
    4478733.245178581,        !- Vertex 4 Ycoordinate
    3;                        !- Vertex 4 Zcoordinate

BUILDINGSURFACE:DETAILED,
    Block bd58b1efd04a92f0_whole Storey 0 Wall 0008,    !- Name
    wall,                     !- Surface Type
    EU_wall_Construction,     !- Construction Name
    bd58b1efd04a92f0_F0_whole,    !- Zone Name
    ,                         !- Space Name
    Adiabatic,                !- Outside Boundary Condition
    ,                         !- Outside Boundary Condition Object
    NoSun,                    !- Sun Exposure
    NoWind,                   !- Wind Exposure
    autocalculate,            !- View Factor to Ground
    autocalculate,            !- Number of Vertices
    440241.1989917561,        !- Vertex 1 Xcoordinate
    4478733.245178581,        !- Vertex 1 Ycoordinate
    3,                        !- Vertex 1 Zcoordinate
    440241.1989917561,        !- Vertex 2 Xcoordinate
    4478733.245178581,        !- Vertex 2 Ycoordinate
    0,                        !- Vertex 2 Zcoordinate
    440241.41430365125,       !- Vertex 3 Xcoordinate
    4478732.599616801,        !- Vertex 3 Ycoordinate
    0,                        !- Vertex 3 Zcoordinate
    440241.41430365125,       !- Vertex 4 Xcoordinate
    4478732.599616801,        !- Vertex 4 Ycoordinate
    3;                        !- Vertex 4 Zcoordinate

BUILDINGSURFACE:DETAILED,
    Block bd58b1efd04a92f0_whole Storey 0 Wall 0009,    !- Name
    wall,                     !- Surface Type
    EU_wall_Construction,     !- Construction Name
    bd58b1efd04a92f0_F0_whole,    !- Zone Name
    ,                         !- Space Name
    outdoors,                 !- Outside Boundary Condition
    ,                         !- Outside Boundary Condition Object
    SunExposed,               !- Sun Exposure
    WindExposed,              !- Wind Exposure
    autocalculate,            !- View Factor to Ground
    autocalculate,            !- Number of Vertices
    440241.41430365125,       !- Vertex 1 Xcoordinate
    4478732.599616801,        !- Vertex 1 Ycoordinate
    3,                        !- Vertex 1 Zcoordinate
    440241.41430365125,       !- Vertex 2 Xcoordinate
    4478732.599616801,        !- Vertex 2 Ycoordinate
    0,                        !- Vertex 2 Zcoordinate
    440246.5172259056,        !- Vertex 3 Xcoordinate
    4478734.512616217,        !- Vertex 3 Ycoordinate
    0,                        !- Vertex 3 Zcoordinate
    440246.5172259056,        !- Vertex 4 Xcoordinate
    4478734.512616217,        !- Vertex 4 Ycoordinate
    3;                        !- Vertex 4 Zcoordinate

BUILDINGSURFACE:DETAILED,
    Block bd58b1efd04a92f0_whole Storey 0 Wall 0010,    !- Name
    wall,                     !- Surface Type
    EU_wall_Construction,     !- Construction Name
    bd58b1efd04a92f0_F0_whole,    !- Zone Name
    ,                         !- Space Name
    outdoors,                 !- Outside Boundary Condition
    ,                         !- Outside Boundary Condition Object
    SunExposed,               !- Sun Exposure
    WindExposed,              !- Wind Exposure
    autocalculate,            !- View Factor to Ground
    autocalculate,            !- Number of Vertices
    440246.5172259056,        !- Vertex 1 Xcoordinate
    4478734.512616217,        !- Vertex 1 Ycoordinate
    3,                        !- Vertex 1 Zcoordinate
    440246.5172259056,        !- Vertex 2 Xcoordinate
    4478734.512616217,        !- Vertex 2 Ycoordinate
    0,                        !- Vertex 2 Zcoordinate
    440247.20422843733,       !- Vertex 3 Xcoordinate
    4478732.409092458,        !- Vertex 3 Ycoordinate
    0,                        !- Vertex 3 Zcoordinate
    440247.20422843733,       !- Vertex 4 Xcoordinate
    4478732.409092458,        !- Vertex 4 Ycoordinate
    3;                        !- Vertex 4 Zcoordinate

BUILDINGSURFACE:DETAILED,
    Block bd58b1efd04a92f0_whole Storey 0 Wall 0011,    !- Name
    wall,                     !- Surface Type
    EU_wall_Construction,     !- Construction Name
    bd58b1efd04a92f0_F0_whole,    !- Zone Name
    ,                         !- Space Name
    outdoors,                 !- Outside Boundary Condition
    ,                         !- Outside Boundary Condition Object
    SunExposed,               !- Sun Exposure
    WindExposed,              !- Wind Exposure
    autocalculate,            !- View Factor to Ground
    autocalculate,            !- Number of Vertices
    440247.20422843733,       !- Vertex 1 Xcoordinate
    4478732.409092458,        !- Vertex 1 Ycoordinate
    3,                        !- Vertex 1 Zcoordinate
    440247.20422843733,       !- Vertex 2 Xcoordinate
    4478732.409092458,        !- Vertex 2 Ycoordinate
    0,                        !- Vertex 2 Zcoordinate
    440242.186093794,         !- Vertex 3 Xcoordinate
    4478730.495415766,        !- Vertex 3 Ycoordinate
    0,                        !- Vertex 3 Zcoordinate
    440242.186093794,         !- Vertex 4 Xcoordinate
    4478730.495415766,        !- Vertex 4 Ycoordinate
    3;                        !- Vertex 4 Zcoordinate

BUILDINGSURFACE:DETAILED,
    Block bd58b1efd04a92f0_whole Storey 0 Wall 0012,    !- Name
    wall,                     !- Surface Type
    EU_wall_Construction,     !- Construction Name
    bd58b1efd04a92f0_F0_whole,    !- Zone Name
    ,                         !- Space Name
    Adiabatic,                !- Outside Boundary Condition
    ,                         !- Outside Boundary Condition Object
    NoSun,                    !- Sun Exposure
    NoWind,                   !- Wind Exposure
    autocalculate,            !- View Factor to Ground
    autocalculate,            !- Number of Vertices
    440242.186093794,         !- Vertex 1 Xcoordinate
    4478730.495415766,        !- Vertex 1 Ycoordinate
    3,                        !- Vertex 1 Zcoordinate
    440242.186093794,         !- Vertex 2 Xcoordinate
    4478730.495415766,        !- Vertex 2 Ycoordinate
    0,                        !- Vertex 2 Zcoordinate
    440244.6888619304,        !- Vertex 3 Xcoordinate
    4478723.226653573,        !- Vertex 3 Ycoordinate
    0,                        !- Vertex 3 Zcoordinate
    440244.6888619304,        !- Vertex 4 Xcoordinate
    4478723.226653573,        !- Vertex 4 Ycoordinate
    3;                        !- Vertex 4 Zcoordinate

BUILDINGSURFACE:DETAILED,
    Block bd58b1efd04a92f0_whole Storey 0 Wall 0013,    !- Name
    wall,                     !- Surface Type
    EU_wall_Construction,     !- Construction Name
    bd58b1efd04a92f0_F0_whole,    !- Zone Name
    ,                         !- Space Name
    outdoors,                 !- Outside Boundary Condition
    ,                         !- Outside Boundary Condition Object
    SunExposed,               !- Sun Exposure
    WindExposed,              !- Wind Exposure
    autocalculate,            !- View Factor to Ground
    autocalculate,            !- Number of Vertices
    440244.6888619304,        !- Vertex 1 Xcoordinate
    4478723.226653573,        !- Vertex 1 Ycoordinate
    3,                        !- Vertex 1 Zcoordinate
    440244.6888619304,        !- Vertex 2 Xcoordinate
    4478723.226653573,        !- Vertex 2 Ycoordinate
    0,                        !- Vertex 2 Zcoordinate
    440247.3679524605,        !- Vertex 3 Xcoordinate
    4478724.237639046,        !- Vertex 3 Ycoordinate
    0,                        !- Vertex 3 Zcoordinate
    440247.3679524605,        !- Vertex 4 Xcoordinate
    4478724.237639046,        !- Vertex 4 Ycoordinate
    3;                        !- Vertex 4 Zcoordinate

BUILDINGSURFACE:DETAILED,
    Block bd58b1efd04a92f0_whole Storey 0 Wall 0014,    !- Name
    wall,                     !- Surface Type
    EU_wall_Construction,     !- Construction Name
    bd58b1efd04a92f0_F0_whole,    !- Zone Name
    ,                         !- Space Name
    outdoors,                 !- Outside Boundary Condition
    ,                         !- Outside Boundary Condition Object
    SunExposed,               !- Sun Exposure
    WindExposed,              !- Wind Exposure
    autocalculate,            !- View Factor to Ground
    autocalculate,            !- Number of Vertices
    440247.3679524605,        !- Vertex 1 Xcoordinate
    4478724.237639046,        !- Vertex 1 Ycoordinate
    3,                        !- Vertex 1 Zcoordinate
    440247.3679524605,        !- Vertex 2 Xcoordinate
    4478724.237639046,        !- Vertex 2 Ycoordinate
    0,                        !- Vertex 2 Zcoordinate
    440256.7404797702,        !- Vertex 3 Xcoordinate
    4478727.770579513,        !- Vertex 3 Ycoordinate
    0,                        !- Vertex 3 Zcoordinate
    440256.7404797702,        !- Vertex 4 Xcoordinate
    4478727.770579513,        !- Vertex 4 Ycoordinate
    3;                        !- Vertex 4 Zcoordinate

BUILDINGSURFACE:DETAILED,
    Block bd58b1efd04a92f0_whole Storey 0 Wall 0015,    !- Name
    wall,                     !- Surface Type
    EU_wall_Construction,     !- Construction Name
    bd58b1efd04a92f0_F0_whole,    !- Zone Name
    ,                         !- Space Name
    outdoors,                 !- Outside Boundary Condition
    ,                         !- Outside Boundary Condition Object
    SunExposed,               !- Sun Exposure
    WindExposed,              !- Wind Exposure
    autocalculate,            !- View Factor to Ground
    autocalculate,            !- Number of Vertices
    440256.7404797702,        !- Vertex 1 Xcoordinate
    4478727.770579513,        !- Vertex 1 Ycoordinate
    3,                        !- Vertex 1 Zcoordinate
    440256.7404797702,        !- Vertex 2 Xcoordinate
    4478727.770579513,        !- Vertex 2 Ycoordinate
    0,                        !- Vertex 2 Zcoordinate
    440256.17093836016,       !- Vertex 3 Xcoordinate
    4478729.717754548,        !- Vertex 3 Ycoordinate
    0,                        !- Vertex 3 Zcoordinate
    440256.17093836016,       !- Vertex 4 Xcoordinate
    4478729.717754548,        !- Vertex 4 Ycoordinate
    3;                        !- Vertex 4 Zcoordinate

BUILDINGSURFACE:DETAILED,
    Block bd58b1efd04a92f0_whole Storey 0 Wall 0016,    !- Name
    wall,                     !- Surface Type
    EU_wall_Construction,     !- Construction Name
    bd58b1efd04a92f0_F0_whole,    !- Zone Name
    ,                         !- Space Name
    Adiabatic,                !- Outside Boundary Condition
    ,                         !- Outside Boundary Condition Object
    NoSun,                    !- Sun Exposure
    NoWind,                   !- Wind Exposure
    autocalculate,            !- View Factor to Ground
    autocalculate,            !- Number of Vertices
    440256.17093836016,       !- Vertex 1 Xcoordinate
    4478729.717754548,        !- Vertex 1 Ycoordinate
    3,                        !- Vertex 1 Zcoordinate
    440256.17093836016,       !- Vertex 2 Xcoordinate
    4478729.717754548,        !- Vertex 2 Ycoordinate
    0,                        !- Vertex 2 Zcoordinate
    440255.1379184941,        !- Vertex 3 Xcoordinate
    4478733.089523447,        !- Vertex 3 Ycoordinate
    0,                        !- Vertex 3 Zcoordinate
    440255.1379184941,        !- Vertex 4 Xcoordinate
    4478733.089523447,        !- Vertex 4 Ycoordinate
    3;                        !- Vertex 4 Zcoordinate

BUILDINGSURFACE:DETAILED,
    Block bd58b1efd04a92f0_whole Storey 0 Wall 0017,    !- Name
    wall,                     !- Surface Type
    EU_wall_Construction,     !- Construction Name
    bd58b1efd04a92f0_F0_whole,    !- Zone Name
    ,                         !- Space Name
    Adiabatic,                !- Outside Boundary Condition
    ,                         !- Outside Boundary Condition Object
    NoSun,                    !- Sun Exposure
    NoWind,                   !- Wind Exposure
    autocalculate,            !- View Factor to Ground
    autocalculate,            !- Number of Vertices
    440255.1379184941,        !- Vertex 1 Xcoordinate
    4478733.089523447,        !- Vertex 1 Ycoordinate
    3,                        !- Vertex 1 Zcoordinate
    440255.1379184941,        !- Vertex 2 Xcoordinate
    4478733.089523447,        !- Vertex 2 Ycoordinate
    0,                        !- Vertex 2 Zcoordinate
    440254.48456357775,       !- Vertex 3 Xcoordinate
    4478735.159475684,        !- Vertex 3 Ycoordinate
    0,                        !- Vertex 3 Zcoordinate
    440254.48456357775,       !- Vertex 4 Xcoordinate
    4478735.159475684,        !- Vertex 4 Ycoordinate
    3;                        !- Vertex 4 Zcoordinate

BUILDINGSURFACE:DETAILED,
    Block bd58b1efd04a92f0_whole Storey 0 Wall 0018,    !- Name
    wall,                     !- Surface Type
    EU_wall_Construction,     !- Construction Name
    bd58b1efd04a92f0_F0_whole,    !- Zone Name
    ,                         !- Space Name
    outdoors,                 !- Outside Boundary Condition
    ,                         !- Outside Boundary Condition Object
    SunExposed,               !- Sun Exposure
    WindExposed,              !- Wind Exposure
    autocalculate,            !- View Factor to Ground
    autocalculate,            !- Number of Vertices
    440254.48456357775,       !- Vertex 1 Xcoordinate
    4478735.159475684,        !- Vertex 1 Ycoordinate
    3,                        !- Vertex 1 Zcoordinate
    440254.48456357775,       !- Vertex 2 Xcoordinate
    4478735.159475684,        !- Vertex 2 Ycoordinate
    0,                        !- Vertex 2 Zcoordinate
    440249.44108465983,       !- Vertex 3 Xcoordinate
    4478733.257097197,        !- Vertex 3 Ycoordinate
    0,                        !- Vertex 3 Zcoordinate
    440249.44108465983,       !- Vertex 4 Xcoordinate
    4478733.257097197,        !- Vertex 4 Ycoordinate
    3;                        !- Vertex 4 Zcoordinate

BUILDINGSURFACE:DETAILED,
    Block bd58b1efd04a92f0_whole Storey 0 Wall 0019,    !- Name
    wall,                     !- Surface Type
    EU_wall_Construction,     !- Construction Name
    bd58b1efd04a92f0_F0_whole,    !- Zone Name
    ,                         !- Space Name
    outdoors,                 !- Outside Boundary Condition
    ,                         !- Outside Boundary Condition Object
    SunExposed,               !- Sun Exposure
    WindExposed,              !- Wind Exposure
    autocalculate,            !- View Factor to Ground
    autocalculate,            !- Number of Vertices
    440249.44108465983,       !- Vertex 1 Xcoordinate
    4478733.257097197,        !- Vertex 1 Ycoordinate
    3,                        !- Vertex 1 Zcoordinate
    440249.44108465983,       !- Vertex 2 Xcoordinate
    4478733.257097197,        !- Vertex 2 Ycoordinate
    0,                        !- Vertex 2 Zcoordinate
    440248.7115985999,        !- Vertex 3 Xcoordinate
    4478735.349859074,        !- Vertex 3 Ycoordinate
    0,                        !- Vertex 3 Zcoordinate
    440248.7115985999,        !- Vertex 4 Xcoordinate
    4478735.349859074,        !- Vertex 4 Ycoordinate
    3;                        !- Vertex 4 Zcoordinate

BUILDINGSURFACE:DETAILED,
    Block bd58b1efd04a92f0_whole Storey 0 Wall 0020,    !- Name
    wall,                     !- Surface Type
    EU_wall_Construction,     !- Construction Name
    bd58b1efd04a92f0_F0_whole,    !- Zone Name
    ,                         !- Space Name
    outdoors,                 !- Outside Boundary Condition
    ,                         !- Outside Boundary Condition Object
    SunExposed,               !- Sun Exposure
    WindExposed,              !- Wind Exposure
    autocalculate,            !- View Factor to Ground
    autocalculate,            !- Number of Vertices
    440248.7115985999,        !- Vertex 1 Xcoordinate
    4478735.349859074,        !- Vertex 1 Ycoordinate
    3,                        !- Vertex 1 Zcoordinate
    440248.7115985999,        !- Vertex 2 Xcoordinate
    4478735.349859074,        !- Vertex 2 Ycoordinate
    0,                        !- Vertex 2 Zcoordinate
    440253.8234388448,        !- Vertex 3 Xcoordinate
    4478737.318295942,        !- Vertex 3 Ycoordinate
    0,                        !- Vertex 3 Zcoordinate
    440253.8234388448,        !- Vertex 4 Xcoordinate
    4478737.318295942,        !- Vertex 4 Ycoordinate
    3;                        !- Vertex 4 Zcoordinate

BUILDINGSURFACE:DETAILED,
    Block bd58b1efd04a92f0_whole Storey 0 Wall 0021,    !- Name
    wall,                     !- Surface Type
    EU_wall_Construction,     !- Construction Name
    bd58b1efd04a92f0_F0_whole,    !- Zone Name
    ,                         !- Space Name
    Adiabatic,                !- Outside Boundary Condition
    ,                         !- Outside Boundary Condition Object
    NoSun,                    !- Sun Exposure
    NoWind,                   !- Wind Exposure
    autocalculate,            !- View Factor to Ground
    autocalculate,            !- Number of Vertices
    440253.8234388448,        !- Vertex 1 Xcoordinate
    4478737.318295942,        !- Vertex 1 Ycoordinate
    3,                        !- Vertex 1 Zcoordinate
    440253.8234388448,        !- Vertex 2 Xcoordinate
    4478737.318295942,        !- Vertex 2 Ycoordinate
    0,                        !- Vertex 2 Zcoordinate
    440251.98834584176,       !- Vertex 3 Xcoordinate
    4478743.249637328,        !- Vertex 3 Ycoordinate
    0,                        !- Vertex 3 Zcoordinate
    440251.98834584176,       !- Vertex 4 Xcoordinate
    4478743.249637328,        !- Vertex 4 Ycoordinate
    3;                        !- Vertex 4 Zcoordinate

BUILDINGSURFACE:DETAILED,
    Block bd58b1efd04a92f0_whole Storey 0 Wall 0022,    !- Name
    wall,                     !- Surface Type
    EU_wall_Construction,     !- Construction Name
    bd58b1efd04a92f0_F0_whole,    !- Zone Name
    ,                         !- Space Name
    outdoors,                 !- Outside Boundary Condition
    ,                         !- Outside Boundary Condition Object
    SunExposed,               !- Sun Exposure
    WindExposed,              !- Wind Exposure
    autocalculate,            !- View Factor to Ground
    autocalculate,            !- Number of Vertices
    440251.98834584176,       !- Vertex 1 Xcoordinate
    4478743.249637328,        !- Vertex 1 Ycoordinate
    3,                        !- Vertex 1 Zcoordinate
    440251.98834584176,       !- Vertex 2 Xcoordinate
    4478743.249637328,        !- Vertex 2 Ycoordinate
    0,                        !- Vertex 2 Zcoordinate
    440246.43419019296,       !- Vertex 3 Xcoordinate
    4478741.10712027,         !- Vertex 3 Ycoordinate
    0,                        !- Vertex 3 Zcoordinate
    440246.43419019296,       !- Vertex 4 Xcoordinate
    4478741.10712027,         !- Vertex 4 Ycoordinate
    3;                        !- Vertex 4 Zcoordinate

BUILDINGSURFACE:DETAILED,
    Block bd58b1efd04a92f0_whole Storey 0 Wall 0023,    !- Name
    wall,                     !- Surface Type
    EU_wall_Construction,     !- Construction Name
    bd58b1efd04a92f0_F0_whole,    !- Zone Name
    ,                         !- Space Name
    outdoors,                 !- Outside Boundary Condition
    ,                         !- Outside Boundary Condition Object
    SunExposed,               !- Sun Exposure
    WindExposed,              !- Wind Exposure
    autocalculate,            !- View Factor to Ground
    autocalculate,            !- Number of Vertices
    440246.43419019296,       !- Vertex 1 Xcoordinate
    4478741.10712027,         !- Vertex 1 Ycoordinate
    3,                        !- Vertex 1 Zcoordinate
    440246.43419019296,       !- Vertex 2 Xcoordinate
    4478741.10712027,         !- Vertex 2 Ycoordinate
    0,                        !- Vertex 2 Zcoordinate
    440245.7634376992,        !- Vertex 3 Xcoordinate
    4478743.121708499,        !- Vertex 3 Ycoordinate
    0,                        !- Vertex 3 Zcoordinate
    440245.7634376992,        !- Vertex 4 Xcoordinate
    4478743.121708499,        !- Vertex 4 Ycoordinate
    3;                        !- Vertex 4 Zcoordinate

BUILDINGSURFACE:DETAILED,
    Block bd58b1efd04a92f0_whole Storey 0 Wall 0024,    !- Name
    wall,                     !- Surface Type
    EU_wall_Construction,     !- Construction Name
    bd58b1efd04a92f0_F0_whole,    !- Zone Name
    ,                         !- Space Name
    outdoors,                 !- Outside Boundary Condition
    ,                         !- Outside Boundary Condition Object
    SunExposed,               !- Sun Exposure
    WindExposed,              !- Wind Exposure
    autocalculate,            !- View Factor to Ground
    autocalculate,            !- Number of Vertices
    440245.7634376992,        !- Vertex 1 Xcoordinate
    4478743.121708499,        !- Vertex 1 Ycoordinate
    3,                        !- Vertex 1 Zcoordinate
    440245.7634376992,        !- Vertex 2 Xcoordinate
    4478743.121708499,        !- Vertex 2 Ycoordinate
    0,                        !- Vertex 2 Zcoordinate
    440251.3683766875,        !- Vertex 3 Xcoordinate
    4478745.252718997,        !- Vertex 3 Ycoordinate
    0,                        !- Vertex 3 Zcoordinate
    440251.3683766875,        !- Vertex 4 Xcoordinate
    4478745.252718997,        !- Vertex 4 Ycoordinate
    3;                        !- Vertex 4 Zcoordinate

BUILDINGSURFACE:DETAILED,
    Block bd58b1efd04a92f0_whole Storey 0 Wall 0025,    !- Name
    wall,                     !- Surface Type
    EU_wall_Construction,     !- Construction Name
    bd58b1efd04a92f0_F0_whole,    !- Zone Name
    ,                         !- Space Name
    Adiabatic,                !- Outside Boundary Condition
    ,                         !- Outside Boundary Condition Object
    NoSun,                    !- Sun Exposure
    NoWind,                   !- Wind Exposure
    autocalculate,            !- View Factor to Ground
    autocalculate,            !- Number of Vertices
    440251.3683766875,        !- Vertex 1 Xcoordinate
    4478745.252718997,        !- Vertex 1 Ycoordinate
    3,                        !- Vertex 1 Zcoordinate
    440251.3683766875,        !- Vertex 2 Xcoordinate
    4478745.252718997,        !- Vertex 2 Ycoordinate
    0,                        !- Vertex 2 Zcoordinate
    440250.1694162695,        !- Vertex 3 Xcoordinate
    4478749.080943585,        !- Vertex 3 Ycoordinate
    0,                        !- Vertex 3 Zcoordinate
    440250.1694162695,        !- Vertex 4 Xcoordinate
    4478749.080943585,        !- Vertex 4 Ycoordinate
    3;                        !- Vertex 4 Zcoordinate

BUILDINGSURFACE:DETAILED,
    Block bd58b1efd04a92f0_whole Storey 0 Floor 0001,    !- Name
    floor,                    !- Surface Type
    EU_floor_Construction,    !- Construction Name
    bd58b1efd04a92f0_F0_whole,    !- Zone Name
    ,                         !- Space Name
    ground,                   !- Outside Boundary Condition
    ,                         !- Outside Boundary Condition Object
    NoSun,                    !- Sun Exposure
    NoWind,                   !- Wind Exposure
    autocalculate,            !- View Factor to Ground
    autocalculate,            !- Number of Vertices
    440250.1694162695,        !- Vertex 1 Xcoordinate
    4478749.080943585,        !- Vertex 1 Ycoordinate
    0,                        !- Vertex 1 Zcoordinate
    440251.3683766875,        !- Vertex 2 Xcoordinate
    4478745.252718997,        !- Vertex 2 Ycoordinate
    0,                        !- Vertex 2 Zcoordinate
    440245.7634376992,        !- Vertex 3 Xcoordinate
    4478743.121708499,        !- Vertex 3 Ycoordinate
    0,                        !- Vertex 3 Zcoordinate
    440246.43419019296,       !- Vertex 4 Xcoordinate
    4478741.10712027,         !- Vertex 4 Ycoordinate
    0,                        !- Vertex 4 Zcoordinate
    440251.98834584176,       !- Vertex 5 Xcoordinate
    4478743.249637328,        !- Vertex 5 Ycoordinate
    0,                        !- Vertex 5 Zcoordinate
    440253.8234388448,        !- Vertex 6 Xcoordinate
    4478737.318295942,        !- Vertex 6 Ycoordinate
    0,                        !- Vertex 6 Zcoordinate
    440248.7115985999,        !- Vertex 7 Xcoordinate
    4478735.349859074,        !- Vertex 7 Ycoordinate
    0,                        !- Vertex 7 Zcoordinate
    440249.44108465983,       !- Vertex 8 Xcoordinate
    4478733.257097197,        !- Vertex 8 Ycoordinate
    0,                        !- Vertex 8 Zcoordinate
    440254.48456357775,       !- Vertex 9 Xcoordinate
    4478735.159475684,        !- Vertex 9 Ycoordinate
    0,                        !- Vertex 9 Zcoordinate
    440255.1379184941,        !- Vertex 10 Xcoordinate
    4478733.089523447,        !- Vertex 10 Ycoordinate
    0,                        !- Vertex 10 Zcoordinate
    440256.17093836016,       !- Vertex 11 Xcoordinate
    4478729.717754548,        !- Vertex 11 Ycoordinate
    0,                        !- Vertex 11 Zcoordinate
    440256.7404797702,        !- Vertex 12 Xcoordinate
    4478727.770579513,        !- Vertex 12 Ycoordinate
    0,                        !- Vertex 12 Zcoordinate
    440247.3679524605,        !- Vertex 13 Xcoordinate
    4478724.237639046,        !- Vertex 13 Ycoordinate
    0,                        !- Vertex 13 Zcoordinate
    440244.6888619304,        !- Vertex 14 Xcoordinate
    4478723.226653573,        !- Vertex 14 Ycoordinate
    0,                        !- Vertex 14 Zcoordinate
    440242.186093794,         !- Vertex 15 Xcoordinate
    4478730.495415766,        !- Vertex 15 Ycoordinate
    0,                        !- Vertex 15 Zcoordinate
    440247.20422843733,       !- Vertex 16 Xcoordinate
    4478732.409092458,        !- Vertex 16 Ycoordinate
    0,                        !- Vertex 16 Zcoordinate
    440246.5172259056,        !- Vertex 17 Xcoordinate
    4478734.512616217,        !- Vertex 17 Ycoordinate
    0,                        !- Vertex 17 Zcoordinate
    440241.41430365125,       !- Vertex 18 Xcoordinate
    4478732.599616801,        !- Vertex 18 Ycoordinate
    0,                        !- Vertex 18 Zcoordinate
    440241.1989917561,        !- Vertex 19 Xcoordinate
    4478733.245178581,        !- Vertex 19 Ycoordinate
    0,                        !- Vertex 19 Zcoordinate
    440239.38358477724,       !- Vertex 20 Xcoordinate
    4478738.454817745,        !- Vertex 20 Ycoordinate
    0,                        !- Vertex 20 Zcoordinate
    440245.2351252364,        !- Vertex 21 Xcoordinate
    4478740.672661166,        !- Vertex 21 Ycoordinate
    0,                        !- Vertex 21 Zcoordinate
    440244.5556283519,        !- Vertex 22 Xcoordinate
    4478742.654017074,        !- Vertex 22 Ycoordinate
    0,                        !- Vertex 22 Zcoordinate
    440238.7041778221,        !- Vertex 23 Xcoordinate
    4478740.447274228,        !- Vertex 23 Ycoordinate
    0,                        !- Vertex 23 Zcoordinate
    440236.6483811929,        !- Vertex 24 Xcoordinate
    4478746.34707923,         !- Vertex 24 Ycoordinate
    0,                        !- Vertex 24 Zcoordinate
    440249.490804835,         !- Vertex 25 Xcoordinate
    4478751.173299425,        !- Vertex 25 Ycoordinate
    0;                        !- Vertex 25 Zcoordinate

BUILDINGSURFACE:DETAILED,
    Block bd58b1efd04a92f0_whole Storey 1 Wall 0001,    !- Name
    wall,                     !- Surface Type
    EU_wall_Construction,     !- Construction Name
    bd58b1efd04a92f0_F1_whole,    !- Zone Name
    ,                         !- Space Name
    Adiabatic,                !- Outside Boundary Condition
    ,                         !- Outside Boundary Condition Object
    NoSun,                    !- Sun Exposure
    NoWind,                   !- Wind Exposure
    autocalculate,            !- View Factor to Ground
    autocalculate,            !- Number of Vertices
    440250.1694162695,        !- Vertex 1 Xcoordinate
    4478749.080943585,        !- Vertex 1 Ycoordinate
    6,                        !- Vertex 1 Zcoordinate
    440250.1694162695,        !- Vertex 2 Xcoordinate
    4478749.080943585,        !- Vertex 2 Ycoordinate
    3,                        !- Vertex 2 Zcoordinate
    440249.490804835,         !- Vertex 3 Xcoordinate
    4478751.173299425,        !- Vertex 3 Ycoordinate
    3,                        !- Vertex 3 Zcoordinate
    440249.490804835,         !- Vertex 4 Xcoordinate
    4478751.173299425,        !- Vertex 4 Ycoordinate
    6;                        !- Vertex 4 Zcoordinate

BUILDINGSURFACE:DETAILED,
    Block bd58b1efd04a92f0_whole Storey 1 Wall 0002,    !- Name
    wall,                     !- Surface Type
    EU_wall_Construction,     !- Construction Name
    bd58b1efd04a92f0_F1_whole,    !- Zone Name
    ,                         !- Space Name
    outdoors,                 !- Outside Boundary Condition
    ,                         !- Outside Boundary Condition Object
    SunExposed,               !- Sun Exposure
    WindExposed,              !- Wind Exposure
    autocalculate,            !- View Factor to Ground
    autocalculate,            !- Number of Vertices
    440249.490804835,         !- Vertex 1 Xcoordinate
    4478751.173299425,        !- Vertex 1 Ycoordinate
    6,                        !- Vertex 1 Zcoordinate
    440249.490804835,         !- Vertex 2 Xcoordinate
    4478751.173299425,        !- Vertex 2 Ycoordinate
    3,                        !- Vertex 2 Zcoordinate
    440236.6483811929,        !- Vertex 3 Xcoordinate
    4478746.34707923,         !- Vertex 3 Ycoordinate
    3,                        !- Vertex 3 Zcoordinate
    440236.6483811929,        !- Vertex 4 Xcoordinate
    4478746.34707923,         !- Vertex 4 Ycoordinate
    6;                        !- Vertex 4 Zcoordinate

BUILDINGSURFACE:DETAILED,
    Block bd58b1efd04a92f0_whole Storey 1 Wall 0003,    !- Name
    wall,                     !- Surface Type
    EU_wall_Construction,     !- Construction Name
    bd58b1efd04a92f0_F1_whole,    !- Zone Name
    ,                         !- Space Name
    outdoors,                 !- Outside Boundary Condition
    ,                         !- Outside Boundary Condition Object
    SunExposed,               !- Sun Exposure
    WindExposed,              !- Wind Exposure
    autocalculate,            !- View Factor to Ground
    autocalculate,            !- Number of Vertices
    440236.6483811929,        !- Vertex 1 Xcoordinate
    4478746.34707923,         !- Vertex 1 Ycoordinate
    6,                        !- Vertex 1 Zcoordinate
    440236.6483811929,        !- Vertex 2 Xcoordinate
    4478746.34707923,         !- Vertex 2 Ycoordinate
    3,                        !- Vertex 2 Zcoordinate
    440238.7041778221,        !- Vertex 3 Xcoordinate
    4478740.447274228,        !- Vertex 3 Ycoordinate
    3,                        !- Vertex 3 Zcoordinate
    440238.7041778221,        !- Vertex 4 Xcoordinate
    4478740.447274228,        !- Vertex 4 Ycoordinate
    6;                        !- Vertex 4 Zcoordinate

BUILDINGSURFACE:DETAILED,
    Block bd58b1efd04a92f0_whole Storey 1 Wall 0004,    !- Name
    wall,                     !- Surface Type
    EU_wall_Construction,     !- Construction Name
    bd58b1efd04a92f0_F1_whole,    !- Zone Name
    ,                         !- Space Name
    outdoors,                 !- Outside Boundary Condition
    ,                         !- Outside Boundary Condition Object
    SunExposed,               !- Sun Exposure
    WindExposed,              !- Wind Exposure
    autocalculate,            !- View Factor to Ground
    autocalculate,            !- Number of Vertices
    440238.7041778221,        !- Vertex 1 Xcoordinate
    4478740.447274228,        !- Vertex 1 Ycoordinate
    6,                        !- Vertex 1 Zcoordinate
    440238.7041778221,        !- Vertex 2 Xcoordinate
    4478740.447274228,        !- Vertex 2 Ycoordinate
    3,                        !- Vertex 2 Zcoordinate
    440244.5556283519,        !- Vertex 3 Xcoordinate
    4478742.654017074,        !- Vertex 3 Ycoordinate
    3,                        !- Vertex 3 Zcoordinate
    440244.5556283519,        !- Vertex 4 Xcoordinate
    4478742.654017074,        !- Vertex 4 Ycoordinate
    6;                        !- Vertex 4 Zcoordinate

BUILDINGSURFACE:DETAILED,
    Block bd58b1efd04a92f0_whole Storey 1 Wall 0005,    !- Name
    wall,                     !- Surface Type
    EU_wall_Construction,     !- Construction Name
    bd58b1efd04a92f0_F1_whole,    !- Zone Name
    ,                         !- Space Name
    outdoors,                 !- Outside Boundary Condition
    ,                         !- Outside Boundary Condition Object
    SunExposed,               !- Sun Exposure
    WindExposed,              !- Wind Exposure
    autocalculate,            !- View Factor to Ground
    autocalculate,            !- Number of Vertices
    440244.5556283519,        !- Vertex 1 Xcoordinate
    4478742.654017074,        !- Vertex 1 Ycoordinate
    6,                        !- Vertex 1 Zcoordinate
    440244.5556283519,        !- Vertex 2 Xcoordinate
    4478742.654017074,        !- Vertex 2 Ycoordinate
    3,                        !- Vertex 2 Zcoordinate
    440245.2351252364,        !- Vertex 3 Xcoordinate
    4478740.672661166,        !- Vertex 3 Ycoordinate
    3,                        !- Vertex 3 Zcoordinate
    440245.2351252364,        !- Vertex 4 Xcoordinate
    4478740.672661166,        !- Vertex 4 Ycoordinate
    6;                        !- Vertex 4 Zcoordinate

BUILDINGSURFACE:DETAILED,
    Block bd58b1efd04a92f0_whole Storey 1 Wall 0006,    !- Name
    wall,                     !- Surface Type
    EU_wall_Construction,     !- Construction Name
    bd58b1efd04a92f0_F1_whole,    !- Zone Name
    ,                         !- Space Name
    outdoors,                 !- Outside Boundary Condition
    ,                         !- Outside Boundary Condition Object
    SunExposed,               !- Sun Exposure
    WindExposed,              !- Wind Exposure
    autocalculate,            !- View Factor to Ground
    autocalculate,            !- Number of Vertices
    440245.2351252364,        !- Vertex 1 Xcoordinate
    4478740.672661166,        !- Vertex 1 Ycoordinate
    6,                        !- Vertex 1 Zcoordinate
    440245.2351252364,        !- Vertex 2 Xcoordinate
    4478740.672661166,        !- Vertex 2 Ycoordinate
    3,                        !- Vertex 2 Zcoordinate
    440239.38358477724,       !- Vertex 3 Xcoordinate
    4478738.454817745,        !- Vertex 3 Ycoordinate
    3,                        !- Vertex 3 Zcoordinate
    440239.38358477724,       !- Vertex 4 Xcoordinate
    4478738.454817745,        !- Vertex 4 Ycoordinate
    6;                        !- Vertex 4 Zcoordinate

BUILDINGSURFACE:DETAILED,
    Block bd58b1efd04a92f0_whole Storey 1 Wall 0007,    !- Name
    wall,                     !- Surface Type
    EU_wall_Construction,     !- Construction Name
    bd58b1efd04a92f0_F1_whole,    !- Zone Name
    ,                         !- Space Name
    outdoors,                 !- Outside Boundary Condition
    ,                         !- Outside Boundary Condition Object
    SunExposed,               !- Sun Exposure
    WindExposed,              !- Wind Exposure
    autocalculate,            !- View Factor to Ground
    autocalculate,            !- Number of Vertices
    440239.38358477724,       !- Vertex 1 Xcoordinate
    4478738.454817745,        !- Vertex 1 Ycoordinate
    6,                        !- Vertex 1 Zcoordinate
    440239.38358477724,       !- Vertex 2 Xcoordinate
    4478738.454817745,        !- Vertex 2 Ycoordinate
    3,                        !- Vertex 2 Zcoordinate
    440241.1989917561,        !- Vertex 3 Xcoordinate
    4478733.245178581,        !- Vertex 3 Ycoordinate
    3,                        !- Vertex 3 Zcoordinate
    440241.1989917561,        !- Vertex 4 Xcoordinate
    4478733.245178581,        !- Vertex 4 Ycoordinate
    6;                        !- Vertex 4 Zcoordinate

BUILDINGSURFACE:DETAILED,
    Block bd58b1efd04a92f0_whole Storey 1 Wall 0008,    !- Name
    wall,                     !- Surface Type
    EU_wall_Construction,     !- Construction Name
    bd58b1efd04a92f0_F1_whole,    !- Zone Name
    ,                         !- Space Name
    Adiabatic,                !- Outside Boundary Condition
    ,                         !- Outside Boundary Condition Object
    NoSun,                    !- Sun Exposure
    NoWind,                   !- Wind Exposure
    autocalculate,            !- View Factor to Ground
    autocalculate,            !- Number of Vertices
    440241.1989917561,        !- Vertex 1 Xcoordinate
    4478733.245178581,        !- Vertex 1 Ycoordinate
    6,                        !- Vertex 1 Zcoordinate
    440241.1989917561,        !- Vertex 2 Xcoordinate
    4478733.245178581,        !- Vertex 2 Ycoordinate
    3,                        !- Vertex 2 Zcoordinate
    440241.41430365125,       !- Vertex 3 Xcoordinate
    4478732.599616801,        !- Vertex 3 Ycoordinate
    3,                        !- Vertex 3 Zcoordinate
    440241.41430365125,       !- Vertex 4 Xcoordinate
    4478732.599616801,        !- Vertex 4 Ycoordinate
    6;                        !- Vertex 4 Zcoordinate

BUILDINGSURFACE:DETAILED,
    Block bd58b1efd04a92f0_whole Storey 1 Wall 0009,    !- Name
    wall,                     !- Surface Type
    EU_wall_Construction,     !- Construction Name
    bd58b1efd04a92f0_F1_whole,    !- Zone Name
    ,                         !- Space Name
    outdoors,                 !- Outside Boundary Condition
    ,                         !- Outside Boundary Condition Object
    SunExposed,               !- Sun Exposure
    WindExposed,              !- Wind Exposure
    autocalculate,            !- View Factor to Ground
    autocalculate,            !- Number of Vertices
    440241.41430365125,       !- Vertex 1 Xcoordinate
    4478732.599616801,        !- Vertex 1 Ycoordinate
    6,                        !- Vertex 1 Zcoordinate
    440241.41430365125,       !- Vertex 2 Xcoordinate
    4478732.599616801,        !- Vertex 2 Ycoordinate
    3,                        !- Vertex 2 Zcoordinate
    440246.5172259056,        !- Vertex 3 Xcoordinate
    4478734.512616217,        !- Vertex 3 Ycoordinate
    3,                        !- Vertex 3 Zcoordinate
    440246.5172259056,        !- Vertex 4 Xcoordinate
    4478734.512616217,        !- Vertex 4 Ycoordinate
    6;                        !- Vertex 4 Zcoordinate

BUILDINGSURFACE:DETAILED,
    Block bd58b1efd04a92f0_whole Storey 1 Wall 0010,    !- Name
    wall,                     !- Surface Type
    EU_wall_Construction,     !- Construction Name
    bd58b1efd04a92f0_F1_whole,    !- Zone Name
    ,                         !- Space Name
    outdoors,                 !- Outside Boundary Condition
    ,                         !- Outside Boundary Condition Object
    SunExposed,               !- Sun Exposure
    WindExposed,              !- Wind Exposure
    autocalculate,            !- View Factor to Ground
    autocalculate,            !- Number of Vertices
    440246.5172259056,        !- Vertex 1 Xcoordinate
    4478734.512616217,        !- Vertex 1 Ycoordinate
    6,                        !- Vertex 1 Zcoordinate
    440246.5172259056,        !- Vertex 2 Xcoordinate
    4478734.512616217,        !- Vertex 2 Ycoordinate
    3,                        !- Vertex 2 Zcoordinate
    440247.20422843733,       !- Vertex 3 Xcoordinate
    4478732.409092458,        !- Vertex 3 Ycoordinate
    3,                        !- Vertex 3 Zcoordinate
    440247.20422843733,       !- Vertex 4 Xcoordinate
    4478732.409092458,        !- Vertex 4 Ycoordinate
    6;                        !- Vertex 4 Zcoordinate

BUILDINGSURFACE:DETAILED,
    Block bd58b1efd04a92f0_whole Storey 1 Wall 0011,    !- Name
    wall,                     !- Surface Type
    EU_wall_Construction,     !- Construction Name
    bd58b1efd04a92f0_F1_whole,    !- Zone Name
    ,                         !- Space Name
    outdoors,                 !- Outside Boundary Condition
    ,                         !- Outside Boundary Condition Object
    SunExposed,               !- Sun Exposure
    WindExposed,              !- Wind Exposure
    autocalculate,            !- View Factor to Ground
    autocalculate,            !- Number of Vertices
    440247.20422843733,       !- Vertex 1 Xcoordinate
    4478732.409092458,        !- Vertex 1 Ycoordinate
    6,                        !- Vertex 1 Zcoordinate
    440247.20422843733,       !- Vertex 2 Xcoordinate
    4478732.409092458,        !- Vertex 2 Ycoordinate
    3,                        !- Vertex 2 Zcoordinate
    440242.186093794,         !- Vertex 3 Xcoordinate
    4478730.495415766,        !- Vertex 3 Ycoordinate
    3,                        !- Vertex 3 Zcoordinate
    440242.186093794,         !- Vertex 4 Xcoordinate
    4478730.495415766,        !- Vertex 4 Ycoordinate
    6;                        !- Vertex 4 Zcoordinate

BUILDINGSURFACE:DETAILED,
    Block bd58b1efd04a92f0_whole Storey 1 Wall 0012,    !- Name
    wall,                     !- Surface Type
    EU_wall_Construction,     !- Construction Name
    bd58b1efd04a92f0_F1_whole,    !- Zone Name
    ,                         !- Space Name
    Adiabatic,                !- Outside Boundary Condition
    ,                         !- Outside Boundary Condition Object
    NoSun,                    !- Sun Exposure
    NoWind,                   !- Wind Exposure
    autocalculate,            !- View Factor to Ground
    autocalculate,            !- Number of Vertices
    440242.186093794,         !- Vertex 1 Xcoordinate
    4478730.495415766,        !- Vertex 1 Ycoordinate
    6,                        !- Vertex 1 Zcoordinate
    440242.186093794,         !- Vertex 2 Xcoordinate
    4478730.495415766,        !- Vertex 2 Ycoordinate
    3,                        !- Vertex 2 Zcoordinate
    440244.6888619304,        !- Vertex 3 Xcoordinate
    4478723.226653573,        !- Vertex 3 Ycoordinate
    3,                        !- Vertex 3 Zcoordinate
    440244.6888619304,        !- Vertex 4 Xcoordinate
    4478723.226653573,        !- Vertex 4 Ycoordinate
    6;                        !- Vertex 4 Zcoordinate

BUILDINGSURFACE:DETAILED,
    Block bd58b1efd04a92f0_whole Storey 1 Wall 0013,    !- Name
    wall,                     !- Surface Type
    EU_wall_Construction,     !- Construction Name
    bd58b1efd04a92f0_F1_whole,    !- Zone Name
    ,                         !- Space Name
    outdoors,                 !- Outside Boundary Condition
    ,                         !- Outside Boundary Condition Object
    SunExposed,               !- Sun Exposure
    WindExposed,              !- Wind Exposure
    autocalculate,            !- View Factor to Ground
    autocalculate,            !- Number of Vertices
    440244.6888619304,        !- Vertex 1 Xcoordinate
    4478723.226653573,        !- Vertex 1 Ycoordinate
    6,                        !- Vertex 1 Zcoordinate
    440244.6888619304,        !- Vertex 2 Xcoordinate
    4478723.226653573,        !- Vertex 2 Ycoordinate
    3,                        !- Vertex 2 Zcoordinate
    440247.3679524605,        !- Vertex 3 Xcoordinate
    4478724.237639046,        !- Vertex 3 Ycoordinate
    3,                        !- Vertex 3 Zcoordinate
    440247.3679524605,        !- Vertex 4 Xcoordinate
    4478724.237639046,        !- Vertex 4 Ycoordinate
    6;                        !- Vertex 4 Zcoordinate

BUILDINGSURFACE:DETAILED,
    Block bd58b1efd04a92f0_whole Storey 1 Wall 0014,    !- Name
    wall,                     !- Surface Type
    EU_wall_Construction,     !- Construction Name
    bd58b1efd04a92f0_F1_whole,    !- Zone Name
    ,                         !- Space Name
    outdoors,                 !- Outside Boundary Condition
    ,                         !- Outside Boundary Condition Object
    SunExposed,               !- Sun Exposure
    WindExposed,              !- Wind Exposure
    autocalculate,            !- View Factor to Ground
    autocalculate,            !- Number of Vertices
    440247.3679524605,        !- Vertex 1 Xcoordinate
    4478724.237639046,        !- Vertex 1 Ycoordinate
    6,                        !- Vertex 1 Zcoordinate
    440247.3679524605,        !- Vertex 2 Xcoordinate
    4478724.237639046,        !- Vertex 2 Ycoordinate
    3,                        !- Vertex 2 Zcoordinate
    440256.7404797702,        !- Vertex 3 Xcoordinate
    4478727.770579513,        !- Vertex 3 Ycoordinate
    3,                        !- Vertex 3 Zcoordinate
    440256.7404797702,        !- Vertex 4 Xcoordinate
    4478727.770579513,        !- Vertex 4 Ycoordinate
    6;                        !- Vertex 4 Zcoordinate

BUILDINGSURFACE:DETAILED,
    Block bd58b1efd04a92f0_whole Storey 1 Wall 0015,    !- Name
    wall,                     !- Surface Type
    EU_wall_Construction,     !- Construction Name
    bd58b1efd04a92f0_F1_whole,    !- Zone Name
    ,                         !- Space Name
    outdoors,                 !- Outside Boundary Condition
    ,                         !- Outside Boundary Condition Object
    SunExposed,               !- Sun Exposure
    WindExposed,              !- Wind Exposure
    autocalculate,            !- View Factor to Ground
    autocalculate,            !- Number of Vertices
    440256.7404797702,        !- Vertex 1 Xcoordinate
    4478727.770579513,        !- Vertex 1 Ycoordinate
    6,                        !- Vertex 1 Zcoordinate
    440256.7404797702,        !- Vertex 2 Xcoordinate
    4478727.770579513,        !- Vertex 2 Ycoordinate
    3,                        !- Vertex 2 Zcoordinate
    440256.17093836016,       !- Vertex 3 Xcoordinate
    4478729.717754548,        !- Vertex 3 Ycoordinate
    3,                        !- Vertex 3 Zcoordinate
    440256.17093836016,       !- Vertex 4 Xcoordinate
    4478729.717754548,        !- Vertex 4 Ycoordinate
    6;                        !- Vertex 4 Zcoordinate

BUILDINGSURFACE:DETAILED,
    Block bd58b1efd04a92f0_whole Storey 1 Wall 0016,    !- Name
    wall,                     !- Surface Type
    EU_wall_Construction,     !- Construction Name
    bd58b1efd04a92f0_F1_whole,    !- Zone Name
    ,                         !- Space Name
    Adiabatic,                !- Outside Boundary Condition
    ,                         !- Outside Boundary Condition Object
    NoSun,                    !- Sun Exposure
    NoWind,                   !- Wind Exposure
    autocalculate,            !- View Factor to Ground
    autocalculate,            !- Number of Vertices
    440256.17093836016,       !- Vertex 1 Xcoordinate
    4478729.717754548,        !- Vertex 1 Ycoordinate
    6,                        !- Vertex 1 Zcoordinate
    440256.17093836016,       !- Vertex 2 Xcoordinate
    4478729.717754548,        !- Vertex 2 Ycoordinate
    3,                        !- Vertex 2 Zcoordinate
    440255.1379184941,        !- Vertex 3 Xcoordinate
    4478733.089523447,        !- Vertex 3 Ycoordinate
    3,                        !- Vertex 3 Zcoordinate
    440255.1379184941,        !- Vertex 4 Xcoordinate
    4478733.089523447,        !- Vertex 4 Ycoordinate
    6;                        !- Vertex 4 Zcoordinate

BUILDINGSURFACE:DETAILED,
    Block bd58b1efd04a92f0_whole Storey 1 Wall 0017,    !- Name
    wall,                     !- Surface Type
    EU_wall_Construction,     !- Construction Name
    bd58b1efd04a92f0_F1_whole,    !- Zone Name
    ,                         !- Space Name
    Adiabatic,                !- Outside Boundary Condition
    ,                         !- Outside Boundary Condition Object
    NoSun,                    !- Sun Exposure
    NoWind,                   !- Wind Exposure
    autocalculate,            !- View Factor to Ground
    autocalculate,            !- Number of Vertices
    440255.1379184941,        !- Vertex 1 Xcoordinate
    4478733.089523447,        !- Vertex 1 Ycoordinate
    6,                        !- Vertex 1 Zcoordinate
    440255.1379184941,        !- Vertex 2 Xcoordinate
    4478733.089523447,        !- Vertex 2 Ycoordinate
    3,                        !- Vertex 2 Zcoordinate
    440254.48456357775,       !- Vertex 3 Xcoordinate
    4478735.159475684,        !- Vertex 3 Ycoordinate
    3,                        !- Vertex 3 Zcoordinate
    440254.48456357775,       !- Vertex 4 Xcoordinate
    4478735.159475684,        !- Vertex 4 Ycoordinate
    6;                        !- Vertex 4 Zcoordinate

BUILDINGSURFACE:DETAILED,
    Block bd58b1efd04a92f0_whole Storey 1 Wall 0018,    !- Name
    wall,                     !- Surface Type
    EU_wall_Construction,     !- Construction Name
    bd58b1efd04a92f0_F1_whole,    !- Zone Name
    ,                         !- Space Name
    outdoors,                 !- Outside Boundary Condition
    ,                         !- Outside Boundary Condition Object
    SunExposed,               !- Sun Exposure
    WindExposed,              !- Wind Exposure
    autocalculate,            !- View Factor to Ground
    autocalculate,            !- Number of Vertices
    440254.48456357775,       !- Vertex 1 Xcoordinate
    4478735.159475684,        !- Vertex 1 Ycoordinate
    6,                        !- Vertex 1 Zcoordinate
    440254.48456357775,       !- Vertex 2 Xcoordinate
    4478735.159475684,        !- Vertex 2 Ycoordinate
    3,                        !- Vertex 2 Zcoordinate
    440249.44108465983,       !- Vertex 3 Xcoordinate
    4478733.257097197,        !- Vertex 3 Ycoordinate
    3,                        !- Vertex 3 Zcoordinate
    440249.44108465983,       !- Vertex 4 Xcoordinate
    4478733.257097197,        !- Vertex 4 Ycoordinate
    6;                        !- Vertex 4 Zcoordinate

BUILDINGSURFACE:DETAILED,
    Block bd58b1efd04a92f0_whole Storey 1 Wall 0019,    !- Name
    wall,                     !- Surface Type
    EU_wall_Construction,     !- Construction Name
    bd58b1efd04a92f0_F1_whole,    !- Zone Name
    ,                         !- Space Name
    outdoors,                 !- Outside Boundary Condition
    ,                         !- Outside Boundary Condition Object
    SunExposed,               !- Sun Exposure
    WindExposed,              !- Wind Exposure
    autocalculate,            !- View Factor to Ground
    autocalculate,            !- Number of Vertices
    440249.44108465983,       !- Vertex 1 Xcoordinate
    4478733.257097197,        !- Vertex 1 Ycoordinate
    6,                        !- Vertex 1 Zcoordinate
    440249.44108465983,       !- Vertex 2 Xcoordinate
    4478733.257097197,        !- Vertex 2 Ycoordinate
    3,                        !- Vertex 2 Zcoordinate
    440248.7115985999,        !- Vertex 3 Xcoordinate
    4478735.349859074,        !- Vertex 3 Ycoordinate
    3,                        !- Vertex 3 Zcoordinate
    440248.7115985999,        !- Vertex 4 Xcoordinate
    4478735.349859074,        !- Vertex 4 Ycoordinate
    6;                        !- Vertex 4 Zcoordinate

BUILDINGSURFACE:DETAILED,
    Block bd58b1efd04a92f0_whole Storey 1 Wall 0020,    !- Name
    wall,                     !- Surface Type
    EU_wall_Construction,     !- Construction Name
    bd58b1efd04a92f0_F1_whole,    !- Zone Name
    ,                         !- Space Name
    outdoors,                 !- Outside Boundary Condition
    ,                         !- Outside Boundary Condition Object
    SunExposed,               !- Sun Exposure
    WindExposed,              !- Wind Exposure
    autocalculate,            !- View Factor to Ground
    autocalculate,            !- Number of Vertices
    440248.7115985999,        !- Vertex 1 Xcoordinate
    4478735.349859074,        !- Vertex 1 Ycoordinate
    6,                        !- Vertex 1 Zcoordinate
    440248.7115985999,        !- Vertex 2 Xcoordinate
    4478735.349859074,        !- Vertex 2 Ycoordinate
    3,                        !- Vertex 2 Zcoordinate
    440253.8234388448,        !- Vertex 3 Xcoordinate
    4478737.318295942,        !- Vertex 3 Ycoordinate
    3,                        !- Vertex 3 Zcoordinate
    440253.8234388448,        !- Vertex 4 Xcoordinate
    4478737.318295942,        !- Vertex 4 Ycoordinate
    6;                        !- Vertex 4 Zcoordinate

BUILDINGSURFACE:DETAILED,
    Block bd58b1efd04a92f0_whole Storey 1 Wall 0021,    !- Name
    wall,                     !- Surface Type
    EU_wall_Construction,     !- Construction Name
    bd58b1efd04a92f0_F1_whole,    !- Zone Name
    ,                         !- Space Name
    Adiabatic,                !- Outside Boundary Condition
    ,                         !- Outside Boundary Condition Object
    NoSun,                    !- Sun Exposure
    NoWind,                   !- Wind Exposure
    autocalculate,            !- View Factor to Ground
    autocalculate,            !- Number of Vertices
    440253.8234388448,        !- Vertex 1 Xcoordinate
    4478737.318295942,        !- Vertex 1 Ycoordinate
    6,                        !- Vertex 1 Zcoordinate
    440253.8234388448,        !- Vertex 2 Xcoordinate
    4478737.318295942,        !- Vertex 2 Ycoordinate
    3,                        !- Vertex 2 Zcoordinate
    440251.98834584176,       !- Vertex 3 Xcoordinate
    4478743.249637328,        !- Vertex 3 Ycoordinate
    3,                        !- Vertex 3 Zcoordinate
    440251.98834584176,       !- Vertex 4 Xcoordinate
    4478743.249637328,        !- Vertex 4 Ycoordinate
    6;                        !- Vertex 4 Zcoordinate

BUILDINGSURFACE:DETAILED,
    Block bd58b1efd04a92f0_whole Storey 1 Wall 0022,    !- Name
    wall,                     !- Surface Type
    EU_wall_Construction,     !- Construction Name
    bd58b1efd04a92f0_F1_whole,    !- Zone Name
    ,                         !- Space Name
    outdoors,                 !- Outside Boundary Condition
    ,                         !- Outside Boundary Condition Object
    SunExposed,               !- Sun Exposure
    WindExposed,              !- Wind Exposure
    autocalculate,            !- View Factor to Ground
    autocalculate,            !- Number of Vertices
    440251.98834584176,       !- Vertex 1 Xcoordinate
    4478743.249637328,        !- Vertex 1 Ycoordinate
    6,                        !- Vertex 1 Zcoordinate
    440251.98834584176,       !- Vertex 2 Xcoordinate
    4478743.249637328,        !- Vertex 2 Ycoordinate
    3,                        !- Vertex 2 Zcoordinate
    440246.43419019296,       !- Vertex 3 Xcoordinate
    4478741.10712027,         !- Vertex 3 Ycoordinate
    3,                        !- Vertex 3 Zcoordinate
    440246.43419019296,       !- Vertex 4 Xcoordinate
    4478741.10712027,         !- Vertex 4 Ycoordinate
    6;                        !- Vertex 4 Zcoordinate

BUILDINGSURFACE:DETAILED,
    Block bd58b1efd04a92f0_whole Storey 1 Wall 0023,    !- Name
    wall,                     !- Surface Type
    EU_wall_Construction,     !- Construction Name
    bd58b1efd04a92f0_F1_whole,    !- Zone Name
    ,                         !- Space Name
    outdoors,                 !- Outside Boundary Condition
    ,                         !- Outside Boundary Condition Object
    SunExposed,               !- Sun Exposure
    WindExposed,              !- Wind Exposure
    autocalculate,            !- View Factor to Ground
    autocalculate,            !- Number of Vertices
    440246.43419019296,       !- Vertex 1 Xcoordinate
    4478741.10712027,         !- Vertex 1 Ycoordinate
    6,                        !- Vertex 1 Zcoordinate
    440246.43419019296,       !- Vertex 2 Xcoordinate
    4478741.10712027,         !- Vertex 2 Ycoordinate
    3,                        !- Vertex 2 Zcoordinate
    440245.7634376992,        !- Vertex 3 Xcoordinate
    4478743.121708499,        !- Vertex 3 Ycoordinate
    3,                        !- Vertex 3 Zcoordinate
    440245.7634376992,        !- Vertex 4 Xcoordinate
    4478743.121708499,        !- Vertex 4 Ycoordinate
    6;                        !- Vertex 4 Zcoordinate

BUILDINGSURFACE:DETAILED,
    Block bd58b1efd04a92f0_whole Storey 1 Wall 0024,    !- Name
    wall,                     !- Surface Type
    EU_wall_Construction,     !- Construction Name
    bd58b1efd04a92f0_F1_whole,    !- Zone Name
    ,                         !- Space Name
    outdoors,                 !- Outside Boundary Condition
    ,                         !- Outside Boundary Condition Object
    SunExposed,               !- Sun Exposure
    WindExposed,              !- Wind Exposure
    autocalculate,            !- View Factor to Ground
    autocalculate,            !- Number of Vertices
    440245.7634376992,        !- Vertex 1 Xcoordinate
    4478743.121708499,        !- Vertex 1 Ycoordinate
    6,                        !- Vertex 1 Zcoordinate
    440245.7634376992,        !- Vertex 2 Xcoordinate
    4478743.121708499,        !- Vertex 2 Ycoordinate
    3,                        !- Vertex 2 Zcoordinate
    440251.3683766875,        !- Vertex 3 Xcoordinate
    4478745.252718997,        !- Vertex 3 Ycoordinate
    3,                        !- Vertex 3 Zcoordinate
    440251.3683766875,        !- Vertex 4 Xcoordinate
    4478745.252718997,        !- Vertex 4 Ycoordinate
    6;                        !- Vertex 4 Zcoordinate

BUILDINGSURFACE:DETAILED,
    Block bd58b1efd04a92f0_whole Storey 1 Wall 0025,    !- Name
    wall,                     !- Surface Type
    EU_wall_Construction,     !- Construction Name
    bd58b1efd04a92f0_F1_whole,    !- Zone Name
    ,                         !- Space Name
    Adiabatic,                !- Outside Boundary Condition
    ,                         !- Outside Boundary Condition Object
    NoSun,                    !- Sun Exposure
    NoWind,                   !- Wind Exposure
    autocalculate,            !- View Factor to Ground
    autocalculate,            !- Number of Vertices
    440251.3683766875,        !- Vertex 1 Xcoordinate
    4478745.252718997,        !- Vertex 1 Ycoordinate
    6,                        !- Vertex 1 Zcoordinate
    440251.3683766875,        !- Vertex 2 Xcoordinate
    4478745.252718997,        !- Vertex 2 Ycoordinate
    3,                        !- Vertex 2 Zcoordinate
    440250.1694162695,        !- Vertex 3 Xcoordinate
    4478749.080943585,        !- Vertex 3 Ycoordinate
    3,                        !- Vertex 3 Zcoordinate
    440250.1694162695,        !- Vertex 4 Xcoordinate
    4478749.080943585,        !- Vertex 4 Ycoordinate
    6;                        !- Vertex 4 Zcoordinate

BUILDINGSURFACE:DETAILED,
    Block bd58b1efd04a92f0_whole Storey 2 Wall 0001,    !- Name
    wall,                     !- Surface Type
    EU_wall_Construction,     !- Construction Name
    bd58b1efd04a92f0_F2_whole,    !- Zone Name
    ,                         !- Space Name
    Adiabatic,                !- Outside Boundary Condition
    ,                         !- Outside Boundary Condition Object
    NoSun,                    !- Sun Exposure
    NoWind,                   !- Wind Exposure
    autocalculate,            !- View Factor to Ground
    autocalculate,            !- Number of Vertices
    440250.1694162695,        !- Vertex 1 Xcoordinate
    4478749.080943585,        !- Vertex 1 Ycoordinate
    9,                        !- Vertex 1 Zcoordinate
    440250.1694162695,        !- Vertex 2 Xcoordinate
    4478749.080943585,        !- Vertex 2 Ycoordinate
    6,                        !- Vertex 2 Zcoordinate
    440249.490804835,         !- Vertex 3 Xcoordinate
    4478751.173299425,        !- Vertex 3 Ycoordinate
    6,                        !- Vertex 3 Zcoordinate
    440249.490804835,         !- Vertex 4 Xcoordinate
    4478751.173299425,        !- Vertex 4 Ycoordinate
    9;                        !- Vertex 4 Zcoordinate

BUILDINGSURFACE:DETAILED,
    Block bd58b1efd04a92f0_whole Storey 2 Wall 0002,    !- Name
    wall,                     !- Surface Type
    EU_wall_Construction,     !- Construction Name
    bd58b1efd04a92f0_F2_whole,    !- Zone Name
    ,                         !- Space Name
    outdoors,                 !- Outside Boundary Condition
    ,                         !- Outside Boundary Condition Object
    SunExposed,               !- Sun Exposure
    WindExposed,              !- Wind Exposure
    autocalculate,            !- View Factor to Ground
    autocalculate,            !- Number of Vertices
    440249.490804835,         !- Vertex 1 Xcoordinate
    4478751.173299425,        !- Vertex 1 Ycoordinate
    9,                        !- Vertex 1 Zcoordinate
    440249.490804835,         !- Vertex 2 Xcoordinate
    4478751.173299425,        !- Vertex 2 Ycoordinate
    6,                        !- Vertex 2 Zcoordinate
    440236.6483811929,        !- Vertex 3 Xcoordinate
    4478746.34707923,         !- Vertex 3 Ycoordinate
    6,                        !- Vertex 3 Zcoordinate
    440236.6483811929,        !- Vertex 4 Xcoordinate
    4478746.34707923,         !- Vertex 4 Ycoordinate
    9;                        !- Vertex 4 Zcoordinate

BUILDINGSURFACE:DETAILED,
    Block bd58b1efd04a92f0_whole Storey 2 Wall 0003,    !- Name
    wall,                     !- Surface Type
    EU_wall_Construction,     !- Construction Name
    bd58b1efd04a92f0_F2_whole,    !- Zone Name
    ,                         !- Space Name
    outdoors,                 !- Outside Boundary Condition
    ,                         !- Outside Boundary Condition Object
    SunExposed,               !- Sun Exposure
    WindExposed,              !- Wind Exposure
    autocalculate,            !- View Factor to Ground
    autocalculate,            !- Number of Vertices
    440236.6483811929,        !- Vertex 1 Xcoordinate
    4478746.34707923,         !- Vertex 1 Ycoordinate
    9,                        !- Vertex 1 Zcoordinate
    440236.6483811929,        !- Vertex 2 Xcoordinate
    4478746.34707923,         !- Vertex 2 Ycoordinate
    6,                        !- Vertex 2 Zcoordinate
    440238.7041778221,        !- Vertex 3 Xcoordinate
    4478740.447274228,        !- Vertex 3 Ycoordinate
    6,                        !- Vertex 3 Zcoordinate
    440238.7041778221,        !- Vertex 4 Xcoordinate
    4478740.447274228,        !- Vertex 4 Ycoordinate
    9;                        !- Vertex 4 Zcoordinate

BUILDINGSURFACE:DETAILED,
    Block bd58b1efd04a92f0_whole Storey 2 Wall 0004,    !- Name
    wall,                     !- Surface Type
    EU_wall_Construction,     !- Construction Name
    bd58b1efd04a92f0_F2_whole,    !- Zone Name
    ,                         !- Space Name
    outdoors,                 !- Outside Boundary Condition
    ,                         !- Outside Boundary Condition Object
    SunExposed,               !- Sun Exposure
    WindExposed,              !- Wind Exposure
    autocalculate,            !- View Factor to Ground
    autocalculate,            !- Number of Vertices
    440238.7041778221,        !- Vertex 1 Xcoordinate
    4478740.447274228,        !- Vertex 1 Ycoordinate
    9,                        !- Vertex 1 Zcoordinate
    440238.7041778221,        !- Vertex 2 Xcoordinate
    4478740.447274228,        !- Vertex 2 Ycoordinate
    6,                        !- Vertex 2 Zcoordinate
    440244.5556283519,        !- Vertex 3 Xcoordinate
    4478742.654017074,        !- Vertex 3 Ycoordinate
    6,                        !- Vertex 3 Zcoordinate
    440244.5556283519,        !- Vertex 4 Xcoordinate
    4478742.654017074,        !- Vertex 4 Ycoordinate
    9;                        !- Vertex 4 Zcoordinate

BUILDINGSURFACE:DETAILED,
    Block bd58b1efd04a92f0_whole Storey 2 Wall 0005,    !- Name
    wall,                     !- Surface Type
    EU_wall_Construction,     !- Construction Name
    bd58b1efd04a92f0_F2_whole,    !- Zone Name
    ,                         !- Space Name
    outdoors,                 !- Outside Boundary Condition
    ,                         !- Outside Boundary Condition Object
    SunExposed,               !- Sun Exposure
    WindExposed,              !- Wind Exposure
    autocalculate,            !- View Factor to Ground
    autocalculate,            !- Number of Vertices
    440244.5556283519,        !- Vertex 1 Xcoordinate
    4478742.654017074,        !- Vertex 1 Ycoordinate
    9,                        !- Vertex 1 Zcoordinate
    440244.5556283519,        !- Vertex 2 Xcoordinate
    4478742.654017074,        !- Vertex 2 Ycoordinate
    6,                        !- Vertex 2 Zcoordinate
    440245.2351252364,        !- Vertex 3 Xcoordinate
    4478740.672661166,        !- Vertex 3 Ycoordinate
    6,                        !- Vertex 3 Zcoordinate
    440245.2351252364,        !- Vertex 4 Xcoordinate
    4478740.672661166,        !- Vertex 4 Ycoordinate
    9;                        !- Vertex 4 Zcoordinate

BUILDINGSURFACE:DETAILED,
    Block bd58b1efd04a92f0_whole Storey 2 Wall 0006,    !- Name
    wall,                     !- Surface Type
    EU_wall_Construction,     !- Construction Name
    bd58b1efd04a92f0_F2_whole,    !- Zone Name
    ,                         !- Space Name
    outdoors,                 !- Outside Boundary Condition
    ,                         !- Outside Boundary Condition Object
    SunExposed,               !- Sun Exposure
    WindExposed,              !- Wind Exposure
    autocalculate,            !- View Factor to Ground
    autocalculate,            !- Number of Vertices
    440245.2351252364,        !- Vertex 1 Xcoordinate
    4478740.672661166,        !- Vertex 1 Ycoordinate
    9,                        !- Vertex 1 Zcoordinate
    440245.2351252364,        !- Vertex 2 Xcoordinate
    4478740.672661166,        !- Vertex 2 Ycoordinate
    6,                        !- Vertex 2 Zcoordinate
    440239.38358477724,       !- Vertex 3 Xcoordinate
    4478738.454817745,        !- Vertex 3 Ycoordinate
    6,                        !- Vertex 3 Zcoordinate
    440239.38358477724,       !- Vertex 4 Xcoordinate
    4478738.454817745,        !- Vertex 4 Ycoordinate
    9;                        !- Vertex 4 Zcoordinate

BUILDINGSURFACE:DETAILED,
    Block bd58b1efd04a92f0_whole Storey 2 Wall 0007,    !- Name
    wall,                     !- Surface Type
    EU_wall_Construction,     !- Construction Name
    bd58b1efd04a92f0_F2_whole,    !- Zone Name
    ,                         !- Space Name
    outdoors,                 !- Outside Boundary Condition
    ,                         !- Outside Boundary Condition Object
    SunExposed,               !- Sun Exposure
    WindExposed,              !- Wind Exposure
    autocalculate,            !- View Factor to Ground
    autocalculate,            !- Number of Vertices
    440239.38358477724,       !- Vertex 1 Xcoordinate
    4478738.454817745,        !- Vertex 1 Ycoordinate
    9,                        !- Vertex 1 Zcoordinate
    440239.38358477724,       !- Vertex 2 Xcoordinate
    4478738.454817745,        !- Vertex 2 Ycoordinate
    6,                        !- Vertex 2 Zcoordinate
    440241.1989917561,        !- Vertex 3 Xcoordinate
    4478733.245178581,        !- Vertex 3 Ycoordinate
    6,                        !- Vertex 3 Zcoordinate
    440241.1989917561,        !- Vertex 4 Xcoordinate
    4478733.245178581,        !- Vertex 4 Ycoordinate
    9;                        !- Vertex 4 Zcoordinate

BUILDINGSURFACE:DETAILED,
    Block bd58b1efd04a92f0_whole Storey 2 Wall 0008,    !- Name
    wall,                     !- Surface Type
    EU_wall_Construction,     !- Construction Name
    bd58b1efd04a92f0_F2_whole,    !- Zone Name
    ,                         !- Space Name
    Adiabatic,                !- Outside Boundary Condition
    ,                         !- Outside Boundary Condition Object
    NoSun,                    !- Sun Exposure
    NoWind,                   !- Wind Exposure
    autocalculate,            !- View Factor to Ground
    autocalculate,            !- Number of Vertices
    440241.1989917561,        !- Vertex 1 Xcoordinate
    4478733.245178581,        !- Vertex 1 Ycoordinate
    9,                        !- Vertex 1 Zcoordinate
    440241.1989917561,        !- Vertex 2 Xcoordinate
    4478733.245178581,        !- Vertex 2 Ycoordinate
    6,                        !- Vertex 2 Zcoordinate
    440241.41430365125,       !- Vertex 3 Xcoordinate
    4478732.599616801,        !- Vertex 3 Ycoordinate
    6,                        !- Vertex 3 Zcoordinate
    440241.41430365125,       !- Vertex 4 Xcoordinate
    4478732.599616801,        !- Vertex 4 Ycoordinate
    9;                        !- Vertex 4 Zcoordinate

BUILDINGSURFACE:DETAILED,
    Block bd58b1efd04a92f0_whole Storey 2 Wall 0009,    !- Name
    wall,                     !- Surface Type
    EU_wall_Construction,     !- Construction Name
    bd58b1efd04a92f0_F2_whole,    !- Zone Name
    ,                         !- Space Name
    outdoors,                 !- Outside Boundary Condition
    ,                         !- Outside Boundary Condition Object
    SunExposed,               !- Sun Exposure
    WindExposed,              !- Wind Exposure
    autocalculate,            !- View Factor to Ground
    autocalculate,            !- Number of Vertices
    440241.41430365125,       !- Vertex 1 Xcoordinate
    4478732.599616801,        !- Vertex 1 Ycoordinate
    9,                        !- Vertex 1 Zcoordinate
    440241.41430365125,       !- Vertex 2 Xcoordinate
    4478732.599616801,        !- Vertex 2 Ycoordinate
    6,                        !- Vertex 2 Zcoordinate
    440246.5172259056,        !- Vertex 3 Xcoordinate
    4478734.512616217,        !- Vertex 3 Ycoordinate
    6,                        !- Vertex 3 Zcoordinate
    440246.5172259056,        !- Vertex 4 Xcoordinate
    4478734.512616217,        !- Vertex 4 Ycoordinate
    9;                        !- Vertex 4 Zcoordinate

BUILDINGSURFACE:DETAILED,
    Block bd58b1efd04a92f0_whole Storey 2 Wall 0010,    !- Name
    wall,                     !- Surface Type
    EU_wall_Construction,     !- Construction Name
    bd58b1efd04a92f0_F2_whole,    !- Zone Name
    ,                         !- Space Name
    outdoors,                 !- Outside Boundary Condition
    ,                         !- Outside Boundary Condition Object
    SunExposed,               !- Sun Exposure
    WindExposed,              !- Wind Exposure
    autocalculate,            !- View Factor to Ground
    autocalculate,            !- Number of Vertices
    440246.5172259056,        !- Vertex 1 Xcoordinate
    4478734.512616217,        !- Vertex 1 Ycoordinate
    9,                        !- Vertex 1 Zcoordinate
    440246.5172259056,        !- Vertex 2 Xcoordinate
    4478734.512616217,        !- Vertex 2 Ycoordinate
    6,                        !- Vertex 2 Zcoordinate
    440247.20422843733,       !- Vertex 3 Xcoordinate
    4478732.409092458,        !- Vertex 3 Ycoordinate
    6,                        !- Vertex 3 Zcoordinate
    440247.20422843733,       !- Vertex 4 Xcoordinate
    4478732.409092458,        !- Vertex 4 Ycoordinate
    9;                        !- Vertex 4 Zcoordinate

BUILDINGSURFACE:DETAILED,
    Block bd58b1efd04a92f0_whole Storey 2 Wall 0011,    !- Name
    wall,                     !- Surface Type
    EU_wall_Construction,     !- Construction Name
    bd58b1efd04a92f0_F2_whole,    !- Zone Name
    ,                         !- Space Name
    outdoors,                 !- Outside Boundary Condition
    ,                         !- Outside Boundary Condition Object
    SunExposed,               !- Sun Exposure
    WindExposed,              !- Wind Exposure
    autocalculate,            !- View Factor to Ground
    autocalculate,            !- Number of Vertices
    440247.20422843733,       !- Vertex 1 Xcoordinate
    4478732.409092458,        !- Vertex 1 Ycoordinate
    9,                        !- Vertex 1 Zcoordinate
    440247.20422843733,       !- Vertex 2 Xcoordinate
    4478732.409092458,        !- Vertex 2 Ycoordinate
    6,                        !- Vertex 2 Zcoordinate
    440242.186093794,         !- Vertex 3 Xcoordinate
    4478730.495415766,        !- Vertex 3 Ycoordinate
    6,                        !- Vertex 3 Zcoordinate
    440242.186093794,         !- Vertex 4 Xcoordinate
    4478730.495415766,        !- Vertex 4 Ycoordinate
    9;                        !- Vertex 4 Zcoordinate

BUILDINGSURFACE:DETAILED,
    Block bd58b1efd04a92f0_whole Storey 2 Wall 0012,    !- Name
    wall,                     !- Surface Type
    EU_wall_Construction,     !- Construction Name
    bd58b1efd04a92f0_F2_whole,    !- Zone Name
    ,                         !- Space Name
    Adiabatic,                !- Outside Boundary Condition
    ,                         !- Outside Boundary Condition Object
    NoSun,                    !- Sun Exposure
    NoWind,                   !- Wind Exposure
    autocalculate,            !- View Factor to Ground
    autocalculate,            !- Number of Vertices
    440242.186093794,         !- Vertex 1 Xcoordinate
    4478730.495415766,        !- Vertex 1 Ycoordinate
    9,                        !- Vertex 1 Zcoordinate
    440242.186093794,         !- Vertex 2 Xcoordinate
    4478730.495415766,        !- Vertex 2 Ycoordinate
    6,                        !- Vertex 2 Zcoordinate
    440244.6888619304,        !- Vertex 3 Xcoordinate
    4478723.226653573,        !- Vertex 3 Ycoordinate
    6,                        !- Vertex 3 Zcoordinate
    440244.6888619304,        !- Vertex 4 Xcoordinate
    4478723.226653573,        !- Vertex 4 Ycoordinate
    9;                        !- Vertex 4 Zcoordinate

BUILDINGSURFACE:DETAILED,
    Block bd58b1efd04a92f0_whole Storey 2 Wall 0013,    !- Name
    wall,                     !- Surface Type
    EU_wall_Construction,     !- Construction Name
    bd58b1efd04a92f0_F2_whole,    !- Zone Name
    ,                         !- Space Name
    outdoors,                 !- Outside Boundary Condition
    ,                         !- Outside Boundary Condition Object
    SunExposed,               !- Sun Exposure
    WindExposed,              !- Wind Exposure
    autocalculate,            !- View Factor to Ground
    autocalculate,            !- Number of Vertices
    440244.6888619304,        !- Vertex 1 Xcoordinate
    4478723.226653573,        !- Vertex 1 Ycoordinate
    9,                        !- Vertex 1 Zcoordinate
    440244.6888619304,        !- Vertex 2 Xcoordinate
    4478723.226653573,        !- Vertex 2 Ycoordinate
    6,                        !- Vertex 2 Zcoordinate
    440247.3679524605,        !- Vertex 3 Xcoordinate
    4478724.237639046,        !- Vertex 3 Ycoordinate
    6,                        !- Vertex 3 Zcoordinate
    440247.3679524605,        !- Vertex 4 Xcoordinate
    4478724.237639046,        !- Vertex 4 Ycoordinate
    9;                        !- Vertex 4 Zcoordinate

BUILDINGSURFACE:DETAILED,
    Block bd58b1efd04a92f0_whole Storey 2 Wall 0014,    !- Name
    wall,                     !- Surface Type
    EU_wall_Construction,     !- Construction Name
    bd58b1efd04a92f0_F2_whole,    !- Zone Name
    ,                         !- Space Name
    outdoors,                 !- Outside Boundary Condition
    ,                         !- Outside Boundary Condition Object
    SunExposed,               !- Sun Exposure
    WindExposed,              !- Wind Exposure
    autocalculate,            !- View Factor to Ground
    autocalculate,            !- Number of Vertices
    440247.3679524605,        !- Vertex 1 Xcoordinate
    4478724.237639046,        !- Vertex 1 Ycoordinate
    9,                        !- Vertex 1 Zcoordinate
    440247.3679524605,        !- Vertex 2 Xcoordinate
    4478724.237639046,        !- Vertex 2 Ycoordinate
    6,                        !- Vertex 2 Zcoordinate
    440256.7404797702,        !- Vertex 3 Xcoordinate
    4478727.770579513,        !- Vertex 3 Ycoordinate
    6,                        !- Vertex 3 Zcoordinate
    440256.7404797702,        !- Vertex 4 Xcoordinate
    4478727.770579513,        !- Vertex 4 Ycoordinate
    9;                        !- Vertex 4 Zcoordinate

BUILDINGSURFACE:DETAILED,
    Block bd58b1efd04a92f0_whole Storey 2 Wall 0015,    !- Name
    wall,                     !- Surface Type
    EU_wall_Construction,     !- Construction Name
    bd58b1efd04a92f0_F2_whole,    !- Zone Name
    ,                         !- Space Name
    outdoors,                 !- Outside Boundary Condition
    ,                         !- Outside Boundary Condition Object
    SunExposed,               !- Sun Exposure
    WindExposed,              !- Wind Exposure
    autocalculate,            !- View Factor to Ground
    autocalculate,            !- Number of Vertices
    440256.7404797702,        !- Vertex 1 Xcoordinate
    4478727.770579513,        !- Vertex 1 Ycoordinate
    9,                        !- Vertex 1 Zcoordinate
    440256.7404797702,        !- Vertex 2 Xcoordinate
    4478727.770579513,        !- Vertex 2 Ycoordinate
    6,                        !- Vertex 2 Zcoordinate
    440256.17093836016,       !- Vertex 3 Xcoordinate
    4478729.717754548,        !- Vertex 3 Ycoordinate
    6,                        !- Vertex 3 Zcoordinate
    440256.17093836016,       !- Vertex 4 Xcoordinate
    4478729.717754548,        !- Vertex 4 Ycoordinate
    9;                        !- Vertex 4 Zcoordinate

BUILDINGSURFACE:DETAILED,
    Block bd58b1efd04a92f0_whole Storey 2 Wall 0016,    !- Name
    wall,                     !- Surface Type
    EU_wall_Construction,     !- Construction Name
    bd58b1efd04a92f0_F2_whole,    !- Zone Name
    ,                         !- Space Name
    Adiabatic,                !- Outside Boundary Condition
    ,                         !- Outside Boundary Condition Object
    NoSun,                    !- Sun Exposure
    NoWind,                   !- Wind Exposure
    autocalculate,            !- View Factor to Ground
    autocalculate,            !- Number of Vertices
    440256.17093836016,       !- Vertex 1 Xcoordinate
    4478729.717754548,        !- Vertex 1 Ycoordinate
    9,                        !- Vertex 1 Zcoordinate
    440256.17093836016,       !- Vertex 2 Xcoordinate
    4478729.717754548,        !- Vertex 2 Ycoordinate
    6,                        !- Vertex 2 Zcoordinate
    440255.1379184941,        !- Vertex 3 Xcoordinate
    4478733.089523447,        !- Vertex 3 Ycoordinate
    6,                        !- Vertex 3 Zcoordinate
    440255.1379184941,        !- Vertex 4 Xcoordinate
    4478733.089523447,        !- Vertex 4 Ycoordinate
    9;                        !- Vertex 4 Zcoordinate

BUILDINGSURFACE:DETAILED,
    Block bd58b1efd04a92f0_whole Storey 2 Wall 0017,    !- Name
    wall,                     !- Surface Type
    EU_wall_Construction,     !- Construction Name
    bd58b1efd04a92f0_F2_whole,    !- Zone Name
    ,                         !- Space Name
    Adiabatic,                !- Outside Boundary Condition
    ,                         !- Outside Boundary Condition Object
    NoSun,                    !- Sun Exposure
    NoWind,                   !- Wind Exposure
    autocalculate,            !- View Factor to Ground
    autocalculate,            !- Number of Vertices
    440255.1379184941,        !- Vertex 1 Xcoordinate
    4478733.089523447,        !- Vertex 1 Ycoordinate
    9,                        !- Vertex 1 Zcoordinate
    440255.1379184941,        !- Vertex 2 Xcoordinate
    4478733.089523447,        !- Vertex 2 Ycoordinate
    6,                        !- Vertex 2 Zcoordinate
    440254.48456357775,       !- Vertex 3 Xcoordinate
    4478735.159475684,        !- Vertex 3 Ycoordinate
    6,                        !- Vertex 3 Zcoordinate
    440254.48456357775,       !- Vertex 4 Xcoordinate
    4478735.159475684,        !- Vertex 4 Ycoordinate
    9;                        !- Vertex 4 Zcoordinate

BUILDINGSURFACE:DETAILED,
    Block bd58b1efd04a92f0_whole Storey 2 Wall 0018,    !- Name
    wall,                     !- Surface Type
    EU_wall_Construction,     !- Construction Name
    bd58b1efd04a92f0_F2_whole,    !- Zone Name
    ,                         !- Space Name
    outdoors,                 !- Outside Boundary Condition
    ,                         !- Outside Boundary Condition Object
    SunExposed,               !- Sun Exposure
    WindExposed,              !- Wind Exposure
    autocalculate,            !- View Factor to Ground
    autocalculate,            !- Number of Vertices
    440254.48456357775,       !- Vertex 1 Xcoordinate
    4478735.159475684,        !- Vertex 1 Ycoordinate
    9,                        !- Vertex 1 Zcoordinate
    440254.48456357775,       !- Vertex 2 Xcoordinate
    4478735.159475684,        !- Vertex 2 Ycoordinate
    6,                        !- Vertex 2 Zcoordinate
    440249.44108465983,       !- Vertex 3 Xcoordinate
    4478733.257097197,        !- Vertex 3 Ycoordinate
    6,                        !- Vertex 3 Zcoordinate
    440249.44108465983,       !- Vertex 4 Xcoordinate
    4478733.257097197,        !- Vertex 4 Ycoordinate
    9;                        !- Vertex 4 Zcoordinate

BUILDINGSURFACE:DETAILED,
    Block bd58b1efd04a92f0_whole Storey 2 Wall 0019,    !- Name
    wall,                     !- Surface Type
    EU_wall_Construction,     !- Construction Name
    bd58b1efd04a92f0_F2_whole,    !- Zone Name
    ,                         !- Space Name
    outdoors,                 !- Outside Boundary Condition
    ,                         !- Outside Boundary Condition Object
    SunExposed,               !- Sun Exposure
    WindExposed,              !- Wind Exposure
    autocalculate,            !- View Factor to Ground
    autocalculate,            !- Number of Vertices
    440249.44108465983,       !- Vertex 1 Xcoordinate
    4478733.257097197,        !- Vertex 1 Ycoordinate
    9,                        !- Vertex 1 Zcoordinate
    440249.44108465983,       !- Vertex 2 Xcoordinate
    4478733.257097197,        !- Vertex 2 Ycoordinate
    6,                        !- Vertex 2 Zcoordinate
    440248.7115985999,        !- Vertex 3 Xcoordinate
    4478735.349859074,        !- Vertex 3 Ycoordinate
    6,                        !- Vertex 3 Zcoordinate
    440248.7115985999,        !- Vertex 4 Xcoordinate
    4478735.349859074,        !- Vertex 4 Ycoordinate
    9;                        !- Vertex 4 Zcoordinate

BUILDINGSURFACE:DETAILED,
    Block bd58b1efd04a92f0_whole Storey 2 Wall 0020,    !- Name
    wall,                     !- Surface Type
    EU_wall_Construction,     !- Construction Name
    bd58b1efd04a92f0_F2_whole,    !- Zone Name
    ,                         !- Space Name
    outdoors,                 !- Outside Boundary Condition
    ,                         !- Outside Boundary Condition Object
    SunExposed,               !- Sun Exposure
    WindExposed,              !- Wind Exposure
    autocalculate,            !- View Factor to Ground
    autocalculate,            !- Number of Vertices
    440248.7115985999,        !- Vertex 1 Xcoordinate
    4478735.349859074,        !- Vertex 1 Ycoordinate
    9,                        !- Vertex 1 Zcoordinate
    440248.7115985999,        !- Vertex 2 Xcoordinate
    4478735.349859074,        !- Vertex 2 Ycoordinate
    6,                        !- Vertex 2 Zcoordinate
    440253.8234388448,        !- Vertex 3 Xcoordinate
    4478737.318295942,        !- Vertex 3 Ycoordinate
    6,                        !- Vertex 3 Zcoordinate
    440253.8234388448,        !- Vertex 4 Xcoordinate
    4478737.318295942,        !- Vertex 4 Ycoordinate
    9;                        !- Vertex 4 Zcoordinate

BUILDINGSURFACE:DETAILED,
    Block bd58b1efd04a92f0_whole Storey 2 Wall 0021,    !- Name
    wall,                     !- Surface Type
    EU_wall_Construction,     !- Construction Name
    bd58b1efd04a92f0_F2_whole,    !- Zone Name
    ,                         !- Space Name
    Adiabatic,                !- Outside Boundary Condition
    ,                         !- Outside Boundary Condition Object
    NoSun,                    !- Sun Exposure
    NoWind,                   !- Wind Exposure
    autocalculate,            !- View Factor to Ground
    autocalculate,            !- Number of Vertices
    440253.8234388448,        !- Vertex 1 Xcoordinate
    4478737.318295942,        !- Vertex 1 Ycoordinate
    9,                        !- Vertex 1 Zcoordinate
    440253.8234388448,        !- Vertex 2 Xcoordinate
    4478737.318295942,        !- Vertex 2 Ycoordinate
    6,                        !- Vertex 2 Zcoordinate
    440251.98834584176,       !- Vertex 3 Xcoordinate
    4478743.249637328,        !- Vertex 3 Ycoordinate
    6,                        !- Vertex 3 Zcoordinate
    440251.98834584176,       !- Vertex 4 Xcoordinate
    4478743.249637328,        !- Vertex 4 Ycoordinate
    9;                        !- Vertex 4 Zcoordinate

BUILDINGSURFACE:DETAILED,
    Block bd58b1efd04a92f0_whole Storey 2 Wall 0022,    !- Name
    wall,                     !- Surface Type
    EU_wall_Construction,     !- Construction Name
    bd58b1efd04a92f0_F2_whole,    !- Zone Name
    ,                         !- Space Name
    outdoors,                 !- Outside Boundary Condition
    ,                         !- Outside Boundary Condition Object
    SunExposed,               !- Sun Exposure
    WindExposed,              !- Wind Exposure
    autocalculate,            !- View Factor to Ground
    autocalculate,            !- Number of Vertices
    440251.98834584176,       !- Vertex 1 Xcoordinate
    4478743.249637328,        !- Vertex 1 Ycoordinate
    9,                        !- Vertex 1 Zcoordinate
    440251.98834584176,       !- Vertex 2 Xcoordinate
    4478743.249637328,        !- Vertex 2 Ycoordinate
    6,                        !- Vertex 2 Zcoordinate
    440246.43419019296,       !- Vertex 3 Xcoordinate
    4478741.10712027,         !- Vertex 3 Ycoordinate
    6,                        !- Vertex 3 Zcoordinate
    440246.43419019296,       !- Vertex 4 Xcoordinate
    4478741.10712027,         !- Vertex 4 Ycoordinate
    9;                        !- Vertex 4 Zcoordinate

BUILDINGSURFACE:DETAILED,
    Block bd58b1efd04a92f0_whole Storey 2 Wall 0023,    !- Name
    wall,                     !- Surface Type
    EU_wall_Construction,     !- Construction Name
    bd58b1efd04a92f0_F2_whole,    !- Zone Name
    ,                         !- Space Name
    outdoors,                 !- Outside Boundary Condition
    ,                         !- Outside Boundary Condition Object
    SunExposed,               !- Sun Exposure
    WindExposed,              !- Wind Exposure
    autocalculate,            !- View Factor to Ground
    autocalculate,            !- Number of Vertices
    440246.43419019296,       !- Vertex 1 Xcoordinate
    4478741.10712027,         !- Vertex 1 Ycoordinate
    9,                        !- Vertex 1 Zcoordinate
    440246.43419019296,       !- Vertex 2 Xcoordinate
    4478741.10712027,         !- Vertex 2 Ycoordinate
    6,                        !- Vertex 2 Zcoordinate
    440245.7634376992,        !- Vertex 3 Xcoordinate
    4478743.121708499,        !- Vertex 3 Ycoordinate
    6,                        !- Vertex 3 Zcoordinate
    440245.7634376992,        !- Vertex 4 Xcoordinate
    4478743.121708499,        !- Vertex 4 Ycoordinate
    9;                        !- Vertex 4 Zcoordinate

BUILDINGSURFACE:DETAILED,
    Block bd58b1efd04a92f0_whole Storey 2 Wall 0024,    !- Name
    wall,                     !- Surface Type
    EU_wall_Construction,     !- Construction Name
    bd58b1efd04a92f0_F2_whole,    !- Zone Name
    ,                         !- Space Name
    outdoors,                 !- Outside Boundary Condition
    ,                         !- Outside Boundary Condition Object
    SunExposed,               !- Sun Exposure
    WindExposed,              !- Wind Exposure
    autocalculate,            !- View Factor to Ground
    autocalculate,            !- Number of Vertices
    440245.7634376992,        !- Vertex 1 Xcoordinate
    4478743.121708499,        !- Vertex 1 Ycoordinate
    9,                        !- Vertex 1 Zcoordinate
    440245.7634376992,        !- Vertex 2 Xcoordinate
    4478743.121708499,        !- Vertex 2 Ycoordinate
    6,                        !- Vertex 2 Zcoordinate
    440251.3683766875,        !- Vertex 3 Xcoordinate
    4478745.252718997,        !- Vertex 3 Ycoordinate
    6,                        !- Vertex 3 Zcoordinate
    440251.3683766875,        !- Vertex 4 Xcoordinate
    4478745.252718997,        !- Vertex 4 Ycoordinate
    9;                        !- Vertex 4 Zcoordinate

BUILDINGSURFACE:DETAILED,
    Block bd58b1efd04a92f0_whole Storey 2 Wall 0025,    !- Name
    wall,                     !- Surface Type
    EU_wall_Construction,     !- Construction Name
    bd58b1efd04a92f0_F2_whole,    !- Zone Name
    ,                         !- Space Name
    Adiabatic,                !- Outside Boundary Condition
    ,                         !- Outside Boundary Condition Object
    NoSun,                    !- Sun Exposure
    NoWind,                   !- Wind Exposure
    autocalculate,            !- View Factor to Ground
    autocalculate,            !- Number of Vertices
    440251.3683766875,        !- Vertex 1 Xcoordinate
    4478745.252718997,        !- Vertex 1 Ycoordinate
    9,                        !- Vertex 1 Zcoordinate
    440251.3683766875,        !- Vertex 2 Xcoordinate
    4478745.252718997,        !- Vertex 2 Ycoordinate
    6,                        !- Vertex 2 Zcoordinate
    440250.1694162695,        !- Vertex 3 Xcoordinate
    4478749.080943585,        !- Vertex 3 Ycoordinate
    6,                        !- Vertex 3 Zcoordinate
    440250.1694162695,        !- Vertex 4 Xcoordinate
    4478749.080943585,        !- Vertex 4 Ycoordinate
    9;                        !- Vertex 4 Zcoordinate

BUILDINGSURFACE:DETAILED,
    Block bd58b1efd04a92f0_whole Storey 3 Wall 0001,    !- Name
    wall,                     !- Surface Type
    EU_wall_Construction,     !- Construction Name
    bd58b1efd04a92f0_F3_whole,    !- Zone Name
    ,                         !- Space Name
    Adiabatic,                !- Outside Boundary Condition
    ,                         !- Outside Boundary Condition Object
    NoSun,                    !- Sun Exposure
    NoWind,                   !- Wind Exposure
    autocalculate,            !- View Factor to Ground
    autocalculate,            !- Number of Vertices
    440250.1694162695,        !- Vertex 1 Xcoordinate
    4478749.080943585,        !- Vertex 1 Ycoordinate
    12,                       !- Vertex 1 Zcoordinate
    440250.1694162695,        !- Vertex 2 Xcoordinate
    4478749.080943585,        !- Vertex 2 Ycoordinate
    9,                        !- Vertex 2 Zcoordinate
    440249.490804835,         !- Vertex 3 Xcoordinate
    4478751.173299425,        !- Vertex 3 Ycoordinate
    9,                        !- Vertex 3 Zcoordinate
    440249.490804835,         !- Vertex 4 Xcoordinate
    4478751.173299425,        !- Vertex 4 Ycoordinate
    12;                       !- Vertex 4 Zcoordinate

BUILDINGSURFACE:DETAILED,
    Block bd58b1efd04a92f0_whole Storey 3 Wall 0002,    !- Name
    wall,                     !- Surface Type
    EU_wall_Construction,     !- Construction Name
    bd58b1efd04a92f0_F3_whole,    !- Zone Name
    ,                         !- Space Name
    outdoors,                 !- Outside Boundary Condition
    ,                         !- Outside Boundary Condition Object
    SunExposed,               !- Sun Exposure
    WindExposed,              !- Wind Exposure
    autocalculate,            !- View Factor to Ground
    autocalculate,            !- Number of Vertices
    440249.490804835,         !- Vertex 1 Xcoordinate
    4478751.173299425,        !- Vertex 1 Ycoordinate
    12,                       !- Vertex 1 Zcoordinate
    440249.490804835,         !- Vertex 2 Xcoordinate
    4478751.173299425,        !- Vertex 2 Ycoordinate
    9,                        !- Vertex 2 Zcoordinate
    440236.6483811929,        !- Vertex 3 Xcoordinate
    4478746.34707923,         !- Vertex 3 Ycoordinate
    9,                        !- Vertex 3 Zcoordinate
    440236.6483811929,        !- Vertex 4 Xcoordinate
    4478746.34707923,         !- Vertex 4 Ycoordinate
    12;                       !- Vertex 4 Zcoordinate

BUILDINGSURFACE:DETAILED,
    Block bd58b1efd04a92f0_whole Storey 3 Wall 0003,    !- Name
    wall,                     !- Surface Type
    EU_wall_Construction,     !- Construction Name
    bd58b1efd04a92f0_F3_whole,    !- Zone Name
    ,                         !- Space Name
    outdoors,                 !- Outside Boundary Condition
    ,                         !- Outside Boundary Condition Object
    SunExposed,               !- Sun Exposure
    WindExposed,              !- Wind Exposure
    autocalculate,            !- View Factor to Ground
    autocalculate,            !- Number of Vertices
    440236.6483811929,        !- Vertex 1 Xcoordinate
    4478746.34707923,         !- Vertex 1 Ycoordinate
    12,                       !- Vertex 1 Zcoordinate
    440236.6483811929,        !- Vertex 2 Xcoordinate
    4478746.34707923,         !- Vertex 2 Ycoordinate
    9,                        !- Vertex 2 Zcoordinate
    440238.7041778221,        !- Vertex 3 Xcoordinate
    4478740.447274228,        !- Vertex 3 Ycoordinate
    9,                        !- Vertex 3 Zcoordinate
    440238.7041778221,        !- Vertex 4 Xcoordinate
    4478740.447274228,        !- Vertex 4 Ycoordinate
    12;                       !- Vertex 4 Zcoordinate

BUILDINGSURFACE:DETAILED,
    Block bd58b1efd04a92f0_whole Storey 3 Wall 0004,    !- Name
    wall,                     !- Surface Type
    EU_wall_Construction,     !- Construction Name
    bd58b1efd04a92f0_F3_whole,    !- Zone Name
    ,                         !- Space Name
    outdoors,                 !- Outside Boundary Condition
    ,                         !- Outside Boundary Condition Object
    SunExposed,               !- Sun Exposure
    WindExposed,              !- Wind Exposure
    autocalculate,            !- View Factor to Ground
    autocalculate,            !- Number of Vertices
    440238.7041778221,        !- Vertex 1 Xcoordinate
    4478740.447274228,        !- Vertex 1 Ycoordinate
    12,                       !- Vertex 1 Zcoordinate
    440238.7041778221,        !- Vertex 2 Xcoordinate
    4478740.447274228,        !- Vertex 2 Ycoordinate
    9,                        !- Vertex 2 Zcoordinate
    440244.5556283519,        !- Vertex 3 Xcoordinate
    4478742.654017074,        !- Vertex 3 Ycoordinate
    9,                        !- Vertex 3 Zcoordinate
    440244.5556283519,        !- Vertex 4 Xcoordinate
    4478742.654017074,        !- Vertex 4 Ycoordinate
    12;                       !- Vertex 4 Zcoordinate

BUILDINGSURFACE:DETAILED,
    Block bd58b1efd04a92f0_whole Storey 3 Wall 0005,    !- Name
    wall,                     !- Surface Type
    EU_wall_Construction,     !- Construction Name
    bd58b1efd04a92f0_F3_whole,    !- Zone Name
    ,                         !- Space Name
    outdoors,                 !- Outside Boundary Condition
    ,                         !- Outside Boundary Condition Object
    SunExposed,               !- Sun Exposure
    WindExposed,              !- Wind Exposure
    autocalculate,            !- View Factor to Ground
    autocalculate,            !- Number of Vertices
    440244.5556283519,        !- Vertex 1 Xcoordinate
    4478742.654017074,        !- Vertex 1 Ycoordinate
    12,                       !- Vertex 1 Zcoordinate
    440244.5556283519,        !- Vertex 2 Xcoordinate
    4478742.654017074,        !- Vertex 2 Ycoordinate
    9,                        !- Vertex 2 Zcoordinate
    440245.2351252364,        !- Vertex 3 Xcoordinate
    4478740.672661166,        !- Vertex 3 Ycoordinate
    9,                        !- Vertex 3 Zcoordinate
    440245.2351252364,        !- Vertex 4 Xcoordinate
    4478740.672661166,        !- Vertex 4 Ycoordinate
    12;                       !- Vertex 4 Zcoordinate

BUILDINGSURFACE:DETAILED,
    Block bd58b1efd04a92f0_whole Storey 3 Wall 0006,    !- Name
    wall,                     !- Surface Type
    EU_wall_Construction,     !- Construction Name
    bd58b1efd04a92f0_F3_whole,    !- Zone Name
    ,                         !- Space Name
    outdoors,                 !- Outside Boundary Condition
    ,                         !- Outside Boundary Condition Object
    SunExposed,               !- Sun Exposure
    WindExposed,              !- Wind Exposure
    autocalculate,            !- View Factor to Ground
    autocalculate,            !- Number of Vertices
    440245.2351252364,        !- Vertex 1 Xcoordinate
    4478740.672661166,        !- Vertex 1 Ycoordinate
    12,                       !- Vertex 1 Zcoordinate
    440245.2351252364,        !- Vertex 2 Xcoordinate
    4478740.672661166,        !- Vertex 2 Ycoordinate
    9,                        !- Vertex 2 Zcoordinate
    440239.38358477724,       !- Vertex 3 Xcoordinate
    4478738.454817745,        !- Vertex 3 Ycoordinate
    9,                        !- Vertex 3 Zcoordinate
    440239.38358477724,       !- Vertex 4 Xcoordinate
    4478738.454817745,        !- Vertex 4 Ycoordinate
    12;                       !- Vertex 4 Zcoordinate

BUILDINGSURFACE:DETAILED,
    Block bd58b1efd04a92f0_whole Storey 3 Wall 0007,    !- Name
    wall,                     !- Surface Type
    EU_wall_Construction,     !- Construction Name
    bd58b1efd04a92f0_F3_whole,    !- Zone Name
    ,                         !- Space Name
    outdoors,                 !- Outside Boundary Condition
    ,                         !- Outside Boundary Condition Object
    SunExposed,               !- Sun Exposure
    WindExposed,              !- Wind Exposure
    autocalculate,            !- View Factor to Ground
    autocalculate,            !- Number of Vertices
    440239.38358477724,       !- Vertex 1 Xcoordinate
    4478738.454817745,        !- Vertex 1 Ycoordinate
    12,                       !- Vertex 1 Zcoordinate
    440239.38358477724,       !- Vertex 2 Xcoordinate
    4478738.454817745,        !- Vertex 2 Ycoordinate
    9,                        !- Vertex 2 Zcoordinate
    440241.1989917561,        !- Vertex 3 Xcoordinate
    4478733.245178581,        !- Vertex 3 Ycoordinate
    9,                        !- Vertex 3 Zcoordinate
    440241.1989917561,        !- Vertex 4 Xcoordinate
    4478733.245178581,        !- Vertex 4 Ycoordinate
    12;                       !- Vertex 4 Zcoordinate

BUILDINGSURFACE:DETAILED,
    Block bd58b1efd04a92f0_whole Storey 3 Wall 0008,    !- Name
    wall,                     !- Surface Type
    EU_wall_Construction,     !- Construction Name
    bd58b1efd04a92f0_F3_whole,    !- Zone Name
    ,                         !- Space Name
    Adiabatic,                !- Outside Boundary Condition
    ,                         !- Outside Boundary Condition Object
    NoSun,                    !- Sun Exposure
    NoWind,                   !- Wind Exposure
    autocalculate,            !- View Factor to Ground
    autocalculate,            !- Number of Vertices
    440241.1989917561,        !- Vertex 1 Xcoordinate
    4478733.245178581,        !- Vertex 1 Ycoordinate
    12,                       !- Vertex 1 Zcoordinate
    440241.1989917561,        !- Vertex 2 Xcoordinate
    4478733.245178581,        !- Vertex 2 Ycoordinate
    9,                        !- Vertex 2 Zcoordinate
    440241.41430365125,       !- Vertex 3 Xcoordinate
    4478732.599616801,        !- Vertex 3 Ycoordinate
    9,                        !- Vertex 3 Zcoordinate
    440241.41430365125,       !- Vertex 4 Xcoordinate
    4478732.599616801,        !- Vertex 4 Ycoordinate
    12;                       !- Vertex 4 Zcoordinate

BUILDINGSURFACE:DETAILED,
    Block bd58b1efd04a92f0_whole Storey 3 Wall 0009,    !- Name
    wall,                     !- Surface Type
    EU_wall_Construction,     !- Construction Name
    bd58b1efd04a92f0_F3_whole,    !- Zone Name
    ,                         !- Space Name
    outdoors,                 !- Outside Boundary Condition
    ,                         !- Outside Boundary Condition Object
    SunExposed,               !- Sun Exposure
    WindExposed,              !- Wind Exposure
    autocalculate,            !- View Factor to Ground
    autocalculate,            !- Number of Vertices
    440241.41430365125,       !- Vertex 1 Xcoordinate
    4478732.599616801,        !- Vertex 1 Ycoordinate
    12,                       !- Vertex 1 Zcoordinate
    440241.41430365125,       !- Vertex 2 Xcoordinate
    4478732.599616801,        !- Vertex 2 Ycoordinate
    9,                        !- Vertex 2 Zcoordinate
    440246.5172259056,        !- Vertex 3 Xcoordinate
    4478734.512616217,        !- Vertex 3 Ycoordinate
    9,                        !- Vertex 3 Zcoordinate
    440246.5172259056,        !- Vertex 4 Xcoordinate
    4478734.512616217,        !- Vertex 4 Ycoordinate
    12;                       !- Vertex 4 Zcoordinate

BUILDINGSURFACE:DETAILED,
    Block bd58b1efd04a92f0_whole Storey 3 Wall 0010,    !- Name
    wall,                     !- Surface Type
    EU_wall_Construction,     !- Construction Name
    bd58b1efd04a92f0_F3_whole,    !- Zone Name
    ,                         !- Space Name
    outdoors,                 !- Outside Boundary Condition
    ,                         !- Outside Boundary Condition Object
    SunExposed,               !- Sun Exposure
    WindExposed,              !- Wind Exposure
    autocalculate,            !- View Factor to Ground
    autocalculate,            !- Number of Vertices
    440246.5172259056,        !- Vertex 1 Xcoordinate
    4478734.512616217,        !- Vertex 1 Ycoordinate
    12,                       !- Vertex 1 Zcoordinate
    440246.5172259056,        !- Vertex 2 Xcoordinate
    4478734.512616217,        !- Vertex 2 Ycoordinate
    9,                        !- Vertex 2 Zcoordinate
    440247.20422843733,       !- Vertex 3 Xcoordinate
    4478732.409092458,        !- Vertex 3 Ycoordinate
    9,                        !- Vertex 3 Zcoordinate
    440247.20422843733,       !- Vertex 4 Xcoordinate
    4478732.409092458,        !- Vertex 4 Ycoordinate
    12;                       !- Vertex 4 Zcoordinate

BUILDINGSURFACE:DETAILED,
    Block bd58b1efd04a92f0_whole Storey 3 Wall 0011,    !- Name
    wall,                     !- Surface Type
    EU_wall_Construction,     !- Construction Name
    bd58b1efd04a92f0_F3_whole,    !- Zone Name
    ,                         !- Space Name
    outdoors,                 !- Outside Boundary Condition
    ,                         !- Outside Boundary Condition Object
    SunExposed,               !- Sun Exposure
    WindExposed,              !- Wind Exposure
    autocalculate,            !- View Factor to Ground
    autocalculate,            !- Number of Vertices
    440247.20422843733,       !- Vertex 1 Xcoordinate
    4478732.409092458,        !- Vertex 1 Ycoordinate
    12,                       !- Vertex 1 Zcoordinate
    440247.20422843733,       !- Vertex 2 Xcoordinate
    4478732.409092458,        !- Vertex 2 Ycoordinate
    9,                        !- Vertex 2 Zcoordinate
    440242.186093794,         !- Vertex 3 Xcoordinate
    4478730.495415766,        !- Vertex 3 Ycoordinate
    9,                        !- Vertex 3 Zcoordinate
    440242.186093794,         !- Vertex 4 Xcoordinate
    4478730.495415766,        !- Vertex 4 Ycoordinate
    12;                       !- Vertex 4 Zcoordinate

BUILDINGSURFACE:DETAILED,
    Block bd58b1efd04a92f0_whole Storey 3 Wall 0012,    !- Name
    wall,                     !- Surface Type
    EU_wall_Construction,     !- Construction Name
    bd58b1efd04a92f0_F3_whole,    !- Zone Name
    ,                         !- Space Name
    Adiabatic,                !- Outside Boundary Condition
    ,                         !- Outside Boundary Condition Object
    NoSun,                    !- Sun Exposure
    NoWind,                   !- Wind Exposure
    autocalculate,            !- View Factor to Ground
    autocalculate,            !- Number of Vertices
    440242.186093794,         !- Vertex 1 Xcoordinate
    4478730.495415766,        !- Vertex 1 Ycoordinate
    12,                       !- Vertex 1 Zcoordinate
    440242.186093794,         !- Vertex 2 Xcoordinate
    4478730.495415766,        !- Vertex 2 Ycoordinate
    9,                        !- Vertex 2 Zcoordinate
    440244.6888619304,        !- Vertex 3 Xcoordinate
    4478723.226653573,        !- Vertex 3 Ycoordinate
    9,                        !- Vertex 3 Zcoordinate
    440244.6888619304,        !- Vertex 4 Xcoordinate
    4478723.226653573,        !- Vertex 4 Ycoordinate
    12;                       !- Vertex 4 Zcoordinate

BUILDINGSURFACE:DETAILED,
    Block bd58b1efd04a92f0_whole Storey 3 Wall 0013,    !- Name
    wall,                     !- Surface Type
    EU_wall_Construction,     !- Construction Name
    bd58b1efd04a92f0_F3_whole,    !- Zone Name
    ,                         !- Space Name
    outdoors,                 !- Outside Boundary Condition
    ,                         !- Outside Boundary Condition Object
    SunExposed,               !- Sun Exposure
    WindExposed,              !- Wind Exposure
    autocalculate,            !- View Factor to Ground
    autocalculate,            !- Number of Vertices
    440244.6888619304,        !- Vertex 1 Xcoordinate
    4478723.226653573,        !- Vertex 1 Ycoordinate
    12,                       !- Vertex 1 Zcoordinate
    440244.6888619304,        !- Vertex 2 Xcoordinate
    4478723.226653573,        !- Vertex 2 Ycoordinate
    9,                        !- Vertex 2 Zcoordinate
    440247.3679524605,        !- Vertex 3 Xcoordinate
    4478724.237639046,        !- Vertex 3 Ycoordinate
    9,                        !- Vertex 3 Zcoordinate
    440247.3679524605,        !- Vertex 4 Xcoordinate
    4478724.237639046,        !- Vertex 4 Ycoordinate
    12;                       !- Vertex 4 Zcoordinate

BUILDINGSURFACE:DETAILED,
    Block bd58b1efd04a92f0_whole Storey 3 Wall 0014,    !- Name
    wall,                     !- Surface Type
    EU_wall_Construction,     !- Construction Name
    bd58b1efd04a92f0_F3_whole,    !- Zone Name
    ,                         !- Space Name
    outdoors,                 !- Outside Boundary Condition
    ,                         !- Outside Boundary Condition Object
    SunExposed,               !- Sun Exposure
    WindExposed,              !- Wind Exposure
    autocalculate,            !- View Factor to Ground
    autocalculate,            !- Number of Vertices
    440247.3679524605,        !- Vertex 1 Xcoordinate
    4478724.237639046,        !- Vertex 1 Ycoordinate
    12,                       !- Vertex 1 Zcoordinate
    440247.3679524605,        !- Vertex 2 Xcoordinate
    4478724.237639046,        !- Vertex 2 Ycoordinate
    9,                        !- Vertex 2 Zcoordinate
    440256.7404797702,        !- Vertex 3 Xcoordinate
    4478727.770579513,        !- Vertex 3 Ycoordinate
    9,                        !- Vertex 3 Zcoordinate
    440256.7404797702,        !- Vertex 4 Xcoordinate
    4478727.770579513,        !- Vertex 4 Ycoordinate
    12;                       !- Vertex 4 Zcoordinate

BUILDINGSURFACE:DETAILED,
    Block bd58b1efd04a92f0_whole Storey 3 Wall 0015,    !- Name
    wall,                     !- Surface Type
    EU_wall_Construction,     !- Construction Name
    bd58b1efd04a92f0_F3_whole,    !- Zone Name
    ,                         !- Space Name
    outdoors,                 !- Outside Boundary Condition
    ,                         !- Outside Boundary Condition Object
    SunExposed,               !- Sun Exposure
    WindExposed,              !- Wind Exposure
    autocalculate,            !- View Factor to Ground
    autocalculate,            !- Number of Vertices
    440256.7404797702,        !- Vertex 1 Xcoordinate
    4478727.770579513,        !- Vertex 1 Ycoordinate
    12,                       !- Vertex 1 Zcoordinate
    440256.7404797702,        !- Vertex 2 Xcoordinate
    4478727.770579513,        !- Vertex 2 Ycoordinate
    9,                        !- Vertex 2 Zcoordinate
    440256.17093836016,       !- Vertex 3 Xcoordinate
    4478729.717754548,        !- Vertex 3 Ycoordinate
    9,                        !- Vertex 3 Zcoordinate
    440256.17093836016,       !- Vertex 4 Xcoordinate
    4478729.717754548,        !- Vertex 4 Ycoordinate
    12;                       !- Vertex 4 Zcoordinate

BUILDINGSURFACE:DETAILED,
    Block bd58b1efd04a92f0_whole Storey 3 Wall 0016,    !- Name
    wall,                     !- Surface Type
    EU_wall_Construction,     !- Construction Name
    bd58b1efd04a92f0_F3_whole,    !- Zone Name
    ,                         !- Space Name
    Adiabatic,                !- Outside Boundary Condition
    ,                         !- Outside Boundary Condition Object
    NoSun,                    !- Sun Exposure
    NoWind,                   !- Wind Exposure
    autocalculate,            !- View Factor to Ground
    autocalculate,            !- Number of Vertices
    440256.17093836016,       !- Vertex 1 Xcoordinate
    4478729.717754548,        !- Vertex 1 Ycoordinate
    12,                       !- Vertex 1 Zcoordinate
    440256.17093836016,       !- Vertex 2 Xcoordinate
    4478729.717754548,        !- Vertex 2 Ycoordinate
    9,                        !- Vertex 2 Zcoordinate
    440255.1379184941,        !- Vertex 3 Xcoordinate
    4478733.089523447,        !- Vertex 3 Ycoordinate
    9,                        !- Vertex 3 Zcoordinate
    440255.1379184941,        !- Vertex 4 Xcoordinate
    4478733.089523447,        !- Vertex 4 Ycoordinate
    12;                       !- Vertex 4 Zcoordinate

BUILDINGSURFACE:DETAILED,
    Block bd58b1efd04a92f0_whole Storey 3 Wall 0017,    !- Name
    wall,                     !- Surface Type
    EU_wall_Construction,     !- Construction Name
    bd58b1efd04a92f0_F3_whole,    !- Zone Name
    ,                         !- Space Name
    Adiabatic,                !- Outside Boundary Condition
    ,                         !- Outside Boundary Condition Object
    NoSun,                    !- Sun Exposure
    NoWind,                   !- Wind Exposure
    autocalculate,            !- View Factor to Ground
    autocalculate,            !- Number of Vertices
    440255.1379184941,        !- Vertex 1 Xcoordinate
    4478733.089523447,        !- Vertex 1 Ycoordinate
    12,                       !- Vertex 1 Zcoordinate
    440255.1379184941,        !- Vertex 2 Xcoordinate
    4478733.089523447,        !- Vertex 2 Ycoordinate
    9,                        !- Vertex 2 Zcoordinate
    440254.48456357775,       !- Vertex 3 Xcoordinate
    4478735.159475684,        !- Vertex 3 Ycoordinate
    9,                        !- Vertex 3 Zcoordinate
    440254.48456357775,       !- Vertex 4 Xcoordinate
    4478735.159475684,        !- Vertex 4 Ycoordinate
    12;                       !- Vertex 4 Zcoordinate

BUILDINGSURFACE:DETAILED,
    Block bd58b1efd04a92f0_whole Storey 3 Wall 0018,    !- Name
    wall,                     !- Surface Type
    EU_wall_Construction,     !- Construction Name
    bd58b1efd04a92f0_F3_whole,    !- Zone Name
    ,                         !- Space Name
    outdoors,                 !- Outside Boundary Condition
    ,                         !- Outside Boundary Condition Object
    SunExposed,               !- Sun Exposure
    WindExposed,              !- Wind Exposure
    autocalculate,            !- View Factor to Ground
    autocalculate,            !- Number of Vertices
    440254.48456357775,       !- Vertex 1 Xcoordinate
    4478735.159475684,        !- Vertex 1 Ycoordinate
    12,                       !- Vertex 1 Zcoordinate
    440254.48456357775,       !- Vertex 2 Xcoordinate
    4478735.159475684,        !- Vertex 2 Ycoordinate
    9,                        !- Vertex 2 Zcoordinate
    440249.44108465983,       !- Vertex 3 Xcoordinate
    4478733.257097197,        !- Vertex 3 Ycoordinate
    9,                        !- Vertex 3 Zcoordinate
    440249.44108465983,       !- Vertex 4 Xcoordinate
    4478733.257097197,        !- Vertex 4 Ycoordinate
    12;                       !- Vertex 4 Zcoordinate

BUILDINGSURFACE:DETAILED,
    Block bd58b1efd04a92f0_whole Storey 3 Wall 0019,    !- Name
    wall,                     !- Surface Type
    EU_wall_Construction,     !- Construction Name
    bd58b1efd04a92f0_F3_whole,    !- Zone Name
    ,                         !- Space Name
    outdoors,                 !- Outside Boundary Condition
    ,                         !- Outside Boundary Condition Object
    SunExposed,               !- Sun Exposure
    WindExposed,              !- Wind Exposure
    autocalculate,            !- View Factor to Ground
    autocalculate,            !- Number of Vertices
    440249.44108465983,       !- Vertex 1 Xcoordinate
    4478733.257097197,        !- Vertex 1 Ycoordinate
    12,                       !- Vertex 1 Zcoordinate
    440249.44108465983,       !- Vertex 2 Xcoordinate
    4478733.257097197,        !- Vertex 2 Ycoordinate
    9,                        !- Vertex 2 Zcoordinate
    440248.7115985999,        !- Vertex 3 Xcoordinate
    4478735.349859074,        !- Vertex 3 Ycoordinate
    9,                        !- Vertex 3 Zcoordinate
    440248.7115985999,        !- Vertex 4 Xcoordinate
    4478735.349859074,        !- Vertex 4 Ycoordinate
    12;                       !- Vertex 4 Zcoordinate

BUILDINGSURFACE:DETAILED,
    Block bd58b1efd04a92f0_whole Storey 3 Wall 0020,    !- Name
    wall,                     !- Surface Type
    EU_wall_Construction,     !- Construction Name
    bd58b1efd04a92f0_F3_whole,    !- Zone Name
    ,                         !- Space Name
    outdoors,                 !- Outside Boundary Condition
    ,                         !- Outside Boundary Condition Object
    SunExposed,               !- Sun Exposure
    WindExposed,              !- Wind Exposure
    autocalculate,            !- View Factor to Ground
    autocalculate,            !- Number of Vertices
    440248.7115985999,        !- Vertex 1 Xcoordinate
    4478735.349859074,        !- Vertex 1 Ycoordinate
    12,                       !- Vertex 1 Zcoordinate
    440248.7115985999,        !- Vertex 2 Xcoordinate
    4478735.349859074,        !- Vertex 2 Ycoordinate
    9,                        !- Vertex 2 Zcoordinate
    440253.8234388448,        !- Vertex 3 Xcoordinate
    4478737.318295942,        !- Vertex 3 Ycoordinate
    9,                        !- Vertex 3 Zcoordinate
    440253.8234388448,        !- Vertex 4 Xcoordinate
    4478737.318295942,        !- Vertex 4 Ycoordinate
    12;                       !- Vertex 4 Zcoordinate

BUILDINGSURFACE:DETAILED,
    Block bd58b1efd04a92f0_whole Storey 3 Wall 0021,    !- Name
    wall,                     !- Surface Type
    EU_wall_Construction,     !- Construction Name
    bd58b1efd04a92f0_F3_whole,    !- Zone Name
    ,                         !- Space Name
    Adiabatic,                !- Outside Boundary Condition
    ,                         !- Outside Boundary Condition Object
    NoSun,                    !- Sun Exposure
    NoWind,                   !- Wind Exposure
    autocalculate,            !- View Factor to Ground
    autocalculate,            !- Number of Vertices
    440253.8234388448,        !- Vertex 1 Xcoordinate
    4478737.318295942,        !- Vertex 1 Ycoordinate
    12,                       !- Vertex 1 Zcoordinate
    440253.8234388448,        !- Vertex 2 Xcoordinate
    4478737.318295942,        !- Vertex 2 Ycoordinate
    9,                        !- Vertex 2 Zcoordinate
    440251.98834584176,       !- Vertex 3 Xcoordinate
    4478743.249637328,        !- Vertex 3 Ycoordinate
    9,                        !- Vertex 3 Zcoordinate
    440251.98834584176,       !- Vertex 4 Xcoordinate
    4478743.249637328,        !- Vertex 4 Ycoordinate
    12;                       !- Vertex 4 Zcoordinate

BUILDINGSURFACE:DETAILED,
    Block bd58b1efd04a92f0_whole Storey 3 Wall 0022,    !- Name
    wall,                     !- Surface Type
    EU_wall_Construction,     !- Construction Name
    bd58b1efd04a92f0_F3_whole,    !- Zone Name
    ,                         !- Space Name
    outdoors,                 !- Outside Boundary Condition
    ,                         !- Outside Boundary Condition Object
    SunExposed,               !- Sun Exposure
    WindExposed,              !- Wind Exposure
    autocalculate,            !- View Factor to Ground
    autocalculate,            !- Number of Vertices
    440251.98834584176,       !- Vertex 1 Xcoordinate
    4478743.249637328,        !- Vertex 1 Ycoordinate
    12,                       !- Vertex 1 Zcoordinate
    440251.98834584176,       !- Vertex 2 Xcoordinate
    4478743.249637328,        !- Vertex 2 Ycoordinate
    9,                        !- Vertex 2 Zcoordinate
    440246.43419019296,       !- Vertex 3 Xcoordinate
    4478741.10712027,         !- Vertex 3 Ycoordinate
    9,                        !- Vertex 3 Zcoordinate
    440246.43419019296,       !- Vertex 4 Xcoordinate
    4478741.10712027,         !- Vertex 4 Ycoordinate
    12;                       !- Vertex 4 Zcoordinate

BUILDINGSURFACE:DETAILED,
    Block bd58b1efd04a92f0_whole Storey 3 Wall 0023,    !- Name
    wall,                     !- Surface Type
    EU_wall_Construction,     !- Construction Name
    bd58b1efd04a92f0_F3_whole,    !- Zone Name
    ,                         !- Space Name
    outdoors,                 !- Outside Boundary Condition
    ,                         !- Outside Boundary Condition Object
    SunExposed,               !- Sun Exposure
    WindExposed,              !- Wind Exposure
    autocalculate,            !- View Factor to Ground
    autocalculate,            !- Number of Vertices
    440246.43419019296,       !- Vertex 1 Xcoordinate
    4478741.10712027,         !- Vertex 1 Ycoordinate
    12,                       !- Vertex 1 Zcoordinate
    440246.43419019296,       !- Vertex 2 Xcoordinate
    4478741.10712027,         !- Vertex 2 Ycoordinate
    9,                        !- Vertex 2 Zcoordinate
    440245.7634376992,        !- Vertex 3 Xcoordinate
    4478743.121708499,        !- Vertex 3 Ycoordinate
    9,                        !- Vertex 3 Zcoordinate
    440245.7634376992,        !- Vertex 4 Xcoordinate
    4478743.121708499,        !- Vertex 4 Ycoordinate
    12;                       !- Vertex 4 Zcoordinate

BUILDINGSURFACE:DETAILED,
    Block bd58b1efd04a92f0_whole Storey 3 Wall 0024,    !- Name
    wall,                     !- Surface Type
    EU_wall_Construction,     !- Construction Name
    bd58b1efd04a92f0_F3_whole,    !- Zone Name
    ,                         !- Space Name
    outdoors,                 !- Outside Boundary Condition
    ,                         !- Outside Boundary Condition Object
    SunExposed,               !- Sun Exposure
    WindExposed,              !- Wind Exposure
    autocalculate,            !- View Factor to Ground
    autocalculate,            !- Number of Vertices
    440245.7634376992,        !- Vertex 1 Xcoordinate
    4478743.121708499,        !- Vertex 1 Ycoordinate
    12,                       !- Vertex 1 Zcoordinate
    440245.7634376992,        !- Vertex 2 Xcoordinate
    4478743.121708499,        !- Vertex 2 Ycoordinate
    9,                        !- Vertex 2 Zcoordinate
    440251.3683766875,        !- Vertex 3 Xcoordinate
    4478745.252718997,        !- Vertex 3 Ycoordinate
    9,                        !- Vertex 3 Zcoordinate
    440251.3683766875,        !- Vertex 4 Xcoordinate
    4478745.252718997,        !- Vertex 4 Ycoordinate
    12;                       !- Vertex 4 Zcoordinate

BUILDINGSURFACE:DETAILED,
    Block bd58b1efd04a92f0_whole Storey 3 Wall 0025,    !- Name
    wall,                     !- Surface Type
    EU_wall_Construction,     !- Construction Name
    bd58b1efd04a92f0_F3_whole,    !- Zone Name
    ,                         !- Space Name
    Adiabatic,                !- Outside Boundary Condition
    ,                         !- Outside Boundary Condition Object
    NoSun,                    !- Sun Exposure
    NoWind,                   !- Wind Exposure
    autocalculate,            !- View Factor to Ground
    autocalculate,            !- Number of Vertices
    440251.3683766875,        !- Vertex 1 Xcoordinate
    4478745.252718997,        !- Vertex 1 Ycoordinate
    12,                       !- Vertex 1 Zcoordinate
    440251.3683766875,        !- Vertex 2 Xcoordinate
    4478745.252718997,        !- Vertex 2 Ycoordinate
    9,                        !- Vertex 2 Zcoordinate
    440250.1694162695,        !- Vertex 3 Xcoordinate
    4478749.080943585,        !- Vertex 3 Ycoordinate
    9,                        !- Vertex 3 Zcoordinate
    440250.1694162695,        !- Vertex 4 Xcoordinate
    4478749.080943585,        !- Vertex 4 Ycoordinate
    12;                       !- Vertex 4 Zcoordinate

BUILDINGSURFACE:DETAILED,
    Block bd58b1efd04a92f0_whole Storey 4 Wall 0001,    !- Name
    wall,                     !- Surface Type
    EU_wall_Construction,     !- Construction Name
    bd58b1efd04a92f0_F4_whole,    !- Zone Name
    ,                         !- Space Name
    Adiabatic,                !- Outside Boundary Condition
    ,                         !- Outside Boundary Condition Object
    NoSun,                    !- Sun Exposure
    NoWind,                   !- Wind Exposure
    autocalculate,            !- View Factor to Ground
    autocalculate,            !- Number of Vertices
    440250.1694162695,        !- Vertex 1 Xcoordinate
    4478749.080943585,        !- Vertex 1 Ycoordinate
    15,                       !- Vertex 1 Zcoordinate
    440250.1694162695,        !- Vertex 2 Xcoordinate
    4478749.080943585,        !- Vertex 2 Ycoordinate
    12,                       !- Vertex 2 Zcoordinate
    440249.490804835,         !- Vertex 3 Xcoordinate
    4478751.173299425,        !- Vertex 3 Ycoordinate
    12,                       !- Vertex 3 Zcoordinate
    440249.490804835,         !- Vertex 4 Xcoordinate
    4478751.173299425,        !- Vertex 4 Ycoordinate
    15;                       !- Vertex 4 Zcoordinate

BUILDINGSURFACE:DETAILED,
    Block bd58b1efd04a92f0_whole Storey 4 Wall 0002,    !- Name
    wall,                     !- Surface Type
    EU_wall_Construction,     !- Construction Name
    bd58b1efd04a92f0_F4_whole,    !- Zone Name
    ,                         !- Space Name
    outdoors,                 !- Outside Boundary Condition
    ,                         !- Outside Boundary Condition Object
    SunExposed,               !- Sun Exposure
    WindExposed,              !- Wind Exposure
    autocalculate,            !- View Factor to Ground
    autocalculate,            !- Number of Vertices
    440249.490804835,         !- Vertex 1 Xcoordinate
    4478751.173299425,        !- Vertex 1 Ycoordinate
    15,                       !- Vertex 1 Zcoordinate
    440249.490804835,         !- Vertex 2 Xcoordinate
    4478751.173299425,        !- Vertex 2 Ycoordinate
    12,                       !- Vertex 2 Zcoordinate
    440236.6483811929,        !- Vertex 3 Xcoordinate
    4478746.34707923,         !- Vertex 3 Ycoordinate
    12,                       !- Vertex 3 Zcoordinate
    440236.6483811929,        !- Vertex 4 Xcoordinate
    4478746.34707923,         !- Vertex 4 Ycoordinate
    15;                       !- Vertex 4 Zcoordinate

BUILDINGSURFACE:DETAILED,
    Block bd58b1efd04a92f0_whole Storey 4 Wall 0003,    !- Name
    wall,                     !- Surface Type
    EU_wall_Construction,     !- Construction Name
    bd58b1efd04a92f0_F4_whole,    !- Zone Name
    ,                         !- Space Name
    outdoors,                 !- Outside Boundary Condition
    ,                         !- Outside Boundary Condition Object
    SunExposed,               !- Sun Exposure
    WindExposed,              !- Wind Exposure
    autocalculate,            !- View Factor to Ground
    autocalculate,            !- Number of Vertices
    440236.6483811929,        !- Vertex 1 Xcoordinate
    4478746.34707923,         !- Vertex 1 Ycoordinate
    15,                       !- Vertex 1 Zcoordinate
    440236.6483811929,        !- Vertex 2 Xcoordinate
    4478746.34707923,         !- Vertex 2 Ycoordinate
    12,                       !- Vertex 2 Zcoordinate
    440238.7041778221,        !- Vertex 3 Xcoordinate
    4478740.447274228,        !- Vertex 3 Ycoordinate
    12,                       !- Vertex 3 Zcoordinate
    440238.7041778221,        !- Vertex 4 Xcoordinate
    4478740.447274228,        !- Vertex 4 Ycoordinate
    15;                       !- Vertex 4 Zcoordinate

BUILDINGSURFACE:DETAILED,
    Block bd58b1efd04a92f0_whole Storey 4 Wall 0004,    !- Name
    wall,                     !- Surface Type
    EU_wall_Construction,     !- Construction Name
    bd58b1efd04a92f0_F4_whole,    !- Zone Name
    ,                         !- Space Name
    outdoors,                 !- Outside Boundary Condition
    ,                         !- Outside Boundary Condition Object
    SunExposed,               !- Sun Exposure
    WindExposed,              !- Wind Exposure
    autocalculate,            !- View Factor to Ground
    autocalculate,            !- Number of Vertices
    440238.7041778221,        !- Vertex 1 Xcoordinate
    4478740.447274228,        !- Vertex 1 Ycoordinate
    15,                       !- Vertex 1 Zcoordinate
    440238.7041778221,        !- Vertex 2 Xcoordinate
    4478740.447274228,        !- Vertex 2 Ycoordinate
    12,                       !- Vertex 2 Zcoordinate
    440244.5556283519,        !- Vertex 3 Xcoordinate
    4478742.654017074,        !- Vertex 3 Ycoordinate
    12,                       !- Vertex 3 Zcoordinate
    440244.5556283519,        !- Vertex 4 Xcoordinate
    4478742.654017074,        !- Vertex 4 Ycoordinate
    15;                       !- Vertex 4 Zcoordinate

BUILDINGSURFACE:DETAILED,
    Block bd58b1efd04a92f0_whole Storey 4 Wall 0005,    !- Name
    wall,                     !- Surface Type
    EU_wall_Construction,     !- Construction Name
    bd58b1efd04a92f0_F4_whole,    !- Zone Name
    ,                         !- Space Name
    outdoors,                 !- Outside Boundary Condition
    ,                         !- Outside Boundary Condition Object
    SunExposed,               !- Sun Exposure
    WindExposed,              !- Wind Exposure
    autocalculate,            !- View Factor to Ground
    autocalculate,            !- Number of Vertices
    440244.5556283519,        !- Vertex 1 Xcoordinate
    4478742.654017074,        !- Vertex 1 Ycoordinate
    15,                       !- Vertex 1 Zcoordinate
    440244.5556283519,        !- Vertex 2 Xcoordinate
    4478742.654017074,        !- Vertex 2 Ycoordinate
    12,                       !- Vertex 2 Zcoordinate
    440245.2351252364,        !- Vertex 3 Xcoordinate
    4478740.672661166,        !- Vertex 3 Ycoordinate
    12,                       !- Vertex 3 Zcoordinate
    440245.2351252364,        !- Vertex 4 Xcoordinate
    4478740.672661166,        !- Vertex 4 Ycoordinate
    15;                       !- Vertex 4 Zcoordinate

BUILDINGSURFACE:DETAILED,
    Block bd58b1efd04a92f0_whole Storey 4 Wall 0006,    !- Name
    wall,                     !- Surface Type
    EU_wall_Construction,     !- Construction Name
    bd58b1efd04a92f0_F4_whole,    !- Zone Name
    ,                         !- Space Name
    outdoors,                 !- Outside Boundary Condition
    ,                         !- Outside Boundary Condition Object
    SunExposed,               !- Sun Exposure
    WindExposed,              !- Wind Exposure
    autocalculate,            !- View Factor to Ground
    autocalculate,            !- Number of Vertices
    440245.2351252364,        !- Vertex 1 Xcoordinate
    4478740.672661166,        !- Vertex 1 Ycoordinate
    15,                       !- Vertex 1 Zcoordinate
    440245.2351252364,        !- Vertex 2 Xcoordinate
    4478740.672661166,        !- Vertex 2 Ycoordinate
    12,                       !- Vertex 2 Zcoordinate
    440239.38358477724,       !- Vertex 3 Xcoordinate
    4478738.454817745,        !- Vertex 3 Ycoordinate
    12,                       !- Vertex 3 Zcoordinate
    440239.38358477724,       !- Vertex 4 Xcoordinate
    4478738.454817745,        !- Vertex 4 Ycoordinate
    15;                       !- Vertex 4 Zcoordinate

BUILDINGSURFACE:DETAILED,
    Block bd58b1efd04a92f0_whole Storey 4 Wall 0007,    !- Name
    wall,                     !- Surface Type
    EU_wall_Construction,     !- Construction Name
    bd58b1efd04a92f0_F4_whole,    !- Zone Name
    ,                         !- Space Name
    outdoors,                 !- Outside Boundary Condition
    ,                         !- Outside Boundary Condition Object
    SunExposed,               !- Sun Exposure
    WindExposed,              !- Wind Exposure
    autocalculate,            !- View Factor to Ground
    autocalculate,            !- Number of Vertices
    440239.38358477724,       !- Vertex 1 Xcoordinate
    4478738.454817745,        !- Vertex 1 Ycoordinate
    15,                       !- Vertex 1 Zcoordinate
    440239.38358477724,       !- Vertex 2 Xcoordinate
    4478738.454817745,        !- Vertex 2 Ycoordinate
    12,                       !- Vertex 2 Zcoordinate
    440241.1989917561,        !- Vertex 3 Xcoordinate
    4478733.245178581,        !- Vertex 3 Ycoordinate
    12,                       !- Vertex 3 Zcoordinate
    440241.1989917561,        !- Vertex 4 Xcoordinate
    4478733.245178581,        !- Vertex 4 Ycoordinate
    15;                       !- Vertex 4 Zcoordinate

BUILDINGSURFACE:DETAILED,
    Block bd58b1efd04a92f0_whole Storey 4 Wall 0008,    !- Name
    wall,                     !- Surface Type
    EU_wall_Construction,     !- Construction Name
    bd58b1efd04a92f0_F4_whole,    !- Zone Name
    ,                         !- Space Name
    Adiabatic,                !- Outside Boundary Condition
    ,                         !- Outside Boundary Condition Object
    NoSun,                    !- Sun Exposure
    NoWind,                   !- Wind Exposure
    autocalculate,            !- View Factor to Ground
    autocalculate,            !- Number of Vertices
    440241.1989917561,        !- Vertex 1 Xcoordinate
    4478733.245178581,        !- Vertex 1 Ycoordinate
    15,                       !- Vertex 1 Zcoordinate
    440241.1989917561,        !- Vertex 2 Xcoordinate
    4478733.245178581,        !- Vertex 2 Ycoordinate
    12,                       !- Vertex 2 Zcoordinate
    440241.41430365125,       !- Vertex 3 Xcoordinate
    4478732.599616801,        !- Vertex 3 Ycoordinate
    12,                       !- Vertex 3 Zcoordinate
    440241.41430365125,       !- Vertex 4 Xcoordinate
    4478732.599616801,        !- Vertex 4 Ycoordinate
    15;                       !- Vertex 4 Zcoordinate

BUILDINGSURFACE:DETAILED,
    Block bd58b1efd04a92f0_whole Storey 4 Wall 0009,    !- Name
    wall,                     !- Surface Type
    EU_wall_Construction,     !- Construction Name
    bd58b1efd04a92f0_F4_whole,    !- Zone Name
    ,                         !- Space Name
    outdoors,                 !- Outside Boundary Condition
    ,                         !- Outside Boundary Condition Object
    SunExposed,               !- Sun Exposure
    WindExposed,              !- Wind Exposure
    autocalculate,            !- View Factor to Ground
    autocalculate,            !- Number of Vertices
    440241.41430365125,       !- Vertex 1 Xcoordinate
    4478732.599616801,        !- Vertex 1 Ycoordinate
    15,                       !- Vertex 1 Zcoordinate
    440241.41430365125,       !- Vertex 2 Xcoordinate
    4478732.599616801,        !- Vertex 2 Ycoordinate
    12,                       !- Vertex 2 Zcoordinate
    440246.5172259056,        !- Vertex 3 Xcoordinate
    4478734.512616217,        !- Vertex 3 Ycoordinate
    12,                       !- Vertex 3 Zcoordinate
    440246.5172259056,        !- Vertex 4 Xcoordinate
    4478734.512616217,        !- Vertex 4 Ycoordinate
    15;                       !- Vertex 4 Zcoordinate

BUILDINGSURFACE:DETAILED,
    Block bd58b1efd04a92f0_whole Storey 4 Wall 0010,    !- Name
    wall,                     !- Surface Type
    EU_wall_Construction,     !- Construction Name
    bd58b1efd04a92f0_F4_whole,    !- Zone Name
    ,                         !- Space Name
    outdoors,                 !- Outside Boundary Condition
    ,                         !- Outside Boundary Condition Object
    SunExposed,               !- Sun Exposure
    WindExposed,              !- Wind Exposure
    autocalculate,            !- View Factor to Ground
    autocalculate,            !- Number of Vertices
    440246.5172259056,        !- Vertex 1 Xcoordinate
    4478734.512616217,        !- Vertex 1 Ycoordinate
    15,                       !- Vertex 1 Zcoordinate
    440246.5172259056,        !- Vertex 2 Xcoordinate
    4478734.512616217,        !- Vertex 2 Ycoordinate
    12,                       !- Vertex 2 Zcoordinate
    440247.20422843733,       !- Vertex 3 Xcoordinate
    4478732.409092458,        !- Vertex 3 Ycoordinate
    12,                       !- Vertex 3 Zcoordinate
    440247.20422843733,       !- Vertex 4 Xcoordinate
    4478732.409092458,        !- Vertex 4 Ycoordinate
    15;                       !- Vertex 4 Zcoordinate

BUILDINGSURFACE:DETAILED,
    Block bd58b1efd04a92f0_whole Storey 4 Wall 0011,    !- Name
    wall,                     !- Surface Type
    EU_wall_Construction,     !- Construction Name
    bd58b1efd04a92f0_F4_whole,    !- Zone Name
    ,                         !- Space Name
    outdoors,                 !- Outside Boundary Condition
    ,                         !- Outside Boundary Condition Object
    SunExposed,               !- Sun Exposure
    WindExposed,              !- Wind Exposure
    autocalculate,            !- View Factor to Ground
    autocalculate,            !- Number of Vertices
    440247.20422843733,       !- Vertex 1 Xcoordinate
    4478732.409092458,        !- Vertex 1 Ycoordinate
    15,                       !- Vertex 1 Zcoordinate
    440247.20422843733,       !- Vertex 2 Xcoordinate
    4478732.409092458,        !- Vertex 2 Ycoordinate
    12,                       !- Vertex 2 Zcoordinate
    440242.186093794,         !- Vertex 3 Xcoordinate
    4478730.495415766,        !- Vertex 3 Ycoordinate
    12,                       !- Vertex 3 Zcoordinate
    440242.186093794,         !- Vertex 4 Xcoordinate
    4478730.495415766,        !- Vertex 4 Ycoordinate
    15;                       !- Vertex 4 Zcoordinate

BUILDINGSURFACE:DETAILED,
    Block bd58b1efd04a92f0_whole Storey 4 Wall 0012,    !- Name
    wall,                     !- Surface Type
    EU_wall_Construction,     !- Construction Name
    bd58b1efd04a92f0_F4_whole,    !- Zone Name
    ,                         !- Space Name
    Adiabatic,                !- Outside Boundary Condition
    ,                         !- Outside Boundary Condition Object
    NoSun,                    !- Sun Exposure
    NoWind,                   !- Wind Exposure
    autocalculate,            !- View Factor to Ground
    autocalculate,            !- Number of Vertices
    440242.186093794,         !- Vertex 1 Xcoordinate
    4478730.495415766,        !- Vertex 1 Ycoordinate
    15,                       !- Vertex 1 Zcoordinate
    440242.186093794,         !- Vertex 2 Xcoordinate
    4478730.495415766,        !- Vertex 2 Ycoordinate
    12,                       !- Vertex 2 Zcoordinate
    440244.6888619304,        !- Vertex 3 Xcoordinate
    4478723.226653573,        !- Vertex 3 Ycoordinate
    12,                       !- Vertex 3 Zcoordinate
    440244.6888619304,        !- Vertex 4 Xcoordinate
    4478723.226653573,        !- Vertex 4 Ycoordinate
    15;                       !- Vertex 4 Zcoordinate

BUILDINGSURFACE:DETAILED,
    Block bd58b1efd04a92f0_whole Storey 4 Wall 0013,    !- Name
    wall,                     !- Surface Type
    EU_wall_Construction,     !- Construction Name
    bd58b1efd04a92f0_F4_whole,    !- Zone Name
    ,                         !- Space Name
    outdoors,                 !- Outside Boundary Condition
    ,                         !- Outside Boundary Condition Object
    SunExposed,               !- Sun Exposure
    WindExposed,              !- Wind Exposure
    autocalculate,            !- View Factor to Ground
    autocalculate,            !- Number of Vertices
    440244.6888619304,        !- Vertex 1 Xcoordinate
    4478723.226653573,        !- Vertex 1 Ycoordinate
    15,                       !- Vertex 1 Zcoordinate
    440244.6888619304,        !- Vertex 2 Xcoordinate
    4478723.226653573,        !- Vertex 2 Ycoordinate
    12,                       !- Vertex 2 Zcoordinate
    440247.3679524605,        !- Vertex 3 Xcoordinate
    4478724.237639046,        !- Vertex 3 Ycoordinate
    12,                       !- Vertex 3 Zcoordinate
    440247.3679524605,        !- Vertex 4 Xcoordinate
    4478724.237639046,        !- Vertex 4 Ycoordinate
    15;                       !- Vertex 4 Zcoordinate

BUILDINGSURFACE:DETAILED,
    Block bd58b1efd04a92f0_whole Storey 4 Wall 0014,    !- Name
    wall,                     !- Surface Type
    EU_wall_Construction,     !- Construction Name
    bd58b1efd04a92f0_F4_whole,    !- Zone Name
    ,                         !- Space Name
    outdoors,                 !- Outside Boundary Condition
    ,                         !- Outside Boundary Condition Object
    SunExposed,               !- Sun Exposure
    WindExposed,              !- Wind Exposure
    autocalculate,            !- View Factor to Ground
    autocalculate,            !- Number of Vertices
    440247.3679524605,        !- Vertex 1 Xcoordinate
    4478724.237639046,        !- Vertex 1 Ycoordinate
    15,                       !- Vertex 1 Zcoordinate
    440247.3679524605,        !- Vertex 2 Xcoordinate
    4478724.237639046,        !- Vertex 2 Ycoordinate
    12,                       !- Vertex 2 Zcoordinate
    440256.7404797702,        !- Vertex 3 Xcoordinate
    4478727.770579513,        !- Vertex 3 Ycoordinate
    12,                       !- Vertex 3 Zcoordinate
    440256.7404797702,        !- Vertex 4 Xcoordinate
    4478727.770579513,        !- Vertex 4 Ycoordinate
    15;                       !- Vertex 4 Zcoordinate

BUILDINGSURFACE:DETAILED,
    Block bd58b1efd04a92f0_whole Storey 4 Wall 0015,    !- Name
    wall,                     !- Surface Type
    EU_wall_Construction,     !- Construction Name
    bd58b1efd04a92f0_F4_whole,    !- Zone Name
    ,                         !- Space Name
    outdoors,                 !- Outside Boundary Condition
    ,                         !- Outside Boundary Condition Object
    SunExposed,               !- Sun Exposure
    WindExposed,              !- Wind Exposure
    autocalculate,            !- View Factor to Ground
    autocalculate,            !- Number of Vertices
    440256.7404797702,        !- Vertex 1 Xcoordinate
    4478727.770579513,        !- Vertex 1 Ycoordinate
    15,                       !- Vertex 1 Zcoordinate
    440256.7404797702,        !- Vertex 2 Xcoordinate
    4478727.770579513,        !- Vertex 2 Ycoordinate
    12,                       !- Vertex 2 Zcoordinate
    440256.17093836016,       !- Vertex 3 Xcoordinate
    4478729.717754548,        !- Vertex 3 Ycoordinate
    12,                       !- Vertex 3 Zcoordinate
    440256.17093836016,       !- Vertex 4 Xcoordinate
    4478729.717754548,        !- Vertex 4 Ycoordinate
    15;                       !- Vertex 4 Zcoordinate

BUILDINGSURFACE:DETAILED,
    Block bd58b1efd04a92f0_whole Storey 4 Wall 0016,    !- Name
    wall,                     !- Surface Type
    EU_wall_Construction,     !- Construction Name
    bd58b1efd04a92f0_F4_whole,    !- Zone Name
    ,                         !- Space Name
    Adiabatic,                !- Outside Boundary Condition
    ,                         !- Outside Boundary Condition Object
    NoSun,                    !- Sun Exposure
    NoWind,                   !- Wind Exposure
    autocalculate,            !- View Factor to Ground
    autocalculate,            !- Number of Vertices
    440256.17093836016,       !- Vertex 1 Xcoordinate
    4478729.717754548,        !- Vertex 1 Ycoordinate
    15,                       !- Vertex 1 Zcoordinate
    440256.17093836016,       !- Vertex 2 Xcoordinate
    4478729.717754548,        !- Vertex 2 Ycoordinate
    12,                       !- Vertex 2 Zcoordinate
    440255.1379184941,        !- Vertex 3 Xcoordinate
    4478733.089523447,        !- Vertex 3 Ycoordinate
    12,                       !- Vertex 3 Zcoordinate
    440255.1379184941,        !- Vertex 4 Xcoordinate
    4478733.089523447,        !- Vertex 4 Ycoordinate
    15;                       !- Vertex 4 Zcoordinate

BUILDINGSURFACE:DETAILED,
    Block bd58b1efd04a92f0_whole Storey 4 Wall 0017,    !- Name
    wall,                     !- Surface Type
    EU_wall_Construction,     !- Construction Name
    bd58b1efd04a92f0_F4_whole,    !- Zone Name
    ,                         !- Space Name
    Adiabatic,                !- Outside Boundary Condition
    ,                         !- Outside Boundary Condition Object
    NoSun,                    !- Sun Exposure
    NoWind,                   !- Wind Exposure
    autocalculate,            !- View Factor to Ground
    autocalculate,            !- Number of Vertices
    440255.1379184941,        !- Vertex 1 Xcoordinate
    4478733.089523447,        !- Vertex 1 Ycoordinate
    15,                       !- Vertex 1 Zcoordinate
    440255.1379184941,        !- Vertex 2 Xcoordinate
    4478733.089523447,        !- Vertex 2 Ycoordinate
    12,                       !- Vertex 2 Zcoordinate
    440254.48456357775,       !- Vertex 3 Xcoordinate
    4478735.159475684,        !- Vertex 3 Ycoordinate
    12,                       !- Vertex 3 Zcoordinate
    440254.48456357775,       !- Vertex 4 Xcoordinate
    4478735.159475684,        !- Vertex 4 Ycoordinate
    15;                       !- Vertex 4 Zcoordinate

BUILDINGSURFACE:DETAILED,
    Block bd58b1efd04a92f0_whole Storey 4 Wall 0018,    !- Name
    wall,                     !- Surface Type
    EU_wall_Construction,     !- Construction Name
    bd58b1efd04a92f0_F4_whole,    !- Zone Name
    ,                         !- Space Name
    outdoors,                 !- Outside Boundary Condition
    ,                         !- Outside Boundary Condition Object
    SunExposed,               !- Sun Exposure
    WindExposed,              !- Wind Exposure
    autocalculate,            !- View Factor to Ground
    autocalculate,            !- Number of Vertices
    440254.48456357775,       !- Vertex 1 Xcoordinate
    4478735.159475684,        !- Vertex 1 Ycoordinate
    15,                       !- Vertex 1 Zcoordinate
    440254.48456357775,       !- Vertex 2 Xcoordinate
    4478735.159475684,        !- Vertex 2 Ycoordinate
    12,                       !- Vertex 2 Zcoordinate
    440249.44108465983,       !- Vertex 3 Xcoordinate
    4478733.257097197,        !- Vertex 3 Ycoordinate
    12,                       !- Vertex 3 Zcoordinate
    440249.44108465983,       !- Vertex 4 Xcoordinate
    4478733.257097197,        !- Vertex 4 Ycoordinate
    15;                       !- Vertex 4 Zcoordinate

BUILDINGSURFACE:DETAILED,
    Block bd58b1efd04a92f0_whole Storey 4 Wall 0019,    !- Name
    wall,                     !- Surface Type
    EU_wall_Construction,     !- Construction Name
    bd58b1efd04a92f0_F4_whole,    !- Zone Name
    ,                         !- Space Name
    outdoors,                 !- Outside Boundary Condition
    ,                         !- Outside Boundary Condition Object
    SunExposed,               !- Sun Exposure
    WindExposed,              !- Wind Exposure
    autocalculate,            !- View Factor to Ground
    autocalculate,            !- Number of Vertices
    440249.44108465983,       !- Vertex 1 Xcoordinate
    4478733.257097197,        !- Vertex 1 Ycoordinate
    15,                       !- Vertex 1 Zcoordinate
    440249.44108465983,       !- Vertex 2 Xcoordinate
    4478733.257097197,        !- Vertex 2 Ycoordinate
    12,                       !- Vertex 2 Zcoordinate
    440248.7115985999,        !- Vertex 3 Xcoordinate
    4478735.349859074,        !- Vertex 3 Ycoordinate
    12,                       !- Vertex 3 Zcoordinate
    440248.7115985999,        !- Vertex 4 Xcoordinate
    4478735.349859074,        !- Vertex 4 Ycoordinate
    15;                       !- Vertex 4 Zcoordinate

BUILDINGSURFACE:DETAILED,
    Block bd58b1efd04a92f0_whole Storey 4 Wall 0020,    !- Name
    wall,                     !- Surface Type
    EU_wall_Construction,     !- Construction Name
    bd58b1efd04a92f0_F4_whole,    !- Zone Name
    ,                         !- Space Name
    outdoors,                 !- Outside Boundary Condition
    ,                         !- Outside Boundary Condition Object
    SunExposed,               !- Sun Exposure
    WindExposed,              !- Wind Exposure
    autocalculate,            !- View Factor to Ground
    autocalculate,            !- Number of Vertices
    440248.7115985999,        !- Vertex 1 Xcoordinate
    4478735.349859074,        !- Vertex 1 Ycoordinate
    15,                       !- Vertex 1 Zcoordinate
    440248.7115985999,        !- Vertex 2 Xcoordinate
    4478735.349859074,        !- Vertex 2 Ycoordinate
    12,                       !- Vertex 2 Zcoordinate
    440253.8234388448,        !- Vertex 3 Xcoordinate
    4478737.318295942,        !- Vertex 3 Ycoordinate
    12,                       !- Vertex 3 Zcoordinate
    440253.8234388448,        !- Vertex 4 Xcoordinate
    4478737.318295942,        !- Vertex 4 Ycoordinate
    15;                       !- Vertex 4 Zcoordinate

BUILDINGSURFACE:DETAILED,
    Block bd58b1efd04a92f0_whole Storey 4 Wall 0021,    !- Name
    wall,                     !- Surface Type
    EU_wall_Construction,     !- Construction Name
    bd58b1efd04a92f0_F4_whole,    !- Zone Name
    ,                         !- Space Name
    Adiabatic,                !- Outside Boundary Condition
    ,                         !- Outside Boundary Condition Object
    NoSun,                    !- Sun Exposure
    NoWind,                   !- Wind Exposure
    autocalculate,            !- View Factor to Ground
    autocalculate,            !- Number of Vertices
    440253.8234388448,        !- Vertex 1 Xcoordinate
    4478737.318295942,        !- Vertex 1 Ycoordinate
    15,                       !- Vertex 1 Zcoordinate
    440253.8234388448,        !- Vertex 2 Xcoordinate
    4478737.318295942,        !- Vertex 2 Ycoordinate
    12,                       !- Vertex 2 Zcoordinate
    440251.98834584176,       !- Vertex 3 Xcoordinate
    4478743.249637328,        !- Vertex 3 Ycoordinate
    12,                       !- Vertex 3 Zcoordinate
    440251.98834584176,       !- Vertex 4 Xcoordinate
    4478743.249637328,        !- Vertex 4 Ycoordinate
    15;                       !- Vertex 4 Zcoordinate

BUILDINGSURFACE:DETAILED,
    Block bd58b1efd04a92f0_whole Storey 4 Wall 0022,    !- Name
    wall,                     !- Surface Type
    EU_wall_Construction,     !- Construction Name
    bd58b1efd04a92f0_F4_whole,    !- Zone Name
    ,                         !- Space Name
    outdoors,                 !- Outside Boundary Condition
    ,                         !- Outside Boundary Condition Object
    SunExposed,               !- Sun Exposure
    WindExposed,              !- Wind Exposure
    autocalculate,            !- View Factor to Ground
    autocalculate,            !- Number of Vertices
    440251.98834584176,       !- Vertex 1 Xcoordinate
    4478743.249637328,        !- Vertex 1 Ycoordinate
    15,                       !- Vertex 1 Zcoordinate
    440251.98834584176,       !- Vertex 2 Xcoordinate
    4478743.249637328,        !- Vertex 2 Ycoordinate
    12,                       !- Vertex 2 Zcoordinate
    440246.43419019296,       !- Vertex 3 Xcoordinate
    4478741.10712027,         !- Vertex 3 Ycoordinate
    12,                       !- Vertex 3 Zcoordinate
    440246.43419019296,       !- Vertex 4 Xcoordinate
    4478741.10712027,         !- Vertex 4 Ycoordinate
    15;                       !- Vertex 4 Zcoordinate

BUILDINGSURFACE:DETAILED,
    Block bd58b1efd04a92f0_whole Storey 4 Wall 0023,    !- Name
    wall,                     !- Surface Type
    EU_wall_Construction,     !- Construction Name
    bd58b1efd04a92f0_F4_whole,    !- Zone Name
    ,                         !- Space Name
    outdoors,                 !- Outside Boundary Condition
    ,                         !- Outside Boundary Condition Object
    SunExposed,               !- Sun Exposure
    WindExposed,              !- Wind Exposure
    autocalculate,            !- View Factor to Ground
    autocalculate,            !- Number of Vertices
    440246.43419019296,       !- Vertex 1 Xcoordinate
    4478741.10712027,         !- Vertex 1 Ycoordinate
    15,                       !- Vertex 1 Zcoordinate
    440246.43419019296,       !- Vertex 2 Xcoordinate
    4478741.10712027,         !- Vertex 2 Ycoordinate
    12,                       !- Vertex 2 Zcoordinate
    440245.7634376992,        !- Vertex 3 Xcoordinate
    4478743.121708499,        !- Vertex 3 Ycoordinate
    12,                       !- Vertex 3 Zcoordinate
    440245.7634376992,        !- Vertex 4 Xcoordinate
    4478743.121708499,        !- Vertex 4 Ycoordinate
    15;                       !- Vertex 4 Zcoordinate

BUILDINGSURFACE:DETAILED,
    Block bd58b1efd04a92f0_whole Storey 4 Wall 0024,    !- Name
    wall,                     !- Surface Type
    EU_wall_Construction,     !- Construction Name
    bd58b1efd04a92f0_F4_whole,    !- Zone Name
    ,                         !- Space Name
    outdoors,                 !- Outside Boundary Condition
    ,                         !- Outside Boundary Condition Object
    SunExposed,               !- Sun Exposure
    WindExposed,              !- Wind Exposure
    autocalculate,            !- View Factor to Ground
    autocalculate,            !- Number of Vertices
    440245.7634376992,        !- Vertex 1 Xcoordinate
    4478743.121708499,        !- Vertex 1 Ycoordinate
    15,                       !- Vertex 1 Zcoordinate
    440245.7634376992,        !- Vertex 2 Xcoordinate
    4478743.121708499,        !- Vertex 2 Ycoordinate
    12,                       !- Vertex 2 Zcoordinate
    440251.3683766875,        !- Vertex 3 Xcoordinate
    4478745.252718997,        !- Vertex 3 Ycoordinate
    12,                       !- Vertex 3 Zcoordinate
    440251.3683766875,        !- Vertex 4 Xcoordinate
    4478745.252718997,        !- Vertex 4 Ycoordinate
    15;                       !- Vertex 4 Zcoordinate

BUILDINGSURFACE:DETAILED,
    Block bd58b1efd04a92f0_whole Storey 4 Wall 0025,    !- Name
    wall,                     !- Surface Type
    EU_wall_Construction,     !- Construction Name
    bd58b1efd04a92f0_F4_whole,    !- Zone Name
    ,                         !- Space Name
    Adiabatic,                !- Outside Boundary Condition
    ,                         !- Outside Boundary Condition Object
    NoSun,                    !- Sun Exposure
    NoWind,                   !- Wind Exposure
    autocalculate,            !- View Factor to Ground
    autocalculate,            !- Number of Vertices
    440251.3683766875,        !- Vertex 1 Xcoordinate
    4478745.252718997,        !- Vertex 1 Ycoordinate
    15,                       !- Vertex 1 Zcoordinate
    440251.3683766875,        !- Vertex 2 Xcoordinate
    4478745.252718997,        !- Vertex 2 Ycoordinate
    12,                       !- Vertex 2 Zcoordinate
    440250.1694162695,        !- Vertex 3 Xcoordinate
    4478749.080943585,        !- Vertex 3 Ycoordinate
    12,                       !- Vertex 3 Zcoordinate
    440250.1694162695,        !- Vertex 4 Xcoordinate
    4478749.080943585,        !- Vertex 4 Ycoordinate
    15;                       !- Vertex 4 Zcoordinate

BUILDINGSURFACE:DETAILED,
    Block bd58b1efd04a92f0_whole Storey 4 Roof 0001,    !- Name
    roof,                     !- Surface Type
    EU_roof_Construction,     !- Construction Name
    bd58b1efd04a92f0_F4_whole,    !- Zone Name
    ,                         !- Space Name
    outdoors,                 !- Outside Boundary Condition
    ,                         !- Outside Boundary Condition Object
    SunExposed,               !- Sun Exposure
    WindExposed,              !- Wind Exposure
    autocalculate,            !- View Factor to Ground
    autocalculate,            !- Number of Vertices
    440256.7404797702,        !- Vertex 1 Xcoordinate
    4478727.770579513,        !- Vertex 1 Ycoordinate
    15,                       !- Vertex 1 Zcoordinate
    440256.17093836016,       !- Vertex 2 Xcoordinate
    4478729.717754548,        !- Vertex 2 Ycoordinate
    15,                       !- Vertex 2 Zcoordinate
    440255.1379184941,        !- Vertex 3 Xcoordinate
    4478733.089523447,        !- Vertex 3 Ycoordinate
    15,                       !- Vertex 3 Zcoordinate
    440254.48456357775,       !- Vertex 4 Xcoordinate
    4478735.159475684,        !- Vertex 4 Ycoordinate
    15,                       !- Vertex 4 Zcoordinate
    440249.44108465983,       !- Vertex 5 Xcoordinate
    4478733.257097197,        !- Vertex 5 Ycoordinate
    15,                       !- Vertex 5 Zcoordinate
    440248.7115985999,        !- Vertex 6 Xcoordinate
    4478735.349859074,        !- Vertex 6 Ycoordinate
    15,                       !- Vertex 6 Zcoordinate
    440253.8234388448,        !- Vertex 7 Xcoordinate
    4478737.318295942,        !- Vertex 7 Ycoordinate
    15,                       !- Vertex 7 Zcoordinate
    440251.98834584176,       !- Vertex 8 Xcoordinate
    4478743.249637328,        !- Vertex 8 Ycoordinate
    15,                       !- Vertex 8 Zcoordinate
    440246.43419019296,       !- Vertex 9 Xcoordinate
    4478741.10712027,         !- Vertex 9 Ycoordinate
    15,                       !- Vertex 9 Zcoordinate
    440245.7634376992,        !- Vertex 10 Xcoordinate
    4478743.121708499,        !- Vertex 10 Ycoordinate
    15,                       !- Vertex 10 Zcoordinate
    440251.3683766875,        !- Vertex 11 Xcoordinate
    4478745.252718997,        !- Vertex 11 Ycoordinate
    15,                       !- Vertex 11 Zcoordinate
    440250.1694162695,        !- Vertex 12 Xcoordinate
    4478749.080943585,        !- Vertex 12 Ycoordinate
    15,                       !- Vertex 12 Zcoordinate
    440249.490804835,         !- Vertex 13 Xcoordinate
    4478751.173299425,        !- Vertex 13 Ycoordinate
    15,                       !- Vertex 13 Zcoordinate
    440236.6483811929,        !- Vertex 14 Xcoordinate
    4478746.34707923,         !- Vertex 14 Ycoordinate
    15,                       !- Vertex 14 Zcoordinate
    440238.7041778221,        !- Vertex 15 Xcoordinate
    4478740.447274228,        !- Vertex 15 Ycoordinate
    15,                       !- Vertex 15 Zcoordinate
    440244.5556283519,        !- Vertex 16 Xcoordinate
    4478742.654017074,        !- Vertex 16 Ycoordinate
    15,                       !- Vertex 16 Zcoordinate
    440245.2351252364,        !- Vertex 17 Xcoordinate
    4478740.672661166,        !- Vertex 17 Ycoordinate
    15,                       !- Vertex 17 Zcoordinate
    440239.38358477724,       !- Vertex 18 Xcoordinate
    4478738.454817745,        !- Vertex 18 Ycoordinate
    15,                       !- Vertex 18 Zcoordinate
    440241.1989917561,        !- Vertex 19 Xcoordinate
    4478733.245178581,        !- Vertex 19 Ycoordinate
    15,                       !- Vertex 19 Zcoordinate
    440241.41430365125,       !- Vertex 20 Xcoordinate
    4478732.599616801,        !- Vertex 20 Ycoordinate
    15,                       !- Vertex 20 Zcoordinate
    440246.5172259056,        !- Vertex 21 Xcoordinate
    4478734.512616217,        !- Vertex 21 Ycoordinate
    15,                       !- Vertex 21 Zcoordinate
    440247.20422843733,       !- Vertex 22 Xcoordinate
    4478732.409092458,        !- Vertex 22 Ycoordinate
    15,                       !- Vertex 22 Zcoordinate
    440242.186093794,         !- Vertex 23 Xcoordinate
    4478730.495415766,        !- Vertex 23 Ycoordinate
    15,                       !- Vertex 23 Zcoordinate
    440244.6888619304,        !- Vertex 24 Xcoordinate
    4478723.226653573,        !- Vertex 24 Ycoordinate
    15,                       !- Vertex 24 Zcoordinate
    440247.3679524605,        !- Vertex 25 Xcoordinate
    4478724.237639046,        !- Vertex 25 Ycoordinate
    15;                       !- Vertex 25 Zcoordinate

BUILDINGSURFACE:DETAILED,
    Block bd58b1efd04a92f0_whole Storey 0 Ceiling 0001_1,    !- Name
    ceiling,                  !- Surface Type
    EU_floor_Construction,    !- Construction Name
    bd58b1efd04a92f0_F0_whole,    !- Zone Name
    ,                         !- Space Name
    Surface,                  !- Outside Boundary Condition
    Block bd58b1efd04a92f0_whole Storey 1 Floor 0001_1,    !- Outside Boundary Condition Object
    NoSun,                    !- Sun Exposure
    NoWind,                   !- Wind Exposure
    autocalculate,            !- View Factor to Ground
    autocalculate,            !- Number of Vertices
    440256.7404797701,        !- Vertex 1 Xcoordinate
    4478727.770579513,        !- Vertex 1 Ycoordinate
    3,                        !- Vertex 1 Zcoordinate
    440256.17093836004,       !- Vertex 2 Xcoordinate
    4478729.717754548,        !- Vertex 2 Ycoordinate
    3,                        !- Vertex 2 Zcoordinate
    440255.1379184937,        !- Vertex 3 Xcoordinate
    4478733.089523447,        !- Vertex 3 Ycoordinate
    3,                        !- Vertex 3 Zcoordinate
    440254.48456357745,       !- Vertex 4 Xcoordinate
    4478735.159475684,        !- Vertex 4 Ycoordinate
    3,                        !- Vertex 4 Zcoordinate
    440249.44108465966,       !- Vertex 5 Xcoordinate
    4478733.257097197,        !- Vertex 5 Ycoordinate
    3,                        !- Vertex 5 Zcoordinate
    440248.7115985998,        !- Vertex 6 Xcoordinate
    4478735.349859074,        !- Vertex 6 Ycoordinate
    3,                        !- Vertex 6 Zcoordinate
    440253.82343884464,       !- Vertex 7 Xcoordinate
    4478737.318295942,        !- Vertex 7 Ycoordinate
    3,                        !- Vertex 7 Zcoordinate
    440251.9883458414,        !- Vertex 8 Xcoordinate
    4478743.249637328,        !- Vertex 8 Ycoordinate
    3,                        !- Vertex 8 Zcoordinate
    440246.4341901927,        !- Vertex 9 Xcoordinate
    4478741.10712027,         !- Vertex 9 Ycoordinate
    3,                        !- Vertex 9 Zcoordinate
    440245.76343769906,       !- Vertex 10 Xcoordinate
    4478743.121708499,        !- Vertex 10 Ycoordinate
    3,                        !- Vertex 10 Zcoordinate
    440251.36837668717,       !- Vertex 11 Xcoordinate
    4478745.252718997,        !- Vertex 11 Ycoordinate
    3,                        !- Vertex 11 Zcoordinate
    440250.1694162693,        !- Vertex 12 Xcoordinate
    4478749.080943585,        !- Vertex 12 Ycoordinate
    3,                        !- Vertex 12 Zcoordinate
    440249.49080483476,       !- Vertex 13 Xcoordinate
    4478751.173299425,        !- Vertex 13 Ycoordinate
    3,                        !- Vertex 13 Zcoordinate
    440236.6483811927,        !- Vertex 14 Xcoordinate
    4478746.34707923,         !- Vertex 14 Ycoordinate
    3,                        !- Vertex 14 Zcoordinate
    440238.704177822,         !- Vertex 15 Xcoordinate
    4478740.447274228,        !- Vertex 15 Ycoordinate
    3,                        !- Vertex 15 Zcoordinate
    440244.55562835187,       !- Vertex 16 Xcoordinate
    4478742.654017074,        !- Vertex 16 Ycoordinate
    3,                        !- Vertex 16 Zcoordinate
    440245.2351252362,        !- Vertex 17 Xcoordinate
    4478740.672661166,        !- Vertex 17 Ycoordinate
    3,                        !- Vertex 17 Zcoordinate
    440239.3835847769,        !- Vertex 18 Xcoordinate
    4478738.454817745,        !- Vertex 18 Ycoordinate
    3,                        !- Vertex 18 Zcoordinate
    440241.19899175595,       !- Vertex 19 Xcoordinate
    4478733.245178581,        !- Vertex 19 Ycoordinate
    3,                        !- Vertex 19 Zcoordinate
    440241.4143036511,        !- Vertex 20 Xcoordinate
    4478732.599616801,        !- Vertex 20 Ycoordinate
    3,                        !- Vertex 20 Zcoordinate
    440246.5172259053,        !- Vertex 21 Xcoordinate
    4478734.512616217,        !- Vertex 21 Ycoordinate
    3,                        !- Vertex 21 Zcoordinate
    440247.20422843704,       !- Vertex 22 Xcoordinate
    4478732.409092458,        !- Vertex 22 Ycoordinate
    3,                        !- Vertex 22 Zcoordinate
    440242.1860937937,        !- Vertex 23 Xcoordinate
    4478730.495415766,        !- Vertex 23 Ycoordinate
    3,                        !- Vertex 23 Zcoordinate
    440244.6888619303,        !- Vertex 24 Xcoordinate
    4478723.226653573,        !- Vertex 24 Ycoordinate
    3,                        !- Vertex 24 Zcoordinate
    440247.3679524604,        !- Vertex 25 Xcoordinate
    4478724.237639046,        !- Vertex 25 Ycoordinate
    3;                        !- Vertex 25 Zcoordinate

BUILDINGSURFACE:DETAILED,
    Block bd58b1efd04a92f0_whole Storey 1 Floor 0001_1,    !- Name
    floor,                    !- Surface Type
    EU_floor_Construction,    !- Construction Name
    bd58b1efd04a92f0_F1_whole,    !- Zone Name
    ,                         !- Space Name
    Surface,                  !- Outside Boundary Condition
    Block bd58b1efd04a92f0_whole Storey 0 Ceiling 0001_1,    !- Outside Boundary Condition Object
    NoSun,                    !- Sun Exposure
    NoWind,                   !- Wind Exposure
    autocalculate,            !- View Factor to Ground
    autocalculate,            !- Number of Vertices
    440250.1694162693,        !- Vertex 1 Xcoordinate
    4478749.080943585,        !- Vertex 1 Ycoordinate
    3,                        !- Vertex 1 Zcoordinate
    440251.36837668717,       !- Vertex 2 Xcoordinate
    4478745.252718997,        !- Vertex 2 Ycoordinate
    3,                        !- Vertex 2 Zcoordinate
    440245.76343769906,       !- Vertex 3 Xcoordinate
    4478743.121708499,        !- Vertex 3 Ycoordinate
    3,                        !- Vertex 3 Zcoordinate
    440246.4341901927,        !- Vertex 4 Xcoordinate
    4478741.10712027,         !- Vertex 4 Ycoordinate
    3,                        !- Vertex 4 Zcoordinate
    440251.9883458414,        !- Vertex 5 Xcoordinate
    4478743.249637328,        !- Vertex 5 Ycoordinate
    3,                        !- Vertex 5 Zcoordinate
    440253.82343884464,       !- Vertex 6 Xcoordinate
    4478737.318295942,        !- Vertex 6 Ycoordinate
    3,                        !- Vertex 6 Zcoordinate
    440248.7115985998,        !- Vertex 7 Xcoordinate
    4478735.349859074,        !- Vertex 7 Ycoordinate
    3,                        !- Vertex 7 Zcoordinate
    440249.44108465966,       !- Vertex 8 Xcoordinate
    4478733.257097197,        !- Vertex 8 Ycoordinate
    3,                        !- Vertex 8 Zcoordinate
    440254.48456357745,       !- Vertex 9 Xcoordinate
    4478735.159475684,        !- Vertex 9 Ycoordinate
    3,                        !- Vertex 9 Zcoordinate
    440255.1379184937,        !- Vertex 10 Xcoordinate
    4478733.089523447,        !- Vertex 10 Ycoordinate
    3,                        !- Vertex 10 Zcoordinate
    440256.17093836004,       !- Vertex 11 Xcoordinate
    4478729.717754548,        !- Vertex 11 Ycoordinate
    3,                        !- Vertex 11 Zcoordinate
    440256.7404797701,        !- Vertex 12 Xcoordinate
    4478727.770579513,        !- Vertex 12 Ycoordinate
    3,                        !- Vertex 12 Zcoordinate
    440247.3679524604,        !- Vertex 13 Xcoordinate
    4478724.237639046,        !- Vertex 13 Ycoordinate
    3,                        !- Vertex 13 Zcoordinate
    440244.6888619303,        !- Vertex 14 Xcoordinate
    4478723.226653573,        !- Vertex 14 Ycoordinate
    3,                        !- Vertex 14 Zcoordinate
    440242.1860937937,        !- Vertex 15 Xcoordinate
    4478730.495415766,        !- Vertex 15 Ycoordinate
    3,                        !- Vertex 15 Zcoordinate
    440247.20422843704,       !- Vertex 16 Xcoordinate
    4478732.409092458,        !- Vertex 16 Ycoordinate
    3,                        !- Vertex 16 Zcoordinate
    440246.5172259053,        !- Vertex 17 Xcoordinate
    4478734.512616217,        !- Vertex 17 Ycoordinate
    3,                        !- Vertex 17 Zcoordinate
    440241.4143036511,        !- Vertex 18 Xcoordinate
    4478732.599616801,        !- Vertex 18 Ycoordinate
    3,                        !- Vertex 18 Zcoordinate
    440241.19899175595,       !- Vertex 19 Xcoordinate
    4478733.245178581,        !- Vertex 19 Ycoordinate
    3,                        !- Vertex 19 Zcoordinate
    440239.3835847769,        !- Vertex 20 Xcoordinate
    4478738.454817745,        !- Vertex 20 Ycoordinate
    3,                        !- Vertex 20 Zcoordinate
    440245.2351252362,        !- Vertex 21 Xcoordinate
    4478740.672661166,        !- Vertex 21 Ycoordinate
    3,                        !- Vertex 21 Zcoordinate
    440244.55562835187,       !- Vertex 22 Xcoordinate
    4478742.654017074,        !- Vertex 22 Ycoordinate
    3,                        !- Vertex 22 Zcoordinate
    440238.704177822,         !- Vertex 23 Xcoordinate
    4478740.447274228,        !- Vertex 23 Ycoordinate
    3,                        !- Vertex 23 Zcoordinate
    440236.6483811927,        !- Vertex 24 Xcoordinate
    4478746.34707923,         !- Vertex 24 Ycoordinate
    3,                        !- Vertex 24 Zcoordinate
    440249.49080483476,       !- Vertex 25 Xcoordinate
    4478751.173299425,        !- Vertex 25 Ycoordinate
    3;                        !- Vertex 25 Zcoordinate

BUILDINGSURFACE:DETAILED,
    Block bd58b1efd04a92f0_whole Storey 1 Ceiling 0001_1,    !- Name
    ceiling,                  !- Surface Type
    EU_floor_Construction,    !- Construction Name
    bd58b1efd04a92f0_F1_whole,    !- Zone Name
    ,                         !- Space Name
    Surface,                  !- Outside Boundary Condition
    Block bd58b1efd04a92f0_whole Storey 2 Floor 0001_1,    !- Outside Boundary Condition Object
    NoSun,                    !- Sun Exposure
    NoWind,                   !- Wind Exposure
    autocalculate,            !- View Factor to Ground
    autocalculate,            !- Number of Vertices
    440256.7404797701,        !- Vertex 1 Xcoordinate
    4478727.770579513,        !- Vertex 1 Ycoordinate
    6,                        !- Vertex 1 Zcoordinate
    440256.17093836004,       !- Vertex 2 Xcoordinate
    4478729.717754548,        !- Vertex 2 Ycoordinate
    6,                        !- Vertex 2 Zcoordinate
    440255.1379184937,        !- Vertex 3 Xcoordinate
    4478733.089523447,        !- Vertex 3 Ycoordinate
    6,                        !- Vertex 3 Zcoordinate
    440254.48456357745,       !- Vertex 4 Xcoordinate
    4478735.159475684,        !- Vertex 4 Ycoordinate
    6,                        !- Vertex 4 Zcoordinate
    440249.44108465966,       !- Vertex 5 Xcoordinate
    4478733.257097197,        !- Vertex 5 Ycoordinate
    6,                        !- Vertex 5 Zcoordinate
    440248.7115985998,        !- Vertex 6 Xcoordinate
    4478735.349859074,        !- Vertex 6 Ycoordinate
    6,                        !- Vertex 6 Zcoordinate
    440253.82343884464,       !- Vertex 7 Xcoordinate
    4478737.318295942,        !- Vertex 7 Ycoordinate
    6,                        !- Vertex 7 Zcoordinate
    440251.9883458414,        !- Vertex 8 Xcoordinate
    4478743.249637328,        !- Vertex 8 Ycoordinate
    6,                        !- Vertex 8 Zcoordinate
    440246.4341901927,        !- Vertex 9 Xcoordinate
    4478741.10712027,         !- Vertex 9 Ycoordinate
    6,                        !- Vertex 9 Zcoordinate
    440245.76343769906,       !- Vertex 10 Xcoordinate
    4478743.121708499,        !- Vertex 10 Ycoordinate
    6,                        !- Vertex 10 Zcoordinate
    440251.36837668717,       !- Vertex 11 Xcoordinate
    4478745.252718997,        !- Vertex 11 Ycoordinate
    6,                        !- Vertex 11 Zcoordinate
    440250.1694162693,        !- Vertex 12 Xcoordinate
    4478749.080943585,        !- Vertex 12 Ycoordinate
    6,                        !- Vertex 12 Zcoordinate
    440249.49080483476,       !- Vertex 13 Xcoordinate
    4478751.173299425,        !- Vertex 13 Ycoordinate
    6,                        !- Vertex 13 Zcoordinate
    440236.6483811927,        !- Vertex 14 Xcoordinate
    4478746.34707923,         !- Vertex 14 Ycoordinate
    6,                        !- Vertex 14 Zcoordinate
    440238.704177822,         !- Vertex 15 Xcoordinate
    4478740.447274228,        !- Vertex 15 Ycoordinate
    6,                        !- Vertex 15 Zcoordinate
    440244.55562835187,       !- Vertex 16 Xcoordinate
    4478742.654017074,        !- Vertex 16 Ycoordinate
    6,                        !- Vertex 16 Zcoordinate
    440245.2351252362,        !- Vertex 17 Xcoordinate
    4478740.672661166,        !- Vertex 17 Ycoordinate
    6,                        !- Vertex 17 Zcoordinate
    440239.3835847769,        !- Vertex 18 Xcoordinate
    4478738.454817745,        !- Vertex 18 Ycoordinate
    6,                        !- Vertex 18 Zcoordinate
    440241.19899175595,       !- Vertex 19 Xcoordinate
    4478733.245178581,        !- Vertex 19 Ycoordinate
    6,                        !- Vertex 19 Zcoordinate
    440241.4143036511,        !- Vertex 20 Xcoordinate
    4478732.599616801,        !- Vertex 20 Ycoordinate
    6,                        !- Vertex 20 Zcoordinate
    440246.5172259053,        !- Vertex 21 Xcoordinate
    4478734.512616217,        !- Vertex 21 Ycoordinate
    6,                        !- Vertex 21 Zcoordinate
    440247.20422843704,       !- Vertex 22 Xcoordinate
    4478732.409092458,        !- Vertex 22 Ycoordinate
    6,                        !- Vertex 22 Zcoordinate
    440242.1860937937,        !- Vertex 23 Xcoordinate
    4478730.495415766,        !- Vertex 23 Ycoordinate
    6,                        !- Vertex 23 Zcoordinate
    440244.6888619303,        !- Vertex 24 Xcoordinate
    4478723.226653573,        !- Vertex 24 Ycoordinate
    6,                        !- Vertex 24 Zcoordinate
    440247.3679524604,        !- Vertex 25 Xcoordinate
    4478724.237639046,        !- Vertex 25 Ycoordinate
    6;                        !- Vertex 25 Zcoordinate

BUILDINGSURFACE:DETAILED,
    Block bd58b1efd04a92f0_whole Storey 2 Floor 0001_1,    !- Name
    floor,                    !- Surface Type
    EU_floor_Construction,    !- Construction Name
    bd58b1efd04a92f0_F2_whole,    !- Zone Name
    ,                         !- Space Name
    Surface,                  !- Outside Boundary Condition
    Block bd58b1efd04a92f0_whole Storey 1 Ceiling 0001_1,    !- Outside Boundary Condition Object
    NoSun,                    !- Sun Exposure
    NoWind,                   !- Wind Exposure
    autocalculate,            !- View Factor to Ground
    autocalculate,            !- Number of Vertices
    440250.1694162693,        !- Vertex 1 Xcoordinate
    4478749.080943585,        !- Vertex 1 Ycoordinate
    6,                        !- Vertex 1 Zcoordinate
    440251.36837668717,       !- Vertex 2 Xcoordinate
    4478745.252718997,        !- Vertex 2 Ycoordinate
    6,                        !- Vertex 2 Zcoordinate
    440245.76343769906,       !- Vertex 3 Xcoordinate
    4478743.121708499,        !- Vertex 3 Ycoordinate
    6,                        !- Vertex 3 Zcoordinate
    440246.4341901927,        !- Vertex 4 Xcoordinate
    4478741.10712027,         !- Vertex 4 Ycoordinate
    6,                        !- Vertex 4 Zcoordinate
    440251.9883458414,        !- Vertex 5 Xcoordinate
    4478743.249637328,        !- Vertex 5 Ycoordinate
    6,                        !- Vertex 5 Zcoordinate
    440253.82343884464,       !- Vertex 6 Xcoordinate
    4478737.318295942,        !- Vertex 6 Ycoordinate
    6,                        !- Vertex 6 Zcoordinate
    440248.7115985998,        !- Vertex 7 Xcoordinate
    4478735.349859074,        !- Vertex 7 Ycoordinate
    6,                        !- Vertex 7 Zcoordinate
    440249.44108465966,       !- Vertex 8 Xcoordinate
    4478733.257097197,        !- Vertex 8 Ycoordinate
    6,                        !- Vertex 8 Zcoordinate
    440254.48456357745,       !- Vertex 9 Xcoordinate
    4478735.159475684,        !- Vertex 9 Ycoordinate
    6,                        !- Vertex 9 Zcoordinate
    440255.1379184937,        !- Vertex 10 Xcoordinate
    4478733.089523447,        !- Vertex 10 Ycoordinate
    6,                        !- Vertex 10 Zcoordinate
    440256.17093836004,       !- Vertex 11 Xcoordinate
    4478729.717754548,        !- Vertex 11 Ycoordinate
    6,                        !- Vertex 11 Zcoordinate
    440256.7404797701,        !- Vertex 12 Xcoordinate
    4478727.770579513,        !- Vertex 12 Ycoordinate
    6,                        !- Vertex 12 Zcoordinate
    440247.3679524604,        !- Vertex 13 Xcoordinate
    4478724.237639046,        !- Vertex 13 Ycoordinate
    6,                        !- Vertex 13 Zcoordinate
    440244.6888619303,        !- Vertex 14 Xcoordinate
    4478723.226653573,        !- Vertex 14 Ycoordinate
    6,                        !- Vertex 14 Zcoordinate
    440242.1860937937,        !- Vertex 15 Xcoordinate
    4478730.495415766,        !- Vertex 15 Ycoordinate
    6,                        !- Vertex 15 Zcoordinate
    440247.20422843704,       !- Vertex 16 Xcoordinate
    4478732.409092458,        !- Vertex 16 Ycoordinate
    6,                        !- Vertex 16 Zcoordinate
    440246.5172259053,        !- Vertex 17 Xcoordinate
    4478734.512616217,        !- Vertex 17 Ycoordinate
    6,                        !- Vertex 17 Zcoordinate
    440241.4143036511,        !- Vertex 18 Xcoordinate
    4478732.599616801,        !- Vertex 18 Ycoordinate
    6,                        !- Vertex 18 Zcoordinate
    440241.19899175595,       !- Vertex 19 Xcoordinate
    4478733.245178581,        !- Vertex 19 Ycoordinate
    6,                        !- Vertex 19 Zcoordinate
    440239.3835847769,        !- Vertex 20 Xcoordinate
    4478738.454817745,        !- Vertex 20 Ycoordinate
    6,                        !- Vertex 20 Zcoordinate
    440245.2351252362,        !- Vertex 21 Xcoordinate
    4478740.672661166,        !- Vertex 21 Ycoordinate
    6,                        !- Vertex 21 Zcoordinate
    440244.55562835187,       !- Vertex 22 Xcoordinate
    4478742.654017074,        !- Vertex 22 Ycoordinate
    6,                        !- Vertex 22 Zcoordinate
    440238.704177822,         !- Vertex 23 Xcoordinate
    4478740.447274228,        !- Vertex 23 Ycoordinate
    6,                        !- Vertex 23 Zcoordinate
    440236.6483811927,        !- Vertex 24 Xcoordinate
    4478746.34707923,         !- Vertex 24 Ycoordinate
    6,                        !- Vertex 24 Zcoordinate
    440249.49080483476,       !- Vertex 25 Xcoordinate
    4478751.173299425,        !- Vertex 25 Ycoordinate
    6;                        !- Vertex 25 Zcoordinate

BUILDINGSURFACE:DETAILED,
    Block bd58b1efd04a92f0_whole Storey 2 Ceiling 0001_1,    !- Name
    ceiling,                  !- Surface Type
    EU_floor_Construction,    !- Construction Name
    bd58b1efd04a92f0_F2_whole,    !- Zone Name
    ,                         !- Space Name
    Surface,                  !- Outside Boundary Condition
    Block bd58b1efd04a92f0_whole Storey 3 Floor 0001_1,    !- Outside Boundary Condition Object
    NoSun,                    !- Sun Exposure
    NoWind,                   !- Wind Exposure
    autocalculate,            !- View Factor to Ground
    autocalculate,            !- Number of Vertices
    440256.7404797701,        !- Vertex 1 Xcoordinate
    4478727.770579513,        !- Vertex 1 Ycoordinate
    9,                        !- Vertex 1 Zcoordinate
    440256.17093836004,       !- Vertex 2 Xcoordinate
    4478729.717754548,        !- Vertex 2 Ycoordinate
    9,                        !- Vertex 2 Zcoordinate
    440255.1379184937,        !- Vertex 3 Xcoordinate
    4478733.089523447,        !- Vertex 3 Ycoordinate
    9,                        !- Vertex 3 Zcoordinate
    440254.48456357745,       !- Vertex 4 Xcoordinate
    4478735.159475684,        !- Vertex 4 Ycoordinate
    9,                        !- Vertex 4 Zcoordinate
    440249.44108465966,       !- Vertex 5 Xcoordinate
    4478733.257097197,        !- Vertex 5 Ycoordinate
    9,                        !- Vertex 5 Zcoordinate
    440248.7115985998,        !- Vertex 6 Xcoordinate
    4478735.349859074,        !- Vertex 6 Ycoordinate
    9,                        !- Vertex 6 Zcoordinate
    440253.82343884464,       !- Vertex 7 Xcoordinate
    4478737.318295942,        !- Vertex 7 Ycoordinate
    9,                        !- Vertex 7 Zcoordinate
    440251.9883458414,        !- Vertex 8 Xcoordinate
    4478743.249637328,        !- Vertex 8 Ycoordinate
    9,                        !- Vertex 8 Zcoordinate
    440246.4341901927,        !- Vertex 9 Xcoordinate
    4478741.10712027,         !- Vertex 9 Ycoordinate
    9,                        !- Vertex 9 Zcoordinate
    440245.76343769906,       !- Vertex 10 Xcoordinate
    4478743.121708499,        !- Vertex 10 Ycoordinate
    9,                        !- Vertex 10 Zcoordinate
    440251.36837668717,       !- Vertex 11 Xcoordinate
    4478745.252718997,        !- Vertex 11 Ycoordinate
    9,                        !- Vertex 11 Zcoordinate
    440250.1694162693,        !- Vertex 12 Xcoordinate
    4478749.080943585,        !- Vertex 12 Ycoordinate
    9,                        !- Vertex 12 Zcoordinate
    440249.49080483476,       !- Vertex 13 Xcoordinate
    4478751.173299425,        !- Vertex 13 Ycoordinate
    9,                        !- Vertex 13 Zcoordinate
    440236.6483811927,        !- Vertex 14 Xcoordinate
    4478746.34707923,         !- Vertex 14 Ycoordinate
    9,                        !- Vertex 14 Zcoordinate
    440238.704177822,         !- Vertex 15 Xcoordinate
    4478740.447274228,        !- Vertex 15 Ycoordinate
    9,                        !- Vertex 15 Zcoordinate
    440244.55562835187,       !- Vertex 16 Xcoordinate
    4478742.654017074,        !- Vertex 16 Ycoordinate
    9,                        !- Vertex 16 Zcoordinate
    440245.2351252362,        !- Vertex 17 Xcoordinate
    4478740.672661166,        !- Vertex 17 Ycoordinate
    9,                        !- Vertex 17 Zcoordinate
    440239.3835847769,        !- Vertex 18 Xcoordinate
    4478738.454817745,        !- Vertex 18 Ycoordinate
    9,                        !- Vertex 18 Zcoordinate
    440241.19899175595,       !- Vertex 19 Xcoordinate
    4478733.245178581,        !- Vertex 19 Ycoordinate
    9,                        !- Vertex 19 Zcoordinate
    440241.4143036511,        !- Vertex 20 Xcoordinate
    4478732.599616801,        !- Vertex 20 Ycoordinate
    9,                        !- Vertex 20 Zcoordinate
    440246.5172259053,        !- Vertex 21 Xcoordinate
    4478734.512616217,        !- Vertex 21 Ycoordinate
    9,                        !- Vertex 21 Zcoordinate
    440247.20422843704,       !- Vertex 22 Xcoordinate
    4478732.409092458,        !- Vertex 22 Ycoordinate
    9,                        !- Vertex 22 Zcoordinate
    440242.1860937937,        !- Vertex 23 Xcoordinate
    4478730.495415766,        !- Vertex 23 Ycoordinate
    9,                        !- Vertex 23 Zcoordinate
    440244.6888619303,        !- Vertex 24 Xcoordinate
    4478723.226653573,        !- Vertex 24 Ycoordinate
    9,                        !- Vertex 24 Zcoordinate
    440247.3679524604,        !- Vertex 25 Xcoordinate
    4478724.237639046,        !- Vertex 25 Ycoordinate
    9;                        !- Vertex 25 Zcoordinate

BUILDINGSURFACE:DETAILED,
    Block bd58b1efd04a92f0_whole Storey 3 Floor 0001_1,    !- Name
    floor,                    !- Surface Type
    EU_floor_Construction,    !- Construction Name
    bd58b1efd04a92f0_F3_whole,    !- Zone Name
    ,                         !- Space Name
    Surface,                  !- Outside Boundary Condition
    Block bd58b1efd04a92f0_whole Storey 2 Ceiling 0001_1,    !- Outside Boundary Condition Object
    NoSun,                    !- Sun Exposure
    NoWind,                   !- Wind Exposure
    autocalculate,            !- View Factor to Ground
    autocalculate,            !- Number of Vertices
    440250.1694162693,        !- Vertex 1 Xcoordinate
    4478749.080943585,        !- Vertex 1 Ycoordinate
    9,                        !- Vertex 1 Zcoordinate
    440251.36837668717,       !- Vertex 2 Xcoordinate
    4478745.252718997,        !- Vertex 2 Ycoordinate
    9,                        !- Vertex 2 Zcoordinate
    440245.76343769906,       !- Vertex 3 Xcoordinate
    4478743.121708499,        !- Vertex 3 Ycoordinate
    9,                        !- Vertex 3 Zcoordinate
    440246.4341901927,        !- Vertex 4 Xcoordinate
    4478741.10712027,         !- Vertex 4 Ycoordinate
    9,                        !- Vertex 4 Zcoordinate
    440251.9883458414,        !- Vertex 5 Xcoordinate
    4478743.249637328,        !- Vertex 5 Ycoordinate
    9,                        !- Vertex 5 Zcoordinate
    440253.82343884464,       !- Vertex 6 Xcoordinate
    4478737.318295942,        !- Vertex 6 Ycoordinate
    9,                        !- Vertex 6 Zcoordinate
    440248.7115985998,        !- Vertex 7 Xcoordinate
    4478735.349859074,        !- Vertex 7 Ycoordinate
    9,                        !- Vertex 7 Zcoordinate
    440249.44108465966,       !- Vertex 8 Xcoordinate
    4478733.257097197,        !- Vertex 8 Ycoordinate
    9,                        !- Vertex 8 Zcoordinate
    440254.48456357745,       !- Vertex 9 Xcoordinate
    4478735.159475684,        !- Vertex 9 Ycoordinate
    9,                        !- Vertex 9 Zcoordinate
    440255.1379184937,        !- Vertex 10 Xcoordinate
    4478733.089523447,        !- Vertex 10 Ycoordinate
    9,                        !- Vertex 10 Zcoordinate
    440256.17093836004,       !- Vertex 11 Xcoordinate
    4478729.717754548,        !- Vertex 11 Ycoordinate
    9,                        !- Vertex 11 Zcoordinate
    440256.7404797701,        !- Vertex 12 Xcoordinate
    4478727.770579513,        !- Vertex 12 Ycoordinate
    9,                        !- Vertex 12 Zcoordinate
    440247.3679524604,        !- Vertex 13 Xcoordinate
    4478724.237639046,        !- Vertex 13 Ycoordinate
    9,                        !- Vertex 13 Zcoordinate
    440244.6888619303,        !- Vertex 14 Xcoordinate
    4478723.226653573,        !- Vertex 14 Ycoordinate
    9,                        !- Vertex 14 Zcoordinate
    440242.1860937937,        !- Vertex 15 Xcoordinate
    4478730.495415766,        !- Vertex 15 Ycoordinate
    9,                        !- Vertex 15 Zcoordinate
    440247.20422843704,       !- Vertex 16 Xcoordinate
    4478732.409092458,        !- Vertex 16 Ycoordinate
    9,                        !- Vertex 16 Zcoordinate
    440246.5172259053,        !- Vertex 17 Xcoordinate
    4478734.512616217,        !- Vertex 17 Ycoordinate
    9,                        !- Vertex 17 Zcoordinate
    440241.4143036511,        !- Vertex 18 Xcoordinate
    4478732.599616801,        !- Vertex 18 Ycoordinate
    9,                        !- Vertex 18 Zcoordinate
    440241.19899175595,       !- Vertex 19 Xcoordinate
    4478733.245178581,        !- Vertex 19 Ycoordinate
    9,                        !- Vertex 19 Zcoordinate
    440239.3835847769,        !- Vertex 20 Xcoordinate
    4478738.454817745,        !- Vertex 20 Ycoordinate
    9,                        !- Vertex 20 Zcoordinate
    440245.2351252362,        !- Vertex 21 Xcoordinate
    4478740.672661166,        !- Vertex 21 Ycoordinate
    9,                        !- Vertex 21 Zcoordinate
    440244.55562835187,       !- Vertex 22 Xcoordinate
    4478742.654017074,        !- Vertex 22 Ycoordinate
    9,                        !- Vertex 22 Zcoordinate
    440238.704177822,         !- Vertex 23 Xcoordinate
    4478740.447274228,        !- Vertex 23 Ycoordinate
    9,                        !- Vertex 23 Zcoordinate
    440236.6483811927,        !- Vertex 24 Xcoordinate
    4478746.34707923,         !- Vertex 24 Ycoordinate
    9,                        !- Vertex 24 Zcoordinate
    440249.49080483476,       !- Vertex 25 Xcoordinate
    4478751.173299425,        !- Vertex 25 Ycoordinate
    9;                        !- Vertex 25 Zcoordinate

BUILDINGSURFACE:DETAILED,
    Block bd58b1efd04a92f0_whole Storey 3 Ceiling 0001_1,    !- Name
    ceiling,                  !- Surface Type
    EU_floor_Construction,    !- Construction Name
    bd58b1efd04a92f0_F3_whole,    !- Zone Name
    ,                         !- Space Name
    Surface,                  !- Outside Boundary Condition
    Block bd58b1efd04a92f0_whole Storey 4 Floor 0001_1,    !- Outside Boundary Condition Object
    NoSun,                    !- Sun Exposure
    NoWind,                   !- Wind Exposure
    autocalculate,            !- View Factor to Ground
    autocalculate,            !- Number of Vertices
    440256.7404797701,        !- Vertex 1 Xcoordinate
    4478727.770579513,        !- Vertex 1 Ycoordinate
    12,                       !- Vertex 1 Zcoordinate
    440256.17093836004,       !- Vertex 2 Xcoordinate
    4478729.717754548,        !- Vertex 2 Ycoordinate
    12,                       !- Vertex 2 Zcoordinate
    440255.1379184937,        !- Vertex 3 Xcoordinate
    4478733.089523447,        !- Vertex 3 Ycoordinate
    12,                       !- Vertex 3 Zcoordinate
    440254.48456357745,       !- Vertex 4 Xcoordinate
    4478735.159475684,        !- Vertex 4 Ycoordinate
    12,                       !- Vertex 4 Zcoordinate
    440249.44108465966,       !- Vertex 5 Xcoordinate
    4478733.257097197,        !- Vertex 5 Ycoordinate
    12,                       !- Vertex 5 Zcoordinate
    440248.7115985998,        !- Vertex 6 Xcoordinate
    4478735.349859074,        !- Vertex 6 Ycoordinate
    12,                       !- Vertex 6 Zcoordinate
    440253.82343884464,       !- Vertex 7 Xcoordinate
    4478737.318295942,        !- Vertex 7 Ycoordinate
    12,                       !- Vertex 7 Zcoordinate
    440251.9883458414,        !- Vertex 8 Xcoordinate
    4478743.249637328,        !- Vertex 8 Ycoordinate
    12,                       !- Vertex 8 Zcoordinate
    440246.4341901927,        !- Vertex 9 Xcoordinate
    4478741.10712027,         !- Vertex 9 Ycoordinate
    12,                       !- Vertex 9 Zcoordinate
    440245.76343769906,       !- Vertex 10 Xcoordinate
    4478743.121708499,        !- Vertex 10 Ycoordinate
    12,                       !- Vertex 10 Zcoordinate
    440251.36837668717,       !- Vertex 11 Xcoordinate
    4478745.252718997,        !- Vertex 11 Ycoordinate
    12,                       !- Vertex 11 Zcoordinate
    440250.1694162693,        !- Vertex 12 Xcoordinate
    4478749.080943585,        !- Vertex 12 Ycoordinate
    12,                       !- Vertex 12 Zcoordinate
    440249.49080483476,       !- Vertex 13 Xcoordinate
    4478751.173299425,        !- Vertex 13 Ycoordinate
    12,                       !- Vertex 13 Zcoordinate
    440236.6483811927,        !- Vertex 14 Xcoordinate
    4478746.34707923,         !- Vertex 14 Ycoordinate
    12,                       !- Vertex 14 Zcoordinate
    440238.704177822,         !- Vertex 15 Xcoordinate
    4478740.447274228,        !- Vertex 15 Ycoordinate
    12,                       !- Vertex 15 Zcoordinate
    440244.55562835187,       !- Vertex 16 Xcoordinate
    4478742.654017074,        !- Vertex 16 Ycoordinate
    12,                       !- Vertex 16 Zcoordinate
    440245.2351252362,        !- Vertex 17 Xcoordinate
    4478740.672661166,        !- Vertex 17 Ycoordinate
    12,                       !- Vertex 17 Zcoordinate
    440239.3835847769,        !- Vertex 18 Xcoordinate
    4478738.454817745,        !- Vertex 18 Ycoordinate
    12,                       !- Vertex 18 Zcoordinate
    440241.19899175595,       !- Vertex 19 Xcoordinate
    4478733.245178581,        !- Vertex 19 Ycoordinate
    12,                       !- Vertex 19 Zcoordinate
    440241.4143036511,        !- Vertex 20 Xcoordinate
    4478732.599616801,        !- Vertex 20 Ycoordinate
    12,                       !- Vertex 20 Zcoordinate
    440246.5172259053,        !- Vertex 21 Xcoordinate
    4478734.512616217,        !- Vertex 21 Ycoordinate
    12,                       !- Vertex 21 Zcoordinate
    440247.20422843704,       !- Vertex 22 Xcoordinate
    4478732.409092458,        !- Vertex 22 Ycoordinate
    12,                       !- Vertex 22 Zcoordinate
    440242.1860937937,        !- Vertex 23 Xcoordinate
    4478730.495415766,        !- Vertex 23 Ycoordinate
    12,                       !- Vertex 23 Zcoordinate
    440244.6888619303,        !- Vertex 24 Xcoordinate
    4478723.226653573,        !- Vertex 24 Ycoordinate
    12,                       !- Vertex 24 Zcoordinate
    440247.3679524604,        !- Vertex 25 Xcoordinate
    4478724.237639046,        !- Vertex 25 Ycoordinate
    12;                       !- Vertex 25 Zcoordinate

BUILDINGSURFACE:DETAILED,
    Block bd58b1efd04a92f0_whole Storey 4 Floor 0001_1,    !- Name
    floor,                    !- Surface Type
    EU_floor_Construction,    !- Construction Name
    bd58b1efd04a92f0_F4_whole,    !- Zone Name
    ,                         !- Space Name
    Surface,                  !- Outside Boundary Condition
    Block bd58b1efd04a92f0_whole Storey 3 Ceiling 0001_1,    !- Outside Boundary Condition Object
    NoSun,                    !- Sun Exposure
    NoWind,                   !- Wind Exposure
    autocalculate,            !- View Factor to Ground
    autocalculate,            !- Number of Vertices
    440250.1694162693,        !- Vertex 1 Xcoordinate
    4478749.080943585,        !- Vertex 1 Ycoordinate
    12,                       !- Vertex 1 Zcoordinate
    440251.36837668717,       !- Vertex 2 Xcoordinate
    4478745.252718997,        !- Vertex 2 Ycoordinate
    12,                       !- Vertex 2 Zcoordinate
    440245.76343769906,       !- Vertex 3 Xcoordinate
    4478743.121708499,        !- Vertex 3 Ycoordinate
    12,                       !- Vertex 3 Zcoordinate
    440246.4341901927,        !- Vertex 4 Xcoordinate
    4478741.10712027,         !- Vertex 4 Ycoordinate
    12,                       !- Vertex 4 Zcoordinate
    440251.9883458414,        !- Vertex 5 Xcoordinate
    4478743.249637328,        !- Vertex 5 Ycoordinate
    12,                       !- Vertex 5 Zcoordinate
    440253.82343884464,       !- Vertex 6 Xcoordinate
    4478737.318295942,        !- Vertex 6 Ycoordinate
    12,                       !- Vertex 6 Zcoordinate
    440248.7115985998,        !- Vertex 7 Xcoordinate
    4478735.349859074,        !- Vertex 7 Ycoordinate
    12,                       !- Vertex 7 Zcoordinate
    440249.44108465966,       !- Vertex 8 Xcoordinate
    4478733.257097197,        !- Vertex 8 Ycoordinate
    12,                       !- Vertex 8 Zcoordinate
    440254.48456357745,       !- Vertex 9 Xcoordinate
    4478735.159475684,        !- Vertex 9 Ycoordinate
    12,                       !- Vertex 9 Zcoordinate
    440255.1379184937,        !- Vertex 10 Xcoordinate
    4478733.089523447,        !- Vertex 10 Ycoordinate
    12,                       !- Vertex 10 Zcoordinate
    440256.17093836004,       !- Vertex 11 Xcoordinate
    4478729.717754548,        !- Vertex 11 Ycoordinate
    12,                       !- Vertex 11 Zcoordinate
    440256.7404797701,        !- Vertex 12 Xcoordinate
    4478727.770579513,        !- Vertex 12 Ycoordinate
    12,                       !- Vertex 12 Zcoordinate
    440247.3679524604,        !- Vertex 13 Xcoordinate
    4478724.237639046,        !- Vertex 13 Ycoordinate
    12,                       !- Vertex 13 Zcoordinate
    440244.6888619303,        !- Vertex 14 Xcoordinate
    4478723.226653573,        !- Vertex 14 Ycoordinate
    12,                       !- Vertex 14 Zcoordinate
    440242.1860937937,        !- Vertex 15 Xcoordinate
    4478730.495415766,        !- Vertex 15 Ycoordinate
    12,                       !- Vertex 15 Zcoordinate
    440247.20422843704,       !- Vertex 16 Xcoordinate
    4478732.409092458,        !- Vertex 16 Ycoordinate
    12,                       !- Vertex 16 Zcoordinate
    440246.5172259053,        !- Vertex 17 Xcoordinate
    4478734.512616217,        !- Vertex 17 Ycoordinate
    12,                       !- Vertex 17 Zcoordinate
    440241.4143036511,        !- Vertex 18 Xcoordinate
    4478732.599616801,        !- Vertex 18 Ycoordinate
    12,                       !- Vertex 18 Zcoordinate
    440241.19899175595,       !- Vertex 19 Xcoordinate
    4478733.245178581,        !- Vertex 19 Ycoordinate
    12,                       !- Vertex 19 Zcoordinate
    440239.3835847769,        !- Vertex 20 Xcoordinate
    4478738.454817745,        !- Vertex 20 Ycoordinate
    12,                       !- Vertex 20 Zcoordinate
    440245.2351252362,        !- Vertex 21 Xcoordinate
    4478740.672661166,        !- Vertex 21 Ycoordinate
    12,                       !- Vertex 21 Zcoordinate
    440244.55562835187,       !- Vertex 22 Xcoordinate
    4478742.654017074,        !- Vertex 22 Ycoordinate
    12,                       !- Vertex 22 Zcoordinate
    440238.704177822,         !- Vertex 23 Xcoordinate
    4478740.447274228,        !- Vertex 23 Ycoordinate
    12,                       !- Vertex 23 Zcoordinate
    440236.6483811927,        !- Vertex 24 Xcoordinate
    4478746.34707923,         !- Vertex 24 Ycoordinate
    12,                       !- Vertex 24 Zcoordinate
    440249.49080483476,       !- Vertex 25 Xcoordinate
    4478751.173299425,        !- Vertex 25 Ycoordinate
    12;                       !- Vertex 25 Zcoordinate

INTERNALMASS,
    bd58b1efd04a92f0_F0_whole_EU_InternalMass,    !- Name
    EU_InternalMass_Construction,    !- Construction Name
    bd58b1efd04a92f0_F0_whole,    !- Zone or ZoneList Name
    ,                         !- Space or SpaceList Name
    276.22293546112394;       !- Surface Area

INTERNALMASS,
    bd58b1efd04a92f0_F1_whole_EU_InternalMass,    !- Name
    EU_InternalMass_Construction,    !- Construction Name
    bd58b1efd04a92f0_F1_whole,    !- Zone or ZoneList Name
    ,                         !- Space or SpaceList Name
    276.22293546112394;       !- Surface Area

INTERNALMASS,
    bd58b1efd04a92f0_F2_whole_EU_InternalMass,    !- Name
    EU_InternalMass_Construction,    !- Construction Name
    bd58b1efd04a92f0_F2_whole,    !- Zone or ZoneList Name
    ,                         !- Space or SpaceList Name
    276.22293546112394;       !- Surface Area

INTERNALMASS,
    bd58b1efd04a92f0_F3_whole_EU_InternalMass,    !- Name
    EU_InternalMass_Construction,    !- Construction Name
    bd58b1efd04a92f0_F3_whole,    !- Zone or ZoneList Name
    ,                         !- Space or SpaceList Name
    276.22293546112394;       !- Surface Area

INTERNALMASS,
    bd58b1efd04a92f0_F4_whole_EU_InternalMass,    !- Name
    EU_InternalMass_Construction,    !- Construction Name
    bd58b1efd04a92f0_F4_whole,    !- Zone or ZoneList Name
    ,                         !- Space or SpaceList Name
    276.22293546112394;       !- Surface Area

SHADING:SITE:DETAILED,
    shade_way/198082056_1,    !- Name
    ,                         !- Transmittance Schedule Name
    autocalculate,            !- Number of Vertices
    440238.4396083594,        !- Vertex 1 Xcoordinate
    4478697.451783163,        !- Vertex 1 Ycoordinate
    6,                        !- Vertex 1 Zcoordinate
    440238.4396083594,        !- Vertex 2 Xcoordinate
    4478697.451783163,        !- Vertex 2 Ycoordinate
    0,                        !- Vertex 2 Zcoordinate
    440216.1993005834,        !- Vertex 3 Xcoordinate
    4478689.854368486,        !- Vertex 3 Ycoordinate
    0,                        !- Vertex 3 Zcoordinate
    440216.1993005834,        !- Vertex 4 Xcoordinate
    4478689.854368486,        !- Vertex 4 Ycoordinate
    6;                        !- Vertex 4 Zcoordinate

SHADING:SITE:DETAILED,
    shade_way/198082056_2,    !- Name
    ,                         !- Transmittance Schedule Name
    autocalculate,            !- Number of Vertices
    440216.1993005834,        !- Vertex 1 Xcoordinate
    4478689.854368486,        !- Vertex 1 Ycoordinate
    6,                        !- Vertex 1 Zcoordinate
    440216.1993005834,        !- Vertex 2 Xcoordinate
    4478689.854368486,        !- Vertex 2 Ycoordinate
    0,                        !- Vertex 2 Zcoordinate
    440211.45499698323,       !- Vertex 3 Xcoordinate
    4478703.743772116,        !- Vertex 3 Ycoordinate
    0,                        !- Vertex 3 Zcoordinate
    440211.45499698323,       !- Vertex 4 Xcoordinate
    4478703.743772116,        !- Vertex 4 Ycoordinate
    6;                        !- Vertex 4 Zcoordinate

SHADING:SITE:DETAILED,
    shade_way/198082056_3,    !- Name
    ,                         !- Transmittance Schedule Name
    autocalculate,            !- Number of Vertices
    440211.45499698323,       !- Vertex 1 Xcoordinate
    4478703.743772116,        !- Vertex 1 Ycoordinate
    6,                        !- Vertex 1 Zcoordinate
    440211.45499698323,       !- Vertex 2 Xcoordinate
    4478703.743772116,        !- Vertex 2 Ycoordinate
    0,                        !- Vertex 2 Zcoordinate
    440233.69500178745,       !- Vertex 3 Xcoordinate
    4478711.340917137,        !- Vertex 3 Ycoordinate
    0,                        !- Vertex 3 Zcoordinate
    440233.69500178745,       !- Vertex 4 Xcoordinate
    4478711.340917137,        !- Vertex 4 Ycoordinate
    6;                        !- Vertex 4 Zcoordinate

SHADING:SITE:DETAILED,
    shade_way/198082056_4,    !- Name
    ,                         !- Transmittance Schedule Name
    autocalculate,            !- Number of Vertices
    440233.69500178745,       !- Vertex 1 Xcoordinate
    4478711.340917137,        !- Vertex 1 Ycoordinate
    6,                        !- Vertex 1 Zcoordinate
    440233.69500178745,       !- Vertex 2 Xcoordinate
    4478711.340917137,        !- Vertex 2 Ycoordinate
    0,                        !- Vertex 2 Zcoordinate
    440238.4396083594,        !- Vertex 3 Xcoordinate
    4478697.451783163,        !- Vertex 3 Ycoordinate
    0,                        !- Vertex 3 Zcoordinate
    440238.4396083594,        !- Vertex 4 Xcoordinate
    4478697.451783163,        !- Vertex 4 Ycoordinate
    6;                        !- Vertex 4 Zcoordinate

SHADING:SITE:DETAILED,
    shade_way/380242669_1,    !- Name
    ,                         !- Transmittance Schedule Name
    autocalculate,            !- Number of Vertices
    440233.5195905555,        !- Vertex 1 Xcoordinate
    4478719.039624196,        !- Vertex 1 Ycoordinate
    21,                       !- Vertex 1 Zcoordinate
    440233.5195905555,        !- Vertex 2 Xcoordinate
    4478719.039624196,        !- Vertex 2 Ycoordinate
    0,                        !- Vertex 2 Zcoordinate
    440208.7532172842,        !- Vertex 3 Xcoordinate
    4478709.28970023,         !- Vertex 3 Ycoordinate
    0,                        !- Vertex 3 Zcoordinate
    440208.7532172842,        !- Vertex 4 Xcoordinate
    4478709.28970023,         !- Vertex 4 Ycoordinate
    21;                       !- Vertex 4 Zcoordinate

SHADING:SITE:DETAILED,
    shade_way/380242669_2,    !- Name
    ,                         !- Transmittance Schedule Name
    autocalculate,            !- Number of Vertices
    440208.7532172842,        !- Vertex 1 Xcoordinate
    4478709.28970023,         !- Vertex 1 Ycoordinate
    21,                       !- Vertex 1 Zcoordinate
    440208.7532172842,        !- Vertex 2 Xcoordinate
    4478709.28970023,         !- Vertex 2 Ycoordinate
    0,                        !- Vertex 2 Zcoordinate
    440199.256663344,         !- Vertex 3 Xcoordinate
    4478733.412472958,        !- Vertex 3 Ycoordinate
    0,                        !- Vertex 3 Zcoordinate
    440199.256663344,         !- Vertex 4 Xcoordinate
    4478733.412472958,        !- Vertex 4 Ycoordinate
    21;                       !- Vertex 4 Zcoordinate

SHADING:SITE:DETAILED,
    shade_way/380242669_3,    !- Name
    ,                         !- Transmittance Schedule Name
    autocalculate,            !- Number of Vertices
    440199.256663344,         !- Vertex 1 Xcoordinate
    4478733.412472958,        !- Vertex 1 Ycoordinate
    21,                       !- Vertex 1 Zcoordinate
    440199.256663344,         !- Vertex 2 Xcoordinate
    4478733.412472958,        !- Vertex 2 Ycoordinate
    0,                        !- Vertex 2 Zcoordinate
    440224.0225508223,        !- Vertex 3 Xcoordinate
    4478743.162061416,        !- Vertex 3 Ycoordinate
    0,                        !- Vertex 3 Zcoordinate
    440224.0225508223,        !- Vertex 4 Xcoordinate
    4478743.162061416,        !- Vertex 4 Ycoordinate
    21;                       !- Vertex 4 Zcoordinate

SHADING:SITE:DETAILED,
    shade_way/380242669_4,    !- Name
    ,                         !- Transmittance Schedule Name
    autocalculate,            !- Number of Vertices
    440224.0225508223,        !- Vertex 1 Xcoordinate
    4478743.162061416,        !- Vertex 1 Ycoordinate
    21,                       !- Vertex 1 Zcoordinate
    440224.0225508223,        !- Vertex 2 Xcoordinate
    4478743.162061416,        !- Vertex 2 Ycoordinate
    0,                        !- Vertex 2 Zcoordinate
    440233.5195905555,        !- Vertex 3 Xcoordinate
    4478719.039624196,        !- Vertex 3 Ycoordinate
    0,                        !- Vertex 3 Zcoordinate
    440233.5195905555,        !- Vertex 4 Xcoordinate
    4478719.039624196,        !- Vertex 4 Ycoordinate
    21;                       !- Vertex 4 Zcoordinate

SHADING:SITE:DETAILED,
    shade_way/380242656_1,    !- Name
    ,                         !- Transmittance Schedule Name
    autocalculate,            !- Number of Vertices
    440186.4436571749,        !- Vertex 1 Xcoordinate
    4478745.677758443,        !- Vertex 1 Ycoordinate
    18,                       !- Vertex 1 Zcoordinate
    440186.4436571749,        !- Vertex 2 Xcoordinate
    4478745.677758443,        !- Vertex 2 Ycoordinate
    0,                        !- Vertex 2 Zcoordinate
    440232.010379679,         !- Vertex 3 Xcoordinate
    4478780.363482391,        !- Vertex 3 Ycoordinate
    0,                        !- Vertex 3 Zcoordinate
    440232.010379679,         !- Vertex 4 Xcoordinate
    4478780.363482391,        !- Vertex 4 Ycoordinate
    18;                       !- Vertex 4 Zcoordinate

SHADING:SITE:DETAILED,
    shade_way/380242656_2,    !- Name
    ,                         !- Transmittance Schedule Name
    autocalculate,            !- Number of Vertices
    440232.010379679,         !- Vertex 1 Xcoordinate
    4478780.363482391,        !- Vertex 1 Ycoordinate
    18,                       !- Vertex 1 Zcoordinate
    440232.010379679,         !- Vertex 2 Xcoordinate
    4478780.363482391,        !- Vertex 2 Ycoordinate
    0,                        !- Vertex 2 Zcoordinate
    440248.28538433946,       !- Vertex 3 Xcoordinate
    4478758.983823983,        !- Vertex 3 Ycoordinate
    0,                        !- Vertex 3 Zcoordinate
    440248.28538433946,       !- Vertex 4 Xcoordinate
    4478758.983823983,        !- Vertex 4 Ycoordinate
    18;                       !- Vertex 4 Zcoordinate

SHADING:SITE:DETAILED,
    shade_way/380242656_3,    !- Name
    ,                         !- Transmittance Schedule Name
    autocalculate,            !- Number of Vertices
    440248.28538433946,       !- Vertex 1 Xcoordinate
    4478758.983823983,        !- Vertex 1 Ycoordinate
    18,                       !- Vertex 1 Zcoordinate
    440248.28538433946,       !- Vertex 2 Xcoordinate
    4478758.983823983,        !- Vertex 2 Ycoordinate
    0,                        !- Vertex 2 Zcoordinate
    440202.7181969737,        !- Vertex 3 Xcoordinate
    4478724.297813323,        !- Vertex 3 Ycoordinate
    0,                        !- Vertex 3 Zcoordinate
    440202.7181969737,        !- Vertex 4 Xcoordinate
    4478724.297813323,        !- Vertex 4 Ycoordinate
    18;                       !- Vertex 4 Zcoordinate

SHADING:SITE:DETAILED,
    shade_way/380242656_4,    !- Name
    ,                         !- Transmittance Schedule Name
    autocalculate,            !- Number of Vertices
    440202.7181969737,        !- Vertex 1 Xcoordinate
    4478724.297813323,        !- Vertex 1 Ycoordinate
    18,                       !- Vertex 1 Zcoordinate
    440202.7181969737,        !- Vertex 2 Xcoordinate
    4478724.297813323,        !- Vertex 2 Ycoordinate
    0,                        !- Vertex 2 Zcoordinate
    440186.4436571749,        !- Vertex 3 Xcoordinate
    4478745.677758443,        !- Vertex 3 Ycoordinate
    0,                        !- Vertex 3 Zcoordinate
    440186.4436571749,        !- Vertex 4 Xcoordinate
    4478745.677758443,        !- Vertex 4 Ycoordinate
    18;                       !- Vertex 4 Zcoordinate

SHADING:SITE:DETAILED,
    shade_way/311595045_1,    !- Name
    ,                         !- Transmittance Schedule Name
    autocalculate,            !- Number of Vertices
    440246.98249762075,       !- Vertex 1 Xcoordinate
    4478716.314785345,        !- Vertex 1 Ycoordinate
    12,                       !- Vertex 1 Zcoordinate
    440246.98249762075,       !- Vertex 2 Xcoordinate
    4478716.314785345,        !- Vertex 2 Ycoordinate
    0,                        !- Vertex 2 Zcoordinate
    440256.3924051928,        !- Vertex 3 Xcoordinate
    4478720.280356123,        !- Vertex 3 Ycoordinate
    0,                        !- Vertex 3 Zcoordinate
    440256.3924051928,        !- Vertex 4 Xcoordinate
    4478720.280356123,        !- Vertex 4 Ycoordinate
    12;                       !- Vertex 4 Zcoordinate

SHADING:SITE:DETAILED,
    shade_way/311595045_2,    !- Name
    ,                         !- Transmittance Schedule Name
    autocalculate,            !- Number of Vertices
    440256.3924051928,        !- Vertex 1 Xcoordinate
    4478720.280356123,        !- Vertex 1 Ycoordinate
    12,                       !- Vertex 1 Zcoordinate
    440256.3924051928,        !- Vertex 2 Xcoordinate
    4478720.280356123,        !- Vertex 2 Ycoordinate
    0,                        !- Vertex 2 Zcoordinate
    440266.8874282283,        !- Vertex 3 Xcoordinate
    4478695.3752142005,       !- Vertex 3 Ycoordinate
    0,                        !- Vertex 3 Zcoordinate
    440266.8874282283,        !- Vertex 4 Xcoordinate
    4478695.3752142005,       !- Vertex 4 Ycoordinate
    12;                       !- Vertex 4 Zcoordinate

SHADING:SITE:DETAILED,
    shade_way/311595045_3,    !- Name
    ,                         !- Transmittance Schedule Name
    autocalculate,            !- Number of Vertices
    440266.8874282283,        !- Vertex 1 Xcoordinate
    4478695.3752142005,       !- Vertex 1 Ycoordinate
    12,                       !- Vertex 1 Zcoordinate
    440266.8874282283,        !- Vertex 2 Xcoordinate
    4478695.3752142005,       !- Vertex 2 Ycoordinate
    0,                        !- Vertex 2 Zcoordinate
    440257.47752065735,       !- Vertex 3 Xcoordinate
    4478691.409643422,        !- Vertex 3 Ycoordinate
    0,                        !- Vertex 3 Zcoordinate
    440257.47752065735,       !- Vertex 4 Xcoordinate
    4478691.409643422,        !- Vertex 4 Ycoordinate
    12;                       !- Vertex 4 Zcoordinate

SHADING:SITE:DETAILED,
    shade_way/311595045_4,    !- Name
    ,                         !- Transmittance Schedule Name
    autocalculate,            !- Number of Vertices
    440257.47752065735,       !- Vertex 1 Xcoordinate
    4478691.409643422,        !- Vertex 1 Ycoordinate
    12,                       !- Vertex 1 Zcoordinate
    440257.47752065735,       !- Vertex 2 Xcoordinate
    4478691.409643422,        !- Vertex 2 Ycoordinate
    0,                        !- Vertex 2 Zcoordinate
    440246.98249762075,       !- Vertex 3 Xcoordinate
    4478716.314785345,        !- Vertex 3 Ycoordinate
    0,                        !- Vertex 3 Zcoordinate
    440246.98249762075,       !- Vertex 4 Xcoordinate
    4478716.314785345,        !- Vertex 4 Ycoordinate
    12;                       !- Vertex 4 Zcoordinate

SHADING:SITE:DETAILED,
    shade_way/311595048_1,    !- Name
    ,                         !- Transmittance Schedule Name
    autocalculate,            !- Number of Vertices
    440256.3924051928,        !- Vertex 1 Xcoordinate
    4478720.280356123,        !- Vertex 1 Ycoordinate
    21,                       !- Vertex 1 Zcoordinate
    440256.3924051928,        !- Vertex 2 Xcoordinate
    4478720.280356123,        !- Vertex 2 Ycoordinate
    0,                        !- Vertex 2 Zcoordinate
    440273.54162714863,       !- Vertex 3 Xcoordinate
    4478726.071316523,        !- Vertex 3 Ycoordinate
    0,                        !- Vertex 3 Zcoordinate
    440273.54162714863,       !- Vertex 4 Xcoordinate
    4478726.071316523,        !- Vertex 4 Ycoordinate
    21;                       !- Vertex 4 Zcoordinate

SHADING:SITE:DETAILED,
    shade_way/311595048_2,    !- Name
    ,                         !- Transmittance Schedule Name
    autocalculate,            !- Number of Vertices
    440273.54162714863,       !- Vertex 1 Xcoordinate
    4478726.071316523,        !- Vertex 1 Ycoordinate
    21,                       !- Vertex 1 Zcoordinate
    440273.54162714863,       !- Vertex 2 Xcoordinate
    4478726.071316523,        !- Vertex 2 Ycoordinate
    0,                        !- Vertex 2 Zcoordinate
    440282.1681535065,        !- Vertex 3 Xcoordinate
    4478700.52438933,         !- Vertex 3 Ycoordinate
    0,                        !- Vertex 3 Zcoordinate
    440282.1681535065,        !- Vertex 4 Xcoordinate
    4478700.52438933,         !- Vertex 4 Ycoordinate
    21;                       !- Vertex 4 Zcoordinate

SHADING:SITE:DETAILED,
    shade_way/311595048_3,    !- Name
    ,                         !- Transmittance Schedule Name
    autocalculate,            !- Number of Vertices
    440282.1681535065,        !- Vertex 1 Xcoordinate
    4478700.52438933,         !- Vertex 1 Ycoordinate
    21,                       !- Vertex 1 Zcoordinate
    440282.1681535065,        !- Vertex 2 Xcoordinate
    4478700.52438933,         !- Vertex 2 Ycoordinate
    0,                        !- Vertex 2 Zcoordinate
    440265.01893155096,       !- Vertex 3 Xcoordinate
    4478694.733428931,        !- Vertex 3 Ycoordinate
    0,                        !- Vertex 3 Zcoordinate
    440265.01893155096,       !- Vertex 4 Xcoordinate
    4478694.733428931,        !- Vertex 4 Ycoordinate
    21;                       !- Vertex 4 Zcoordinate

SHADING:SITE:DETAILED,
    shade_way/311595048_4,    !- Name
    ,                         !- Transmittance Schedule Name
    autocalculate,            !- Number of Vertices
    440265.01893155096,       !- Vertex 1 Xcoordinate
    4478694.733428931,        !- Vertex 1 Ycoordinate
    21,                       !- Vertex 1 Zcoordinate
    440265.01893155096,       !- Vertex 2 Xcoordinate
    4478694.733428931,        !- Vertex 2 Ycoordinate
    0,                        !- Vertex 2 Zcoordinate
    440256.3924051928,        !- Vertex 3 Xcoordinate
    4478720.280356123,        !- Vertex 3 Ycoordinate
    0,                        !- Vertex 3 Zcoordinate
    440256.3924051928,        !- Vertex 4 Xcoordinate
    4478720.280356123,        !- Vertex 4 Ycoordinate
    21;                       !- Vertex 4 Zcoordinate

SHADING:SITE:DETAILED,
    shade_way/380242658_1,    !- Name
    ,                         !- Transmittance Schedule Name
    autocalculate,            !- Number of Vertices
    440240.7958067952,        !- Vertex 1 Xcoordinate
    4478734.369415781,        !- Vertex 1 Ycoordinate
    9,                        !- Vertex 1 Zcoordinate
    440240.7958067952,        !- Vertex 2 Xcoordinate
    4478734.369415781,        !- Vertex 2 Ycoordinate
    0,                        !- Vertex 2 Zcoordinate
    440244.8504349602,        !- Vertex 3 Xcoordinate
    4478723.074468215,        !- Vertex 3 Ycoordinate
    0,                        !- Vertex 3 Zcoordinate
    440244.8504349602,        !- Vertex 4 Xcoordinate
    4478723.074468215,        !- Vertex 4 Ycoordinate
    9;                        !- Vertex 4 Zcoordinate

SHADING:SITE:DETAILED,
    shade_way/380242658_2,    !- Name
    ,                         !- Transmittance Schedule Name
    autocalculate,            !- Number of Vertices
    440244.8504349602,        !- Vertex 1 Xcoordinate
    4478723.074468215,        !- Vertex 1 Ycoordinate
    9,                        !- Vertex 1 Zcoordinate
    440244.8504349602,        !- Vertex 2 Xcoordinate
    4478723.074468215,        !- Vertex 2 Ycoordinate
    0,                        !- Vertex 2 Zcoordinate
    440232.586267165,         !- Vertex 3 Xcoordinate
    4478718.672053016,        !- Vertex 3 Ycoordinate
    0,                        !- Vertex 3 Zcoordinate
    440232.586267165,         !- Vertex 4 Xcoordinate
    4478718.672053016,        !- Vertex 4 Ycoordinate
    9;                        !- Vertex 4 Zcoordinate

SHADING:SITE:DETAILED,
    shade_way/380242658_3,    !- Name
    ,                         !- Transmittance Schedule Name
    autocalculate,            !- Number of Vertices
    440232.586267165,         !- Vertex 1 Xcoordinate
    4478718.672053016,        !- Vertex 1 Ycoordinate
    9,                        !- Vertex 1 Zcoordinate
    440232.586267165,         !- Vertex 2 Xcoordinate
    4478718.672053016,        !- Vertex 2 Ycoordinate
    0,                        !- Vertex 2 Zcoordinate
    440228.53202973463,       !- Vertex 3 Xcoordinate
    4478729.966999962,        !- Vertex 3 Ycoordinate
    0,                        !- Vertex 3 Zcoordinate
    440228.53202973463,       !- Vertex 4 Xcoordinate
    4478729.966999962,        !- Vertex 4 Ycoordinate
    9;                        !- Vertex 4 Zcoordinate

SHADING:SITE:DETAILED,
    shade_way/380242658_4,    !- Name
    ,                         !- Transmittance Schedule Name
    autocalculate,            !- Number of Vertices
    440228.53202973463,       !- Vertex 1 Xcoordinate
    4478729.966999962,        !- Vertex 1 Ycoordinate
    9,                        !- Vertex 1 Zcoordinate
    440228.53202973463,       !- Vertex 2 Xcoordinate
    4478729.966999962,        !- Vertex 2 Ycoordinate
    0,                        !- Vertex 2 Zcoordinate
    440240.7958067952,        !- Vertex 3 Xcoordinate
    4478734.369415781,        !- Vertex 3 Ycoordinate
    0,                        !- Vertex 3 Zcoordinate
    440240.7958067952,        !- Vertex 4 Xcoordinate
    4478734.369415781,        !- Vertex 4 Ycoordinate
    9;                        !- Vertex 4 Zcoordinate

SHADING:SITE:DETAILED,
    shade_relation/4179135_1,    !- Name
    ,                         !- Transmittance Schedule Name
    autocalculate,            !- Number of Vertices
    440286.2893974783,        !- Vertex 1 Xcoordinate
    4478739.696859064,        !- Vertex 1 Ycoordinate
    6,                        !- Vertex 1 Zcoordinate
    440286.2893974783,        !- Vertex 2 Xcoordinate
    4478739.696859064,        !- Vertex 2 Ycoordinate
    0,                        !- Vertex 2 Zcoordinate
    440256.25695051975,       !- Vertex 3 Xcoordinate
    4478729.721247617,        !- Vertex 3 Ycoordinate
    0,                        !- Vertex 3 Zcoordinate
    440256.25695051975,       !- Vertex 4 Xcoordinate
    4478729.721247617,        !- Vertex 4 Ycoordinate
    6;                        !- Vertex 4 Zcoordinate

SHADING:SITE:DETAILED,
    shade_relation/4179135_2,    !- Name
    ,                         !- Transmittance Schedule Name
    autocalculate,            !- Number of Vertices
    440256.25695051975,       !- Vertex 1 Xcoordinate
    4478729.721247617,        !- Vertex 1 Ycoordinate
    6,                        !- Vertex 1 Zcoordinate
    440256.25695051975,       !- Vertex 2 Xcoordinate
    4478729.721247617,        !- Vertex 2 Ycoordinate
    0,                        !- Vertex 2 Zcoordinate
    440248.71725938655,       !- Vertex 3 Xcoordinate
    4478752.420144333,        !- Vertex 3 Ycoordinate
    0,                        !- Vertex 3 Zcoordinate
    440248.71725938655,       !- Vertex 4 Xcoordinate
    4478752.420144333,        !- Vertex 4 Ycoordinate
    6;                        !- Vertex 4 Zcoordinate

SHADING:SITE:DETAILED,
    shade_relation/4179135_3,    !- Name
    ,                         !- Transmittance Schedule Name
    autocalculate,            !- Number of Vertices
    440248.71725938655,       !- Vertex 1 Xcoordinate
    4478752.420144333,        !- Vertex 1 Ycoordinate
    6,                        !- Vertex 1 Zcoordinate
    440248.71725938655,       !- Vertex 2 Xcoordinate
    4478752.420144333,        !- Vertex 2 Ycoordinate
    0,                        !- Vertex 2 Zcoordinate
    440278.7494694617,        !- Vertex 3 Xcoordinate
    4478762.395801403,        !- Vertex 3 Ycoordinate
    0,                        !- Vertex 3 Zcoordinate
    440278.7494694617,        !- Vertex 4 Xcoordinate
    4478762.395801403,        !- Vertex 4 Ycoordinate
    6;                        !- Vertex 4 Zcoordinate

SHADING:SITE:DETAILED,
    shade_relation/4179135_4,    !- Name
    ,                         !- Transmittance Schedule Name
    autocalculate,            !- Number of Vertices
    440278.7494694617,        !- Vertex 1 Xcoordinate
    4478762.395801403,        !- Vertex 1 Ycoordinate
    6,                        !- Vertex 1 Zcoordinate
    440278.7494694617,        !- Vertex 2 Xcoordinate
    4478762.395801403,        !- Vertex 2 Ycoordinate
    0,                        !- Vertex 2 Zcoordinate
    440286.2893974783,        !- Vertex 3 Xcoordinate
    4478739.696859064,        !- Vertex 3 Ycoordinate
    0,                        !- Vertex 3 Zcoordinate
    440286.2893974783,        !- Vertex 4 Xcoordinate
    4478739.696859064,        !- Vertex 4 Ycoordinate
    6;                        !- Vertex 4 Zcoordinate

SHADING:SITE:DETAILED,
    shade_way/311968163_1,    !- Name
    ,                         !- Transmittance Schedule Name
    autocalculate,            !- Number of Vertices
    440273.19226810563,       !- Vertex 1 Xcoordinate
    4478777.936772293,        !- Vertex 1 Ycoordinate
    15,                       !- Vertex 1 Zcoordinate
    440273.19226810563,       !- Vertex 2 Xcoordinate
    4478777.936772293,        !- Vertex 2 Ycoordinate
    0,                        !- Vertex 2 Zcoordinate
    440275.18964587647,       !- Vertex 3 Xcoordinate
    4478758.564899417,        !- Vertex 3 Ycoordinate
    0,                        !- Vertex 3 Zcoordinate
    440275.18964587647,       !- Vertex 4 Xcoordinate
    4478758.564899417,        !- Vertex 4 Ycoordinate
    15;                       !- Vertex 4 Zcoordinate

SHADING:SITE:DETAILED,
    shade_way/311968163_2,    !- Name
    ,                         !- Transmittance Schedule Name
    autocalculate,            !- Number of Vertices
    440275.18964587647,       !- Vertex 1 Xcoordinate
    4478758.564899417,        !- Vertex 1 Ycoordinate
    15,                       !- Vertex 1 Zcoordinate
    440275.18964587647,       !- Vertex 2 Xcoordinate
    4478758.564899417,        !- Vertex 2 Ycoordinate
    0,                        !- Vertex 2 Zcoordinate
    440264.0995390129,        !- Vertex 3 Xcoordinate
    4478757.421569645,        !- Vertex 3 Ycoordinate
    0,                        !- Vertex 3 Zcoordinate
    440264.0995390129,        !- Vertex 4 Xcoordinate
    4478757.421569645,        !- Vertex 4 Ycoordinate
    15;                       !- Vertex 4 Zcoordinate

SHADING:SITE:DETAILED,
    shade_way/311968163_3,    !- Name
    ,                         !- Transmittance Schedule Name
    autocalculate,            !- Number of Vertices
    440264.0995390129,        !- Vertex 1 Xcoordinate
    4478757.421569645,        !- Vertex 1 Ycoordinate
    15,                       !- Vertex 1 Zcoordinate
    440264.0995390129,        !- Vertex 2 Xcoordinate
    4478757.421569645,        !- Vertex 2 Ycoordinate
    0,                        !- Vertex 2 Zcoordinate
    440262.1024144898,        !- Vertex 3 Xcoordinate
    4478776.793342244,        !- Vertex 3 Ycoordinate
    0,                        !- Vertex 3 Zcoordinate
    440262.1024144898,        !- Vertex 4 Xcoordinate
    4478776.793342244,        !- Vertex 4 Ycoordinate
    15;                       !- Vertex 4 Zcoordinate

SHADING:SITE:DETAILED,
    shade_way/311968163_4,    !- Name
    ,                         !- Transmittance Schedule Name
    autocalculate,            !- Number of Vertices
    440262.1024144898,        !- Vertex 1 Xcoordinate
    4478776.793342244,        !- Vertex 1 Ycoordinate
    15,                       !- Vertex 1 Zcoordinate
    440262.1024144898,        !- Vertex 2 Xcoordinate
    4478776.793342244,        !- Vertex 2 Ycoordinate
    0,                        !- Vertex 2 Zcoordinate
    440273.19226810563,       !- Vertex 3 Xcoordinate
    4478777.936772293,        !- Vertex 3 Ycoordinate
    0,                        !- Vertex 3 Zcoordinate
    440273.19226810563,       !- Vertex 4 Xcoordinate
    4478777.936772293,        !- Vertex 4 Ycoordinate
    15;                       !- Vertex 4 Zcoordinate

SHADING:SITE:DETAILED,
    shade_way/380242671_1,    !- Name
    ,                         !- Transmittance Schedule Name
    autocalculate,            !- Number of Vertices
    440270.97616447264,       !- Vertex 1 Xcoordinate
    4478789.523308305,        !- Vertex 1 Ycoordinate
    12,                       !- Vertex 1 Zcoordinate
    440270.97616447264,       !- Vertex 2 Xcoordinate
    4478789.523308305,        !- Vertex 2 Ycoordinate
    0,                        !- Vertex 2 Zcoordinate
    440274.0418337274,        !- Vertex 3 Xcoordinate
    4478778.140908473,        !- Vertex 3 Ycoordinate
    0,                        !- Vertex 3 Zcoordinate
    440274.0418337274,        !- Vertex 4 Xcoordinate
    4478778.140908473,        !- Vertex 4 Ycoordinate
    12;                       !- Vertex 4 Zcoordinate

SHADING:SITE:DETAILED,
    shade_way/380242671_2,    !- Name
    ,                         !- Transmittance Schedule Name
    autocalculate,            !- Number of Vertices
    440274.0418337274,        !- Vertex 1 Xcoordinate
    4478778.140908473,        !- Vertex 1 Ycoordinate
    12,                       !- Vertex 1 Zcoordinate
    440274.0418337274,        !- Vertex 2 Xcoordinate
    4478778.140908473,        !- Vertex 2 Ycoordinate
    0,                        !- Vertex 2 Zcoordinate
    440237.66315940715,       !- Vertex 3 Xcoordinate
    4478768.343713092,        !- Vertex 3 Ycoordinate
    0,                        !- Vertex 3 Zcoordinate
    440237.66315940715,       !- Vertex 4 Xcoordinate
    4478768.343713092,        !- Vertex 4 Ycoordinate
    12;                       !- Vertex 4 Zcoordinate

SHADING:SITE:DETAILED,
    shade_way/380242671_3,    !- Name
    ,                         !- Transmittance Schedule Name
    autocalculate,            !- Number of Vertices
    440237.66315940715,       !- Vertex 1 Xcoordinate
    4478768.343713092,        !- Vertex 1 Ycoordinate
    12,                       !- Vertex 1 Zcoordinate
    440237.66315940715,       !- Vertex 2 Xcoordinate
    4478768.343713092,        !- Vertex 2 Ycoordinate
    0,                        !- Vertex 2 Zcoordinate
    440234.5977257348,        !- Vertex 3 Xcoordinate
    4478779.726052306,        !- Vertex 3 Ycoordinate
    0,                        !- Vertex 3 Zcoordinate
    440234.5977257348,        !- Vertex 4 Xcoordinate
    4478779.726052306,        !- Vertex 4 Ycoordinate
    12;                       !- Vertex 4 Zcoordinate

SHADING:SITE:DETAILED,
    shade_way/380242671_4,    !- Name
    ,                         !- Transmittance Schedule Name
    autocalculate,            !- Number of Vertices
    440234.5977257348,        !- Vertex 1 Xcoordinate
    4478779.726052306,        !- Vertex 1 Ycoordinate
    12,                       !- Vertex 1 Zcoordinate
    440234.5977257348,        !- Vertex 2 Xcoordinate
    4478779.726052306,        !- Vertex 2 Ycoordinate
    0,                        !- Vertex 2 Zcoordinate
    440270.97616447264,       !- Vertex 3 Xcoordinate
    4478789.523308305,        !- Vertex 3 Ycoordinate
    0,                        !- Vertex 3 Zcoordinate
    440270.97616447264,       !- Vertex 4 Xcoordinate
    4478789.523308305,        !- Vertex 4 Ycoordinate
    12;                       !- Vertex 4 Zcoordinate

SHADING:SITE:DETAILED,
    shade_relation/4172892_1,    !- Name
    ,                         !- Transmittance Schedule Name
    autocalculate,            !- Number of Vertices
    440246.24067575624,       !- Vertex 1 Xcoordinate
    4478717.955289867,        !- Vertex 1 Ycoordinate
    15,                       !- Vertex 1 Zcoordinate
    440246.24067575624,       !- Vertex 2 Xcoordinate
    4478717.955289867,        !- Vertex 2 Ycoordinate
    0,                        !- Vertex 2 Zcoordinate
    440258.561832937,         !- Vertex 3 Xcoordinate
    4478692.488987269,        !- Vertex 3 Ycoordinate
    0,                        !- Vertex 3 Zcoordinate
    440258.561832937,         !- Vertex 4 Xcoordinate
    4478692.488987269,        !- Vertex 4 Ycoordinate
    15;                       !- Vertex 4 Zcoordinate

SHADING:SITE:DETAILED,
    shade_relation/4172892_2,    !- Name
    ,                         !- Transmittance Schedule Name
    autocalculate,            !- Number of Vertices
    440258.561832937,         !- Vertex 1 Xcoordinate
    4478692.488987269,        !- Vertex 1 Ycoordinate
    15,                       !- Vertex 1 Zcoordinate
    440258.561832937,         !- Vertex 2 Xcoordinate
    4478692.488987269,        !- Vertex 2 Ycoordinate
    0,                        !- Vertex 2 Zcoordinate
    440242.74737772066,       !- Vertex 3 Xcoordinate
    4478684.83708775,         !- Vertex 3 Ycoordinate
    0,                        !- Vertex 3 Zcoordinate
    440242.74737772066,       !- Vertex 4 Xcoordinate
    4478684.83708775,         !- Vertex 4 Ycoordinate
    15;                       !- Vertex 4 Zcoordinate

SHADING:SITE:DETAILED,
    shade_relation/4172892_3,    !- Name
    ,                         !- Transmittance Schedule Name
    autocalculate,            !- Number of Vertices
    440242.74737772066,       !- Vertex 1 Xcoordinate
    4478684.83708775,         !- Vertex 1 Ycoordinate
    15,                       !- Vertex 1 Zcoordinate
    440242.74737772066,       !- Vertex 2 Xcoordinate
    4478684.83708775,         !- Vertex 2 Ycoordinate
    0,                        !- Vertex 2 Zcoordinate
    440230.42544731207,       !- Vertex 3 Xcoordinate
    4478710.302910057,        !- Vertex 3 Ycoordinate
    0,                        !- Vertex 3 Zcoordinate
    440230.42544731207,       !- Vertex 4 Xcoordinate
    4478710.302910057,        !- Vertex 4 Ycoordinate
    15;                       !- Vertex 4 Zcoordinate

SHADING:SITE:DETAILED,
    shade_relation/4172892_4,    !- Name
    ,                         !- Transmittance Schedule Name
    autocalculate,            !- Number of Vertices
    440230.42544731207,       !- Vertex 1 Xcoordinate
    4478710.302910057,        !- Vertex 1 Ycoordinate
    15,                       !- Vertex 1 Zcoordinate
    440230.42544731207,       !- Vertex 2 Xcoordinate
    4478710.302910057,        !- Vertex 2 Ycoordinate
    0,                        !- Vertex 2 Zcoordinate
    440246.24067575624,       !- Vertex 3 Xcoordinate
    4478717.955289867,        !- Vertex 3 Ycoordinate
    0,                        !- Vertex 3 Zcoordinate
    440246.24067575624,       !- Vertex 4 Xcoordinate
    4478717.955289867,        !- Vertex 4 Ycoordinate
    15;                       !- Vertex 4 Zcoordinate

SHADING:SITE:DETAILED,
    shade_relation/4172891_1,    !- Name
    ,                         !- Transmittance Schedule Name
    autocalculate,            !- Number of Vertices
    440288.6976649599,        !- Vertex 1 Xcoordinate
    4478732.153575137,        !- Vertex 1 Ycoordinate
    9,                        !- Vertex 1 Zcoordinate
    440288.6976649599,        !- Vertex 2 Xcoordinate
    4478732.153575137,        !- Vertex 2 Ycoordinate
    0,                        !- Vertex 2 Zcoordinate
    440297.3481546629,        !- Vertex 3 Xcoordinate
    4478705.858948001,        !- Vertex 3 Ycoordinate
    0,                        !- Vertex 3 Zcoordinate
    440297.3481546629,        !- Vertex 4 Xcoordinate
    4478705.858948001,        !- Vertex 4 Ycoordinate
    9;                        !- Vertex 4 Zcoordinate

SHADING:SITE:DETAILED,
    shade_relation/4172891_2,    !- Name
    ,                         !- Transmittance Schedule Name
    autocalculate,            !- Number of Vertices
    440297.3481546629,        !- Vertex 1 Xcoordinate
    4478705.858948001,        !- Vertex 1 Ycoordinate
    9,                        !- Vertex 1 Zcoordinate
    440297.3481546629,        !- Vertex 2 Xcoordinate
    4478705.858948001,        !- Vertex 2 Ycoordinate
    0,                        !- Vertex 2 Zcoordinate
    440281.7785830187,        !- Vertex 3 Xcoordinate
    4478700.736821025,        !- Vertex 3 Ycoordinate
    0,                        !- Vertex 3 Zcoordinate
    440281.7785830187,        !- Vertex 4 Xcoordinate
    4478700.736821025,        !- Vertex 4 Ycoordinate
    9;                        !- Vertex 4 Zcoordinate

SHADING:SITE:DETAILED,
    shade_relation/4172891_3,    !- Name
    ,                         !- Transmittance Schedule Name
    autocalculate,            !- Number of Vertices
    440281.7785830187,        !- Vertex 1 Xcoordinate
    4478700.736821025,        !- Vertex 1 Ycoordinate
    9,                        !- Vertex 1 Zcoordinate
    440281.7785830187,        !- Vertex 2 Xcoordinate
    4478700.736821025,        !- Vertex 2 Ycoordinate
    0,                        !- Vertex 2 Zcoordinate
    440273.1280933157,        !- Vertex 3 Xcoordinate
    4478727.03144816,         !- Vertex 3 Ycoordinate
    0,                        !- Vertex 3 Zcoordinate
    440273.1280933157,        !- Vertex 4 Xcoordinate
    4478727.03144816,         !- Vertex 4 Ycoordinate
    9;                        !- Vertex 4 Zcoordinate

SHADING:SITE:DETAILED,
    shade_relation/4172891_4,    !- Name
    ,                         !- Transmittance Schedule Name
    autocalculate,            !- Number of Vertices
    440273.1280933157,        !- Vertex 1 Xcoordinate
    4478727.03144816,         !- Vertex 1 Ycoordinate
    9,                        !- Vertex 1 Zcoordinate
    440273.1280933157,        !- Vertex 2 Xcoordinate
    4478727.03144816,         !- Vertex 2 Ycoordinate
    0,                        !- Vertex 2 Zcoordinate
    440288.6976649599,        !- Vertex 3 Xcoordinate
    4478732.153575137,        !- Vertex 3 Ycoordinate
    0,                        !- Vertex 3 Zcoordinate
    440288.6976649599,        !- Vertex 4 Xcoordinate
    4478732.153575137,        !- Vertex 4 Ycoordinate
    9;                        !- Vertex 4 Zcoordinate

OTHEREQUIPMENT,
    EU_Step8_InternalGain_bd58b1efd04a92f0_F0_whole_f000,    !- Name
    Electricity,              !- Fuel Type
    bd58b1efd04a92f0_F0_whole,    !- Zone or ZoneList or Space or SpaceList Name
    EU_Step8_GainSchedule_bd58b1efd04a92f0_F0_whole_f000,    !- Schedule Name
    Watts/Area,               !- Design Level Calculation Method
    ,                         !- Design Level
    1,                        !- Power per Zone Floor Area
    ,                         !- Power per Person
    0,                        !- Fraction Latent
    0,                        !- Fraction Radiant
    0,                        !- Fraction Lost
    0,                        !- Carbon Dioxide Generation Rate
    EU_Step8_InternalGains;    !- EndUse Subcategory

OTHEREQUIPMENT,
    EU_Step8_InternalGain_bd58b1efd04a92f0_F1_whole_f000,    !- Name
    Electricity,              !- Fuel Type
    bd58b1efd04a92f0_F1_whole,    !- Zone or ZoneList or Space or SpaceList Name
    EU_Step8_GainSchedule_bd58b1efd04a92f0_F1_whole_f000,    !- Schedule Name
    Watts/Area,               !- Design Level Calculation Method
    ,                         !- Design Level
    1,                        !- Power per Zone Floor Area
    ,                         !- Power per Person
    0,                        !- Fraction Latent
    0,                        !- Fraction Radiant
    0,                        !- Fraction Lost
    0,                        !- Carbon Dioxide Generation Rate
    EU_Step8_InternalGains;    !- EndUse Subcategory

OTHEREQUIPMENT,
    EU_Step8_InternalGain_bd58b1efd04a92f0_F2_whole_f000,    !- Name
    Electricity,              !- Fuel Type
    bd58b1efd04a92f0_F2_whole,    !- Zone or ZoneList or Space or SpaceList Name
    EU_Step8_GainSchedule_bd58b1efd04a92f0_F2_whole_f000,    !- Schedule Name
    Watts/Area,               !- Design Level Calculation Method
    ,                         !- Design Level
    1,                        !- Power per Zone Floor Area
    ,                         !- Power per Person
    0,                        !- Fraction Latent
    0,                        !- Fraction Radiant
    0,                        !- Fraction Lost
    0,                        !- Carbon Dioxide Generation Rate
    EU_Step8_InternalGains;    !- EndUse Subcategory

OTHEREQUIPMENT,
    EU_Step8_InternalGain_bd58b1efd04a92f0_F3_whole_f000,    !- Name
    Electricity,              !- Fuel Type
    bd58b1efd04a92f0_F3_whole,    !- Zone or ZoneList or Space or SpaceList Name
    EU_Step8_GainSchedule_bd58b1efd04a92f0_F3_whole_f000,    !- Schedule Name
    Watts/Area,               !- Design Level Calculation Method
    ,                         !- Design Level
    1,                        !- Power per Zone Floor Area
    ,                         !- Power per Person
    0,                        !- Fraction Latent
    0,                        !- Fraction Radiant
    0,                        !- Fraction Lost
    0,                        !- Carbon Dioxide Generation Rate
    EU_Step8_InternalGains;    !- EndUse Subcategory

OTHEREQUIPMENT,
    EU_Step8_InternalGain_bd58b1efd04a92f0_F4_whole_f000,    !- Name
    Electricity,              !- Fuel Type
    bd58b1efd04a92f0_F4_whole,    !- Zone or ZoneList or Space or SpaceList Name
    EU_Step8_GainSchedule_bd58b1efd04a92f0_F4_whole_f000,    !- Schedule Name
    Watts/Area,               !- Design Level Calculation Method
    ,                         !- Design Level
    1,                        !- Power per Zone Floor Area
    ,                         !- Power per Person
    0,                        !- Fraction Latent
    0,                        !- Fraction Radiant
    0,                        !- Fraction Lost
    0,                        !- Carbon Dioxide Generation Rate
    EU_Step8_InternalGains;    !- EndUse Subcategory

ZONEVENTILATION:DESIGNFLOWRATE,
    EU_ConstantAir_bd58b1efd04a92f0_F0_whole,    !- Name
    bd58b1efd04a92f0_F0_whole,    !- Zone or ZoneList or Space or SpaceList Name
    EU_AlwaysOn,              !- Schedule Name
    AirChanges/Hour,          !- Design Flow Rate Calculation Method
    ,                         !- Design Flow Rate
    ,                         !- Flow Rate per Floor Area
    ,                         !- Flow Rate per Person
    0.7033018520864271,       !- Air Changes per Hour
    Natural,                  !- Ventilation Type
    0,                        !- Fan Pressure Rise
    1,                        !- Fan Total Efficiency
    1,                        !- Constant Term Coefficient
    0,                        !- Temperature Term Coefficient
    0,                        !- Velocity Term Coefficient
    0,                        !- Velocity Squared Term Coefficient
    -100,                     !- Minimum Indoor Temperature
    ,                         !- Minimum Indoor Temperature Schedule Name
    100,                      !- Maximum Indoor Temperature
    ,                         !- Maximum Indoor Temperature Schedule Name
    -100,                     !- Delta Temperature
    ,                         !- Delta Temperature Schedule Name
    -100,                     !- Minimum Outdoor Temperature
    ,                         !- Minimum Outdoor Temperature Schedule Name
    100,                      !- Maximum Outdoor Temperature
    ,                         !- Maximum Outdoor Temperature Schedule Name
    40;                       !- Maximum Wind Speed

ZONEVENTILATION:DESIGNFLOWRATE,
    EU_ConstantAir_bd58b1efd04a92f0_F1_whole,    !- Name
    bd58b1efd04a92f0_F1_whole,    !- Zone or ZoneList or Space or SpaceList Name
    EU_AlwaysOn,              !- Schedule Name
    AirChanges/Hour,          !- Design Flow Rate Calculation Method
    ,                         !- Design Flow Rate
    ,                         !- Flow Rate per Floor Area
    ,                         !- Flow Rate per Person
    0.7033018520864271,       !- Air Changes per Hour
    Natural,                  !- Ventilation Type
    0,                        !- Fan Pressure Rise
    1,                        !- Fan Total Efficiency
    1,                        !- Constant Term Coefficient
    0,                        !- Temperature Term Coefficient
    0,                        !- Velocity Term Coefficient
    0,                        !- Velocity Squared Term Coefficient
    -100,                     !- Minimum Indoor Temperature
    ,                         !- Minimum Indoor Temperature Schedule Name
    100,                      !- Maximum Indoor Temperature
    ,                         !- Maximum Indoor Temperature Schedule Name
    -100,                     !- Delta Temperature
    ,                         !- Delta Temperature Schedule Name
    -100,                     !- Minimum Outdoor Temperature
    ,                         !- Minimum Outdoor Temperature Schedule Name
    100,                      !- Maximum Outdoor Temperature
    ,                         !- Maximum Outdoor Temperature Schedule Name
    40;                       !- Maximum Wind Speed

ZONEVENTILATION:DESIGNFLOWRATE,
    EU_ConstantAir_bd58b1efd04a92f0_F2_whole,    !- Name
    bd58b1efd04a92f0_F2_whole,    !- Zone or ZoneList or Space or SpaceList Name
    EU_AlwaysOn,              !- Schedule Name
    AirChanges/Hour,          !- Design Flow Rate Calculation Method
    ,                         !- Design Flow Rate
    ,                         !- Flow Rate per Floor Area
    ,                         !- Flow Rate per Person
    0.7033018520864271,       !- Air Changes per Hour
    Natural,                  !- Ventilation Type
    0,                        !- Fan Pressure Rise
    1,                        !- Fan Total Efficiency
    1,                        !- Constant Term Coefficient
    0,                        !- Temperature Term Coefficient
    0,                        !- Velocity Term Coefficient
    0,                        !- Velocity Squared Term Coefficient
    -100,                     !- Minimum Indoor Temperature
    ,                         !- Minimum Indoor Temperature Schedule Name
    100,                      !- Maximum Indoor Temperature
    ,                         !- Maximum Indoor Temperature Schedule Name
    -100,                     !- Delta Temperature
    ,                         !- Delta Temperature Schedule Name
    -100,                     !- Minimum Outdoor Temperature
    ,                         !- Minimum Outdoor Temperature Schedule Name
    100,                      !- Maximum Outdoor Temperature
    ,                         !- Maximum Outdoor Temperature Schedule Name
    40;                       !- Maximum Wind Speed

ZONEVENTILATION:DESIGNFLOWRATE,
    EU_ConstantAir_bd58b1efd04a92f0_F3_whole,    !- Name
    bd58b1efd04a92f0_F3_whole,    !- Zone or ZoneList or Space or SpaceList Name
    EU_AlwaysOn,              !- Schedule Name
    AirChanges/Hour,          !- Design Flow Rate Calculation Method
    ,                         !- Design Flow Rate
    ,                         !- Flow Rate per Floor Area
    ,                         !- Flow Rate per Person
    0.7033018520864271,       !- Air Changes per Hour
    Natural,                  !- Ventilation Type
    0,                        !- Fan Pressure Rise
    1,                        !- Fan Total Efficiency
    1,                        !- Constant Term Coefficient
    0,                        !- Temperature Term Coefficient
    0,                        !- Velocity Term Coefficient
    0,                        !- Velocity Squared Term Coefficient
    -100,                     !- Minimum Indoor Temperature
    ,                         !- Minimum Indoor Temperature Schedule Name
    100,                      !- Maximum Indoor Temperature
    ,                         !- Maximum Indoor Temperature Schedule Name
    -100,                     !- Delta Temperature
    ,                         !- Delta Temperature Schedule Name
    -100,                     !- Minimum Outdoor Temperature
    ,                         !- Minimum Outdoor Temperature Schedule Name
    100,                      !- Maximum Outdoor Temperature
    ,                         !- Maximum Outdoor Temperature Schedule Name
    40;                       !- Maximum Wind Speed

ZONEVENTILATION:DESIGNFLOWRATE,
    EU_ConstantAir_bd58b1efd04a92f0_F4_whole,    !- Name
    bd58b1efd04a92f0_F4_whole,    !- Zone or ZoneList or Space or SpaceList Name
    EU_AlwaysOn,              !- Schedule Name
    AirChanges/Hour,          !- Design Flow Rate Calculation Method
    ,                         !- Design Flow Rate
    ,                         !- Flow Rate per Floor Area
    ,                         !- Flow Rate per Person
    0.7033018520864271,       !- Air Changes per Hour
    Natural,                  !- Ventilation Type
    0,                        !- Fan Pressure Rise
    1,                        !- Fan Total Efficiency
    1,                        !- Constant Term Coefficient
    0,                        !- Temperature Term Coefficient
    0,                        !- Velocity Term Coefficient
    0,                        !- Velocity Squared Term Coefficient
    -100,                     !- Minimum Indoor Temperature
    ,                         !- Minimum Indoor Temperature Schedule Name
    100,                      !- Maximum Indoor Temperature
    ,                         !- Maximum Indoor Temperature Schedule Name
    -100,                     !- Delta Temperature
    ,                         !- Delta Temperature Schedule Name
    -100,                     !- Minimum Outdoor Temperature
    ,                         !- Minimum Outdoor Temperature Schedule Name
    100,                      !- Maximum Outdoor Temperature
    ,                         !- Maximum Outdoor Temperature Schedule Name
    40;                       !- Maximum Wind Speed

HVACTEMPLATE:THERMOSTAT,
    EU_HeatOnly_bd58b1efd04a92f0_F0_whole,    !- Name
    ,                         !- Heating Setpoint Schedule Name
    20,                       !- Constant Heating Setpoint
    ,                         !- Cooling Setpoint Schedule Name
    50;                       !- Constant Cooling Setpoint

HVACTEMPLATE:THERMOSTAT,
    EU_HeatOnly_bd58b1efd04a92f0_F1_whole,    !- Name
    ,                         !- Heating Setpoint Schedule Name
    20,                       !- Constant Heating Setpoint
    ,                         !- Cooling Setpoint Schedule Name
    50;                       !- Constant Cooling Setpoint

HVACTEMPLATE:THERMOSTAT,
    EU_HeatOnly_bd58b1efd04a92f0_F2_whole,    !- Name
    ,                         !- Heating Setpoint Schedule Name
    20,                       !- Constant Heating Setpoint
    ,                         !- Cooling Setpoint Schedule Name
    50;                       !- Constant Cooling Setpoint

HVACTEMPLATE:THERMOSTAT,
    EU_HeatOnly_bd58b1efd04a92f0_F3_whole,    !- Name
    ,                         !- Heating Setpoint Schedule Name
    20,                       !- Constant Heating Setpoint
    ,                         !- Cooling Setpoint Schedule Name
    50;                       !- Constant Cooling Setpoint

HVACTEMPLATE:THERMOSTAT,
    EU_HeatOnly_bd58b1efd04a92f0_F4_whole,    !- Name
    ,                         !- Heating Setpoint Schedule Name
    20,                       !- Constant Heating Setpoint
    ,                         !- Cooling Setpoint Schedule Name
    50;                       !- Constant Cooling Setpoint

HVACTEMPLATE:ZONE:IDEALLOADSAIRSYSTEM,
    bd58b1efd04a92f0_F0_whole,    !- Zone Name
    EU_HeatOnly_bd58b1efd04a92f0_F0_whole,    !- Template Thermostat Name
    EU_AlwaysOn,              !- System Availability Schedule Name
    50,                       !- Maximum Heating Supply Air Temperature
    13,                       !- Minimum Cooling Supply Air Temperature
    0.0156,                   !- Maximum Heating Supply Air Humidity Ratio
    0.0077,                   !- Minimum Cooling Supply Air Humidity Ratio
    NoLimit,                  !- Heating Limit
    ,                         !- Maximum Heating Air Flow Rate
    ,                         !- Maximum Sensible Heating Capacity
    NoLimit,                  !- Cooling Limit
    ,                         !- Maximum Cooling Air Flow Rate
    ,                         !- Maximum Total Cooling Capacity
    EU_AlwaysOn,              !- Heating Availability Schedule Name
    EU_CoolingOff,            !- Cooling Availability Schedule Name
    ConstantSensibleHeatRatio,    !- Dehumidification Control Type
    0.7,                      !- Cooling Sensible Heat Ratio
    60,                       !- Dehumidification Setpoint
    None,                     !- Humidification Control Type
    30,                       !- Humidification Setpoint
    None,                     !- Outdoor Air Method
    0.00944,                  !- Outdoor Air Flow Rate per Person
    0.0,                      !- Outdoor Air Flow Rate per Zone Floor Area
    0,                        !- Outdoor Air Flow Rate per Zone
    ,                         !- Design Specification Outdoor Air Object Name
    None,                     !- Demand Controlled Ventilation Type
    NoEconomizer,             !- Outdoor Air Economizer Type
    None,                     !- Heat Recovery Type
    0.70,                     !- Sensible Heat Recovery Effectiveness
    0.65;                     !- Latent Heat Recovery Effectiveness

HVACTEMPLATE:ZONE:IDEALLOADSAIRSYSTEM,
    bd58b1efd04a92f0_F1_whole,    !- Zone Name
    EU_HeatOnly_bd58b1efd04a92f0_F1_whole,    !- Template Thermostat Name
    EU_AlwaysOn,              !- System Availability Schedule Name
    50,                       !- Maximum Heating Supply Air Temperature
    13,                       !- Minimum Cooling Supply Air Temperature
    0.0156,                   !- Maximum Heating Supply Air Humidity Ratio
    0.0077,                   !- Minimum Cooling Supply Air Humidity Ratio
    NoLimit,                  !- Heating Limit
    ,                         !- Maximum Heating Air Flow Rate
    ,                         !- Maximum Sensible Heating Capacity
    NoLimit,                  !- Cooling Limit
    ,                         !- Maximum Cooling Air Flow Rate
    ,                         !- Maximum Total Cooling Capacity
    EU_AlwaysOn,              !- Heating Availability Schedule Name
    EU_CoolingOff,            !- Cooling Availability Schedule Name
    ConstantSensibleHeatRatio,    !- Dehumidification Control Type
    0.7,                      !- Cooling Sensible Heat Ratio
    60,                       !- Dehumidification Setpoint
    None,                     !- Humidification Control Type
    30,                       !- Humidification Setpoint
    None,                     !- Outdoor Air Method
    0.00944,                  !- Outdoor Air Flow Rate per Person
    0.0,                      !- Outdoor Air Flow Rate per Zone Floor Area
    0,                        !- Outdoor Air Flow Rate per Zone
    ,                         !- Design Specification Outdoor Air Object Name
    None,                     !- Demand Controlled Ventilation Type
    NoEconomizer,             !- Outdoor Air Economizer Type
    None,                     !- Heat Recovery Type
    0.70,                     !- Sensible Heat Recovery Effectiveness
    0.65;                     !- Latent Heat Recovery Effectiveness

HVACTEMPLATE:ZONE:IDEALLOADSAIRSYSTEM,
    bd58b1efd04a92f0_F2_whole,    !- Zone Name
    EU_HeatOnly_bd58b1efd04a92f0_F2_whole,    !- Template Thermostat Name
    EU_AlwaysOn,              !- System Availability Schedule Name
    50,                       !- Maximum Heating Supply Air Temperature
    13,                       !- Minimum Cooling Supply Air Temperature
    0.0156,                   !- Maximum Heating Supply Air Humidity Ratio
    0.0077,                   !- Minimum Cooling Supply Air Humidity Ratio
    NoLimit,                  !- Heating Limit
    ,                         !- Maximum Heating Air Flow Rate
    ,                         !- Maximum Sensible Heating Capacity
    NoLimit,                  !- Cooling Limit
    ,                         !- Maximum Cooling Air Flow Rate
    ,                         !- Maximum Total Cooling Capacity
    EU_AlwaysOn,              !- Heating Availability Schedule Name
    EU_CoolingOff,            !- Cooling Availability Schedule Name
    ConstantSensibleHeatRatio,    !- Dehumidification Control Type
    0.7,                      !- Cooling Sensible Heat Ratio
    60,                       !- Dehumidification Setpoint
    None,                     !- Humidification Control Type
    30,                       !- Humidification Setpoint
    None,                     !- Outdoor Air Method
    0.00944,                  !- Outdoor Air Flow Rate per Person
    0.0,                      !- Outdoor Air Flow Rate per Zone Floor Area
    0,                        !- Outdoor Air Flow Rate per Zone
    ,                         !- Design Specification Outdoor Air Object Name
    None,                     !- Demand Controlled Ventilation Type
    NoEconomizer,             !- Outdoor Air Economizer Type
    None,                     !- Heat Recovery Type
    0.70,                     !- Sensible Heat Recovery Effectiveness
    0.65;                     !- Latent Heat Recovery Effectiveness

HVACTEMPLATE:ZONE:IDEALLOADSAIRSYSTEM,
    bd58b1efd04a92f0_F3_whole,    !- Zone Name
    EU_HeatOnly_bd58b1efd04a92f0_F3_whole,    !- Template Thermostat Name
    EU_AlwaysOn,              !- System Availability Schedule Name
    50,                       !- Maximum Heating Supply Air Temperature
    13,                       !- Minimum Cooling Supply Air Temperature
    0.0156,                   !- Maximum Heating Supply Air Humidity Ratio
    0.0077,                   !- Minimum Cooling Supply Air Humidity Ratio
    NoLimit,                  !- Heating Limit
    ,                         !- Maximum Heating Air Flow Rate
    ,                         !- Maximum Sensible Heating Capacity
    NoLimit,                  !- Cooling Limit
    ,                         !- Maximum Cooling Air Flow Rate
    ,                         !- Maximum Total Cooling Capacity
    EU_AlwaysOn,              !- Heating Availability Schedule Name
    EU_CoolingOff,            !- Cooling Availability Schedule Name
    ConstantSensibleHeatRatio,    !- Dehumidification Control Type
    0.7,                      !- Cooling Sensible Heat Ratio
    60,                       !- Dehumidification Setpoint
    None,                     !- Humidification Control Type
    30,                       !- Humidification Setpoint
    None,                     !- Outdoor Air Method
    0.00944,                  !- Outdoor Air Flow Rate per Person
    0.0,                      !- Outdoor Air Flow Rate per Zone Floor Area
    0,                        !- Outdoor Air Flow Rate per Zone
    ,                         !- Design Specification Outdoor Air Object Name
    None,                     !- Demand Controlled Ventilation Type
    NoEconomizer,             !- Outdoor Air Economizer Type
    None,                     !- Heat Recovery Type
    0.70,                     !- Sensible Heat Recovery Effectiveness
    0.65;                     !- Latent Heat Recovery Effectiveness

HVACTEMPLATE:ZONE:IDEALLOADSAIRSYSTEM,
    bd58b1efd04a92f0_F4_whole,    !- Zone Name
    EU_HeatOnly_bd58b1efd04a92f0_F4_whole,    !- Template Thermostat Name
    EU_AlwaysOn,              !- System Availability Schedule Name
    50,                       !- Maximum Heating Supply Air Temperature
    13,                       !- Minimum Cooling Supply Air Temperature
    0.0156,                   !- Maximum Heating Supply Air Humidity Ratio
    0.0077,                   !- Minimum Cooling Supply Air Humidity Ratio
    NoLimit,                  !- Heating Limit
    ,                         !- Maximum Heating Air Flow Rate
    ,                         !- Maximum Sensible Heating Capacity
    NoLimit,                  !- Cooling Limit
    ,                         !- Maximum Cooling Air Flow Rate
    ,                         !- Maximum Total Cooling Capacity
    EU_AlwaysOn,              !- Heating Availability Schedule Name
    EU_CoolingOff,            !- Cooling Availability Schedule Name
    ConstantSensibleHeatRatio,    !- Dehumidification Control Type
    0.7,                      !- Cooling Sensible Heat Ratio
    60,                       !- Dehumidification Setpoint
    None,                     !- Humidification Control Type
    30,                       !- Humidification Setpoint
    None,                     !- Outdoor Air Method
    0.00944,                  !- Outdoor Air Flow Rate per Person
    0.0,                      !- Outdoor Air Flow Rate per Zone Floor Area
    0,                        !- Outdoor Air Flow Rate per Zone
    ,                         !- Design Specification Outdoor Air Object Name
    None,                     !- Demand Controlled Ventilation Type
    NoEconomizer,             !- Outdoor Air Economizer Type
    None,                     !- Heat Recovery Type
    0.70,                     !- Sensible Heat Recovery Effectiveness
    0.65;                     !- Latent Heat Recovery Effectiveness

SIZING:ZONE,
    bd58b1efd04a92f0_F0_whole,    !- Zone or ZoneList Name
    SupplyAirTemperature,     !- Zone Cooling Design Supply Air Temperature Input Method
    13,                       !- Zone Cooling Design Supply Air Temperature
    ,                         !- Zone Cooling Design Supply Air Temperature Difference
    SupplyAirTemperature,     !- Zone Heating Design Supply Air Temperature Input Method
    50,                       !- Zone Heating Design Supply Air Temperature
    ,                         !- Zone Heating Design Supply Air Temperature Difference
    0.008,                    !- Zone Cooling Design Supply Air Humidity Ratio
    0.008,                    !- Zone Heating Design Supply Air Humidity Ratio
    ,                         !- Design Specification Outdoor Air Object Name
    ,                         !- Zone Heating Sizing Factor
    ,                         !- Zone Cooling Sizing Factor
    DesignDay,                !- Cooling Design Air Flow Method
    0,                        !- Cooling Design Air Flow Rate
    0.000762,                 !- Cooling Minimum Air Flow per Zone Floor Area
    0,                        !- Cooling Minimum Air Flow
    0.2,                      !- Cooling Minimum Air Flow Fraction
    DesignDay,                !- Heating Design Air Flow Method
    0,                        !- Heating Design Air Flow Rate
    0.002032,                 !- Heating Maximum Air Flow per Zone Floor Area
    0.1415762,                !- Heating Maximum Air Flow
    0.3,                      !- Heating Maximum Air Flow Fraction
    ,                         !- Design Specification Zone Air Distribution Object Name
    No,                       !- Account for Dedicated Outdoor Air System
    NeutralSupplyAir,         !- Dedicated Outdoor Air System Control Strategy
    autosize,                 !- Dedicated Outdoor Air Low Setpoint Temperature for Design
    autosize,                 !- Dedicated Outdoor Air High Setpoint Temperature for Design
    Sensible Load Only No Latent Load,    !- Zone Load Sizing Method
    HumidityRatioDifference,    !- Zone Latent Cooling Design Supply Air Humidity Ratio Input Method
    ,                         !- Zone Dehumidification Design Supply Air Humidity Ratio
    0.005,                    !- Zone Cooling Design Supply Air Humidity Ratio Difference
    HumidityRatioDifference,    !- Zone Latent Heating Design Supply Air Humidity Ratio Input Method
    ,                         !- Zone Humidification Design Supply Air Humidity Ratio
    0.005;                    !- Zone Humidification Design Supply Air Humidity Ratio Difference

SIZING:ZONE,
    bd58b1efd04a92f0_F1_whole,    !- Zone or ZoneList Name
    SupplyAirTemperature,     !- Zone Cooling Design Supply Air Temperature Input Method
    13,                       !- Zone Cooling Design Supply Air Temperature
    ,                         !- Zone Cooling Design Supply Air Temperature Difference
    SupplyAirTemperature,     !- Zone Heating Design Supply Air Temperature Input Method
    50,                       !- Zone Heating Design Supply Air Temperature
    ,                         !- Zone Heating Design Supply Air Temperature Difference
    0.008,                    !- Zone Cooling Design Supply Air Humidity Ratio
    0.008,                    !- Zone Heating Design Supply Air Humidity Ratio
    ,                         !- Design Specification Outdoor Air Object Name
    ,                         !- Zone Heating Sizing Factor
    ,                         !- Zone Cooling Sizing Factor
    DesignDay,                !- Cooling Design Air Flow Method
    0,                        !- Cooling Design Air Flow Rate
    0.000762,                 !- Cooling Minimum Air Flow per Zone Floor Area
    0,                        !- Cooling Minimum Air Flow
    0.2,                      !- Cooling Minimum Air Flow Fraction
    DesignDay,                !- Heating Design Air Flow Method
    0,                        !- Heating Design Air Flow Rate
    0.002032,                 !- Heating Maximum Air Flow per Zone Floor Area
    0.1415762,                !- Heating Maximum Air Flow
    0.3,                      !- Heating Maximum Air Flow Fraction
    ,                         !- Design Specification Zone Air Distribution Object Name
    No,                       !- Account for Dedicated Outdoor Air System
    NeutralSupplyAir,         !- Dedicated Outdoor Air System Control Strategy
    autosize,                 !- Dedicated Outdoor Air Low Setpoint Temperature for Design
    autosize,                 !- Dedicated Outdoor Air High Setpoint Temperature for Design
    Sensible Load Only No Latent Load,    !- Zone Load Sizing Method
    HumidityRatioDifference,    !- Zone Latent Cooling Design Supply Air Humidity Ratio Input Method
    ,                         !- Zone Dehumidification Design Supply Air Humidity Ratio
    0.005,                    !- Zone Cooling Design Supply Air Humidity Ratio Difference
    HumidityRatioDifference,    !- Zone Latent Heating Design Supply Air Humidity Ratio Input Method
    ,                         !- Zone Humidification Design Supply Air Humidity Ratio
    0.005;                    !- Zone Humidification Design Supply Air Humidity Ratio Difference

SIZING:ZONE,
    bd58b1efd04a92f0_F2_whole,    !- Zone or ZoneList Name
    SupplyAirTemperature,     !- Zone Cooling Design Supply Air Temperature Input Method
    13,                       !- Zone Cooling Design Supply Air Temperature
    ,                         !- Zone Cooling Design Supply Air Temperature Difference
    SupplyAirTemperature,     !- Zone Heating Design Supply Air Temperature Input Method
    50,                       !- Zone Heating Design Supply Air Temperature
    ,                         !- Zone Heating Design Supply Air Temperature Difference
    0.008,                    !- Zone Cooling Design Supply Air Humidity Ratio
    0.008,                    !- Zone Heating Design Supply Air Humidity Ratio
    ,                         !- Design Specification Outdoor Air Object Name
    ,                         !- Zone Heating Sizing Factor
    ,                         !- Zone Cooling Sizing Factor
    DesignDay,                !- Cooling Design Air Flow Method
    0,                        !- Cooling Design Air Flow Rate
    0.000762,                 !- Cooling Minimum Air Flow per Zone Floor Area
    0,                        !- Cooling Minimum Air Flow
    0.2,                      !- Cooling Minimum Air Flow Fraction
    DesignDay,                !- Heating Design Air Flow Method
    0,                        !- Heating Design Air Flow Rate
    0.002032,                 !- Heating Maximum Air Flow per Zone Floor Area
    0.1415762,                !- Heating Maximum Air Flow
    0.3,                      !- Heating Maximum Air Flow Fraction
    ,                         !- Design Specification Zone Air Distribution Object Name
    No,                       !- Account for Dedicated Outdoor Air System
    NeutralSupplyAir,         !- Dedicated Outdoor Air System Control Strategy
    autosize,                 !- Dedicated Outdoor Air Low Setpoint Temperature for Design
    autosize,                 !- Dedicated Outdoor Air High Setpoint Temperature for Design
    Sensible Load Only No Latent Load,    !- Zone Load Sizing Method
    HumidityRatioDifference,    !- Zone Latent Cooling Design Supply Air Humidity Ratio Input Method
    ,                         !- Zone Dehumidification Design Supply Air Humidity Ratio
    0.005,                    !- Zone Cooling Design Supply Air Humidity Ratio Difference
    HumidityRatioDifference,    !- Zone Latent Heating Design Supply Air Humidity Ratio Input Method
    ,                         !- Zone Humidification Design Supply Air Humidity Ratio
    0.005;                    !- Zone Humidification Design Supply Air Humidity Ratio Difference

SIZING:ZONE,
    bd58b1efd04a92f0_F3_whole,    !- Zone or ZoneList Name
    SupplyAirTemperature,     !- Zone Cooling Design Supply Air Temperature Input Method
    13,                       !- Zone Cooling Design Supply Air Temperature
    ,                         !- Zone Cooling Design Supply Air Temperature Difference
    SupplyAirTemperature,     !- Zone Heating Design Supply Air Temperature Input Method
    50,                       !- Zone Heating Design Supply Air Temperature
    ,                         !- Zone Heating Design Supply Air Temperature Difference
    0.008,                    !- Zone Cooling Design Supply Air Humidity Ratio
    0.008,                    !- Zone Heating Design Supply Air Humidity Ratio
    ,                         !- Design Specification Outdoor Air Object Name
    ,                         !- Zone Heating Sizing Factor
    ,                         !- Zone Cooling Sizing Factor
    DesignDay,                !- Cooling Design Air Flow Method
    0,                        !- Cooling Design Air Flow Rate
    0.000762,                 !- Cooling Minimum Air Flow per Zone Floor Area
    0,                        !- Cooling Minimum Air Flow
    0.2,                      !- Cooling Minimum Air Flow Fraction
    DesignDay,                !- Heating Design Air Flow Method
    0,                        !- Heating Design Air Flow Rate
    0.002032,                 !- Heating Maximum Air Flow per Zone Floor Area
    0.1415762,                !- Heating Maximum Air Flow
    0.3,                      !- Heating Maximum Air Flow Fraction
    ,                         !- Design Specification Zone Air Distribution Object Name
    No,                       !- Account for Dedicated Outdoor Air System
    NeutralSupplyAir,         !- Dedicated Outdoor Air System Control Strategy
    autosize,                 !- Dedicated Outdoor Air Low Setpoint Temperature for Design
    autosize,                 !- Dedicated Outdoor Air High Setpoint Temperature for Design
    Sensible Load Only No Latent Load,    !- Zone Load Sizing Method
    HumidityRatioDifference,    !- Zone Latent Cooling Design Supply Air Humidity Ratio Input Method
    ,                         !- Zone Dehumidification Design Supply Air Humidity Ratio
    0.005,                    !- Zone Cooling Design Supply Air Humidity Ratio Difference
    HumidityRatioDifference,    !- Zone Latent Heating Design Supply Air Humidity Ratio Input Method
    ,                         !- Zone Humidification Design Supply Air Humidity Ratio
    0.005;                    !- Zone Humidification Design Supply Air Humidity Ratio Difference

SIZING:ZONE,
    bd58b1efd04a92f0_F4_whole,    !- Zone or ZoneList Name
    SupplyAirTemperature,     !- Zone Cooling Design Supply Air Temperature Input Method
    13,                       !- Zone Cooling Design Supply Air Temperature
    ,                         !- Zone Cooling Design Supply Air Temperature Difference
    SupplyAirTemperature,     !- Zone Heating Design Supply Air Temperature Input Method
    50,                       !- Zone Heating Design Supply Air Temperature
    ,                         !- Zone Heating Design Supply Air Temperature Difference
    0.008,                    !- Zone Cooling Design Supply Air Humidity Ratio
    0.008,                    !- Zone Heating Design Supply Air Humidity Ratio
    ,                         !- Design Specification Outdoor Air Object Name
    ,                         !- Zone Heating Sizing Factor
    ,                         !- Zone Cooling Sizing Factor
    DesignDay,                !- Cooling Design Air Flow Method
    0,                        !- Cooling Design Air Flow Rate
    0.000762,                 !- Cooling Minimum Air Flow per Zone Floor Area
    0,                        !- Cooling Minimum Air Flow
    0.2,                      !- Cooling Minimum Air Flow Fraction
    DesignDay,                !- Heating Design Air Flow Method
    0,                        !- Heating Design Air Flow Rate
    0.002032,                 !- Heating Maximum Air Flow per Zone Floor Area
    0.1415762,                !- Heating Maximum Air Flow
    0.3,                      !- Heating Maximum Air Flow Fraction
    ,                         !- Design Specification Zone Air Distribution Object Name
    No,                       !- Account for Dedicated Outdoor Air System
    NeutralSupplyAir,         !- Dedicated Outdoor Air System Control Strategy
    autosize,                 !- Dedicated Outdoor Air Low Setpoint Temperature for Design
    autosize,                 !- Dedicated Outdoor Air High Setpoint Temperature for Design
    Sensible Load Only No Latent Load,    !- Zone Load Sizing Method
    HumidityRatioDifference,    !- Zone Latent Cooling Design Supply Air Humidity Ratio Input Method
    ,                         !- Zone Dehumidification Design Supply Air Humidity Ratio
    0.005,                    !- Zone Cooling Design Supply Air Humidity Ratio Difference
    HumidityRatioDifference,    !- Zone Latent Heating Design Supply Air Humidity Ratio Input Method
    ,                         !- Zone Humidification Design Supply Air Humidity Ratio
    0.005;                    !- Zone Humidification Design Supply Air Humidity Ratio Difference

OUTPUT:VARIABLE,
    *,                        !- Key Value
    Zone Ideal Loads Zone Total Heating Energy,    !- Variable Name
    Hourly;                   !- Reporting Frequency

OUTPUT:SQLITE,
    SimpleAndTabular,         !- Option Type
    UseOutputControlTableStyle;    !- Unit Conversion for Tabular Data