!- Windows Line endings 

Version,
    23.1;                     !- Version Identifier

SimulationControl,
    Yes,                      !- Do Zone Sizing Calculation
    Yes,                      !- Do System Sizing Calculation
    Yes,                      !- Do Plant Sizing Calculation
    No,                       !- Run Simulation for Sizing Periods
    Yes,                      !- Run Simulation for Weather File Run Periods
    No,                       !- Do HVAC Sizing Simulation for Sizing Periods
    1;                        !- Maximum Number of HVAC Sizing Simulation Passes

Building,
    EU S2 Campaign,           !- Name
    0,                        !- North Axis
    City,                     !- Terrain
    ,                         !- Loads Convergence Tolerance Value
    ,                         !- Temperature Convergence Tolerance Value
    FullExterior,             !- Solar Distribution
    ,                         !- Maximum Number of Warmup Days
    ;                         !- Minimum Number of Warmup Days

ShadowCalculation,
    PolygonClipping,          !- Shading Calculation Method
    Periodic,                 !- Shading Calculation Update Frequency Method
    1;                        !- Shading Calculation Update Frequency

HeatBalanceAlgorithm,
    ConductionTransferFunction,    !- Algorithm
    200,                      !- Surface Temperature Upper Limit
    0.1,                      !- Minimum Surface Convection Heat Transfer Coefficient Value
    10000000;                 !- Maximum Surface Convection Heat Transfer Coefficient Value

Timestep,
    12;                       !- Number of Timesteps per Hour

Site:Location,
    Madrid,                   !- Name
    40.5,                     !- Latitude
    -3.5,                     !- Longitude
    1,                        !- Time Zone
    609;                      !- Elevation

SizingPeriod:WeatherFileDays,
    AnnualSizingPeriod,       !- Name
    1,                        !- Begin Month
    1,                        !- Begin Day of Month
    12,                       !- End Month
    31,                       !- End Day of Month
    Monday,                   !- Day of Week for Start Day
    No,                       !- Use Weather File Daylight Saving Period
    No;                       !- Use Weather File Rain and Snow Indicators

RunPeriod,
    RunPeriod1,               !- Name
    1,                        !- Begin Month
    1,                        !- Begin Day of Month
    ,                         !- Begin Year
    12,                       !- End Month
    31,                       !- End Day of Month
    ,                         !- End Year
    Sunday,                   !- Day of Week for Start Day
    No,                       !- Use Weather File Holidays and Special Days
    No,                       !- Use Weather File Daylight Saving Period
    No,                       !- Apply Weekend Holiday Rule
    Yes,                      !- Use Weather File Rain Indicators
    Yes;                      !- Use Weather File Snow Indicators

ScheduleTypeLimits,
    Any Number;               !- Name

SCHEDULETYPELIMITS,
    EU_Step8_AnyNumber_Wm2,    !- Name
    ,                         !- Lower Limit Value
    ,                         !- Upper Limit Value
    Continuous,               !- Numeric Type
    Dimensionless;            !- Unit Type

SCHEDULE:CONSTANT,
    EU_AlwaysOn,              !- Name
    ,                         !- Schedule Type Limits Name
    1;                        !- Hourly Value

SCHEDULE:CONSTANT,
    EU_CoolingOff,            !- Name
    ,                         !- Schedule Type Limits Name
    0;                        !- Hourly Value

SCHEDULE:FILE,
    EU_Step8_GainSchedule_c93dc4b58c370fcb_F0_whole_f000,    !- Name
    EU_Step8_AnyNumber_Wm2,    !- Schedule Type Limits Name
    ../../schedules/c93dc4b58c370fcb/c93dc4b58c370fcb_F0_whole_f000_gain.csv,    !- File Name
    1,                        !- Column Number
    0,                        !- Rows to Skip at Top
    8760,                     !- Number of Hours of Data
    Comma,                    !- Column Separator
    No,                       !- Interpolate to Timestep
    60,                       !- Minutes per Item
    Yes;                      !- Adjust Schedule for Daylight Savings

SCHEDULE:FILE,
    EU_Step8_GainSchedule_c93dc4b58c370fcb_F1_whole_f000,    !- Name
    EU_Step8_AnyNumber_Wm2,    !- Schedule Type Limits Name
    ../../schedules/c93dc4b58c370fcb/c93dc4b58c370fcb_F1_whole_f000_gain.csv,    !- File Name
    1,                        !- Column Number
    0,                        !- Rows to Skip at Top
    8760,                     !- Number of Hours of Data
    Comma,                    !- Column Separator
    No,                       !- Interpolate to Timestep
    60,                       !- Minutes per Item
    Yes;                      !- Adjust Schedule for Daylight Savings

MATERIAL,
    EU_InternalMass_Material,    !- Name
    MediumRough,              !- Roughness
    0.1,                      !- Thickness
    1,                        !- Conductivity
    1800,                     !- Density
    900,                      !- Specific Heat
    0.9,                      !- Thermal Absorptance
    0.7,                      !- Solar Absorptance
    0.7;                      !- Visible Absorptance

MATERIAL:NOMASS,
    EU_wall_NoMass,           !- Name
    MediumRough,              !- Roughness
    4.197386e-01,             !- Thermal Resistance
    0.9,                      !- Thermal Absorptance
    0.7,                      !- Solar Absorptance
    0.7;                      !- Visible Absorptance

MATERIAL:NOMASS,
    EU_roof_NoMass,           !- Name
    MediumRough,              !- Roughness
    0.3521646044882231,       !- Thermal Resistance
    0.9,                      !- Thermal Absorptance
    0.7,                      !- Solar Absorptance
    0.7;                      !- Visible Absorptance

MATERIAL:NOMASS,
    EU_floor_NoMass,          !- Name
    MediumRough,              !- Roughness
    0.6082843168432945,       !- Thermal Resistance
    0.9,                      !- Thermal Absorptance
    0.7,                      !- Solar Absorptance
    0.7;                      !- Visible Absorptance

CONSTRUCTION,
    EU_wall_Construction,     !- Name
    EU_wall_NoMass;           !- Outside Layer

CONSTRUCTION,
    EU_roof_Construction,     !- Name
    EU_roof_NoMass;           !- Outside Layer

CONSTRUCTION,
    EU_floor_Construction,    !- Name
    EU_floor_NoMass;          !- Outside Layer

CONSTRUCTION,
    EU_InternalMass_Construction,    !- Name
    EU_InternalMass_Material;    !- Outside Layer

GlobalGeometryRules,
    UpperLeftCorner,          !- Starting Vertex Position
    CounterClockWise,         !- Vertex Entry Direction
    World;                    !- Coordinate System

ZONE,
    c93dc4b58c370fcb_F0_whole,    !- Name
    0,                        !- Direction of Relative North
    0,                        !- X Origin
    0,                        !- Y Origin
    0,                        !- Z Origin
    1,                        !- Type
    1,                        !- Multiplier
    autocalculate,            !- Ceiling Height
    1017.0091552734375,       !- Volume
    autocalculate,            !- Floor Area
    ,                         !- Zone Inside Convection Algorithm
    ,                         !- Zone Outside Convection Algorithm
    Yes;                      !- Part of Total Floor Area

ZONE,
    c93dc4b58c370fcb_F1_whole,    !- Name
    0,                        !- Direction of Relative North
    0,                        !- X Origin
    0,                        !- Y Origin
    0,                        !- Z Origin
    1,                        !- Type
    1,                        !- Multiplier
    autocalculate,            !- Ceiling Height
    1017.0091552734375,       !- Volume
    autocalculate,            !- Floor Area
    ,                         !- Zone Inside Convection Algorithm
    ,                         !- Zone Outside Convection Algorithm
    Yes;                      !- Part of Total Floor Area

BUILDINGSURFACE:DETAILED,
    Block c93dc4b58c370fcb_whole Storey 0 Wall 0001,    !- Name
    wall,                     !- Surface Type
    EU_wall_Construction,     !- Construction Name
    c93dc4b58c370fcb_F0_whole,    !- Zone Name
    ,                         !- Space Name
    outdoors,                 !- Outside Boundary Condition
    ,                         !- Outside Boundary Condition Object
    SunExposed,               !- Sun Exposure
    WindExposed,              !- Wind Exposure
    autocalculate,            !- View Factor to Ground
    autocalculate,            !- Number of Vertices
    440351.2051327426,        !- Vertex 1 Xcoordinate
    4478570.741129247,        !- Vertex 1 Ycoordinate
    3,                        !- Vertex 1 Zcoordinate
    440351.2051327426,        !- Vertex 2 Xcoordinate
    4478570.741129247,        !- Vertex 2 Ycoordinate
    0,                        !- Vertex 2 Zcoordinate
    440353.3615817772,        !- Vertex 3 Xcoordinate
    4478564.685147748,        !- Vertex 3 Ycoordinate
    0,                        !- Vertex 3 Zcoordinate
    440353.3615817772,        !- Vertex 4 Xcoordinate
    4478564.685147748,        !- Vertex 4 Ycoordinate
    3;                        !- Vertex 4 Zcoordinate

BUILDINGSURFACE:DETAILED,
    Block c93dc4b58c370fcb_whole Storey 0 Wall 0002,    !- Name
    wall,                     !- Surface Type
    EU_wall_Construction,     !- Construction Name
    c93dc4b58c370fcb_F0_whole,    !- Zone Name
    ,                         !- Space Name
    outdoors,                 !- Outside Boundary Condition
    ,                         !- Outside Boundary Condition Object
    SunExposed,               !- Sun Exposure
    WindExposed,              !- Wind Exposure
    autocalculate,            !- View Factor to Ground
    autocalculate,            !- Number of Vertices
    440353.3615817772,        !- Vertex 1 Xcoordinate
    4478564.685147748,        !- Vertex 1 Ycoordinate
    3,                        !- Vertex 1 Zcoordinate
    440353.3615817772,        !- Vertex 2 Xcoordinate
    4478564.685147748,        !- Vertex 2 Ycoordinate
    0,                        !- Vertex 2 Zcoordinate
    440355.5953188465,        !- Vertex 3 Xcoordinate
    4478558.750659371,        !- Vertex 3 Ycoordinate
    0,                        !- Vertex 3 Zcoordinate
    440355.5953188465,        !- Vertex 4 Xcoordinate
    4478558.750659371,        !- Vertex 4 Ycoordinate
    3;                        !- Vertex 4 Zcoordinate

BUILDINGSURFACE:DETAILED,
    Block c93dc4b58c370fcb_whole Storey 0 Wall 0003,    !- Name
    wall,                     !- Surface Type
    EU_wall_Construction,     !- Construction Name
    c93dc4b58c370fcb_F0_whole,    !- Zone Name
    ,                         !- Space Name
    Adiabatic,                !- Outside Boundary Condition
    ,                         !- Outside Boundary Condition Object
    NoSun,                    !- Sun Exposure
    NoWind,                   !- Wind Exposure
    autocalculate,            !- View Factor to Ground
    autocalculate,            !- Number of Vertices
    440355.5953188465,        !- Vertex 1 Xcoordinate
    4478558.750659371,        !- Vertex 1 Ycoordinate
    3,                        !- Vertex 1 Zcoordinate
    440355.5953188465,        !- Vertex 2 Xcoordinate
    4478558.750659371,        !- Vertex 2 Ycoordinate
    0,                        !- Vertex 2 Zcoordinate
    440374.3163850576,        !- Vertex 3 Xcoordinate
    4478554.25005077,         !- Vertex 3 Ycoordinate
    0,                        !- Vertex 3 Zcoordinate
    440374.3163850576,        !- Vertex 4 Xcoordinate
    4478554.25005077,         !- Vertex 4 Ycoordinate
    3;                        !- Vertex 4 Zcoordinate

BUILDINGSURFACE:DETAILED,
    Block c93dc4b58c370fcb_whole Storey 0 Wall 0004,    !- Name
    wall,                     !- Surface Type
    EU_wall_Construction,     !- Construction Name
    c93dc4b58c370fcb_F0_whole,    !- Zone Name
    ,                         !- Space Name
    Adiabatic,                !- Outside Boundary Condition
    ,                         !- Outside Boundary Condition Object
    NoSun,                    !- Sun Exposure
    NoWind,                   !- Wind Exposure
    autocalculate,            !- View Factor to Ground
    autocalculate,            !- Number of Vertices
    440374.3163850576,        !- Vertex 1 Xcoordinate
    4478554.25005077,         !- Vertex 1 Ycoordinate
    3,                        !- Vertex 1 Zcoordinate
    440374.3163850576,        !- Vertex 2 Xcoordinate
    4478554.25005077,         !- Vertex 2 Ycoordinate
    0,                        !- Vertex 2 Zcoordinate
    440374.38412931614,       !- Vertex 3 Xcoordinate
    4478554.238410512,        !- Vertex 3 Ycoordinate
    0,                        !- Vertex 3 Zcoordinate
    440374.38412931614,       !- Vertex 4 Xcoordinate
    4478554.238410512,        !- Vertex 4 Ycoordinate
    3;                        !- Vertex 4 Zcoordinate

BUILDINGSURFACE:DETAILED,
    Block c93dc4b58c370fcb_whole Storey 0 Wall 0005,    !- Name
    wall,                     !- Surface Type
    EU_wall_Construction,     !- Construction Name
    c93dc4b58c370fcb_F0_whole,    !- Zone Name
    ,                         !- Space Name
    Adiabatic,                !- Outside Boundary Condition
    ,                         !- Outside Boundary Condition Object
    NoSun,                    !- Sun Exposure
    NoWind,                   !- Wind Exposure
    autocalculate,            !- View Factor to Ground
    autocalculate,            !- Number of Vertices
    440374.38412931614,       !- Vertex 1 Xcoordinate
    4478554.238410512,        !- Vertex 1 Ycoordinate
    3,                        !- Vertex 1 Zcoordinate
    440374.38412931614,       !- Vertex 2 Xcoordinate
    4478554.238410512,        !- Vertex 2 Ycoordinate
    0,                        !- Vertex 2 Zcoordinate
    440376.88156647014,       !- Vertex 3 Xcoordinate
    4478566.507036029,        !- Vertex 3 Ycoordinate
    0,                        !- Vertex 3 Zcoordinate
    440376.88156647014,       !- Vertex 4 Xcoordinate
    4478566.507036029,        !- Vertex 4 Ycoordinate
    3;                        !- Vertex 4 Zcoordinate

BUILDINGSURFACE:DETAILED,
    Block c93dc4b58c370fcb_whole Storey 0 Wall 0006,    !- Name
    wall,                     !- Surface Type
    EU_wall_Construction,     !- Construction Name
    c93dc4b58c370fcb_F0_whole,    !- Zone Name
    ,                         !- Space Name
    Adiabatic,                !- Outside Boundary Condition
    ,                         !- Outside Boundary Condition Object
    NoSun,                    !- Sun Exposure
    NoWind,                   !- Wind Exposure
    autocalculate,            !- View Factor to Ground
    autocalculate,            !- Number of Vertices
    440376.88156647014,       !- Vertex 1 Xcoordinate
    4478566.507036029,        !- Vertex 1 Ycoordinate
    3,                        !- Vertex 1 Zcoordinate
    440376.88156647014,       !- Vertex 2 Xcoordinate
    4478566.507036029,        !- Vertex 2 Ycoordinate
    0,                        !- Vertex 2 Zcoordinate
    440375.31783782423,       !- Vertex 3 Xcoordinate
    4478572.458383342,        !- Vertex 3 Ycoordinate
    0,                        !- Vertex 3 Zcoordinate
    440375.31783782423,       !- Vertex 4 Xcoordinate
    4478572.458383342,        !- Vertex 4 Ycoordinate
    3;                        !- Vertex 4 Zcoordinate

BUILDINGSURFACE:DETAILED,
    Block c93dc4b58c370fcb_whole Storey 0 Wall 0007,    !- Name
    wall,                     !- Surface Type
    EU_wall_Construction,     !- Construction Name
    c93dc4b58c370fcb_F0_whole,    !- Zone Name
    ,                         !- Space Name
    Adiabatic,                !- Outside Boundary Condition
    ,                         !- Outside Boundary Condition Object
    NoSun,                    !- Sun Exposure
    NoWind,                   !- Wind Exposure
    autocalculate,            !- View Factor to Ground
    autocalculate,            !- Number of Vertices
    440375.31783782423,       !- Vertex 1 Xcoordinate
    4478572.458383342,        !- Vertex 1 Ycoordinate
    3,                        !- Vertex 1 Zcoordinate
    440375.31783782423,       !- Vertex 2 Xcoordinate
    4478572.458383342,        !- Vertex 2 Ycoordinate
    0,                        !- Vertex 2 Zcoordinate
    440371.4149939688,        !- Vertex 3 Xcoordinate
    4478572.178646029,        !- Vertex 3 Ycoordinate
    0,                        !- Vertex 3 Zcoordinate
    440371.4149939688,        !- Vertex 4 Xcoordinate
    4478572.178646029,        !- Vertex 4 Ycoordinate
    3;                        !- Vertex 4 Zcoordinate

BUILDINGSURFACE:DETAILED,
    Block c93dc4b58c370fcb_whole Storey 0 Wall 0008,    !- Name
    wall,                     !- Surface Type
    EU_wall_Construction,     !- Construction Name
    c93dc4b58c370fcb_F0_whole,    !- Zone Name
    ,                         !- Space Name
    Adiabatic,                !- Outside Boundary Condition
    ,                         !- Outside Boundary Condition Object
    NoSun,                    !- Sun Exposure
    NoWind,                   !- Wind Exposure
    autocalculate,            !- View Factor to Ground
    autocalculate,            !- Number of Vertices
    440371.4149939688,        !- Vertex 1 Xcoordinate
    4478572.178646029,        !- Vertex 1 Ycoordinate
    3,                        !- Vertex 1 Zcoordinate
    440371.4149939688,        !- Vertex 2 Xcoordinate
    4478572.178646029,        !- Vertex 2 Ycoordinate
    0,                        !- Vertex 2 Zcoordinate
    440366.86738737114,       !- Vertex 3 Xcoordinate
    4478571.859643393,        !- Vertex 3 Ycoordinate
    0,                        !- Vertex 3 Zcoordinate
    440366.86738737114,       !- Vertex 4 Xcoordinate
    4478571.859643393,        !- Vertex 4 Ycoordinate
    3;                        !- Vertex 4 Zcoordinate

BUILDINGSURFACE:DETAILED,
    Block c93dc4b58c370fcb_whole Storey 0 Wall 0009,    !- Name
    wall,                     !- Surface Type
    EU_wall_Construction,     !- Construction Name
    c93dc4b58c370fcb_F0_whole,    !- Zone Name
    ,                         !- Space Name
    Adiabatic,                !- Outside Boundary Condition
    ,                         !- Outside Boundary Condition Object
    NoSun,                    !- Sun Exposure
    NoWind,                   !- Wind Exposure
    autocalculate,            !- View Factor to Ground
    autocalculate,            !- Number of Vertices
    440366.86738737114,       !- Vertex 1 Xcoordinate
    4478571.859643393,        !- Vertex 1 Ycoordinate
    3,                        !- Vertex 1 Zcoordinate
    440366.86738737114,       !- Vertex 2 Xcoordinate
    4478571.859643393,        !- Vertex 2 Ycoordinate
    0,                        !- Vertex 2 Zcoordinate
    440364.4407839419,        !- Vertex 3 Xcoordinate
    4478571.679158758,        !- Vertex 3 Ycoordinate
    0,                        !- Vertex 3 Zcoordinate
    440364.4407839419,        !- Vertex 4 Xcoordinate
    4478571.679158758,        !- Vertex 4 Ycoordinate
    3;                        !- Vertex 4 Zcoordinate

BUILDINGSURFACE:DETAILED,
    Block c93dc4b58c370fcb_whole Storey 0 Wall 0010,    !- Name
    wall,                     !- Surface Type
    EU_wall_Construction,     !- Construction Name
    c93dc4b58c370fcb_F0_whole,    !- Zone Name
    ,                         !- Space Name
    Adiabatic,                !- Outside Boundary Condition
    ,                         !- Outside Boundary Condition Object
    NoSun,                    !- Sun Exposure
    NoWind,                   !- Wind Exposure
    autocalculate,            !- View Factor to Ground
    autocalculate,            !- Number of Vertices
    440364.4407839419,        !- Vertex 1 Xcoordinate
    4478571.679158758,        !- Vertex 1 Ycoordinate
    3,                        !- Vertex 1 Zcoordinate
    440364.4407839419,        !- Vertex 2 Xcoordinate
    4478571.679158758,        !- Vertex 2 Ycoordinate
    0,                        !- Vertex 2 Zcoordinate
    440351.2051327426,        !- Vertex 3 Xcoordinate
    4478570.741129247,        !- Vertex 3 Ycoordinate
    0,                        !- Vertex 3 Zcoordinate
    440351.2051327426,        !- Vertex 4 Xcoordinate
    4478570.741129247,        !- Vertex 4 Ycoordinate
    3;                        !- Vertex 4 Zcoordinate

BUILDINGSURFACE:DETAILED,
    Block c93dc4b58c370fcb_whole Storey 0 Floor 0001,    !- Name
    floor,                    !- Surface Type
    EU_floor_Construction,    !- Construction Name
    c93dc4b58c370fcb_F0_whole,    !- Zone Name
    ,                         !- Space Name
    ground,                   !- Outside Boundary Condition
    ,                         !- Outside Boundary Condition Object
    NoSun,                    !- Sun Exposure
    NoWind,                   !- Wind Exposure
    autocalculate,            !- View Factor to Ground
    autocalculate,            !- Number of Vertices
    440375.31783782423,       !- Vertex 1 Xcoordinate
    4478572.458383342,        !- Vertex 1 Ycoordinate
    0,                        !- Vertex 1 Zcoordinate
    440376.88156647014,       !- Vertex 2 Xcoordinate
    4478566.507036029,        !- Vertex 2 Ycoordinate
    0,                        !- Vertex 2 Zcoordinate
    440374.38412931614,       !- Vertex 3 Xcoordinate
    4478554.238410512,        !- Vertex 3 Ycoordinate
    0,                        !- Vertex 3 Zcoordinate
    440374.3163850576,        !- Vertex 4 Xcoordinate
    4478554.25005077,         !- Vertex 4 Ycoordinate
    0,                        !- Vertex 4 Zcoordinate
    440355.5953188465,        !- Vertex 5 Xcoordinate
    4478558.750659371,        !- Vertex 5 Ycoordinate
    0,                        !- Vertex 5 Zcoordinate
    440353.3615817772,        !- Vertex 6 Xcoordinate
    4478564.685147748,        !- Vertex 6 Ycoordinate
    0,                        !- Vertex 6 Zcoordinate
    440351.2051327426,        !- Vertex 7 Xcoordinate
    4478570.741129247,        !- Vertex 7 Ycoordinate
    0,                        !- Vertex 7 Zcoordinate
    440364.4407839419,        !- Vertex 8 Xcoordinate
    4478571.679158758,        !- Vertex 8 Ycoordinate
    0,                        !- Vertex 8 Zcoordinate
    440366.86738737114,       !- Vertex 9 Xcoordinate
    4478571.859643393,        !- Vertex 9 Ycoordinate
    0,                        !- Vertex 9 Zcoordinate
    440371.4149939688,        !- Vertex 10 Xcoordinate
    4478572.178646029,        !- Vertex 10 Ycoordinate
    0;                        !- Vertex 10 Zcoordinate

BUILDINGSURFACE:DETAILED,
    Block c93dc4b58c370fcb_whole Storey 1 Wall 0001,    !- Name
    wall,                     !- Surface Type
    EU_wall_Construction,     !- Construction Name
    c93dc4b58c370fcb_F1_whole,    !- Zone Name
    ,                         !- Space Name
    outdoors,                 !- Outside Boundary Condition
    ,                         !- Outside Boundary Condition Object
    SunExposed,               !- Sun Exposure
    WindExposed,              !- Wind Exposure
    autocalculate,            !- View Factor to Ground
    autocalculate,            !- Number of Vertices
    440351.2051327426,        !- Vertex 1 Xcoordinate
    4478570.741129247,        !- Vertex 1 Ycoordinate
    6,                        !- Vertex 1 Zcoordinate
    440351.2051327426,        !- Vertex 2 Xcoordinate
    4478570.741129247,        !- Vertex 2 Ycoordinate
    3,                        !- Vertex 2 Zcoordinate
    440353.3615817772,        !- Vertex 3 Xcoordinate
    4478564.685147748,        !- Vertex 3 Ycoordinate
    3,                        !- Vertex 3 Zcoordinate
    440353.3615817772,        !- Vertex 4 Xcoordinate
    4478564.685147748,        !- Vertex 4 Ycoordinate
    6;                        !- Vertex 4 Zcoordinate

BUILDINGSURFACE:DETAILED,
    Block c93dc4b58c370fcb_whole Storey 1 Wall 0002,    !- Name
    wall,                     !- Surface Type
    EU_wall_Construction,     !- Construction Name
    c93dc4b58c370fcb_F1_whole,    !- Zone Name
    ,                         !- Space Name
    outdoors,                 !- Outside Boundary Condition
    ,                         !- Outside Boundary Condition Object
    SunExposed,               !- Sun Exposure
    WindExposed,              !- Wind Exposure
    autocalculate,            !- View Factor to Ground
    autocalculate,            !- Number of Vertices
    440353.3615817772,        !- Vertex 1 Xcoordinate
    4478564.685147748,        !- Vertex 1 Ycoordinate
    6,                        !- Vertex 1 Zcoordinate
    440353.3615817772,        !- Vertex 2 Xcoordinate
    4478564.685147748,        !- Vertex 2 Ycoordinate
    3,                        !- Vertex 2 Zcoordinate
    440355.5953188465,        !- Vertex 3 Xcoordinate
    4478558.750659371,        !- Vertex 3 Ycoordinate
    3,                        !- Vertex 3 Zcoordinate
    440355.5953188465,        !- Vertex 4 Xcoordinate
    4478558.750659371,        !- Vertex 4 Ycoordinate
    6;                        !- Vertex 4 Zcoordinate

BUILDINGSURFACE:DETAILED,
    Block c93dc4b58c370fcb_whole Storey 1 Wall 0003,    !- Name
    wall,                     !- Surface Type
    EU_wall_Construction,     !- Construction Name
    c93dc4b58c370fcb_F1_whole,    !- Zone Name
    ,                         !- Space Name
    Adiabatic,                !- Outside Boundary Condition
    ,                         !- Outside Boundary Condition Object
    NoSun,                    !- Sun Exposure
    NoWind,                   !- Wind Exposure
    autocalculate,            !- View Factor to Ground
    autocalculate,            !- Number of Vertices
    440355.5953188465,        !- Vertex 1 Xcoordinate
    4478558.750659371,        !- Vertex 1 Ycoordinate
    6,                        !- Vertex 1 Zcoordinate
    440355.5953188465,        !- Vertex 2 Xcoordinate
    4478558.750659371,        !- Vertex 2 Ycoordinate
    3,                        !- Vertex 2 Zcoordinate
    440374.3163850576,        !- Vertex 3 Xcoordinate
    4478554.25005077,         !- Vertex 3 Ycoordinate
    3,                        !- Vertex 3 Zcoordinate
    440374.3163850576,        !- Vertex 4 Xcoordinate
    4478554.25005077,         !- Vertex 4 Ycoordinate
    6;                        !- Vertex 4 Zcoordinate

BUILDINGSURFACE:DETAILED,
    Block c93dc4b58c370fcb_whole Storey 1 Wall 0004,    !- Name
    wall,                     !- Surface Type
    EU_wall_Construction,     !- Construction Name
    c93dc4b58c370fcb_F1_whole,    !- Zone Name
    ,                         !- Space Name
    Adiabatic,                !- Outside Boundary Condition
    ,                         !- Outside Boundary Condition Object
    NoSun,                    !- Sun Exposure
    NoWind,                   !- Wind Exposure
    autocalculate,            !- View Factor to Ground
    autocalculate,            !- Number of Vertices
    440374.3163850576,        !- Vertex 1 Xcoordinate
    4478554.25005077,         !- Vertex 1 Ycoordinate
    6,                        !- Vertex 1 Zcoordinate
    440374.3163850576,        !- Vertex 2 Xcoordinate
    4478554.25005077,         !- Vertex 2 Ycoordinate
    3,                        !- Vertex 2 Zcoordinate
    440374.38412931614,       !- Vertex 3 Xcoordinate
    4478554.238410512,        !- Vertex 3 Ycoordinate
    3,                        !- Vertex 3 Zcoordinate
    440374.38412931614,       !- Vertex 4 Xcoordinate
    4478554.238410512,        !- Vertex 4 Ycoordinate
    6;                        !- Vertex 4 Zcoordinate

BUILDINGSURFACE:DETAILED,
    Block c93dc4b58c370fcb_whole Storey 1 Wall 0005,    !- Name
    wall,                     !- Surface Type
    EU_wall_Construction,     !- Construction Name
    c93dc4b58c370fcb_F1_whole,    !- Zone Name
    ,                         !- Space Name
    Adiabatic,                !- Outside Boundary Condition
    ,                         !- Outside Boundary Condition Object
    NoSun,                    !- Sun Exposure
    NoWind,                   !- Wind Exposure
    autocalculate,            !- View Factor to Ground
    autocalculate,            !- Number of Vertices
    440374.38412931614,       !- Vertex 1 Xcoordinate
    4478554.238410512,        !- Vertex 1 Ycoordinate
    6,                        !- Vertex 1 Zcoordinate
    440374.38412931614,       !- Vertex 2 Xcoordinate
    4478554.238410512,        !- Vertex 2 Ycoordinate
    3,                        !- Vertex 2 Zcoordinate
    440376.88156647014,       !- Vertex 3 Xcoordinate
    4478566.507036029,        !- Vertex 3 Ycoordinate
    3,                        !- Vertex 3 Zcoordinate
    440376.88156647014,       !- Vertex 4 Xcoordinate
    4478566.507036029,        !- Vertex 4 Ycoordinate
    6;                        !- Vertex 4 Zcoordinate

BUILDINGSURFACE:DETAILED,
    Block c93dc4b58c370fcb_whole Storey 1 Wall 0006,    !- Name
    wall,                     !- Surface Type
    EU_wall_Construction,     !- Construction Name
    c93dc4b58c370fcb_F1_whole,    !- Zone Name
    ,                         !- Space Name
    Adiabatic,                !- Outside Boundary Condition
    ,                         !- Outside Boundary Condition Object
    NoSun,                    !- Sun Exposure
    NoWind,                   !- Wind Exposure
    autocalculate,            !- View Factor to Ground
    autocalculate,            !- Number of Vertices
    440376.88156647014,       !- Vertex 1 Xcoordinate
    4478566.507036029,        !- Vertex 1 Ycoordinate
    6,                        !- Vertex 1 Zcoordinate
    440376.88156647014,       !- Vertex 2 Xcoordinate
    4478566.507036029,        !- Vertex 2 Ycoordinate
    3,                        !- Vertex 2 Zcoordinate
    440375.31783782423,       !- Vertex 3 Xcoordinate
    4478572.458383342,        !- Vertex 3 Ycoordinate
    3,                        !- Vertex 3 Zcoordinate
    440375.31783782423,       !- Vertex 4 Xcoordinate
    4478572.458383342,        !- Vertex 4 Ycoordinate
    6;                        !- Vertex 4 Zcoordinate

BUILDINGSURFACE:DETAILED,
    Block c93dc4b58c370fcb_whole Storey 1 Wall 0007,    !- Name
    wall,                     !- Surface Type
    EU_wall_Construction,     !- Construction Name
    c93dc4b58c370fcb_F1_whole,    !- Zone Name
    ,                         !- Space Name
    Adiabatic,                !- Outside Boundary Condition
    ,                         !- Outside Boundary Condition Object
    NoSun,                    !- Sun Exposure
    NoWind,                   !- Wind Exposure
    autocalculate,            !- View Factor to Ground
    autocalculate,            !- Number of Vertices
    440375.31783782423,       !- Vertex 1 Xcoordinate
    4478572.458383342,        !- Vertex 1 Ycoordinate
    6,                        !- Vertex 1 Zcoordinate
    440375.31783782423,       !- Vertex 2 Xcoordinate
    4478572.458383342,        !- Vertex 2 Ycoordinate
    3,                        !- Vertex 2 Zcoordinate
    440371.4149939688,        !- Vertex 3 Xcoordinate
    4478572.178646029,        !- Vertex 3 Ycoordinate
    3,                        !- Vertex 3 Zcoordinate
    440371.4149939688,        !- Vertex 4 Xcoordinate
    4478572.178646029,        !- Vertex 4 Ycoordinate
    6;                        !- Vertex 4 Zcoordinate

BUILDINGSURFACE:DETAILED,
    Block c93dc4b58c370fcb_whole Storey 1 Wall 0008,    !- Name
    wall,                     !- Surface Type
    EU_wall_Construction,     !- Construction Name
    c93dc4b58c370fcb_F1_whole,    !- Zone Name
    ,                         !- Space Name
    Adiabatic,                !- Outside Boundary Condition
    ,                         !- Outside Boundary Condition Object
    NoSun,                    !- Sun Exposure
    NoWind,                   !- Wind Exposure
    autocalculate,            !- View Factor to Ground
    autocalculate,            !- Number of Vertices
    440371.4149939688,        !- Vertex 1 Xcoordinate
    4478572.178646029,        !- Vertex 1 Ycoordinate
    6,                        !- Vertex 1 Zcoordinate
    440371.4149939688,        !- Vertex 2 Xcoordinate
    4478572.178646029,        !- Vertex 2 Ycoordinate
    3,                        !- Vertex 2 Zcoordinate
    440366.86738737114,       !- Vertex 3 Xcoordinate
    4478571.859643393,        !- Vertex 3 Ycoordinate
    3,                        !- Vertex 3 Zcoordinate
    440366.86738737114,       !- Vertex 4 Xcoordinate
    4478571.859643393,        !- Vertex 4 Ycoordinate
    6;                        !- Vertex 4 Zcoordinate

BUILDINGSURFACE:DETAILED,
    Block c93dc4b58c370fcb_whole Storey 1 Wall 0009,    !- Name
    wall,                     !- Surface Type
    EU_wall_Construction,     !- Construction Name
    c93dc4b58c370fcb_F1_whole,    !- Zone Name
    ,                         !- Space Name
    Adiabatic,                !- Outside Boundary Condition
    ,                         !- Outside Boundary Condition Object
    NoSun,                    !- Sun Exposure
    NoWind,                   !- Wind Exposure
    autocalculate,            !- View Factor to Ground
    autocalculate,            !- Number of Vertices
    440366.86738737114,       !- Vertex 1 Xcoordinate
    4478571.859643393,        !- Vertex 1 Ycoordinate
    6,                        !- Vertex 1 Zcoordinate
    440366.86738737114,       !- Vertex 2 Xcoordinate
    4478571.859643393,        !- Vertex 2 Ycoordinate
    3,                        !- Vertex 2 Zcoordinate
    440364.4407839419,        !- Vertex 3 Xcoordinate
    4478571.679158758,        !- Vertex 3 Ycoordinate
    3,                        !- Vertex 3 Zcoordinate
    440364.4407839419,        !- Vertex 4 Xcoordinate
    4478571.679158758,        !- Vertex 4 Ycoordinate
    6;                        !- Vertex 4 Zcoordinate

BUILDINGSURFACE:DETAILED,
    Block c93dc4b58c370fcb_whole Storey 1 Wall 0010,    !- Name
    wall,                     !- Surface Type
    EU_wall_Construction,     !- Construction Name
    c93dc4b58c370fcb_F1_whole,    !- Zone Name
    ,                         !- Space Name
    Adiabatic,                !- Outside Boundary Condition
    ,                         !- Outside Boundary Condition Object
    NoSun,                    !- Sun Exposure
    NoWind,                   !- Wind Exposure
    autocalculate,            !- View Factor to Ground
    autocalculate,            !- Number of Vertices
    440364.4407839419,        !- Vertex 1 Xcoordinate
    4478571.679158758,        !- Vertex 1 Ycoordinate
    6,                        !- Vertex 1 Zcoordinate
    440364.4407839419,        !- Vertex 2 Xcoordinate
    4478571.679158758,        !- Vertex 2 Ycoordinate
    3,                        !- Vertex 2 Zcoordinate
    440351.2051327426,        !- Vertex 3 Xcoordinate
    4478570.741129247,        !- Vertex 3 Ycoordinate
    3,                        !- Vertex 3 Zcoordinate
    440351.2051327426,        !- Vertex 4 Xcoordinate
    4478570.741129247,        !- Vertex 4 Ycoordinate
    6;                        !- Vertex 4 Zcoordinate

BUILDINGSURFACE:DETAILED,
    Block c93dc4b58c370fcb_whole Storey 1 Roof 0001,    !- Name
    roof,                     !- Surface Type
    EU_roof_Construction,     !- Construction Name
    c93dc4b58c370fcb_F1_whole,    !- Zone Name
    ,                         !- Space Name
    outdoors,                 !- Outside Boundary Condition
    ,                         !- Outside Boundary Condition Object
    SunExposed,               !- Sun Exposure
    WindExposed,              !- Wind Exposure
    autocalculate,            !- View Factor to Ground
    autocalculate,            !- Number of Vertices
    440374.38412931614,       !- Vertex 1 Xcoordinate
    4478554.238410512,        !- Vertex 1 Ycoordinate
    6,                        !- Vertex 1 Zcoordinate
    440376.88156647014,       !- Vertex 2 Xcoordinate
    4478566.507036029,        !- Vertex 2 Ycoordinate
    6,                        !- Vertex 2 Zcoordinate
    440375.31783782423,       !- Vertex 3 Xcoordinate
    4478572.458383342,        !- Vertex 3 Ycoordinate
    6,                        !- Vertex 3 Zcoordinate
    440371.4149939688,        !- Vertex 4 Xcoordinate
    4478572.178646029,        !- Vertex 4 Ycoordinate
    6,                        !- Vertex 4 Zcoordinate
    440366.86738737114,       !- Vertex 5 Xcoordinate
    4478571.859643393,        !- Vertex 5 Ycoordinate
    6,                        !- Vertex 5 Zcoordinate
    440364.4407839419,        !- Vertex 6 Xcoordinate
    4478571.679158758,        !- Vertex 6 Ycoordinate
    6,                        !- Vertex 6 Zcoordinate
    440351.2051327426,        !- Vertex 7 Xcoordinate
    4478570.741129247,        !- Vertex 7 Ycoordinate
    6,                        !- Vertex 7 Zcoordinate
    440353.3615817772,        !- Vertex 8 Xcoordinate
    4478564.685147748,        !- Vertex 8 Ycoordinate
    6,                        !- Vertex 8 Zcoordinate
    440355.5953188465,        !- Vertex 9 Xcoordinate
    4478558.750659371,        !- Vertex 9 Ycoordinate
    6,                        !- Vertex 9 Zcoordinate
    440374.3163850576,        !- Vertex 10 Xcoordinate
    4478554.25005077,         !- Vertex 10 Ycoordinate
    6;                        !- Vertex 10 Zcoordinate

BUILDINGSURFACE:DETAILED,
    Block c93dc4b58c370fcb_whole Storey 0 Ceiling 0001_1,    !- Name
    ceiling,                  !- Surface Type
    EU_floor_Construction,    !- Construction Name
    c93dc4b58c370fcb_F0_whole,    !- Zone Name
    ,                         !- Space Name
    Surface,                  !- Outside Boundary Condition
    Block c93dc4b58c370fcb_whole Storey 1 Floor 0001_1,    !- Outside Boundary Condition Object
    NoSun,                    !- Sun Exposure
    NoWind,                   !- Wind Exposure
    autocalculate,            !- View Factor to Ground
    autocalculate,            !- Number of Vertices
    440374.3841293161,        !- Vertex 1 Xcoordinate
    4478554.238410512,        !- Vertex 1 Ycoordinate
    3,                        !- Vertex 1 Zcoordinate
    440376.88156647,          !- Vertex 2 Xcoordinate
    4478566.507036029,        !- Vertex 2 Ycoordinate
    3,                        !- Vertex 2 Zcoordinate
    440375.3178378241,        !- Vertex 3 Xcoordinate
    4478572.458383342,        !- Vertex 3 Ycoordinate
    3,                        !- Vertex 3 Zcoordinate
    440371.4149939688,        !- Vertex 4 Xcoordinate
    4478572.178646029,        !- Vertex 4 Ycoordinate
    3,                        !- Vertex 4 Zcoordinate
    440366.86738737114,       !- Vertex 5 Xcoordinate
    4478571.859643393,        !- Vertex 5 Ycoordinate
    3,                        !- Vertex 5 Zcoordinate
    440364.44078394165,       !- Vertex 6 Xcoordinate
    4478571.679158758,        !- Vertex 6 Ycoordinate
    3,                        !- Vertex 6 Zcoordinate
    440351.2051327424,        !- Vertex 7 Xcoordinate
    4478570.741129247,        !- Vertex 7 Ycoordinate
    3,                        !- Vertex 7 Zcoordinate
    440353.3615817772,        !- Vertex 8 Xcoordinate
    4478564.685147748,        !- Vertex 8 Ycoordinate
    3,                        !- Vertex 8 Zcoordinate
    440355.5953188464,        !- Vertex 9 Xcoordinate
    4478558.750659371,        !- Vertex 9 Ycoordinate
    3,                        !- Vertex 9 Zcoordinate
    440374.3163850573,        !- Vertex 10 Xcoordinate
    4478554.25005077,         !- Vertex 10 Ycoordinate
    3;                        !- Vertex 10 Zcoordinate

BUILDINGSURFACE:DETAILED,
    Block c93dc4b58c370fcb_whole Storey 1 Floor 0001_1,    !- Name
    floor,                    !- Surface Type
    EU_floor_Construction,    !- Construction Name
    c93dc4b58c370fcb_F1_whole,    !- Zone Name
    ,                         !- Space Name
    Surface,                  !- Outside Boundary Condition
    Block c93dc4b58c370fcb_whole Storey 0 Ceiling 0001_1,    !- Outside Boundary Condition Object
    NoSun,                    !- Sun Exposure
    NoWind,                   !- Wind Exposure
    autocalculate,            !- View Factor to Ground
    autocalculate,            !- Number of Vertices
    440375.3178378241,        !- Vertex 1 Xcoordinate
    4478572.458383342,        !- Vertex 1 Ycoordinate
    3,                        !- Vertex 1 Zcoordinate
    440376.88156647,          !- Vertex 2 Xcoordinate
    4478566.507036029,        !- Vertex 2 Ycoordinate
    3,                        !- Vertex 2 Zcoordinate
    440374.3841293161,        !- Vertex 3 Xcoordinate
    4478554.238410512,        !- Vertex 3 Ycoordinate
    3,                        !- Vertex 3 Zcoordinate
    440374.3163850573,        !- Vertex 4 Xcoordinate
    4478554.25005077,         !- Vertex 4 Ycoordinate
    3,                        !- Vertex 4 Zcoordinate
    440355.5953188464,        !- Vertex 5 Xcoordinate
    4478558.750659371,        !- Vertex 5 Ycoordinate
    3,                        !- Vertex 5 Zcoordinate
    440353.3615817772,        !- Vertex 6 Xcoordinate
    4478564.685147748,        !- Vertex 6 Ycoordinate
    3,                        !- Vertex 6 Zcoordinate
    440351.2051327424,        !- Vertex 7 Xcoordinate
    4478570.741129247,        !- Vertex 7 Ycoordinate
    3,                        !- Vertex 7 Zcoordinate
    440364.44078394165,       !- Vertex 8 Xcoordinate
    4478571.679158758,        !- Vertex 8 Ycoordinate
    3,                        !- Vertex 8 Zcoordinate
    440366.86738737114,       !- Vertex 9 Xcoordinate
    4478571.859643393,        !- Vertex 9 Ycoordinate
    3,                        !- Vertex 9 Zcoordinate
    440371.4149939688,        !- Vertex 10 Xcoordinate
    4478572.178646029,        !- Vertex 10 Ycoordinate
    3;                        !- Vertex 10 Zcoordinate

INTERNALMASS,
    c93dc4b58c370fcb_F0_whole_EU_InternalMass,    !- Name
    EU_InternalMass_Construction,    !- Construction Name
    c93dc4b58c370fcb_F0_whole,    !- Zone or ZoneList Name
    ,                         !- Space or SpaceList Name
    307.17038594727137;       !- Surface Area

INTERNALMASS,
    c93dc4b58c370fcb_F1_whole_EU_InternalMass,    !- Name
    EU_InternalMass_Construction,    !- Construction Name
    c93dc4b58c370fcb_F1_whole,    !- Zone or ZoneList Name
    ,                         !- Space or SpaceList Name
    307.17038594727137;       !- Surface Area

SHADING:SITE:DETAILED,
    shade_way/310775071_1,    !- Name
    ,                         !- Transmittance Schedule Name
    autocalculate,            !- Number of Vertices
    440379.11914246,          !- Vertex 1 Xcoordinate
    4478538.820210106,        !- Vertex 1 Ycoordinate
    24,                       !- Vertex 1 Zcoordinate
    440379.11914246,          !- Vertex 2 Xcoordinate
    4478538.820210106,        !- Vertex 2 Ycoordinate
    0,                        !- Vertex 2 Zcoordinate
    440409.24337401654,       !- Vertex 3 Xcoordinate
    4478529.29167391,         !- Vertex 3 Ycoordinate
    0,                        !- Vertex 3 Zcoordinate
    440409.24337401654,       !- Vertex 4 Xcoordinate
    4478529.29167391,         !- Vertex 4 Ycoordinate
    24;                       !- Vertex 4 Zcoordinate

SHADING:SITE:DETAILED,
    shade_way/310775071_2,    !- Name
    ,                         !- Transmittance Schedule Name
    autocalculate,            !- Number of Vertices
    440409.24337401654,       !- Vertex 1 Xcoordinate
    4478529.29167391,         !- Vertex 1 Ycoordinate
    24,                       !- Vertex 1 Zcoordinate
    440409.24337401654,       !- Vertex 2 Xcoordinate
    4478529.29167391,         !- Vertex 2 Ycoordinate
    0,                        !- Vertex 2 Zcoordinate
    440404.13419380994,       !- Vertex 3 Xcoordinate
    4478513.139732233,        !- Vertex 3 Ycoordinate
    0,                        !- Vertex 3 Zcoordinate
    440404.13419380994,       !- Vertex 4 Xcoordinate
    4478513.139732233,        !- Vertex 4 Ycoordinate
    24;                       !- Vertex 4 Zcoordinate

SHADING:SITE:DETAILED,
    shade_way/310775071_3,    !- Name
    ,                         !- Transmittance Schedule Name
    autocalculate,            !- Number of Vertices
    440404.13419380994,       !- Vertex 1 Xcoordinate
    4478513.139732233,        !- Vertex 1 Ycoordinate
    24,                       !- Vertex 1 Zcoordinate
    440404.13419380994,       !- Vertex 2 Xcoordinate
    4478513.139732233,        !- Vertex 2 Ycoordinate
    0,                        !- Vertex 2 Zcoordinate
    440374.01018982206,       !- Vertex 3 Xcoordinate
    4478522.668382703,        !- Vertex 3 Ycoordinate
    0,                        !- Vertex 3 Zcoordinate
    440374.01018982206,       !- Vertex 4 Xcoordinate
    4478522.668382703,        !- Vertex 4 Ycoordinate
    24;                       !- Vertex 4 Zcoordinate

SHADING:SITE:DETAILED,
    shade_way/310775071_4,    !- Name
    ,                         !- Transmittance Schedule Name
    autocalculate,            !- Number of Vertices
    440374.01018982206,       !- Vertex 1 Xcoordinate
    4478522.668382703,        !- Vertex 1 Ycoordinate
    24,                       !- Vertex 1 Zcoordinate
    440374.01018982206,       !- Vertex 2 Xcoordinate
    4478522.668382703,        !- Vertex 2 Ycoordinate
    0,                        !- Vertex 2 Zcoordinate
    440379.11914246,          !- Vertex 3 Xcoordinate
    4478538.820210106,        !- Vertex 3 Ycoordinate
    0,                        !- Vertex 3 Zcoordinate
    440379.11914246,          !- Vertex 4 Xcoordinate
    4478538.820210106,        !- Vertex 4 Ycoordinate
    24;                       !- Vertex 4 Zcoordinate

SHADING:SITE:DETAILED,
    shade_relation/12628572_1,    !- Name
    ,                         !- Transmittance Schedule Name
    autocalculate,            !- Number of Vertices
    440363.4423517072,        !- Vertex 1 Xcoordinate
    4478528.513397012,        !- Vertex 1 Ycoordinate
    12,                       !- Vertex 1 Zcoordinate
    440363.4423517072,        !- Vertex 2 Xcoordinate
    4478528.513397012,        !- Vertex 2 Ycoordinate
    0,                        !- Vertex 2 Zcoordinate
    440371.8743809034,        !- Vertex 3 Xcoordinate
    4478586.206318325,        !- Vertex 3 Ycoordinate
    0,                        !- Vertex 3 Zcoordinate
    440371.8743809034,        !- Vertex 4 Xcoordinate
    4478586.206318325,        !- Vertex 4 Ycoordinate
    12;                       !- Vertex 4 Zcoordinate

SHADING:SITE:DETAILED,
    shade_relation/12628572_2,    !- Name
    ,                         !- Transmittance Schedule Name
    autocalculate,            !- Number of Vertices
    440371.8743809034,        !- Vertex 1 Xcoordinate
    4478586.206318325,        !- Vertex 1 Ycoordinate
    12,                       !- Vertex 1 Zcoordinate
    440371.8743809034,        !- Vertex 2 Xcoordinate
    4478586.206318325,        !- Vertex 2 Ycoordinate
    0,                        !- Vertex 2 Zcoordinate
    440400.3164007734,        !- Vertex 3 Xcoordinate
    4478582.049336722,        !- Vertex 3 Ycoordinate
    0,                        !- Vertex 3 Zcoordinate
    440400.3164007734,        !- Vertex 4 Xcoordinate
    4478582.049336722,        !- Vertex 4 Ycoordinate
    12;                       !- Vertex 4 Zcoordinate

SHADING:SITE:DETAILED,
    shade_relation/12628572_3,    !- Name
    ,                         !- Transmittance Schedule Name
    autocalculate,            !- Number of Vertices
    440400.3164007734,        !- Vertex 1 Xcoordinate
    4478582.049336722,        !- Vertex 1 Ycoordinate
    12,                       !- Vertex 1 Zcoordinate
    440400.3164007734,        !- Vertex 2 Xcoordinate
    4478582.049336722,        !- Vertex 2 Ycoordinate
    0,                        !- Vertex 2 Zcoordinate
    440391.8843361232,        !- Vertex 3 Xcoordinate
    4478524.3564762175,       !- Vertex 3 Ycoordinate
    0,                        !- Vertex 3 Zcoordinate
    440391.8843361232,        !- Vertex 4 Xcoordinate
    4478524.3564762175,       !- Vertex 4 Ycoordinate
    12;                       !- Vertex 4 Zcoordinate

SHADING:SITE:DETAILED,
    shade_relation/12628572_4,    !- Name
    ,                         !- Transmittance Schedule Name
    autocalculate,            !- Number of Vertices
    440391.8843361232,        !- Vertex 1 Xcoordinate
    4478524.3564762175,       !- Vertex 1 Ycoordinate
    12,                       !- Vertex 1 Zcoordinate
    440391.8843361232,        !- Vertex 2 Xcoordinate
    4478524.3564762175,       !- Vertex 2 Ycoordinate
    0,                        !- Vertex 2 Zcoordinate
    440363.4423517072,        !- Vertex 3 Xcoordinate
    4478528.513397012,        !- Vertex 3 Ycoordinate
    0,                        !- Vertex 3 Zcoordinate
    440363.4423517072,        !- Vertex 4 Xcoordinate
    4478528.513397012,        !- Vertex 4 Ycoordinate
    12;                       !- Vertex 4 Zcoordinate

SHADING:SITE:DETAILED,
    shade_way/310775075_1,    !- Name
    ,                         !- Transmittance Schedule Name
    autocalculate,            !- Number of Vertices
    440395.37784813467,       !- Vertex 1 Xcoordinate
    4478579.42976972,         !- Vertex 1 Ycoordinate
    24,                       !- Vertex 1 Zcoordinate
    440395.37784813467,       !- Vertex 2 Xcoordinate
    4478579.42976972,         !- Vertex 2 Ycoordinate
    0,                        !- Vertex 2 Zcoordinate
    440422.91540491744,       !- Vertex 3 Xcoordinate
    4478572.656705341,        !- Vertex 3 Ycoordinate
    0,                        !- Vertex 3 Zcoordinate
    440422.91540491744,       !- Vertex 4 Xcoordinate
    4478572.656705341,        !- Vertex 4 Ycoordinate
    24;                       !- Vertex 4 Zcoordinate

SHADING:SITE:DETAILED,
    shade_way/310775075_2,    !- Name
    ,                         !- Transmittance Schedule Name
    autocalculate,            !- Number of Vertices
    440422.91540491744,       !- Vertex 1 Xcoordinate
    4478572.656705341,        !- Vertex 1 Ycoordinate
    24,                       !- Vertex 1 Zcoordinate
    440422.91540491744,       !- Vertex 2 Xcoordinate
    4478572.656705341,        !- Vertex 2 Ycoordinate
    0,                        !- Vertex 2 Zcoordinate
    440419.86132219585,       !- Vertex 3 Xcoordinate
    4478560.238883901,        !- Vertex 3 Ycoordinate
    0,                        !- Vertex 3 Zcoordinate
    440419.86132219585,       !- Vertex 4 Xcoordinate
    4478560.238883901,        !- Vertex 4 Ycoordinate
    24;                       !- Vertex 4 Zcoordinate

SHADING:SITE:DETAILED,
    shade_way/310775075_3,    !- Name
    ,                         !- Transmittance Schedule Name
    autocalculate,            !- Number of Vertices
    440419.86132219585,       !- Vertex 1 Xcoordinate
    4478560.238883901,        !- Vertex 1 Ycoordinate
    24,                       !- Vertex 1 Zcoordinate
    440419.86132219585,       !- Vertex 2 Xcoordinate
    4478560.238883901,        !- Vertex 2 Ycoordinate
    0,                        !- Vertex 2 Zcoordinate
    440392.3235897419,        !- Vertex 3 Xcoordinate
    4478567.012062806,        !- Vertex 3 Ycoordinate
    0,                        !- Vertex 3 Zcoordinate
    440392.3235897419,        !- Vertex 4 Xcoordinate
    4478567.012062806,        !- Vertex 4 Ycoordinate
    24;                       !- Vertex 4 Zcoordinate

SHADING:SITE:DETAILED,
    shade_way/310775075_4,    !- Name
    ,                         !- Transmittance Schedule Name
    autocalculate,            !- Number of Vertices
    440392.3235897419,        !- Vertex 1 Xcoordinate
    4478567.012062806,        !- Vertex 1 Ycoordinate
    24,                       !- Vertex 1 Zcoordinate
    440392.3235897419,        !- Vertex 2 Xcoordinate
    4478567.012062806,        !- Vertex 2 Ycoordinate
    0,                        !- Vertex 2 Zcoordinate
    440395.37784813467,       !- Vertex 3 Xcoordinate
    4478579.42976972,         !- Vertex 3 Ycoordinate
    0,                        !- Vertex 3 Zcoordinate
    440395.37784813467,       !- Vertex 4 Xcoordinate
    4478579.42976972,         !- Vertex 4 Ycoordinate
    24;                       !- Vertex 4 Zcoordinate

SHADING:SITE:DETAILED,
    shade_way/311431852_1,    !- Name
    ,                         !- Transmittance Schedule Name
    autocalculate,            !- Number of Vertices
    440329.3952718118,        !- Vertex 1 Xcoordinate
    4478515.0702565545,       !- Vertex 1 Ycoordinate
    18,                       !- Vertex 1 Zcoordinate
    440329.3952718118,        !- Vertex 2 Xcoordinate
    4478515.0702565545,       !- Vertex 2 Ycoordinate
    0,                        !- Vertex 2 Zcoordinate
    440319.82255936024,       !- Vertex 3 Xcoordinate
    4478530.7796742385,       !- Vertex 3 Ycoordinate
    0,                        !- Vertex 3 Zcoordinate
    440319.82255936024,       !- Vertex 4 Xcoordinate
    4478530.7796742385,       !- Vertex 4 Ycoordinate
    18;                       !- Vertex 4 Zcoordinate

SHADING:SITE:DETAILED,
    shade_way/311431852_2,    !- Name
    ,                         !- Transmittance Schedule Name
    autocalculate,            !- Number of Vertices
    440319.82255936024,       !- Vertex 1 Xcoordinate
    4478530.7796742385,       !- Vertex 1 Ycoordinate
    18,                       !- Vertex 1 Zcoordinate
    440319.82255936024,       !- Vertex 2 Xcoordinate
    4478530.7796742385,       !- Vertex 2 Ycoordinate
    0,                        !- Vertex 2 Zcoordinate
    440351.046820956,         !- Vertex 3 Xcoordinate
    4478549.806400821,        !- Vertex 3 Ycoordinate
    0,                        !- Vertex 3 Zcoordinate
    440351.046820956,         !- Vertex 4 Xcoordinate
    4478549.806400821,        !- Vertex 4 Ycoordinate
    18;                       !- Vertex 4 Zcoordinate

SHADING:SITE:DETAILED,
    shade_way/311431852_3,    !- Name
    ,                         !- Transmittance Schedule Name
    autocalculate,            !- Number of Vertices
    440351.046820956,         !- Vertex 1 Xcoordinate
    4478549.806400821,        !- Vertex 1 Ycoordinate
    18,                       !- Vertex 1 Zcoordinate
    440351.046820956,         !- Vertex 2 Xcoordinate
    4478549.806400821,        !- Vertex 2 Ycoordinate
    0,                        !- Vertex 2 Zcoordinate
    440360.62001189997,       !- Vertex 3 Xcoordinate
    4478534.097407305,        !- Vertex 3 Ycoordinate
    0,                        !- Vertex 3 Zcoordinate
    440360.62001189997,       !- Vertex 4 Xcoordinate
    4478534.097407305,        !- Vertex 4 Ycoordinate
    18;                       !- Vertex 4 Zcoordinate

SHADING:SITE:DETAILED,
    shade_way/311431852_4,    !- Name
    ,                         !- Transmittance Schedule Name
    autocalculate,            !- Number of Vertices
    440360.62001189997,       !- Vertex 1 Xcoordinate
    4478534.097407305,        !- Vertex 1 Ycoordinate
    18,                       !- Vertex 1 Zcoordinate
    440360.62001189997,       !- Vertex 2 Xcoordinate
    4478534.097407305,        !- Vertex 2 Ycoordinate
    0,                        !- Vertex 2 Zcoordinate
    440329.3952718118,        !- Vertex 3 Xcoordinate
    4478515.0702565545,       !- Vertex 3 Ycoordinate
    0,                        !- Vertex 3 Zcoordinate
    440329.3952718118,        !- Vertex 4 Xcoordinate
    4478515.0702565545,       !- Vertex 4 Ycoordinate
    18;                       !- Vertex 4 Zcoordinate

SHADING:SITE:DETAILED,
    shade_relation/4169236_1,    !- Name
    ,                         !- Transmittance Schedule Name
    autocalculate,            !- Number of Vertices
    440346.2420462099,        !- Vertex 1 Xcoordinate
    4478546.857611676,        !- Vertex 1 Ycoordinate
    12,                       !- Vertex 1 Zcoordinate
    440346.2420462099,        !- Vertex 2 Xcoordinate
    4478546.857611676,        !- Vertex 2 Ycoordinate
    0,                        !- Vertex 2 Zcoordinate
    440319.81990873464,       !- Vertex 3 Xcoordinate
    4478530.769848422,        !- Vertex 3 Ycoordinate
    0,                        !- Vertex 3 Zcoordinate
    440319.81990873464,       !- Vertex 4 Xcoordinate
    4478530.769848422,        !- Vertex 4 Ycoordinate
    12;                       !- Vertex 4 Zcoordinate

SHADING:SITE:DETAILED,
    shade_relation/4169236_2,    !- Name
    ,                         !- Transmittance Schedule Name
    autocalculate,            !- Number of Vertices
    440319.81990873464,       !- Vertex 1 Xcoordinate
    4478530.769848422,        !- Vertex 1 Ycoordinate
    12,                       !- Vertex 1 Zcoordinate
    440319.81990873464,       !- Vertex 2 Xcoordinate
    4478530.769848422,        !- Vertex 2 Ycoordinate
    0,                        !- Vertex 2 Zcoordinate
    440309.8401737062,        !- Vertex 3 Xcoordinate
    4478547.159817897,        !- Vertex 3 Ycoordinate
    0,                        !- Vertex 3 Zcoordinate
    440309.8401737062,        !- Vertex 4 Xcoordinate
    4478547.159817897,        !- Vertex 4 Ycoordinate
    12;                       !- Vertex 4 Zcoordinate

SHADING:SITE:DETAILED,
    shade_relation/4169236_3,    !- Name
    ,                         !- Transmittance Schedule Name
    autocalculate,            !- Number of Vertices
    440309.8401737062,        !- Vertex 1 Xcoordinate
    4478547.159817897,        !- Vertex 1 Ycoordinate
    12,                       !- Vertex 1 Zcoordinate
    440309.8401737062,        !- Vertex 2 Xcoordinate
    4478547.159817897,        !- Vertex 2 Ycoordinate
    0,                        !- Vertex 2 Zcoordinate
    440336.26245370193,       !- Vertex 3 Xcoordinate
    4478563.24784326,         !- Vertex 3 Ycoordinate
    0,                        !- Vertex 3 Zcoordinate
    440336.26245370193,       !- Vertex 4 Xcoordinate
    4478563.24784326,         !- Vertex 4 Ycoordinate
    12;                       !- Vertex 4 Zcoordinate

SHADING:SITE:DETAILED,
    shade_relation/4169236_4,    !- Name
    ,                         !- Transmittance Schedule Name
    autocalculate,            !- Number of Vertices
    440336.26245370193,       !- Vertex 1 Xcoordinate
    4478563.24784326,         !- Vertex 1 Ycoordinate
    12,                       !- Vertex 1 Zcoordinate
    440336.26245370193,       !- Vertex 2 Xcoordinate
    4478563.24784326,         !- Vertex 2 Ycoordinate
    0,                        !- Vertex 2 Zcoordinate
    440346.2420462099,        !- Vertex 3 Xcoordinate
    4478546.857611676,        !- Vertex 3 Ycoordinate
    0,                        !- Vertex 3 Zcoordinate
    440346.2420462099,        !- Vertex 4 Xcoordinate
    4478546.857611676,        !- Vertex 4 Ycoordinate
    12;                       !- Vertex 4 Zcoordinate

SHADING:SITE:DETAILED,
    shade_relation/4154596_1,    !- Name
    ,                         !- Transmittance Schedule Name
    autocalculate,            !- Number of Vertices
    440364.2260257221,        !- Vertex 1 Xcoordinate
    4478534.1561395265,       !- Vertex 1 Ycoordinate
    12,                       !- Vertex 1 Zcoordinate
    440364.2260257221,        !- Vertex 2 Xcoordinate
    4478534.1561395265,       !- Vertex 2 Ycoordinate
    0,                        !- Vertex 2 Zcoordinate
    440355.5953188465,        !- Vertex 3 Xcoordinate
    4478558.750659371,        !- Vertex 3 Ycoordinate
    0,                        !- Vertex 3 Zcoordinate
    440355.5953188465,        !- Vertex 4 Xcoordinate
    4478558.750659371,        !- Vertex 4 Ycoordinate
    12;                       !- Vertex 4 Zcoordinate

SHADING:SITE:DETAILED,
    shade_relation/4154596_2,    !- Name
    ,                         !- Transmittance Schedule Name
    autocalculate,            !- Number of Vertices
    440355.5953188465,        !- Vertex 1 Xcoordinate
    4478558.750659371,        !- Vertex 1 Ycoordinate
    12,                       !- Vertex 1 Zcoordinate
    440355.5953188465,        !- Vertex 2 Xcoordinate
    4478558.750659371,        !- Vertex 2 Ycoordinate
    0,                        !- Vertex 2 Zcoordinate
    440370.8582364772,        !- Vertex 3 Xcoordinate
    4478564.106567288,        !- Vertex 3 Ycoordinate
    0,                        !- Vertex 3 Zcoordinate
    440370.8582364772,        !- Vertex 4 Xcoordinate
    4478564.106567288,        !- Vertex 4 Ycoordinate
    12;                       !- Vertex 4 Zcoordinate

SHADING:SITE:DETAILED,
    shade_relation/4154596_3,    !- Name
    ,                         !- Transmittance Schedule Name
    autocalculate,            !- Number of Vertices
    440370.8582364772,        !- Vertex 1 Xcoordinate
    4478564.106567288,        !- Vertex 1 Ycoordinate
    12,                       !- Vertex 1 Zcoordinate
    440370.8582364772,        !- Vertex 2 Xcoordinate
    4478564.106567288,        !- Vertex 2 Ycoordinate
    0,                        !- Vertex 2 Zcoordinate
    440379.4885475295,        !- Vertex 3 Xcoordinate
    4478539.511752586,        !- Vertex 3 Ycoordinate
    0,                        !- Vertex 3 Zcoordinate
    440379.4885475295,        !- Vertex 4 Xcoordinate
    4478539.511752586,        !- Vertex 4 Ycoordinate
    12;                       !- Vertex 4 Zcoordinate

SHADING:SITE:DETAILED,
    shade_relation/4154596_4,    !- Name
    ,                         !- Transmittance Schedule Name
    autocalculate,            !- Number of Vertices
    440379.4885475295,        !- Vertex 1 Xcoordinate
    4478539.511752586,        !- Vertex 1 Ycoordinate
    12,                       !- Vertex 1 Zcoordinate
    440379.4885475295,        !- Vertex 2 Xcoordinate
    4478539.511752586,        !- Vertex 2 Ycoordinate
    0,                        !- Vertex 2 Zcoordinate
    440364.2260257221,        !- Vertex 3 Xcoordinate
    4478534.1561395265,       !- Vertex 3 Ycoordinate
    0,                        !- Vertex 3 Zcoordinate
    440364.2260257221,        !- Vertex 4 Xcoordinate
    4478534.1561395265,       !- Vertex 4 Ycoordinate
    12;                       !- Vertex 4 Zcoordinate

SHADING:SITE:DETAILED,
    shade_way/310771816_1,    !- Name
    ,                         !- Transmittance Schedule Name
    autocalculate,            !- Number of Vertices
    440343.2925532266,        !- Vertex 1 Xcoordinate
    4478545.061565543,        !- Vertex 1 Ycoordinate
    12,                       !- Vertex 1 Zcoordinate
    440343.2925532266,        !- Vertex 2 Xcoordinate
    4478545.061565543,        !- Vertex 2 Ycoordinate
    0,                        !- Vertex 2 Zcoordinate
    440335.79280508804,       !- Vertex 3 Xcoordinate
    4478564.572416531,        !- Vertex 3 Ycoordinate
    0,                        !- Vertex 3 Zcoordinate
    440335.79280508804,       !- Vertex 4 Xcoordinate
    4478564.572416531,        !- Vertex 4 Ycoordinate
    12;                       !- Vertex 4 Zcoordinate

SHADING:SITE:DETAILED,
    shade_way/310771816_2,    !- Name
    ,                         !- Transmittance Schedule Name
    autocalculate,            !- Number of Vertices
    440335.79280508804,       !- Vertex 1 Xcoordinate
    4478564.572416531,        !- Vertex 1 Ycoordinate
    12,                       !- Vertex 1 Zcoordinate
    440335.79280508804,       !- Vertex 2 Xcoordinate
    4478564.572416531,        !- Vertex 2 Ycoordinate
    0,                        !- Vertex 2 Zcoordinate
    440344.6708346131,        !- Vertex 3 Xcoordinate
    4478567.984705823,        !- Vertex 3 Ycoordinate
    0,                        !- Vertex 3 Zcoordinate
    440344.6708346131,        !- Vertex 4 Xcoordinate
    4478567.984705823,        !- Vertex 4 Ycoordinate
    12;                       !- Vertex 4 Zcoordinate

SHADING:SITE:DETAILED,
    shade_way/310771816_3,    !- Name
    ,                         !- Transmittance Schedule Name
    autocalculate,            !- Number of Vertices
    440344.6708346131,        !- Vertex 1 Xcoordinate
    4478567.984705823,        !- Vertex 1 Ycoordinate
    12,                       !- Vertex 1 Zcoordinate
    440344.6708346131,        !- Vertex 2 Xcoordinate
    4478567.984705823,        !- Vertex 2 Ycoordinate
    0,                        !- Vertex 2 Zcoordinate
    440352.16899174557,       !- Vertex 3 Xcoordinate
    4478548.47302118,         !- Vertex 3 Ycoordinate
    0,                        !- Vertex 3 Zcoordinate
    440352.16899174557,       !- Vertex 4 Xcoordinate
    4478548.47302118,         !- Vertex 4 Ycoordinate
    12;                       !- Vertex 4 Zcoordinate

SHADING:SITE:DETAILED,
    shade_way/310771816_4,    !- Name
    ,                         !- Transmittance Schedule Name
    autocalculate,            !- Number of Vertices
    440352.16899174557,       !- Vertex 1 Xcoordinate
    4478548.47302118,         !- Vertex 1 Ycoordinate
    12,                       !- Vertex 1 Zcoordinate
    440352.16899174557,       !- Vertex 2 Xcoordinate
    4478548.47302118,         !- Vertex 2 Ycoordinate
    0,                        !- Vertex 2 Zcoordinate
    440343.2925532266,        !- Vertex 3 Xcoordinate
    4478545.061565543,        !- Vertex 3 Ycoordinate
    0,                        !- Vertex 3 Zcoordinate
    440343.2925532266,        !- Vertex 4 Xcoordinate
    4478545.061565543,        !- Vertex 4 Ycoordinate
    12;                       !- Vertex 4 Zcoordinate

SHADING:SITE:DETAILED,
    shade_relation/4154506_1,    !- Name
    ,                         !- Transmittance Schedule Name
    autocalculate,            !- Number of Vertices
    440347.6278933533,        !- Vertex 1 Xcoordinate
    4478569.703424693,        !- Vertex 1 Ycoordinate
    15,                       !- Vertex 1 Zcoordinate
    440347.6278933533,        !- Vertex 2 Xcoordinate
    4478569.703424693,        !- Vertex 2 Ycoordinate
    0,                        !- Vertex 2 Zcoordinate
    440331.8758082384,        !- Vertex 3 Xcoordinate
    4478560.414926468,        !- Vertex 3 Ycoordinate
    0,                        !- Vertex 3 Zcoordinate
    440331.8758082384,        !- Vertex 4 Xcoordinate
    4478560.414926468,        !- Vertex 4 Ycoordinate
    15;                       !- Vertex 4 Zcoordinate

SHADING:SITE:DETAILED,
    shade_relation/4154506_2,    !- Name
    ,                         !- Transmittance Schedule Name
    autocalculate,            !- Number of Vertices
    440331.8758082384,        !- Vertex 1 Xcoordinate
    4478560.414926468,        !- Vertex 1 Ycoordinate
    15,                       !- Vertex 1 Zcoordinate
    440331.8758082384,        !- Vertex 2 Xcoordinate
    4478560.414926468,        !- Vertex 2 Ycoordinate
    0,                        !- Vertex 2 Zcoordinate
    440321.12320009875,       !- Vertex 3 Xcoordinate
    4478578.651469206,        !- Vertex 3 Ycoordinate
    0,                        !- Vertex 3 Zcoordinate
    440321.12320009875,       !- Vertex 4 Xcoordinate
    4478578.651469206,        !- Vertex 4 Ycoordinate
    15;                       !- Vertex 4 Zcoordinate

SHADING:SITE:DETAILED,
    shade_relation/4154506_3,    !- Name
    ,                         !- Transmittance Schedule Name
    autocalculate,            !- Number of Vertices
    440321.12320009875,       !- Vertex 1 Xcoordinate
    4478578.651469206,        !- Vertex 1 Ycoordinate
    15,                       !- Vertex 1 Zcoordinate
    440321.12320009875,       !- Vertex 2 Xcoordinate
    4478578.651469206,        !- Vertex 2 Ycoordinate
    0,                        !- Vertex 2 Zcoordinate
    440336.8746724234,        !- Vertex 3 Xcoordinate
    4478587.93948903,         !- Vertex 3 Ycoordinate
    0,                        !- Vertex 3 Zcoordinate
    440336.8746724234,        !- Vertex 4 Xcoordinate
    4478587.93948903,         !- Vertex 4 Ycoordinate
    15;                       !- Vertex 4 Zcoordinate

SHADING:SITE:DETAILED,
    shade_relation/4154506_4,    !- Name
    ,                         !- Transmittance Schedule Name
    autocalculate,            !- Number of Vertices
    440336.8746724234,        !- Vertex 1 Xcoordinate
    4478587.93948903,         !- Vertex 1 Ycoordinate
    15,                       !- Vertex 1 Zcoordinate
    440336.8746724234,        !- Vertex 2 Xcoordinate
    4478587.93948903,         !- Vertex 2 Ycoordinate
    0,                        !- Vertex 2 Zcoordinate
    440347.6278933533,        !- Vertex 3 Xcoordinate
    4478569.703424693,        !- Vertex 3 Ycoordinate
    0,                        !- Vertex 3 Zcoordinate
    440347.6278933533,        !- Vertex 4 Xcoordinate
    4478569.703424693,        !- Vertex 4 Ycoordinate
    15;                       !- Vertex 4 Zcoordinate

SHADING:SITE:DETAILED,
    shade_relation/4154554_1,    !- Name
    ,                         !- Transmittance Schedule Name
    autocalculate,            !- Number of Vertices
    440346.62709616864,       !- Vertex 1 Xcoordinate
    4478584.10551218,         !- Vertex 1 Ycoordinate
    15,                       !- Vertex 1 Zcoordinate
    440346.62709616864,       !- Vertex 2 Xcoordinate
    4478584.10551218,         !- Vertex 2 Ycoordinate
    0,                        !- Vertex 2 Zcoordinate
    440373.7952720224,        !- Vertex 3 Xcoordinate
    4478586.377857747,        !- Vertex 3 Ycoordinate
    0,                        !- Vertex 3 Zcoordinate
    440373.7952720224,        !- Vertex 4 Xcoordinate
    4478586.377857747,        !- Vertex 4 Ycoordinate
    15;                       !- Vertex 4 Zcoordinate

SHADING:SITE:DETAILED,
    shade_relation/4154554_2,    !- Name
    ,                         !- Transmittance Schedule Name
    autocalculate,            !- Number of Vertices
    440373.7952720224,        !- Vertex 1 Xcoordinate
    4478586.377857747,        !- Vertex 1 Ycoordinate
    15,                       !- Vertex 1 Zcoordinate
    440373.7952720224,        !- Vertex 2 Xcoordinate
    4478586.377857747,        !- Vertex 2 Ycoordinate
    0,                        !- Vertex 2 Zcoordinate
    440374.95811094454,       !- Vertex 3 Xcoordinate
    4478572.474949339,        !- Vertex 3 Ycoordinate
    0,                        !- Vertex 3 Zcoordinate
    440374.95811094454,       !- Vertex 4 Xcoordinate
    4478572.474949339,        !- Vertex 4 Ycoordinate
    15;                       !- Vertex 4 Zcoordinate

SHADING:SITE:DETAILED,
    shade_relation/4154554_3,    !- Name
    ,                         !- Transmittance Schedule Name
    autocalculate,            !- Number of Vertices
    440374.95811094454,       !- Vertex 1 Xcoordinate
    4478572.474949339,        !- Vertex 1 Ycoordinate
    15,                       !- Vertex 1 Zcoordinate
    440374.95811094454,       !- Vertex 2 Xcoordinate
    4478572.474949339,        !- Vertex 2 Ycoordinate
    0,                        !- Vertex 2 Zcoordinate
    440347.78993509075,       !- Vertex 3 Xcoordinate
    4478570.202603772,        !- Vertex 3 Ycoordinate
    0,                        !- Vertex 3 Zcoordinate
    440347.78993509075,       !- Vertex 4 Xcoordinate
    4478570.202603772,        !- Vertex 4 Ycoordinate
    15;                       !- Vertex 4 Zcoordinate

SHADING:SITE:DETAILED,
    shade_relation/4154554_4,    !- Name
    ,                         !- Transmittance Schedule Name
    autocalculate,            !- Number of Vertices
    440347.78993509075,       !- Vertex 1 Xcoordinate
    4478570.202603772,        !- Vertex 1 Ycoordinate
    15,                       !- Vertex 1 Zcoordinate
    440347.78993509075,       !- Vertex 2 Xcoordinate
    4478570.202603772,        !- Vertex 2 Ycoordinate
    0,                        !- Vertex 2 Zcoordinate
    440346.62709616864,       !- Vertex 3 Xcoordinate
    4478584.10551218,         !- Vertex 3 Ycoordinate
    0,                        !- Vertex 3 Zcoordinate
    440346.62709616864,       !- Vertex 4 Xcoordinate
    4478584.10551218,         !- Vertex 4 Ycoordinate
    15;                       !- Vertex 4 Zcoordinate

SHADING:SITE:DETAILED,
    shade_way/310774080_1,    !- Name
    ,                         !- Transmittance Schedule Name
    autocalculate,            !- Number of Vertices
    440364.57303609507,       !- Vertex 1 Xcoordinate
    4478604.40499028,         !- Vertex 1 Ycoordinate
    15,                       !- Vertex 1 Zcoordinate
    440364.57303609507,       !- Vertex 2 Xcoordinate
    4478604.40499028,         !- Vertex 2 Ycoordinate
    0,                        !- Vertex 2 Zcoordinate
    440366.58813320857,       !- Vertex 3 Xcoordinate
    4478585.771090856,        !- Vertex 3 Ycoordinate
    0,                        !- Vertex 3 Zcoordinate
    440366.58813320857,       !- Vertex 4 Xcoordinate
    4478585.771090856,        !- Vertex 4 Ycoordinate
    15;                       !- Vertex 4 Zcoordinate

SHADING:SITE:DETAILED,
    shade_way/310774080_2,    !- Name
    ,                         !- Transmittance Schedule Name
    autocalculate,            !- Number of Vertices
    440366.58813320857,       !- Vertex 1 Xcoordinate
    4478585.771090856,        !- Vertex 1 Ycoordinate
    15,                       !- Vertex 1 Zcoordinate
    440366.58813320857,       !- Vertex 2 Xcoordinate
    4478585.771090856,        !- Vertex 2 Ycoordinate
    0,                        !- Vertex 2 Zcoordinate
    440343.23172532185,       !- Vertex 3 Xcoordinate
    4478583.245183135,        !- Vertex 3 Ycoordinate
    0,                        !- Vertex 3 Zcoordinate
    440343.23172532185,       !- Vertex 4 Xcoordinate
    4478583.245183135,        !- Vertex 4 Ycoordinate
    15;                       !- Vertex 4 Zcoordinate

SHADING:SITE:DETAILED,
    shade_way/310774080_3,    !- Name
    ,                         !- Transmittance Schedule Name
    autocalculate,            !- Number of Vertices
    440343.23172532185,       !- Vertex 1 Xcoordinate
    4478583.245183135,        !- Vertex 1 Ycoordinate
    15,                       !- Vertex 1 Zcoordinate
    440343.23172532185,       !- Vertex 2 Xcoordinate
    4478583.245183135,        !- Vertex 2 Ycoordinate
    0,                        !- Vertex 2 Zcoordinate
    440341.2164484981,        !- Vertex 3 Xcoordinate
    4478601.878928634,        !- Vertex 3 Ycoordinate
    0,                        !- Vertex 3 Zcoordinate
    440341.2164484981,        !- Vertex 4 Xcoordinate
    4478601.878928634,        !- Vertex 4 Ycoordinate
    15;                       !- Vertex 4 Zcoordinate

SHADING:SITE:DETAILED,
    shade_way/310774080_4,    !- Name
    ,                         !- Transmittance Schedule Name
    autocalculate,            !- Number of Vertices
    440341.2164484981,        !- Vertex 1 Xcoordinate
    4478601.878928634,        !- Vertex 1 Ycoordinate
    15,                       !- Vertex 1 Zcoordinate
    440341.2164484981,        !- Vertex 2 Xcoordinate
    4478601.878928634,        !- Vertex 2 Ycoordinate
    0,                        !- Vertex 2 Zcoordinate
    440364.57303609507,       !- Vertex 3 Xcoordinate
    4478604.40499028,         !- Vertex 3 Ycoordinate
    0,                        !- Vertex 3 Zcoordinate
    440364.57303609507,       !- Vertex 4 Xcoordinate
    4478604.40499028,         !- Vertex 4 Ycoordinate
    15;                       !- Vertex 4 Zcoordinate

SHADING:SITE:DETAILED,
    shade_way/310771771_1,    !- Name
    ,                         !- Transmittance Schedule Name
    autocalculate,            !- Number of Vertices
    440306.78556309245,       !- Vertex 1 Xcoordinate
    4478591.622561576,        !- Vertex 1 Ycoordinate
    12,                       !- Vertex 1 Zcoordinate
    440306.78556309245,       !- Vertex 2 Xcoordinate
    4478591.622561576,        !- Vertex 2 Ycoordinate
    0,                        !- Vertex 2 Zcoordinate
    440333.56411264394,       !- Vertex 3 Xcoordinate
    4478600.5527529735,       !- Vertex 3 Ycoordinate
    0,                        !- Vertex 3 Zcoordinate
    440333.56411264394,       !- Vertex 4 Xcoordinate
    4478600.5527529735,       !- Vertex 4 Ycoordinate
    12;                       !- Vertex 4 Zcoordinate

SHADING:SITE:DETAILED,
    shade_way/310771771_2,    !- Name
    ,                         !- Transmittance Schedule Name
    autocalculate,            !- Number of Vertices
    440333.56411264394,       !- Vertex 1 Xcoordinate
    4478600.5527529735,       !- Vertex 1 Ycoordinate
    12,                       !- Vertex 1 Zcoordinate
    440333.56411264394,       !- Vertex 2 Xcoordinate
    4478600.5527529735,       !- Vertex 2 Ycoordinate
    0,                        !- Vertex 2 Zcoordinate
    440338.9341448412,        !- Vertex 3 Xcoordinate
    4478584.44840924,         !- Vertex 3 Ycoordinate
    0,                        !- Vertex 3 Zcoordinate
    440338.9341448412,        !- Vertex 4 Xcoordinate
    4478584.44840924,         !- Vertex 4 Ycoordinate
    12;                       !- Vertex 4 Zcoordinate

SHADING:SITE:DETAILED,
    shade_way/310771771_3,    !- Name
    ,                         !- Transmittance Schedule Name
    autocalculate,            !- Number of Vertices
    440338.9341448412,        !- Vertex 1 Xcoordinate
    4478584.44840924,         !- Vertex 1 Ycoordinate
    12,                       !- Vertex 1 Zcoordinate
    440338.9341448412,        !- Vertex 2 Xcoordinate
    4478584.44840924,         !- Vertex 2 Ycoordinate
    0,                        !- Vertex 2 Zcoordinate
    440312.1560841556,        !- Vertex 3 Xcoordinate
    4478575.518229887,        !- Vertex 3 Ycoordinate
    0,                        !- Vertex 3 Zcoordinate
    440312.1560841556,        !- Vertex 4 Xcoordinate
    4478575.518229887,        !- Vertex 4 Ycoordinate
    12;                       !- Vertex 4 Zcoordinate

SHADING:SITE:DETAILED,
    shade_way/310771771_4,    !- Name
    ,                         !- Transmittance Schedule Name
    autocalculate,            !- Number of Vertices
    440312.1560841556,        !- Vertex 1 Xcoordinate
    4478575.518229887,        !- Vertex 1 Ycoordinate
    12,                       !- Vertex 1 Zcoordinate
    440312.1560841556,        !- Vertex 2 Xcoordinate
    4478575.518229887,        !- Vertex 2 Ycoordinate
    0,                        !- Vertex 2 Zcoordinate
    440306.78556309245,       !- Vertex 3 Xcoordinate
    4478591.622561576,        !- Vertex 3 Ycoordinate
    0,                        !- Vertex 3 Zcoordinate
    440306.78556309245,       !- Vertex 4 Xcoordinate
    4478591.622561576,        !- Vertex 4 Ycoordinate
    12;                       !- Vertex 4 Zcoordinate

OTHEREQUIPMENT,
    EU_Step8_InternalGain_c93dc4b58c370fcb_F0_whole_f000,    !- Name
    Electricity,              !- Fuel Type
    c93dc4b58c370fcb_F0_whole,    !- Zone or ZoneList or Space or SpaceList Name
    EU_Step8_GainSchedule_c93dc4b58c370fcb_F0_whole_f000,    !- Schedule Name
    Watts/Area,               !- Design Level Calculation Method
    ,                         !- Design Level
    1,                        !- Power per Zone Floor Area
    ,                         !- Power per Person
    0,                        !- Fraction Latent
    0,                        !- Fraction Radiant
    0,                        !- Fraction Lost
    0,                        !- Carbon Dioxide Generation Rate
    EU_Step8_InternalGains;    !- EndUse Subcategory

OTHEREQUIPMENT,
    EU_Step8_InternalGain_c93dc4b58c370fcb_F1_whole_f000,    !- Name
    Electricity,              !- Fuel Type
    c93dc4b58c370fcb_F1_whole,    !- Zone or ZoneList or Space or SpaceList Name
    EU_Step8_GainSchedule_c93dc4b58c370fcb_F1_whole_f000,    !- Schedule Name
    Watts/Area,               !- Design Level Calculation Method
    ,                         !- Design Level
    1,                        !- Power per Zone Floor Area
    ,                         !- Power per Person
    0,                        !- Fraction Latent
    0,                        !- Fraction Radiant
    0,                        !- Fraction Lost
    0,                        !- Carbon Dioxide Generation Rate
    EU_Step8_InternalGains;    !- EndUse Subcategory

ZONEVENTILATION:DESIGNFLOWRATE,
    EU_ConstantAir_c93dc4b58c370fcb_F0_whole,    !- Name
    c93dc4b58c370fcb_F0_whole,    !- Zone or ZoneList or Space or SpaceList Name
    EU_AlwaysOn,              !- Schedule Name
    AirChanges/Hour,          !- Design Flow Rate Calculation Method
    ,                         !- Design Flow Rate
    ,                         !- Flow Rate per Floor Area
    ,                         !- Flow Rate per Person
    0.7033018520864271,       !- Air Changes per Hour
    Natural,                  !- Ventilation Type
    0,                        !- Fan Pressure Rise
    1,                        !- Fan Total Efficiency
    1,                        !- Constant Term Coefficient
    0,                        !- Temperature Term Coefficient
    0,                        !- Velocity Term Coefficient
    0,                        !- Velocity Squared Term Coefficient
    -100,                     !- Minimum Indoor Temperature
    ,                         !- Minimum Indoor Temperature Schedule Name
    100,                      !- Maximum Indoor Temperature
    ,                         !- Maximum Indoor Temperature Schedule Name
    -100,                     !- Delta Temperature
    ,                         !- Delta Temperature Schedule Name
    -100,                     !- Minimum Outdoor Temperature
    ,                         !- Minimum Outdoor Temperature Schedule Name
    100,                      !- Maximum Outdoor Temperature
    ,                         !- Maximum Outdoor Temperature Schedule Name
    40;                       !- Maximum Wind Speed

ZONEVENTILATION:DESIGNFLOWRATE,
    EU_ConstantAir_c93dc4b58c370fcb_F1_whole,    !- Name
    c93dc4b58c370fcb_F1_whole,    !- Zone or ZoneList or Space or SpaceList Name
    EU_AlwaysOn,              !- Schedule Name
    AirChanges/Hour,          !- Design Flow Rate Calculation Method
    ,                         !- Design Flow Rate
    ,                         !- Flow Rate per Floor Area
    ,                         !- Flow Rate per Person
    0.7033018520864271,       !- Air Changes per Hour
    Natural,                  !- Ventilation Type
    0,                        !- Fan Pressure Rise
    1,                        !- Fan Total Efficiency
    1,                        !- Constant Term Coefficient
    0,                        !- Temperature Term Coefficient
    0,                        !- Velocity Term Coefficient
    0,                        !- Velocity Squared Term Coefficient
    -100,                     !- Minimum Indoor Temperature
    ,                         !- Minimum Indoor Temperature Schedule Name
    100,                      !- Maximum Indoor Temperature
    ,                         !- Maximum Indoor Temperature Schedule Name
    -100,                     !- Delta Temperature
    ,                         !- Delta Temperature Schedule Name
    -100,                     !- Minimum Outdoor Temperature
    ,                         !- Minimum Outdoor Temperature Schedule Name
    100,                      !- Maximum Outdoor Temperature
    ,                         !- Maximum Outdoor Temperature Schedule Name
    40;                       !- Maximum Wind Speed

HVACTEMPLATE:THERMOSTAT,
    EU_HeatOnly_c93dc4b58c370fcb_F0_whole,    !- Name
    ,                         !- Heating Setpoint Schedule Name
    20,                       !- Constant Heating Setpoint
    ,                         !- Cooling Setpoint Schedule Name
    50;                       !- Constant Cooling Setpoint

HVACTEMPLATE:THERMOSTAT,
    EU_HeatOnly_c93dc4b58c370fcb_F1_whole,    !- Name
    ,                         !- Heating Setpoint Schedule Name
    20,                       !- Constant Heating Setpoint
    ,                         !- Cooling Setpoint Schedule Name
    50;                       !- Constant Cooling Setpoint

HVACTEMPLATE:ZONE:IDEALLOADSAIRSYSTEM,
    c93dc4b58c370fcb_F0_whole,    !- Zone Name
    EU_HeatOnly_c93dc4b58c370fcb_F0_whole,    !- Template Thermostat Name
    EU_AlwaysOn,              !- System Availability Schedule Name
    50,                       !- Maximum Heating Supply Air Temperature
    13,                       !- Minimum Cooling Supply Air Temperature
    0.0156,                   !- Maximum Heating Supply Air Humidity Ratio
    0.0077,                   !- Minimum Cooling Supply Air Humidity Ratio
    NoLimit,                  !- Heating Limit
    ,                         !- Maximum Heating Air Flow Rate
    ,                         !- Maximum Sensible Heating Capacity
    NoLimit,                  !- Cooling Limit
    ,                         !- Maximum Cooling Air Flow Rate
    ,                         !- Maximum Total Cooling Capacity
    EU_AlwaysOn,              !- Heating Availability Schedule Name
    EU_CoolingOff,            !- Cooling Availability Schedule Name
    ConstantSensibleHeatRatio,    !- Dehumidification Control Type
    0.7,                      !- Cooling Sensible Heat Ratio
    60,                       !- Dehumidification Setpoint
    None,                     !- Humidification Control Type
    30,                       !- Humidification Setpoint
    None,                     !- Outdoor Air Method
    0.00944,                  !- Outdoor Air Flow Rate per Person
    0.0,                      !- Outdoor Air Flow Rate per Zone Floor Area
    0,                        !- Outdoor Air Flow Rate per Zone
    ,                         !- Design Specification Outdoor Air Object Name
    None,                     !- Demand Controlled Ventilation Type
    NoEconomizer,             !- Outdoor Air Economizer Type
    None,                     !- Heat Recovery Type
    0.70,                     !- Sensible Heat Recovery Effectiveness
    0.65;                     !- Latent Heat Recovery Effectiveness

HVACTEMPLATE:ZONE:IDEALLOADSAIRSYSTEM,
    c93dc4b58c370fcb_F1_whole,    !- Zone Name
    EU_HeatOnly_c93dc4b58c370fcb_F1_whole,    !- Template Thermostat Name
    EU_AlwaysOn,              !- System Availability Schedule Name
    50,                       !- Maximum Heating Supply Air Temperature
    13,                       !- Minimum Cooling Supply Air Temperature
    0.0156,                   !- Maximum Heating Supply Air Humidity Ratio
    0.0077,                   !- Minimum Cooling Supply Air Humidity Ratio
    NoLimit,                  !- Heating Limit
    ,                         !- Maximum Heating Air Flow Rate
    ,                         !- Maximum Sensible Heating Capacity
    NoLimit,                  !- Cooling Limit
    ,                         !- Maximum Cooling Air Flow Rate
    ,                         !- Maximum Total Cooling Capacity
    EU_AlwaysOn,              !- Heating Availability Schedule Name
    EU_CoolingOff,            !- Cooling Availability Schedule Name
    ConstantSensibleHeatRatio,    !- Dehumidification Control Type
    0.7,                      !- Cooling Sensible Heat Ratio
    60,                       !- Dehumidification Setpoint
    None,                     !- Humidification Control Type
    30,                       !- Humidification Setpoint
    None,                     !- Outdoor Air Method
    0.00944,                  !- Outdoor Air Flow Rate per Person
    0.0,                      !- Outdoor Air Flow Rate per Zone Floor Area
    0,                        !- Outdoor Air Flow Rate per Zone
    ,                         !- Design Specification Outdoor Air Object Name
    None,                     !- Demand Controlled Ventilation Type
    NoEconomizer,             !- Outdoor Air Economizer Type
    None,                     !- Heat Recovery Type
    0.70,                     !- Sensible Heat Recovery Effectiveness
    0.65;                     !- Latent Heat Recovery Effectiveness

SIZING:ZONE,
    c93dc4b58c370fcb_F0_whole,    !- Zone or ZoneList Name
    SupplyAirTemperature,     !- Zone Cooling Design Supply Air Temperature Input Method
    13,                       !- Zone Cooling Design Supply Air Temperature
    ,                         !- Zone Cooling Design Supply Air Temperature Difference
    SupplyAirTemperature,     !- Zone Heating Design Supply Air Temperature Input Method
    50,                       !- Zone Heating Design Supply Air Temperature
    ,                         !- Zone Heating Design Supply Air Temperature Difference
    0.008,                    !- Zone Cooling Design Supply Air Humidity Ratio
    0.008,                    !- Zone Heating Design Supply Air Humidity Ratio
    ,                         !- Design Specification Outdoor Air Object Name
    ,                         !- Zone Heating Sizing Factor
    ,                         !- Zone Cooling Sizing Factor
    DesignDay,                !- Cooling Design Air Flow Method
    0,                        !- Cooling Design Air Flow Rate
    0.000762,                 !- Cooling Minimum Air Flow per Zone Floor Area
    0,                        !- Cooling Minimum Air Flow
    0.2,                      !- Cooling Minimum Air Flow Fraction
    DesignDay,                !- Heating Design Air Flow Method
    0,                        !- Heating Design Air Flow Rate
    0.002032,                 !- Heating Maximum Air Flow per Zone Floor Area
    0.1415762,                !- Heating Maximum Air Flow
    0.3,                      !- Heating Maximum Air Flow Fraction
    ,                         !- Design Specification Zone Air Distribution Object Name
    No,                       !- Account for Dedicated Outdoor Air System
    NeutralSupplyAir,         !- Dedicated Outdoor Air System Control Strategy
    autosize,                 !- Dedicated Outdoor Air Low Setpoint Temperature for Design
    autosize,                 !- Dedicated Outdoor Air High Setpoint Temperature for Design
    Sensible Load Only No Latent Load,    !- Zone Load Sizing Method
    HumidityRatioDifference,    !- Zone Latent Cooling Design Supply Air Humidity Ratio Input Method
    ,                         !- Zone Dehumidification Design Supply Air Humidity Ratio
    0.005,                    !- Zone Cooling Design Supply Air Humidity Ratio Difference
    HumidityRatioDifference,    !- Zone Latent Heating Design Supply Air Humidity Ratio Input Method
    ,                         !- Zone Humidification Design Supply Air Humidity Ratio
    0.005;                    !- Zone Humidification Design Supply Air Humidity Ratio Difference

SIZING:ZONE,
    c93dc4b58c370fcb_F1_whole,    !- Zone or ZoneList Name
    SupplyAirTemperature,     !- Zone Cooling Design Supply Air Temperature Input Method
    13,                       !- Zone Cooling Design Supply Air Temperature
    ,                         !- Zone Cooling Design Supply Air Temperature Difference
    SupplyAirTemperature,     !- Zone Heating Design Supply Air Temperature Input Method
    50,                       !- Zone Heating Design Supply Air Temperature
    ,                         !- Zone Heating Design Supply Air Temperature Difference
    0.008,                    !- Zone Cooling Design Supply Air Humidity Ratio
    0.008,                    !- Zone Heating Design Supply Air Humidity Ratio
    ,                         !- Design Specification Outdoor Air Object Name
    ,                         !- Zone Heating Sizing Factor
    ,                         !- Zone Cooling Sizing Factor
    DesignDay,                !- Cooling Design Air Flow Method
    0,                        !- Cooling Design Air Flow Rate
    0.000762,                 !- Cooling Minimum Air Flow per Zone Floor Area
    0,                        !- Cooling Minimum Air Flow
    0.2,                      !- Cooling Minimum Air Flow Fraction
    DesignDay,                !- Heating Design Air Flow Method
    0,                        !- Heating Design Air Flow Rate
    0.002032,                 !- Heating Maximum Air Flow per Zone Floor Area
    0.1415762,                !- Heating Maximum Air Flow
    0.3,                      !- Heating Maximum Air Flow Fraction
    ,                         !- Design Specification Zone Air Distribution Object Name
    No,                       !- Account for Dedicated Outdoor Air System
    NeutralSupplyAir,         !- Dedicated Outdoor Air System Control Strategy
    autosize,                 !- Dedicated Outdoor Air Low Setpoint Temperature for Design
    autosize,                 !- Dedicated Outdoor Air High Setpoint Temperature for Design
    Sensible Load Only No Latent Load,    !- Zone Load Sizing Method
    HumidityRatioDifference,    !- Zone Latent Cooling Design Supply Air Humidity Ratio Input Method
    ,                         !- Zone Dehumidification Design Supply Air Humidity Ratio
    0.005,                    !- Zone Cooling Design Supply Air Humidity Ratio Difference
    HumidityRatioDifference,    !- Zone Latent Heating Design Supply Air Humidity Ratio Input Method
    ,                         !- Zone Humidification Design Supply Air Humidity Ratio
    0.005;                    !- Zone Humidification Design Supply Air Humidity Ratio Difference

OUTPUT:VARIABLE,
    *,                        !- Key Value
    Zone Ideal Loads Zone Total Heating Energy,    !- Variable Name
    Hourly;                   !- Reporting Frequency

OUTPUT:SQLITE,
    SimpleAndTabular,         !- Option Type
    UseOutputControlTableStyle;    !- Unit Conversion for Tabular Data