!- Windows Line endings 

Version,
    23.1;                     !- Version Identifier

SimulationControl,
    Yes,                      !- Do Zone Sizing Calculation
    Yes,                      !- Do System Sizing Calculation
    Yes,                      !- Do Plant Sizing Calculation
    No,                       !- Run Simulation for Sizing Periods
    Yes,                      !- Run Simulation for Weather File Run Periods
    No,                       !- Do HVAC Sizing Simulation for Sizing Periods
    1;                        !- Maximum Number of HVAC Sizing Simulation Passes

Building,
    EU S2 Campaign,           !- Name
    0,                        !- North Axis
    City,                     !- Terrain
    ,                         !- Loads Convergence Tolerance Value
    ,                         !- Temperature Convergence Tolerance Value
    FullExterior,             !- Solar Distribution
    ,                         !- Maximum Number of Warmup Days
    ;                         !- Minimum Number of Warmup Days

ShadowCalculation,
    PolygonClipping,          !- Shading Calculation Method
    Periodic,                 !- Shading Calculation Update Frequency Method
    1;                        !- Shading Calculation Update Frequency

HeatBalanceAlgorithm,
    ConductionTransferFunction,    !- Algorithm
    200,                      !- Surface Temperature Upper Limit
    0.1,                      !- Minimum Surface Convection Heat Transfer Coefficient Value
    10000000;                 !- Maximum Surface Convection Heat Transfer Coefficient Value

Timestep,
    12;                       !- Number of Timesteps per Hour

Site:Location,
    London,                   !- Name
    51.5,                     !- Latitude
    -0.5,                     !- Longitude
    0,                        !- Time Zone
    25;                       !- Elevation

SizingPeriod:WeatherFileDays,
    AnnualSizingPeriod,       !- Name
    1,                        !- Begin Month
    1,                        !- Begin Day of Month
    12,                       !- End Month
    31,                       !- End Day of Month
    Monday,                   !- Day of Week for Start Day
    No,                       !- Use Weather File Daylight Saving Period
    No;                       !- Use Weather File Rain and Snow Indicators

RunPeriod,
    RunPeriod1,               !- Name
    1,                        !- Begin Month
    1,                        !- Begin Day of Month
    ,                         !- Begin Year
    12,                       !- End Month
    31,                       !- End Day of Month
    ,                         !- End Year
    Sunday,                   !- Day of Week for Start Day
    No,                       !- Use Weather File Holidays and Special Days
    No,                       !- Use Weather File Daylight Saving Period
    No,                       !- Apply Weekend Holiday Rule
    Yes,                      !- Use Weather File Rain Indicators
    Yes;                      !- Use Weather File Snow Indicators

ScheduleTypeLimits,
    Any Number;               !- Name

SCHEDULETYPELIMITS,
    EU_Step8_AnyNumber_Wm2,    !- Name
    ,                         !- Lower Limit Value
    ,                         !- Upper Limit Value
    Continuous,               !- Numeric Type
    Dimensionless;            !- Unit Type

SCHEDULE:CONSTANT,
    EU_AlwaysOn,              !- Name
    ,                         !- Schedule Type Limits Name
    1;                        !- Hourly Value

SCHEDULE:CONSTANT,
    EU_CoolingOff,            !- Name
    ,                         !- Schedule Type Limits Name
    0;                        !- Hourly Value

SCHEDULE:FILE,
    EU_Step8_GainSchedule_416e3846a3e1d463_F0_dwelling_0_f000,    !- Name
    EU_Step8_AnyNumber_Wm2,    !- Schedule Type Limits Name
    ../../schedules/416e3846a3e1d463/416e3846a3e1d463_F0_dwelling_0_f000_gain.csv,    !- File Name
    1,                        !- Column Number
    0,                        !- Rows to Skip at Top
    8760,                     !- Number of Hours of Data
    Comma,                    !- Column Separator
    No,                       !- Interpolate to Timestep
    60,                       !- Minutes per Item
    Yes;                      !- Adjust Schedule for Daylight Savings

MATERIAL,
    EU_InternalMass_Material,    !- Name
    MediumRough,              !- Roughness
    0.1,                      !- Thickness
    1,                        !- Conductivity
    1800,                     !- Density
    900,                      !- Specific Heat
    0.9,                      !- Thermal Absorptance
    0.7,                      !- Solar Absorptance
    0.7;                      !- Visible Absorptance

MATERIAL:NOMASS,
    EU_wall_NoMass,           !- Name
    MediumRough,              !- Roughness
    0.7278629942482108,       !- Thermal Resistance
    0.9,                      !- Thermal Absorptance
    0.7,                      !- Solar Absorptance
    0.7;                      !- Visible Absorptance

MATERIAL:NOMASS,
    EU_roof_NoMass,           !- Name
    MediumRough,              !- Roughness
    0.7733544313887238,       !- Thermal Resistance
    0.9,                      !- Thermal Absorptance
    0.7,                      !- Solar Absorptance
    0.7;                      !- Visible Absorptance

MATERIAL:NOMASS,
    EU_floor_NoMass,          !- Name
    MediumRough,              !- Roughness
    1.7932856380028381,       !- Thermal Resistance
    0.9,                      !- Thermal Absorptance
    0.7,                      !- Solar Absorptance
    0.7;                      !- Visible Absorptance

CONSTRUCTION,
    EU_wall_Construction,     !- Name
    EU_wall_NoMass;           !- Outside Layer

CONSTRUCTION,
    EU_roof_Construction,     !- Name
    EU_roof_NoMass;           !- Outside Layer

CONSTRUCTION,
    EU_floor_Construction,    !- Name
    EU_floor_NoMass;          !- Outside Layer

CONSTRUCTION,
    EU_InternalMass_Construction,    !- Name
    EU_InternalMass_Material;    !- Outside Layer

GlobalGeometryRules,
    UpperLeftCorner,          !- Starting Vertex Position
    CounterClockWise,         !- Vertex Entry Direction
    World;                    !- Coordinate System

ZONE,
    416e3846a3e1d463_F0_dwelling_0,    !- Name
    0,                        !- Direction of Relative North
    0,                        !- X Origin
    0,                        !- Y Origin
    0,                        !- Z Origin
    1,                        !- Type
    1,                        !- Multiplier
    autocalculate,            !- Ceiling Height
    299.95166015625,          !- Volume
    autocalculate,            !- Floor Area
    ,                         !- Zone Inside Convection Algorithm
    ,                         !- Zone Outside Convection Algorithm
    Yes;                      !- Part of Total Floor Area

BUILDINGSURFACE:DETAILED,
    Block 416e3846a3e1d463_0 Storey 0 Wall 0001,    !- Name
    wall,                     !- Surface Type
    EU_wall_Construction,     !- Construction Name
    416e3846a3e1d463_F0_dwelling_0,    !- Zone Name
    ,                         !- Space Name
    outdoors,                 !- Outside Boundary Condition
    ,                         !- Outside Boundary Condition Object
    SunExposed,               !- Sun Exposure
    WindExposed,              !- Wind Exposure
    autocalculate,            !- View Factor to Ground
    autocalculate,            !- Number of Vertices
    705152.041,               !- Vertex 1 Xcoordinate
    5711947.835,              !- Vertex 1 Ycoordinate
    6,                        !- Vertex 1 Zcoordinate
    705152.041,               !- Vertex 2 Xcoordinate
    5711947.835,              !- Vertex 2 Ycoordinate
    0,                        !- Vertex 2 Zcoordinate
    705158.577,               !- Vertex 3 Xcoordinate
    5711950.293,              !- Vertex 3 Ycoordinate
    0,                        !- Vertex 3 Zcoordinate
    705158.577,               !- Vertex 4 Xcoordinate
    5711950.293,              !- Vertex 4 Ycoordinate
    6;                        !- Vertex 4 Zcoordinate

BUILDINGSURFACE:DETAILED,
    Block 416e3846a3e1d463_0 Storey 0 Wall 0002,    !- Name
    wall,                     !- Surface Type
    EU_wall_Construction,     !- Construction Name
    416e3846a3e1d463_F0_dwelling_0,    !- Zone Name
    ,                         !- Space Name
    Adiabatic,                !- Outside Boundary Condition
    ,                         !- Outside Boundary Condition Object
    NoSun,                    !- Sun Exposure
    NoWind,                   !- Wind Exposure
    autocalculate,            !- View Factor to Ground
    autocalculate,            !- Number of Vertices
    705158.577,               !- Vertex 1 Xcoordinate
    5711950.293,              !- Vertex 1 Ycoordinate
    6,                        !- Vertex 1 Zcoordinate
    705158.577,               !- Vertex 2 Xcoordinate
    5711950.293,              !- Vertex 2 Ycoordinate
    0,                        !- Vertex 2 Zcoordinate
    705161.146,               !- Vertex 3 Xcoordinate
    5711943.626,              !- Vertex 3 Ycoordinate
    0,                        !- Vertex 3 Zcoordinate
    705161.146,               !- Vertex 4 Xcoordinate
    5711943.626,              !- Vertex 4 Ycoordinate
    6;                        !- Vertex 4 Zcoordinate

BUILDINGSURFACE:DETAILED,
    Block 416e3846a3e1d463_0 Storey 0 Wall 0003,    !- Name
    wall,                     !- Surface Type
    EU_wall_Construction,     !- Construction Name
    416e3846a3e1d463_F0_dwelling_0,    !- Zone Name
    ,                         !- Space Name
    outdoors,                 !- Outside Boundary Condition
    ,                         !- Outside Boundary Condition Object
    SunExposed,               !- Sun Exposure
    WindExposed,              !- Wind Exposure
    autocalculate,            !- View Factor to Ground
    autocalculate,            !- Number of Vertices
    705161.146,               !- Vertex 1 Xcoordinate
    5711943.626,              !- Vertex 1 Ycoordinate
    6,                        !- Vertex 1 Zcoordinate
    705161.146,               !- Vertex 2 Xcoordinate
    5711943.626,              !- Vertex 2 Ycoordinate
    0,                        !- Vertex 2 Zcoordinate
    705154.633,               !- Vertex 3 Xcoordinate
    5711941.135,              !- Vertex 3 Ycoordinate
    0,                        !- Vertex 3 Zcoordinate
    705154.633,               !- Vertex 4 Xcoordinate
    5711941.135,              !- Vertex 4 Ycoordinate
    6;                        !- Vertex 4 Zcoordinate

BUILDINGSURFACE:DETAILED,
    Block 416e3846a3e1d463_0 Storey 0 Wall 0004,    !- Name
    wall,                     !- Surface Type
    EU_wall_Construction,     !- Construction Name
    416e3846a3e1d463_F0_dwelling_0,    !- Zone Name
    ,                         !- Space Name
    outdoors,                 !- Outside Boundary Condition
    ,                         !- Outside Boundary Condition Object
    SunExposed,               !- Sun Exposure
    WindExposed,              !- Wind Exposure
    autocalculate,            !- View Factor to Ground
    autocalculate,            !- Number of Vertices
    705154.633,               !- Vertex 1 Xcoordinate
    5711941.135,              !- Vertex 1 Ycoordinate
    6,                        !- Vertex 1 Zcoordinate
    705154.633,               !- Vertex 2 Xcoordinate
    5711941.135,              !- Vertex 2 Ycoordinate
    0,                        !- Vertex 2 Zcoordinate
    705152.041,               !- Vertex 3 Xcoordinate
    5711947.835,              !- Vertex 3 Ycoordinate
    0,                        !- Vertex 3 Zcoordinate
    705152.041,               !- Vertex 4 Xcoordinate
    5711947.835,              !- Vertex 4 Ycoordinate
    6;                        !- Vertex 4 Zcoordinate

BUILDINGSURFACE:DETAILED,
    Block 416e3846a3e1d463_0 Storey 0 Floor 0001,    !- Name
    floor,                    !- Surface Type
    EU_floor_Construction,    !- Construction Name
    416e3846a3e1d463_F0_dwelling_0,    !- Zone Name
    ,                         !- Space Name
    ground,                   !- Outside Boundary Condition
    ,                         !- Outside Boundary Condition Object
    NoSun,                    !- Sun Exposure
    NoWind,                   !- Wind Exposure
    autocalculate,            !- View Factor to Ground
    autocalculate,            !- Number of Vertices
    705161.146,               !- Vertex 1 Xcoordinate
    5711943.626,              !- Vertex 1 Ycoordinate
    0,                        !- Vertex 1 Zcoordinate
    705158.577,               !- Vertex 2 Xcoordinate
    5711950.293,              !- Vertex 2 Ycoordinate
    0,                        !- Vertex 2 Zcoordinate
    705152.041,               !- Vertex 3 Xcoordinate
    5711947.835,              !- Vertex 3 Ycoordinate
    0,                        !- Vertex 3 Zcoordinate
    705154.633,               !- Vertex 4 Xcoordinate
    5711941.135,              !- Vertex 4 Ycoordinate
    0;                        !- Vertex 4 Zcoordinate

BUILDINGSURFACE:DETAILED,
    Block 416e3846a3e1d463_0 Storey 0 Roof 0001,    !- Name
    roof,                     !- Surface Type
    EU_roof_Construction,     !- Construction Name
    416e3846a3e1d463_F0_dwelling_0,    !- Zone Name
    ,                         !- Space Name
    outdoors,                 !- Outside Boundary Condition
    ,                         !- Outside Boundary Condition Object
    NoSun,                    !- Sun Exposure
    WindExposed,              !- Wind Exposure
    autocalculate,            !- View Factor to Ground
    autocalculate,            !- Number of Vertices
    705158.577,               !- Vertex 1 Xcoordinate
    5711950.293,              !- Vertex 1 Ycoordinate
    6,                        !- Vertex 1 Zcoordinate
    705161.146,               !- Vertex 2 Xcoordinate
    5711943.626,              !- Vertex 2 Ycoordinate
    6,                        !- Vertex 2 Zcoordinate
    705154.633,               !- Vertex 3 Xcoordinate
    5711941.135,              !- Vertex 3 Ycoordinate
    6,                        !- Vertex 3 Zcoordinate
    705152.041,               !- Vertex 4 Xcoordinate
    5711947.835,              !- Vertex 4 Ycoordinate
    6;                        !- Vertex 4 Zcoordinate

INTERNALMASS,
    416e3846a3e1d463_F0_dwelling_0_EU_InternalMass,    !- Name
    EU_InternalMass_Construction,    !- Construction Name
    416e3846a3e1d463_F0_dwelling_0,    !- Zone or ZoneList Name
    ,                         !- Space or SpaceList Name
    49.99194300351411;        !- Surface Area

SHADING:SITE:DETAILED,
    shade_way/1430549458_1,    !- Name
    ,                         !- Transmittance Schedule Name
    autocalculate,            !- Number of Vertices
    705145.0832262241,        !- Vertex 1 Xcoordinate
    5711929.828031641,        !- Vertex 1 Ycoordinate
    6,                        !- Vertex 1 Zcoordinate
    705145.0832262241,        !- Vertex 2 Xcoordinate
    5711929.828031641,        !- Vertex 2 Ycoordinate
    0,                        !- Vertex 2 Zcoordinate
    705147.7495189348,        !- Vertex 3 Xcoordinate
    5711922.883254551,        !- Vertex 3 Ycoordinate
    0,                        !- Vertex 3 Zcoordinate
    705147.7495189348,        !- Vertex 4 Xcoordinate
    5711922.883254551,        !- Vertex 4 Ycoordinate
    6;                        !- Vertex 4 Zcoordinate

SHADING:SITE:DETAILED,
    shade_way/1430549458_2,    !- Name
    ,                         !- Transmittance Schedule Name
    autocalculate,            !- Number of Vertices
    705147.7495189348,        !- Vertex 1 Xcoordinate
    5711922.883254551,        !- Vertex 1 Ycoordinate
    6,                        !- Vertex 1 Zcoordinate
    705147.7495189348,        !- Vertex 2 Xcoordinate
    5711922.883254551,        !- Vertex 2 Ycoordinate
    0,                        !- Vertex 2 Zcoordinate
    705141.9973432979,        !- Vertex 3 Xcoordinate
    5711920.67527185,         !- Vertex 3 Ycoordinate
    0,                        !- Vertex 3 Zcoordinate
    705141.9973432979,        !- Vertex 4 Xcoordinate
    5711920.67527185,         !- Vertex 4 Ycoordinate
    6;                        !- Vertex 4 Zcoordinate

SHADING:SITE:DETAILED,
    shade_way/1430549458_3,    !- Name
    ,                         !- Transmittance Schedule Name
    autocalculate,            !- Number of Vertices
    705141.9973432979,        !- Vertex 1 Xcoordinate
    5711920.67527185,         !- Vertex 1 Ycoordinate
    6,                        !- Vertex 1 Zcoordinate
    705141.9973432979,        !- Vertex 2 Xcoordinate
    5711920.67527185,         !- Vertex 2 Ycoordinate
    0,                        !- Vertex 2 Zcoordinate
    705139.3322995611,        !- Vertex 3 Xcoordinate
    5711927.620986422,        !- Vertex 3 Ycoordinate
    0,                        !- Vertex 3 Zcoordinate
    705139.3322995611,        !- Vertex 4 Xcoordinate
    5711927.620986422,        !- Vertex 4 Ycoordinate
    6;                        !- Vertex 4 Zcoordinate

SHADING:SITE:DETAILED,
    shade_way/1430549458_4,    !- Name
    ,                         !- Transmittance Schedule Name
    autocalculate,            !- Number of Vertices
    705139.3322995611,        !- Vertex 1 Xcoordinate
    5711927.620986422,        !- Vertex 1 Ycoordinate
    6,                        !- Vertex 1 Zcoordinate
    705139.3322995611,        !- Vertex 2 Xcoordinate
    5711927.620986422,        !- Vertex 2 Ycoordinate
    0,                        !- Vertex 2 Zcoordinate
    705145.0832262241,        !- Vertex 3 Xcoordinate
    5711929.828031641,        !- Vertex 3 Ycoordinate
    0,                        !- Vertex 3 Zcoordinate
    705145.0832262241,        !- Vertex 4 Xcoordinate
    5711929.828031641,        !- Vertex 4 Ycoordinate
    6;                        !- Vertex 4 Zcoordinate

SHADING:SITE:DETAILED,
    shade_way/298846071_1,    !- Name
    ,                         !- Transmittance Schedule Name
    autocalculate,            !- Number of Vertices
    705161.9941742038,        !- Vertex 1 Xcoordinate
    5711922.646379846,        !- Vertex 1 Ycoordinate
    6,                        !- Vertex 1 Zcoordinate
    705161.9941742038,        !- Vertex 2 Xcoordinate
    5711922.646379846,        !- Vertex 2 Ycoordinate
    0,                        !- Vertex 2 Zcoordinate
    705168.069693182,         !- Vertex 3 Xcoordinate
    5711924.963429493,        !- Vertex 3 Ycoordinate
    0,                        !- Vertex 3 Zcoordinate
    705168.069693182,         !- Vertex 4 Xcoordinate
    5711924.963429493,        !- Vertex 4 Ycoordinate
    6;                        !- Vertex 4 Zcoordinate

SHADING:SITE:DETAILED,
    shade_way/298846071_2,    !- Name
    ,                         !- Transmittance Schedule Name
    autocalculate,            !- Number of Vertices
    705168.069693182,         !- Vertex 1 Xcoordinate
    5711924.963429493,        !- Vertex 1 Ycoordinate
    6,                        !- Vertex 1 Zcoordinate
    705168.069693182,         !- Vertex 2 Xcoordinate
    5711924.963429493,        !- Vertex 2 Ycoordinate
    0,                        !- Vertex 2 Zcoordinate
    705170.6824674834,        !- Vertex 3 Xcoordinate
    5711918.113534191,        !- Vertex 3 Ycoordinate
    0,                        !- Vertex 3 Zcoordinate
    705170.6824674834,        !- Vertex 4 Xcoordinate
    5711918.113534191,        !- Vertex 4 Ycoordinate
    6;                        !- Vertex 4 Zcoordinate

SHADING:SITE:DETAILED,
    shade_way/298846071_3,    !- Name
    ,                         !- Transmittance Schedule Name
    autocalculate,            !- Number of Vertices
    705170.6824674834,        !- Vertex 1 Xcoordinate
    5711918.113534191,        !- Vertex 1 Ycoordinate
    6,                        !- Vertex 1 Zcoordinate
    705170.6824674834,        !- Vertex 2 Xcoordinate
    5711918.113534191,        !- Vertex 2 Ycoordinate
    0,                        !- Vertex 2 Zcoordinate
    705164.6069485046,        !- Vertex 3 Xcoordinate
    5711915.796484544,        !- Vertex 3 Ycoordinate
    0,                        !- Vertex 3 Zcoordinate
    705164.6069485046,        !- Vertex 4 Xcoordinate
    5711915.796484544,        !- Vertex 4 Ycoordinate
    6;                        !- Vertex 4 Zcoordinate

SHADING:SITE:DETAILED,
    shade_way/298846071_4,    !- Name
    ,                         !- Transmittance Schedule Name
    autocalculate,            !- Number of Vertices
    705164.6069485046,        !- Vertex 1 Xcoordinate
    5711915.796484544,        !- Vertex 1 Ycoordinate
    6,                        !- Vertex 1 Zcoordinate
    705164.6069485046,        !- Vertex 2 Xcoordinate
    5711915.796484544,        !- Vertex 2 Ycoordinate
    0,                        !- Vertex 2 Zcoordinate
    705161.9941742038,        !- Vertex 3 Xcoordinate
    5711922.646379846,        !- Vertex 3 Ycoordinate
    0,                        !- Vertex 3 Zcoordinate
    705161.9941742038,        !- Vertex 4 Xcoordinate
    5711922.646379846,        !- Vertex 4 Ycoordinate
    6;                        !- Vertex 4 Zcoordinate

SHADING:SITE:DETAILED,
    shade_way/1430536873_1,    !- Name
    ,                         !- Transmittance Schedule Name
    autocalculate,            !- Number of Vertices
    705174.2881645502,        !- Vertex 1 Xcoordinate
    5711927.353085795,        !- Vertex 1 Ycoordinate
    6,                        !- Vertex 1 Zcoordinate
    705174.2881645502,        !- Vertex 2 Xcoordinate
    5711927.353085795,        !- Vertex 2 Ycoordinate
    0,                        !- Vertex 2 Zcoordinate
    705176.9010843439,        !- Vertex 3 Xcoordinate
    5711920.4943607375,       !- Vertex 3 Ycoordinate
    0,                        !- Vertex 3 Zcoordinate
    705176.9010843439,        !- Vertex 4 Xcoordinate
    5711920.4943607375,       !- Vertex 4 Ycoordinate
    6;                        !- Vertex 4 Zcoordinate

SHADING:SITE:DETAILED,
    shade_way/1430536873_2,    !- Name
    ,                         !- Transmittance Schedule Name
    autocalculate,            !- Number of Vertices
    705176.9010843439,        !- Vertex 1 Xcoordinate
    5711920.4943607375,       !- Vertex 1 Ycoordinate
    6,                        !- Vertex 1 Zcoordinate
    705176.9010843439,        !- Vertex 2 Xcoordinate
    5711920.4943607375,       !- Vertex 2 Ycoordinate
    0,                        !- Vertex 2 Zcoordinate
    705170.6668986853,        !- Vertex 3 Xcoordinate
    5711918.119469214,        !- Vertex 3 Ycoordinate
    0,                        !- Vertex 3 Zcoordinate
    705170.6668986853,        !- Vertex 4 Xcoordinate
    5711918.119469214,        !- Vertex 4 Ycoordinate
    6;                        !- Vertex 4 Zcoordinate

SHADING:SITE:DETAILED,
    shade_way/1430536873_3,    !- Name
    ,                         !- Transmittance Schedule Name
    autocalculate,            !- Number of Vertices
    705170.6668986853,        !- Vertex 1 Xcoordinate
    5711918.119469214,        !- Vertex 1 Ycoordinate
    6,                        !- Vertex 1 Zcoordinate
    705170.6668986853,        !- Vertex 2 Xcoordinate
    5711918.119469214,        !- Vertex 2 Ycoordinate
    0,                        !- Vertex 2 Zcoordinate
    705168.0537963036,        !- Vertex 3 Xcoordinate
    5711924.977522121,        !- Vertex 3 Ycoordinate
    0,                        !- Vertex 3 Zcoordinate
    705168.0537963036,        !- Vertex 4 Xcoordinate
    5711924.977522121,        !- Vertex 4 Ycoordinate
    6;                        !- Vertex 4 Zcoordinate

SHADING:SITE:DETAILED,
    shade_way/1430536873_4,    !- Name
    ,                         !- Transmittance Schedule Name
    autocalculate,            !- Number of Vertices
    705168.0537963036,        !- Vertex 1 Xcoordinate
    5711924.977522121,        !- Vertex 1 Ycoordinate
    6,                        !- Vertex 1 Zcoordinate
    705168.0537963036,        !- Vertex 2 Xcoordinate
    5711924.977522121,        !- Vertex 2 Ycoordinate
    0,                        !- Vertex 2 Zcoordinate
    705174.2881645502,        !- Vertex 3 Xcoordinate
    5711927.353085795,        !- Vertex 3 Ycoordinate
    0,                        !- Vertex 3 Zcoordinate
    705174.2881645502,        !- Vertex 4 Xcoordinate
    5711927.353085795,        !- Vertex 4 Ycoordinate
    6;                        !- Vertex 4 Zcoordinate

SHADING:SITE:DETAILED,
    shade_way/1430549467_1,    !- Name
    ,                         !- Transmittance Schedule Name
    autocalculate,            !- Number of Vertices
    705164.5409608261,        !- Vertex 1 Xcoordinate
    5711952.588297286,        !- Vertex 1 Ycoordinate
    6,                        !- Vertex 1 Zcoordinate
    705164.5409608261,        !- Vertex 2 Xcoordinate
    5711952.588297286,        !- Vertex 2 Ycoordinate
    0,                        !- Vertex 2 Zcoordinate
    705167.1115676751,        !- Vertex 3 Xcoordinate
    5711945.905318408,        !- Vertex 3 Ycoordinate
    0,                        !- Vertex 3 Zcoordinate
    705167.1115676751,        !- Vertex 4 Xcoordinate
    5711945.905318408,        !- Vertex 4 Ycoordinate
    6;                        !- Vertex 4 Zcoordinate

SHADING:SITE:DETAILED,
    shade_way/1430549467_2,    !- Name
    ,                         !- Transmittance Schedule Name
    autocalculate,            !- Number of Vertices
    705167.1115676751,        !- Vertex 1 Xcoordinate
    5711945.905318408,        !- Vertex 1 Ycoordinate
    6,                        !- Vertex 1 Zcoordinate
    705167.1115676751,        !- Vertex 2 Xcoordinate
    5711945.905318408,        !- Vertex 2 Ycoordinate
    0,                        !- Vertex 2 Zcoordinate
    705161.1486111167,        !- Vertex 3 Xcoordinate
    5711943.611047566,        !- Vertex 3 Ycoordinate
    0,                        !- Vertex 3 Zcoordinate
    705161.1486111167,        !- Vertex 4 Xcoordinate
    5711943.611047566,        !- Vertex 4 Ycoordinate
    6;                        !- Vertex 4 Zcoordinate

SHADING:SITE:DETAILED,
    shade_way/1430549467_3,    !- Name
    ,                         !- Transmittance Schedule Name
    autocalculate,            !- Number of Vertices
    705161.1486111167,        !- Vertex 1 Xcoordinate
    5711943.611047566,        !- Vertex 1 Ycoordinate
    6,                        !- Vertex 1 Zcoordinate
    705161.1486111167,        !- Vertex 2 Xcoordinate
    5711943.611047566,        !- Vertex 2 Ycoordinate
    0,                        !- Vertex 2 Zcoordinate
    705158.576519707,         !- Vertex 3 Xcoordinate
    5711950.293029118,        !- Vertex 3 Ycoordinate
    0,                        !- Vertex 3 Zcoordinate
    705158.576519707,         !- Vertex 4 Xcoordinate
    5711950.293029118,        !- Vertex 4 Ycoordinate
    6;                        !- Vertex 4 Zcoordinate

SHADING:SITE:DETAILED,
    shade_way/1430549467_4,    !- Name
    ,                         !- Transmittance Schedule Name
    autocalculate,            !- Number of Vertices
    705158.576519707,         !- Vertex 1 Xcoordinate
    5711950.293029118,        !- Vertex 1 Ycoordinate
    6,                        !- Vertex 1 Zcoordinate
    705158.576519707,         !- Vertex 2 Xcoordinate
    5711950.293029118,        !- Vertex 2 Ycoordinate
    0,                        !- Vertex 2 Zcoordinate
    705164.5409608261,        !- Vertex 3 Xcoordinate
    5711952.588297286,        !- Vertex 3 Ycoordinate
    0,                        !- Vertex 3 Zcoordinate
    705164.5409608261,        !- Vertex 4 Xcoordinate
    5711952.588297286,        !- Vertex 4 Ycoordinate
    6;                        !- Vertex 4 Zcoordinate

SHADING:SITE:DETAILED,
    shade_way/1430549468_1,    !- Name
    ,                         !- Transmittance Schedule Name
    autocalculate,            !- Number of Vertices
    705167.1115676751,        !- Vertex 1 Xcoordinate
    5711945.905318408,        !- Vertex 1 Ycoordinate
    6,                        !- Vertex 1 Zcoordinate
    705167.1115676751,        !- Vertex 2 Xcoordinate
    5711945.905318408,        !- Vertex 2 Ycoordinate
    0,                        !- Vertex 2 Zcoordinate
    705164.5419298402,        !- Vertex 3 Xcoordinate
    5711952.583351271,        !- Vertex 3 Ycoordinate
    0,                        !- Vertex 3 Zcoordinate
    705164.5419298402,        !- Vertex 4 Xcoordinate
    5711952.583351271,        !- Vertex 4 Ycoordinate
    6;                        !- Vertex 4 Zcoordinate

SHADING:SITE:DETAILED,
    shade_way/1430549468_2,    !- Name
    ,                         !- Transmittance Schedule Name
    autocalculate,            !- Number of Vertices
    705164.5419298402,        !- Vertex 1 Xcoordinate
    5711952.583351271,        !- Vertex 1 Ycoordinate
    6,                        !- Vertex 1 Zcoordinate
    705164.5419298402,        !- Vertex 2 Xcoordinate
    5711952.583351271,        !- Vertex 2 Ycoordinate
    0,                        !- Vertex 2 Zcoordinate
    705170.8894365605,        !- Vertex 3 Xcoordinate
    5711955.026019116,        !- Vertex 3 Ycoordinate
    0,                        !- Vertex 3 Zcoordinate
    705170.8894365605,        !- Vertex 4 Xcoordinate
    5711955.026019116,        !- Vertex 4 Ycoordinate
    6;                        !- Vertex 4 Zcoordinate

SHADING:SITE:DETAILED,
    shade_way/1430549468_3,    !- Name
    ,                         !- Transmittance Schedule Name
    autocalculate,            !- Number of Vertices
    705170.8894365605,        !- Vertex 1 Xcoordinate
    5711955.026019116,        !- Vertex 1 Ycoordinate
    6,                        !- Vertex 1 Zcoordinate
    705170.8894365605,        !- Vertex 2 Xcoordinate
    5711955.026019116,        !- Vertex 2 Ycoordinate
    0,                        !- Vertex 2 Zcoordinate
    705173.4590743937,        !- Vertex 3 Xcoordinate
    5711948.347986254,        !- Vertex 3 Ycoordinate
    0,                        !- Vertex 3 Zcoordinate
    705173.4590743937,        !- Vertex 4 Xcoordinate
    5711948.347986254,        !- Vertex 4 Ycoordinate
    6;                        !- Vertex 4 Zcoordinate

SHADING:SITE:DETAILED,
    shade_way/1430549468_4,    !- Name
    ,                         !- Transmittance Schedule Name
    autocalculate,            !- Number of Vertices
    705173.4590743937,        !- Vertex 1 Xcoordinate
    5711948.347986254,        !- Vertex 1 Ycoordinate
    6,                        !- Vertex 1 Zcoordinate
    705173.4590743937,        !- Vertex 2 Xcoordinate
    5711948.347986254,        !- Vertex 2 Ycoordinate
    0,                        !- Vertex 2 Zcoordinate
    705167.1115676751,        !- Vertex 3 Xcoordinate
    5711945.905318408,        !- Vertex 3 Ycoordinate
    0,                        !- Vertex 3 Zcoordinate
    705167.1115676751,        !- Vertex 4 Xcoordinate
    5711945.905318408,        !- Vertex 4 Ycoordinate
    6;                        !- Vertex 4 Zcoordinate

SHADING:SITE:DETAILED,
    shade_way/1430549469_1,    !- Name
    ,                         !- Transmittance Schedule Name
    autocalculate,            !- Number of Vertices
    705177.4177576441,        !- Vertex 1 Xcoordinate
    5711957.472006956,        !- Vertex 1 Ycoordinate
    6,                        !- Vertex 1 Zcoordinate
    705177.4177576441,        !- Vertex 2 Xcoordinate
    5711957.472006956,        !- Vertex 2 Ycoordinate
    0,                        !- Vertex 2 Zcoordinate
    705179.9466902512,        !- Vertex 3 Xcoordinate
    5711950.8009711,          !- Vertex 3 Ycoordinate
    0,                        !- Vertex 3 Zcoordinate
    705179.9466902512,        !- Vertex 4 Xcoordinate
    5711950.8009711,          !- Vertex 4 Ycoordinate
    6;                        !- Vertex 4 Zcoordinate

SHADING:SITE:DETAILED,
    shade_way/1430549469_2,    !- Name
    ,                         !- Transmittance Schedule Name
    autocalculate,            !- Number of Vertices
    705179.9466902512,        !- Vertex 1 Xcoordinate
    5711950.8009711,          !- Vertex 1 Ycoordinate
    6,                        !- Vertex 1 Zcoordinate
    705179.9466902512,        !- Vertex 2 Xcoordinate
    5711950.8009711,          !- Vertex 2 Ycoordinate
    0,                        !- Vertex 2 Zcoordinate
    705173.426353862,         !- Vertex 3 Xcoordinate
    5711948.329627846,        !- Vertex 3 Ycoordinate
    0,                        !- Vertex 3 Zcoordinate
    705173.426353862,         !- Vertex 4 Xcoordinate
    5711948.329627846,        !- Vertex 4 Ycoordinate
    6;                        !- Vertex 4 Zcoordinate

SHADING:SITE:DETAILED,
    shade_way/1430549469_3,    !- Name
    ,                         !- Transmittance Schedule Name
    autocalculate,            !- Number of Vertices
    705173.426353862,         !- Vertex 1 Xcoordinate
    5711948.329627846,        !- Vertex 1 Ycoordinate
    6,                        !- Vertex 1 Zcoordinate
    705173.426353862,         !- Vertex 2 Xcoordinate
    5711948.329627846,        !- Vertex 2 Ycoordinate
    0,                        !- Vertex 2 Zcoordinate
    705170.8981869642,        !- Vertex 3 Xcoordinate
    5711955.000850649,        !- Vertex 3 Ycoordinate
    0,                        !- Vertex 3 Zcoordinate
    705170.8981869642,        !- Vertex 4 Xcoordinate
    5711955.000850649,        !- Vertex 4 Ycoordinate
    6;                        !- Vertex 4 Zcoordinate

SHADING:SITE:DETAILED,
    shade_way/1430549469_4,    !- Name
    ,                         !- Transmittance Schedule Name
    autocalculate,            !- Number of Vertices
    705170.8981869642,        !- Vertex 1 Xcoordinate
    5711955.000850649,        !- Vertex 1 Ycoordinate
    6,                        !- Vertex 1 Zcoordinate
    705170.8981869642,        !- Vertex 2 Xcoordinate
    5711955.000850649,        !- Vertex 2 Ycoordinate
    0,                        !- Vertex 2 Zcoordinate
    705177.4177576441,        !- Vertex 3 Xcoordinate
    5711957.472006956,        !- Vertex 3 Ycoordinate
    0,                        !- Vertex 3 Zcoordinate
    705177.4177576441,        !- Vertex 4 Xcoordinate
    5711957.472006956,        !- Vertex 4 Ycoordinate
    6;                        !- Vertex 4 Zcoordinate

SHADING:SITE:DETAILED,
    shade_way/1430549459_1,    !- Name
    ,                         !- Transmittance Schedule Name
    autocalculate,            !- Number of Vertices
    705147.7685787774,        !- Vertex 1 Xcoordinate
    5711922.831499418,        !- Vertex 1 Ycoordinate
    6,                        !- Vertex 1 Zcoordinate
    705147.7685787774,        !- Vertex 2 Xcoordinate
    5711922.831499418,        !- Vertex 2 Ycoordinate
    0,                        !- Vertex 2 Zcoordinate
    705145.0937117112,        !- Vertex 3 Xcoordinate
    5711929.802808112,        !- Vertex 3 Ycoordinate
    0,                        !- Vertex 3 Zcoordinate
    705145.0937117112,        !- Vertex 4 Xcoordinate
    5711929.802808112,        !- Vertex 4 Ycoordinate
    6;                        !- Vertex 4 Zcoordinate

SHADING:SITE:DETAILED,
    shade_way/1430549459_2,    !- Name
    ,                         !- Transmittance Schedule Name
    autocalculate,            !- Number of Vertices
    705145.0937117112,        !- Vertex 1 Xcoordinate
    5711929.802808112,        !- Vertex 1 Ycoordinate
    6,                        !- Vertex 1 Zcoordinate
    705145.0937117112,        !- Vertex 2 Xcoordinate
    5711929.802808112,        !- Vertex 2 Ycoordinate
    0,                        !- Vertex 2 Zcoordinate
    705150.336584184,         !- Vertex 3 Xcoordinate
    5711931.814856071,        !- Vertex 3 Ycoordinate
    0,                        !- Vertex 3 Zcoordinate
    705150.336584184,         !- Vertex 4 Xcoordinate
    5711931.814856071,        !- Vertex 4 Ycoordinate
    6;                        !- Vertex 4 Zcoordinate

SHADING:SITE:DETAILED,
    shade_way/1430549459_3,    !- Name
    ,                         !- Transmittance Schedule Name
    autocalculate,            !- Number of Vertices
    705150.336584184,         !- Vertex 1 Xcoordinate
    5711931.814856071,        !- Vertex 1 Ycoordinate
    6,                        !- Vertex 1 Zcoordinate
    705150.336584184,         !- Vertex 2 Xcoordinate
    5711931.814856071,        !- Vertex 2 Ycoordinate
    0,                        !- Vertex 2 Zcoordinate
    705153.0127002237,        !- Vertex 3 Xcoordinate
    5711924.844484861,        !- Vertex 3 Ycoordinate
    0,                        !- Vertex 3 Zcoordinate
    705153.0127002237,        !- Vertex 4 Xcoordinate
    5711924.844484861,        !- Vertex 4 Ycoordinate
    6;                        !- Vertex 4 Zcoordinate

SHADING:SITE:DETAILED,
    shade_way/1430549459_4,    !- Name
    ,                         !- Transmittance Schedule Name
    autocalculate,            !- Number of Vertices
    705153.0127002237,        !- Vertex 1 Xcoordinate
    5711924.844484861,        !- Vertex 1 Ycoordinate
    6,                        !- Vertex 1 Zcoordinate
    705153.0127002237,        !- Vertex 2 Xcoordinate
    5711924.844484861,        !- Vertex 2 Ycoordinate
    0,                        !- Vertex 2 Zcoordinate
    705147.7685787774,        !- Vertex 3 Xcoordinate
    5711922.831499418,        !- Vertex 3 Ycoordinate
    0,                        !- Vertex 3 Zcoordinate
    705147.7685787774,        !- Vertex 4 Xcoordinate
    5711922.831499418,        !- Vertex 4 Ycoordinate
    6;                        !- Vertex 4 Zcoordinate

SHADING:SITE:DETAILED,
    shade_way/1430549460_1,    !- Name
    ,                         !- Transmittance Schedule Name
    autocalculate,            !- Number of Vertices
    705155.3692721266,        !- Vertex 1 Xcoordinate
    5711933.698010214,        !- Vertex 1 Ycoordinate
    6,                        !- Vertex 1 Zcoordinate
    705155.3692721266,        !- Vertex 2 Xcoordinate
    5711933.698010214,        !- Vertex 2 Ycoordinate
    0,                        !- Vertex 2 Zcoordinate
    705158.0284306478,        !- Vertex 3 Xcoordinate
    5711926.740032439,        !- Vertex 3 Ycoordinate
    0,                        !- Vertex 3 Zcoordinate
    705158.0284306478,        !- Vertex 4 Xcoordinate
    5711926.740032439,        !- Vertex 4 Ycoordinate
    6;                        !- Vertex 4 Zcoordinate

SHADING:SITE:DETAILED,
    shade_way/1430549460_2,    !- Name
    ,                         !- Transmittance Schedule Name
    autocalculate,            !- Number of Vertices
    705158.0284306478,        !- Vertex 1 Xcoordinate
    5711926.740032439,        !- Vertex 1 Ycoordinate
    6,                        !- Vertex 1 Zcoordinate
    705158.0284306478,        !- Vertex 2 Xcoordinate
    5711926.740032439,        !- Vertex 2 Ycoordinate
    0,                        !- Vertex 2 Zcoordinate
    705152.9946960345,        !- Vertex 3 Xcoordinate
    5711924.816312051,        !- Vertex 3 Ycoordinate
    0,                        !- Vertex 3 Zcoordinate
    705152.9946960345,        !- Vertex 4 Xcoordinate
    5711924.816312051,        !- Vertex 4 Ycoordinate
    6;                        !- Vertex 4 Zcoordinate

SHADING:SITE:DETAILED,
    shade_way/1430549460_3,    !- Name
    ,                         !- Transmittance Schedule Name
    autocalculate,            !- Number of Vertices
    705152.9946960345,        !- Vertex 1 Xcoordinate
    5711924.816312051,        !- Vertex 1 Ycoordinate
    6,                        !- Vertex 1 Zcoordinate
    705152.9946960345,        !- Vertex 2 Xcoordinate
    5711924.816312051,        !- Vertex 2 Ycoordinate
    0,                        !- Vertex 2 Zcoordinate
    705150.3356288725,        !- Vertex 3 Xcoordinate
    5711931.774312397,        !- Vertex 3 Ycoordinate
    0,                        !- Vertex 3 Zcoordinate
    705150.3356288725,        !- Vertex 4 Xcoordinate
    5711931.774312397,        !- Vertex 4 Ycoordinate
    6;                        !- Vertex 4 Zcoordinate

SHADING:SITE:DETAILED,
    shade_way/1430549460_4,    !- Name
    ,                         !- Transmittance Schedule Name
    autocalculate,            !- Number of Vertices
    705150.3356288725,        !- Vertex 1 Xcoordinate
    5711931.774312397,        !- Vertex 1 Ycoordinate
    6,                        !- Vertex 1 Zcoordinate
    705150.3356288725,        !- Vertex 2 Xcoordinate
    5711931.774312397,        !- Vertex 2 Ycoordinate
    0,                        !- Vertex 2 Zcoordinate
    705155.3692721266,        !- Vertex 3 Xcoordinate
    5711933.698010214,        !- Vertex 3 Ycoordinate
    0,                        !- Vertex 3 Zcoordinate
    705155.3692721266,        !- Vertex 4 Xcoordinate
    5711933.698010214,        !- Vertex 4 Ycoordinate
    6;                        !- Vertex 4 Zcoordinate

SHADING:SITE:DETAILED,
    shade_way/261272600_1,    !- Name
    ,                         !- Transmittance Schedule Name
    autocalculate,            !- Number of Vertices
    705146.1998955517,        !- Vertex 1 Xcoordinate
    5711962.576884701,        !- Vertex 1 Ycoordinate
    9,                        !- Vertex 1 Zcoordinate
    705146.1998955517,        !- Vertex 2 Xcoordinate
    5711962.576884701,        !- Vertex 2 Ycoordinate
    0,                        !- Vertex 2 Zcoordinate
    705110.1213962932,        !- Vertex 3 Xcoordinate
    5711949.186587506,        !- Vertex 3 Ycoordinate
    0,                        !- Vertex 3 Zcoordinate
    705110.1213962932,        !- Vertex 4 Xcoordinate
    5711949.186587506,        !- Vertex 4 Ycoordinate
    9;                        !- Vertex 4 Zcoordinate

SHADING:SITE:DETAILED,
    shade_way/261272600_2,    !- Name
    ,                         !- Transmittance Schedule Name
    autocalculate,            !- Number of Vertices
    705110.1213962932,        !- Vertex 1 Xcoordinate
    5711949.186587506,        !- Vertex 1 Ycoordinate
    9,                        !- Vertex 1 Zcoordinate
    705110.1213962932,        !- Vertex 2 Xcoordinate
    5711949.186587506,        !- Vertex 2 Ycoordinate
    0,                        !- Vertex 2 Zcoordinate
    705106.62950832,          !- Vertex 3 Xcoordinate
    5711958.5936679,          !- Vertex 3 Ycoordinate
    0,                        !- Vertex 3 Zcoordinate
    705106.62950832,          !- Vertex 4 Xcoordinate
    5711958.5936679,          !- Vertex 4 Ycoordinate
    9;                        !- Vertex 4 Zcoordinate

SHADING:SITE:DETAILED,
    shade_way/261272600_3,    !- Name
    ,                         !- Transmittance Schedule Name
    autocalculate,            !- Number of Vertices
    705106.62950832,          !- Vertex 1 Xcoordinate
    5711958.5936679,          !- Vertex 1 Ycoordinate
    9,                        !- Vertex 1 Zcoordinate
    705106.62950832,          !- Vertex 2 Xcoordinate
    5711958.5936679,          !- Vertex 2 Ycoordinate
    0,                        !- Vertex 2 Zcoordinate
    705142.708603463,         !- Vertex 3 Xcoordinate
    5711971.984734163,        !- Vertex 3 Ycoordinate
    0,                        !- Vertex 3 Zcoordinate
    705142.708603463,         !- Vertex 4 Xcoordinate
    5711971.984734163,        !- Vertex 4 Ycoordinate
    9;                        !- Vertex 4 Zcoordinate

SHADING:SITE:DETAILED,
    shade_way/261272600_4,    !- Name
    ,                         !- Transmittance Schedule Name
    autocalculate,            !- Number of Vertices
    705142.708603463,         !- Vertex 1 Xcoordinate
    5711971.984734163,        !- Vertex 1 Ycoordinate
    9,                        !- Vertex 1 Zcoordinate
    705142.708603463,         !- Vertex 2 Xcoordinate
    5711971.984734163,        !- Vertex 2 Ycoordinate
    0,                        !- Vertex 2 Zcoordinate
    705146.1998955517,        !- Vertex 3 Xcoordinate
    5711962.576884701,        !- Vertex 3 Ycoordinate
    0,                        !- Vertex 3 Zcoordinate
    705146.1998955517,        !- Vertex 4 Xcoordinate
    5711962.576884701,        !- Vertex 4 Ycoordinate
    9;                        !- Vertex 4 Zcoordinate

OTHEREQUIPMENT,
    EU_Step8_InternalGain_416e3846a3e1d463_F0_dwelling_0_f000,    !- Name
    Electricity,              !- Fuel Type
    416e3846a3e1d463_F0_dwelling_0,    !- Zone or ZoneList or Space or SpaceList Name
    EU_Step8_GainSchedule_416e3846a3e1d463_F0_dwelling_0_f000,    !- Schedule Name
    Watts/Area,               !- Design Level Calculation Method
    ,                         !- Design Level
    1,                        !- Power per Zone Floor Area
    ,                         !- Power per Person
    0,                        !- Fraction Latent
    0,                        !- Fraction Radiant
    0,                        !- Fraction Lost
    0,                        !- Carbon Dioxide Generation Rate
    EU_Step8_InternalGains;    !- EndUse Subcategory

ZONEVENTILATION:DESIGNFLOWRATE,
    EU_ConstantAir_416e3846a3e1d463_F0_dwelling_0,    !- Name
    416e3846a3e1d463_F0_dwelling_0,    !- Zone or ZoneList or Space or SpaceList Name
    EU_AlwaysOn,              !- Schedule Name
    AirChanges/Hour,          !- Design Flow Rate Calculation Method
    ,                         !- Design Flow Rate
    ,                         !- Flow Rate per Floor Area
    ,                         !- Flow Rate per Person
    4.849006e-01,             !- Air Changes per Hour
    Natural,                  !- Ventilation Type
    0,                        !- Fan Pressure Rise
    1,                        !- Fan Total Efficiency
    1,                        !- Constant Term Coefficient
    0,                        !- Temperature Term Coefficient
    0,                        !- Velocity Term Coefficient
    0,                        !- Velocity Squared Term Coefficient
    -100,                     !- Minimum Indoor Temperature
    ,                         !- Minimum Indoor Temperature Schedule Name
    100,                      !- Maximum Indoor Temperature
    ,                         !- Maximum Indoor Temperature Schedule Name
    -100,                     !- Delta Temperature
    ,                         !- Delta Temperature Schedule Name
    -100,                     !- Minimum Outdoor Temperature
    ,                         !- Minimum Outdoor Temperature Schedule Name
    100,                      !- Maximum Outdoor Temperature
    ,                         !- Maximum Outdoor Temperature Schedule Name
    40;                       !- Maximum Wind Speed

HVACTEMPLATE:THERMOSTAT,
    EU_HeatOnly_416e3846a3e1d463_F0_dwelling_0,    !- Name
    ,                         !- Heating Setpoint Schedule Name
    20,                       !- Constant Heating Setpoint
    ,                         !- Cooling Setpoint Schedule Name
    50;                       !- Constant Cooling Setpoint

HVACTEMPLATE:ZONE:IDEALLOADSAIRSYSTEM,
    416e3846a3e1d463_F0_dwelling_0,    !- Zone Name
    EU_HeatOnly_416e3846a3e1d463_F0_dwelling_0,    !- Template Thermostat Name
    EU_AlwaysOn,              !- System Availability Schedule Name
    50,                       !- Maximum Heating Supply Air Temperature
    13,                       !- Minimum Cooling Supply Air Temperature
    0.0156,                   !- Maximum Heating Supply Air Humidity Ratio
    0.0077,                   !- Minimum Cooling Supply Air Humidity Ratio
    NoLimit,                  !- Heating Limit
    ,                         !- Maximum Heating Air Flow Rate
    ,                         !- Maximum Sensible Heating Capacity
    NoLimit,                  !- Cooling Limit
    ,                         !- Maximum Cooling Air Flow Rate
    ,                         !- Maximum Total Cooling Capacity
    EU_AlwaysOn,              !- Heating Availability Schedule Name
    EU_CoolingOff,            !- Cooling Availability Schedule Name
    ConstantSensibleHeatRatio,    !- Dehumidification Control Type
    0.7,                      !- Cooling Sensible Heat Ratio
    60,                       !- Dehumidification Setpoint
    None,                     !- Humidification Control Type
    30,                       !- Humidification Setpoint
    None,                     !- Outdoor Air Method
    0.00944,                  !- Outdoor Air Flow Rate per Person
    0.0,                      !- Outdoor Air Flow Rate per Zone Floor Area
    0,                        !- Outdoor Air Flow Rate per Zone
    ,                         !- Design Specification Outdoor Air Object Name
    None,                     !- Demand Controlled Ventilation Type
    NoEconomizer,             !- Outdoor Air Economizer Type
    None,                     !- Heat Recovery Type
    0.70,                     !- Sensible Heat Recovery Effectiveness
    0.65;                     !- Latent Heat Recovery Effectiveness

SIZING:ZONE,
    416e3846a3e1d463_F0_dwelling_0,    !- Zone or ZoneList Name
    SupplyAirTemperature,     !- Zone Cooling Design Supply Air Temperature Input Method
    13,                       !- Zone Cooling Design Supply Air Temperature
    ,                         !- Zone Cooling Design Supply Air Temperature Difference
    SupplyAirTemperature,     !- Zone Heating Design Supply Air Temperature Input Method
    50,                       !- Zone Heating Design Supply Air Temperature
    ,                         !- Zone Heating Design Supply Air Temperature Difference
    0.008,                    !- Zone Cooling Design Supply Air Humidity Ratio
    0.008,                    !- Zone Heating Design Supply Air Humidity Ratio
    ,                         !- Design Specification Outdoor Air Object Name
    ,                         !- Zone Heating Sizing Factor
    ,                         !- Zone Cooling Sizing Factor
    DesignDay,                !- Cooling Design Air Flow Method
    0,                        !- Cooling Design Air Flow Rate
    0.000762,                 !- Cooling Minimum Air Flow per Zone Floor Area
    0,                        !- Cooling Minimum Air Flow
    0.2,                      !- Cooling Minimum Air Flow Fraction
    DesignDay,                !- Heating Design Air Flow Method
    0,                        !- Heating Design Air Flow Rate
    0.002032,                 !- Heating Maximum Air Flow per Zone Floor Area
    0.1415762,                !- Heating Maximum Air Flow
    0.3,                      !- Heating Maximum Air Flow Fraction
    ,                         !- Design Specification Zone Air Distribution Object Name
    No,                       !- Account for Dedicated Outdoor Air System
    NeutralSupplyAir,         !- Dedicated Outdoor Air System Control Strategy
    autosize,                 !- Dedicated Outdoor Air Low Setpoint Temperature for Design
    autosize,                 !- Dedicated Outdoor Air High Setpoint Temperature for Design
    Sensible Load Only No Latent Load,    !- Zone Load Sizing Method
    HumidityRatioDifference,    !- Zone Latent Cooling Design Supply Air Humidity Ratio Input Method
    ,                         !- Zone Dehumidification Design Supply Air Humidity Ratio
    0.005,                    !- Zone Cooling Design Supply Air Humidity Ratio Difference
    HumidityRatioDifference,    !- Zone Latent Heating Design Supply Air Humidity Ratio Input Method
    ,                         !- Zone Humidification Design Supply Air Humidity Ratio
    0.005;                    !- Zone Humidification Design Supply Air Humidity Ratio Difference

OUTPUT:VARIABLE,
    *,                        !- Key Value
    Zone Ideal Loads Zone Total Heating Energy,    !- Variable Name
    Hourly;                   !- Reporting Frequency

OUTPUT:SQLITE,
    SimpleAndTabular,         !- Option Type
    UseOutputControlTableStyle;    !- Unit Conversion for Tabular Data