!- Windows Line endings 

Version,
    23.1;                     !- Version Identifier

SimulationControl,
    Yes,                      !- Do Zone Sizing Calculation
    Yes,                      !- Do System Sizing Calculation
    Yes,                      !- Do Plant Sizing Calculation
    No,                       !- Run Simulation for Sizing Periods
    Yes,                      !- Run Simulation for Weather File Run Periods
    No,                       !- Do HVAC Sizing Simulation for Sizing Periods
    1;                        !- Maximum Number of HVAC Sizing Simulation Passes

Building,
    EU S2 Campaign,           !- Name
    0,                        !- North Axis
    City,                     !- Terrain
    ,                         !- Loads Convergence Tolerance Value
    ,                         !- Temperature Convergence Tolerance Value
    FullExterior,             !- Solar Distribution
    ,                         !- Maximum Number of Warmup Days
    ;                         !- Minimum Number of Warmup Days

ShadowCalculation,
    PolygonClipping,          !- Shading Calculation Method
    Periodic,                 !- Shading Calculation Update Frequency Method
    1;                        !- Shading Calculation Update Frequency

HeatBalanceAlgorithm,
    ConductionTransferFunction,    !- Algorithm
    200,                      !- Surface Temperature Upper Limit
    0.1,                      !- Minimum Surface Convection Heat Transfer Coefficient Value
    10000000;                 !- Maximum Surface Convection Heat Transfer Coefficient Value

Timestep,
    12;                       !- Number of Timesteps per Hour

Site:Location,
    London,                   !- Name
    51.5,                     !- Latitude
    -0.5,                     !- Longitude
    0,                        !- Time Zone
    25;                       !- Elevation

SizingPeriod:WeatherFileDays,
    AnnualSizingPeriod,       !- Name
    1,                        !- Begin Month
    1,                        !- Begin Day of Month
    12,                       !- End Month
    31,                       !- End Day of Month
    Monday,                   !- Day of Week for Start Day
    No,                       !- Use Weather File Daylight Saving Period
    No;                       !- Use Weather File Rain and Snow Indicators

RunPeriod,
    RunPeriod1,               !- Name
    1,                        !- Begin Month
    1,                        !- Begin Day of Month
    ,                         !- Begin Year
    12,                       !- End Month
    31,                       !- End Day of Month
    ,                         !- End Year
    Sunday,                   !- Day of Week for Start Day
    No,                       !- Use Weather File Holidays and Special Days
    No,                       !- Use Weather File Daylight Saving Period
    No,                       !- Apply Weekend Holiday Rule
    Yes,                      !- Use Weather File Rain Indicators
    Yes;                      !- Use Weather File Snow Indicators

ScheduleTypeLimits,
    Any Number;               !- Name

SCHEDULETYPELIMITS,
    EU_Step8_AnyNumber_Wm2,    !- Name
    ,                         !- Lower Limit Value
    ,                         !- Upper Limit Value
    Continuous,               !- Numeric Type
    Dimensionless;            !- Unit Type

SCHEDULE:CONSTANT,
    EU_AlwaysOn,              !- Name
    ,                         !- Schedule Type Limits Name
    1;                        !- Hourly Value

SCHEDULE:CONSTANT,
    EU_CoolingOff,            !- Name
    ,                         !- Schedule Type Limits Name
    0;                        !- Hourly Value

SCHEDULE:FILE,
    EU_Step8_GainSchedule_7be04e2c043270df_F0_dwelling_0_f000,    !- Name
    EU_Step8_AnyNumber_Wm2,    !- Schedule Type Limits Name
    ../../schedules/7be04e2c043270df/7be04e2c043270df_F0_dwelling_0_f000_gain.csv,    !- File Name
    1,                        !- Column Number
    0,                        !- Rows to Skip at Top
    8760,                     !- Number of Hours of Data
    Comma,                    !- Column Separator
    No,                       !- Interpolate to Timestep
    60,                       !- Minutes per Item
    Yes;                      !- Adjust Schedule for Daylight Savings

MATERIAL,
    EU_InternalMass_Material,    !- Name
    MediumRough,              !- Roughness
    0.1,                      !- Thickness
    1,                        !- Conductivity
    1800,                     !- Density
    900,                      !- Specific Heat
    0.9,                      !- Thermal Absorptance
    0.7,                      !- Solar Absorptance
    0.7;                      !- Visible Absorptance

MATERIAL:NOMASS,
    EU_wall_NoMass,           !- Name
    MediumRough,              !- Roughness
    0.5555555555555555,       !- Thermal Resistance
    0.9,                      !- Thermal Absorptance
    0.7,                      !- Solar Absorptance
    0.7;                      !- Visible Absorptance

MATERIAL:NOMASS,
    EU_roof_NoMass,           !- Name
    MediumRough,              !- Roughness
    0.5102040816326531,       !- Thermal Resistance
    0.9,                      !- Thermal Absorptance
    0.7,                      !- Solar Absorptance
    0.7;                      !- Visible Absorptance

MATERIAL:NOMASS,
    EU_floor_NoMass,          !- Name
    MediumRough,              !- Roughness
    1.6891891891891893,       !- Thermal Resistance
    0.9,                      !- Thermal Absorptance
    0.7,                      !- Solar Absorptance
    0.7;                      !- Visible Absorptance

CONSTRUCTION,
    EU_wall_Construction,     !- Name
    EU_wall_NoMass;           !- Outside Layer

CONSTRUCTION,
    EU_roof_Construction,     !- Name
    EU_roof_NoMass;           !- Outside Layer

CONSTRUCTION,
    EU_floor_Construction,    !- Name
    EU_floor_NoMass;          !- Outside Layer

CONSTRUCTION,
    EU_InternalMass_Construction,    !- Name
    EU_InternalMass_Material;    !- Outside Layer

GlobalGeometryRules,
    UpperLeftCorner,          !- Starting Vertex Position
    CounterClockWise,         !- Vertex Entry Direction
    World;                    !- Coordinate System

ZONE,
    7be04e2c043270df_F0_dwelling_0,    !- Name
    0,                        !- Direction of Relative North
    0,                        !- X Origin
    0,                        !- Y Origin
    0,                        !- Z Origin
    1,                        !- Type
    1,                        !- Multiplier
    autocalculate,            !- Ceiling Height
    601.903564453125,         !- Volume
    autocalculate,            !- Floor Area
    ,                         !- Zone Inside Convection Algorithm
    ,                         !- Zone Outside Convection Algorithm
    Yes;                      !- Part of Total Floor Area

BUILDINGSURFACE:DETAILED,
    Block 7be04e2c043270df_0 Storey 0 Wall 0001,    !- Name
    wall,                     !- Surface Type
    EU_wall_Construction,     !- Construction Name
    7be04e2c043270df_F0_dwelling_0,    !- Zone Name
    ,                         !- Space Name
    Adiabatic,                !- Outside Boundary Condition
    ,                         !- Outside Boundary Condition Object
    NoSun,                    !- Sun Exposure
    NoWind,                   !- Wind Exposure
    autocalculate,            !- View Factor to Ground
    autocalculate,            !- Number of Vertices
    705561.014,               !- Vertex 1 Xcoordinate
    5711529.864,              !- Vertex 1 Ycoordinate
    9,                        !- Vertex 1 Zcoordinate
    705561.014,               !- Vertex 2 Xcoordinate
    5711529.864,              !- Vertex 2 Ycoordinate
    0,                        !- Vertex 2 Zcoordinate
    705560.673,               !- Vertex 3 Xcoordinate
    5711521.977,              !- Vertex 3 Ycoordinate
    0,                        !- Vertex 3 Zcoordinate
    705560.673,               !- Vertex 4 Xcoordinate
    5711521.977,              !- Vertex 4 Ycoordinate
    9;                        !- Vertex 4 Zcoordinate

BUILDINGSURFACE:DETAILED,
    Block 7be04e2c043270df_0 Storey 0 Wall 0002,    !- Name
    wall,                     !- Surface Type
    EU_wall_Construction,     !- Construction Name
    7be04e2c043270df_F0_dwelling_0,    !- Zone Name
    ,                         !- Space Name
    outdoors,                 !- Outside Boundary Condition
    ,                         !- Outside Boundary Condition Object
    SunExposed,               !- Sun Exposure
    WindExposed,              !- Wind Exposure
    autocalculate,            !- View Factor to Ground
    autocalculate,            !- Number of Vertices
    705560.673,               !- Vertex 1 Xcoordinate
    5711521.977,              !- Vertex 1 Ycoordinate
    9,                        !- Vertex 1 Zcoordinate
    705560.673,               !- Vertex 2 Xcoordinate
    5711521.977,              !- Vertex 2 Ycoordinate
    0,                        !- Vertex 2 Zcoordinate
    705554.63,                !- Vertex 3 Xcoordinate
    5711522.111,              !- Vertex 3 Ycoordinate
    0,                        !- Vertex 3 Zcoordinate
    705554.63,                !- Vertex 4 Xcoordinate
    5711522.111,              !- Vertex 4 Ycoordinate
    9;                        !- Vertex 4 Zcoordinate

BUILDINGSURFACE:DETAILED,
    Block 7be04e2c043270df_0 Storey 0 Wall 0003,    !- Name
    wall,                     !- Surface Type
    EU_wall_Construction,     !- Construction Name
    7be04e2c043270df_F0_dwelling_0,    !- Zone Name
    ,                         !- Space Name
    outdoors,                 !- Outside Boundary Condition
    ,                         !- Outside Boundary Condition Object
    SunExposed,               !- Sun Exposure
    WindExposed,              !- Wind Exposure
    autocalculate,            !- View Factor to Ground
    autocalculate,            !- Number of Vertices
    705554.63,                !- Vertex 1 Xcoordinate
    5711522.111,              !- Vertex 1 Ycoordinate
    9,                        !- Vertex 1 Zcoordinate
    705554.63,                !- Vertex 2 Xcoordinate
    5711522.111,              !- Vertex 2 Ycoordinate
    0,                        !- Vertex 2 Zcoordinate
    705555.01,                !- Vertex 3 Xcoordinate
    5711529.71,               !- Vertex 3 Ycoordinate
    0,                        !- Vertex 3 Zcoordinate
    705555.01,                !- Vertex 4 Xcoordinate
    5711529.71,               !- Vertex 4 Ycoordinate
    9;                        !- Vertex 4 Zcoordinate

BUILDINGSURFACE:DETAILED,
    Block 7be04e2c043270df_0 Storey 0 Wall 0004,    !- Name
    wall,                     !- Surface Type
    EU_wall_Construction,     !- Construction Name
    7be04e2c043270df_F0_dwelling_0,    !- Zone Name
    ,                         !- Space Name
    outdoors,                 !- Outside Boundary Condition
    ,                         !- Outside Boundary Condition Object
    SunExposed,               !- Sun Exposure
    WindExposed,              !- Wind Exposure
    autocalculate,            !- View Factor to Ground
    autocalculate,            !- Number of Vertices
    705555.01,                !- Vertex 1 Xcoordinate
    5711529.71,               !- Vertex 1 Ycoordinate
    9,                        !- Vertex 1 Zcoordinate
    705555.01,                !- Vertex 2 Xcoordinate
    5711529.71,               !- Vertex 2 Ycoordinate
    0,                        !- Vertex 2 Zcoordinate
    705556.909,               !- Vertex 3 Xcoordinate
    5711529.664,              !- Vertex 3 Ycoordinate
    0,                        !- Vertex 3 Zcoordinate
    705556.909,               !- Vertex 4 Xcoordinate
    5711529.664,              !- Vertex 4 Ycoordinate
    9;                        !- Vertex 4 Zcoordinate

BUILDINGSURFACE:DETAILED,
    Block 7be04e2c043270df_0 Storey 0 Wall 0005,    !- Name
    wall,                     !- Surface Type
    EU_wall_Construction,     !- Construction Name
    7be04e2c043270df_F0_dwelling_0,    !- Zone Name
    ,                         !- Space Name
    outdoors,                 !- Outside Boundary Condition
    ,                         !- Outside Boundary Condition Object
    SunExposed,               !- Sun Exposure
    WindExposed,              !- Wind Exposure
    autocalculate,            !- View Factor to Ground
    autocalculate,            !- Number of Vertices
    705556.909,               !- Vertex 1 Xcoordinate
    5711529.664,              !- Vertex 1 Ycoordinate
    9,                        !- Vertex 1 Zcoordinate
    705556.909,               !- Vertex 2 Xcoordinate
    5711529.664,              !- Vertex 2 Ycoordinate
    0,                        !- Vertex 2 Zcoordinate
    705557.047,               !- Vertex 3 Xcoordinate
    5711534.815,              !- Vertex 3 Ycoordinate
    0,                        !- Vertex 3 Zcoordinate
    705557.047,               !- Vertex 4 Xcoordinate
    5711534.815,              !- Vertex 4 Ycoordinate
    9;                        !- Vertex 4 Zcoordinate

BUILDINGSURFACE:DETAILED,
    Block 7be04e2c043270df_0 Storey 0 Wall 0006,    !- Name
    wall,                     !- Surface Type
    EU_wall_Construction,     !- Construction Name
    7be04e2c043270df_F0_dwelling_0,    !- Zone Name
    ,                         !- Space Name
    outdoors,                 !- Outside Boundary Condition
    ,                         !- Outside Boundary Condition Object
    SunExposed,               !- Sun Exposure
    WindExposed,              !- Wind Exposure
    autocalculate,            !- View Factor to Ground
    autocalculate,            !- Number of Vertices
    705557.047,               !- Vertex 1 Xcoordinate
    5711534.815,              !- Vertex 1 Ycoordinate
    9,                        !- Vertex 1 Zcoordinate
    705557.047,               !- Vertex 2 Xcoordinate
    5711534.815,              !- Vertex 2 Ycoordinate
    0,                        !- Vertex 2 Zcoordinate
    705561.172,               !- Vertex 3 Xcoordinate
    5711534.692,              !- Vertex 3 Ycoordinate
    0,                        !- Vertex 3 Zcoordinate
    705561.172,               !- Vertex 4 Xcoordinate
    5711534.692,              !- Vertex 4 Ycoordinate
    9;                        !- Vertex 4 Zcoordinate

BUILDINGSURFACE:DETAILED,
    Block 7be04e2c043270df_0 Storey 0 Wall 0007,    !- Name
    wall,                     !- Surface Type
    EU_wall_Construction,     !- Construction Name
    7be04e2c043270df_F0_dwelling_0,    !- Zone Name
    ,                         !- Space Name
    outdoors,                 !- Outside Boundary Condition
    ,                         !- Outside Boundary Condition Object
    SunExposed,               !- Sun Exposure
    WindExposed,              !- Wind Exposure
    autocalculate,            !- View Factor to Ground
    autocalculate,            !- Number of Vertices
    705561.172,               !- Vertex 1 Xcoordinate
    5711534.692,              !- Vertex 1 Ycoordinate
    9,                        !- Vertex 1 Zcoordinate
    705561.172,               !- Vertex 2 Xcoordinate
    5711534.692,              !- Vertex 2 Ycoordinate
    0,                        !- Vertex 2 Zcoordinate
    705561.014,               !- Vertex 3 Xcoordinate
    5711529.864,              !- Vertex 3 Ycoordinate
    0,                        !- Vertex 3 Zcoordinate
    705561.014,               !- Vertex 4 Xcoordinate
    5711529.864,              !- Vertex 4 Ycoordinate
    9;                        !- Vertex 4 Zcoordinate

BUILDINGSURFACE:DETAILED,
    Block 7be04e2c043270df_0 Storey 0 Floor 0001,    !- Name
    floor,                    !- Surface Type
    EU_floor_Construction,    !- Construction Name
    7be04e2c043270df_F0_dwelling_0,    !- Zone Name
    ,                         !- Space Name
    ground,                   !- Outside Boundary Condition
    ,                         !- Outside Boundary Condition Object
    NoSun,                    !- Sun Exposure
    NoWind,                   !- Wind Exposure
    autocalculate,            !- View Factor to Ground
    autocalculate,            !- Number of Vertices
    705560.673,               !- Vertex 1 Xcoordinate
    5711521.977,              !- Vertex 1 Ycoordinate
    0,                        !- Vertex 1 Zcoordinate
    705561.014,               !- Vertex 2 Xcoordinate
    5711529.864,              !- Vertex 2 Ycoordinate
    0,                        !- Vertex 2 Zcoordinate
    705561.172,               !- Vertex 3 Xcoordinate
    5711534.692,              !- Vertex 3 Ycoordinate
    0,                        !- Vertex 3 Zcoordinate
    705557.047,               !- Vertex 4 Xcoordinate
    5711534.815,              !- Vertex 4 Ycoordinate
    0,                        !- Vertex 4 Zcoordinate
    705556.909,               !- Vertex 5 Xcoordinate
    5711529.664,              !- Vertex 5 Ycoordinate
    0,                        !- Vertex 5 Zcoordinate
    705555.01,                !- Vertex 6 Xcoordinate
    5711529.71,               !- Vertex 6 Ycoordinate
    0,                        !- Vertex 6 Zcoordinate
    705554.63,                !- Vertex 7 Xcoordinate
    5711522.111,              !- Vertex 7 Ycoordinate
    0;                        !- Vertex 7 Zcoordinate

BUILDINGSURFACE:DETAILED,
    Block 7be04e2c043270df_0 Storey 0 Roof 0001,    !- Name
    roof,                     !- Surface Type
    EU_roof_Construction,     !- Construction Name
    7be04e2c043270df_F0_dwelling_0,    !- Zone Name
    ,                         !- Space Name
    outdoors,                 !- Outside Boundary Condition
    ,                         !- Outside Boundary Condition Object
    NoSun,                    !- Sun Exposure
    WindExposed,              !- Wind Exposure
    autocalculate,            !- View Factor to Ground
    autocalculate,            !- Number of Vertices
    705561.172,               !- Vertex 1 Xcoordinate
    5711534.692,              !- Vertex 1 Ycoordinate
    9,                        !- Vertex 1 Zcoordinate
    705561.014,               !- Vertex 2 Xcoordinate
    5711529.864,              !- Vertex 2 Ycoordinate
    9,                        !- Vertex 2 Zcoordinate
    705560.673,               !- Vertex 3 Xcoordinate
    5711521.977,              !- Vertex 3 Ycoordinate
    9,                        !- Vertex 3 Zcoordinate
    705554.63,                !- Vertex 4 Xcoordinate
    5711522.111,              !- Vertex 4 Ycoordinate
    9,                        !- Vertex 4 Zcoordinate
    705555.01,                !- Vertex 5 Xcoordinate
    5711529.71,               !- Vertex 5 Ycoordinate
    9,                        !- Vertex 5 Zcoordinate
    705556.909,               !- Vertex 6 Xcoordinate
    5711529.664,              !- Vertex 6 Ycoordinate
    9,                        !- Vertex 6 Zcoordinate
    705557.047,               !- Vertex 7 Xcoordinate
    5711534.815,              !- Vertex 7 Ycoordinate
    9;                        !- Vertex 7 Zcoordinate

INTERNALMASS,
    7be04e2c043270df_F0_dwelling_0_EU_InternalMass,    !- Name
    EU_InternalMass_Construction,    !- Construction Name
    7be04e2c043270df_F0_dwelling_0,    !- Zone or ZoneList Name
    ,                         !- Space or SpaceList Name
    66.87813500141115;        !- Surface Area

SHADING:SITE:DETAILED,
    shade_way/1058042193_1,    !- Name
    ,                         !- Transmittance Schedule Name
    autocalculate,            !- Number of Vertices
    705544.9187343904,        !- Vertex 1 Xcoordinate
    5711503.710259561,        !- Vertex 1 Ycoordinate
    6,                        !- Vertex 1 Zcoordinate
    705544.9187343904,        !- Vertex 2 Xcoordinate
    5711503.710259561,        !- Vertex 2 Ycoordinate
    0,                        !- Vertex 2 Zcoordinate
    705535.248255123,         !- Vertex 3 Xcoordinate
    5711504.198258787,        !- Vertex 3 Ycoordinate
    0,                        !- Vertex 3 Zcoordinate
    705535.248255123,         !- Vertex 4 Xcoordinate
    5711504.198258787,        !- Vertex 4 Ycoordinate
    6;                        !- Vertex 4 Zcoordinate

SHADING:SITE:DETAILED,
    shade_way/1058042193_2,    !- Name
    ,                         !- Transmittance Schedule Name
    autocalculate,            !- Number of Vertices
    705535.248255123,         !- Vertex 1 Xcoordinate
    5711504.198258787,        !- Vertex 1 Ycoordinate
    6,                        !- Vertex 1 Zcoordinate
    705535.248255123,         !- Vertex 2 Xcoordinate
    5711504.198258787,        !- Vertex 2 Ycoordinate
    0,                        !- Vertex 2 Zcoordinate
    705535.4755253504,        !- Vertex 3 Xcoordinate
    5711508.700708093,        !- Vertex 3 Ycoordinate
    0,                        !- Vertex 3 Zcoordinate
    705535.4755253504,        !- Vertex 4 Xcoordinate
    5711508.700708093,        !- Vertex 4 Ycoordinate
    6;                        !- Vertex 4 Zcoordinate

SHADING:SITE:DETAILED,
    shade_way/1058042193_3,    !- Name
    ,                         !- Transmittance Schedule Name
    autocalculate,            !- Number of Vertices
    705535.4755253504,        !- Vertex 1 Xcoordinate
    5711508.700708093,        !- Vertex 1 Ycoordinate
    6,                        !- Vertex 1 Zcoordinate
    705535.4755253504,        !- Vertex 2 Xcoordinate
    5711508.700708093,        !- Vertex 2 Ycoordinate
    0,                        !- Vertex 2 Zcoordinate
    705545.1460046177,        !- Vertex 3 Xcoordinate
    5711508.212708865,        !- Vertex 3 Ycoordinate
    0,                        !- Vertex 3 Zcoordinate
    705545.1460046177,        !- Vertex 4 Xcoordinate
    5711508.212708865,        !- Vertex 4 Ycoordinate
    6;                        !- Vertex 4 Zcoordinate

SHADING:SITE:DETAILED,
    shade_way/1058042193_4,    !- Name
    ,                         !- Transmittance Schedule Name
    autocalculate,            !- Number of Vertices
    705545.1460046177,        !- Vertex 1 Xcoordinate
    5711508.212708865,        !- Vertex 1 Ycoordinate
    6,                        !- Vertex 1 Zcoordinate
    705545.1460046177,        !- Vertex 2 Xcoordinate
    5711508.212708865,        !- Vertex 2 Ycoordinate
    0,                        !- Vertex 2 Zcoordinate
    705544.9187343904,        !- Vertex 3 Xcoordinate
    5711503.710259561,        !- Vertex 3 Ycoordinate
    0,                        !- Vertex 3 Zcoordinate
    705544.9187343904,        !- Vertex 4 Xcoordinate
    5711503.710259561,        !- Vertex 4 Ycoordinate
    6;                        !- Vertex 4 Zcoordinate

SHADING:SITE:DETAILED,
    shade_way/393510986_1,    !- Name
    ,                         !- Transmittance Schedule Name
    autocalculate,            !- Number of Vertices
    705533.8889488742,        !- Vertex 1 Xcoordinate
    5711513.600442298,        !- Vertex 1 Ycoordinate
    6,                        !- Vertex 1 Zcoordinate
    705533.8889488742,        !- Vertex 2 Xcoordinate
    5711513.600442298,        !- Vertex 2 Ycoordinate
    0,                        !- Vertex 2 Zcoordinate
    705545.26480896,          !- Vertex 3 Xcoordinate
    5711513.185230329,        !- Vertex 3 Ycoordinate
    0,                        !- Vertex 3 Zcoordinate
    705545.26480896,          !- Vertex 4 Xcoordinate
    5711513.185230329,        !- Vertex 4 Ycoordinate
    6;                        !- Vertex 4 Zcoordinate

SHADING:SITE:DETAILED,
    shade_way/393510986_2,    !- Name
    ,                         !- Transmittance Schedule Name
    autocalculate,            !- Number of Vertices
    705545.26480896,          !- Vertex 1 Xcoordinate
    5711513.185230329,        !- Vertex 1 Ycoordinate
    6,                        !- Vertex 1 Zcoordinate
    705545.26480896,          !- Vertex 2 Xcoordinate
    5711513.185230329,        !- Vertex 2 Ycoordinate
    0,                        !- Vertex 2 Zcoordinate
    705545.0835936811,        !- Vertex 3 Xcoordinate
    5711508.215989421,        !- Vertex 3 Ycoordinate
    0,                        !- Vertex 3 Zcoordinate
    705545.0835936811,        !- Vertex 4 Xcoordinate
    5711508.215989421,        !- Vertex 4 Ycoordinate
    6;                        !- Vertex 4 Zcoordinate

SHADING:SITE:DETAILED,
    shade_way/393510986_3,    !- Name
    ,                         !- Transmittance Schedule Name
    autocalculate,            !- Number of Vertices
    705545.0835936811,        !- Vertex 1 Xcoordinate
    5711508.215989421,        !- Vertex 1 Ycoordinate
    6,                        !- Vertex 1 Zcoordinate
    705545.0835936811,        !- Vertex 2 Xcoordinate
    5711508.215989421,        !- Vertex 2 Ycoordinate
    0,                        !- Vertex 2 Zcoordinate
    705533.7075740366,        !- Vertex 3 Xcoordinate
    5711508.631185785,        !- Vertex 3 Ycoordinate
    0,                        !- Vertex 3 Zcoordinate
    705533.7075740366,        !- Vertex 4 Xcoordinate
    5711508.631185785,        !- Vertex 4 Ycoordinate
    6;                        !- Vertex 4 Zcoordinate

SHADING:SITE:DETAILED,
    shade_way/393510986_4,    !- Name
    ,                         !- Transmittance Schedule Name
    autocalculate,            !- Number of Vertices
    705533.7075740366,        !- Vertex 1 Xcoordinate
    5711508.631185785,        !- Vertex 1 Ycoordinate
    6,                        !- Vertex 1 Zcoordinate
    705533.7075740366,        !- Vertex 2 Xcoordinate
    5711508.631185785,        !- Vertex 2 Ycoordinate
    0,                        !- Vertex 2 Zcoordinate
    705533.8889488742,        !- Vertex 3 Xcoordinate
    5711513.600442298,        !- Vertex 3 Ycoordinate
    0,                        !- Vertex 3 Zcoordinate
    705533.8889488742,        !- Vertex 4 Xcoordinate
    5711513.600442298,        !- Vertex 4 Ycoordinate
    6;                        !- Vertex 4 Zcoordinate

SHADING:SITE:DETAILED,
    shade_way/1058042194_1,    !- Name
    ,                         !- Transmittance Schedule Name
    autocalculate,            !- Number of Vertices
    705545.2060613788,        !- Vertex 1 Xcoordinate
    5711513.18737458,         !- Vertex 1 Ycoordinate
    6,                        !- Vertex 1 Zcoordinate
    705545.2060613788,        !- Vertex 2 Xcoordinate
    5711513.18737458,         !- Vertex 2 Ycoordinate
    0,                        !- Vertex 2 Zcoordinate
    705533.9219167276,        !- Vertex 3 Xcoordinate
    5711513.599238992,        !- Vertex 3 Ycoordinate
    0,                        !- Vertex 3 Zcoordinate
    705533.9219167276,        !- Vertex 4 Xcoordinate
    5711513.599238992,        !- Vertex 4 Ycoordinate
    6;                        !- Vertex 4 Zcoordinate

SHADING:SITE:DETAILED,
    shade_way/1058042194_2,    !- Name
    ,                         !- Transmittance Schedule Name
    autocalculate,            !- Number of Vertices
    705533.9219167276,        !- Vertex 1 Xcoordinate
    5711513.599238992,        !- Vertex 1 Ycoordinate
    6,                        !- Vertex 1 Zcoordinate
    705533.9219167276,        !- Vertex 2 Xcoordinate
    5711513.599238992,        !- Vertex 2 Ycoordinate
    0,                        !- Vertex 2 Zcoordinate
    705534.1112646587,        !- Vertex 3 Xcoordinate
    5711518.786940063,        !- Vertex 3 Ycoordinate
    0,                        !- Vertex 3 Zcoordinate
    705534.1112646587,        !- Vertex 4 Xcoordinate
    5711518.786940063,        !- Vertex 4 Ycoordinate
    6;                        !- Vertex 4 Zcoordinate

SHADING:SITE:DETAILED,
    shade_way/1058042194_3,    !- Name
    ,                         !- Transmittance Schedule Name
    autocalculate,            !- Number of Vertices
    705534.1112646587,        !- Vertex 1 Xcoordinate
    5711518.786940063,        !- Vertex 1 Ycoordinate
    6,                        !- Vertex 1 Zcoordinate
    705534.1112646587,        !- Vertex 2 Xcoordinate
    5711518.786940063,        !- Vertex 2 Ycoordinate
    0,                        !- Vertex 2 Zcoordinate
    705545.3954093099,        !- Vertex 3 Xcoordinate
    5711518.375075652,        !- Vertex 3 Ycoordinate
    0,                        !- Vertex 3 Zcoordinate
    705545.3954093099,        !- Vertex 4 Xcoordinate
    5711518.375075652,        !- Vertex 4 Ycoordinate
    6;                        !- Vertex 4 Zcoordinate

SHADING:SITE:DETAILED,
    shade_way/1058042194_4,    !- Name
    ,                         !- Transmittance Schedule Name
    autocalculate,            !- Number of Vertices
    705545.3954093099,        !- Vertex 1 Xcoordinate
    5711518.375075652,        !- Vertex 1 Ycoordinate
    6,                        !- Vertex 1 Zcoordinate
    705545.3954093099,        !- Vertex 2 Xcoordinate
    5711518.375075652,        !- Vertex 2 Ycoordinate
    0,                        !- Vertex 2 Zcoordinate
    705545.2060613788,        !- Vertex 3 Xcoordinate
    5711513.18737458,         !- Vertex 3 Ycoordinate
    0,                        !- Vertex 3 Zcoordinate
    705545.2060613788,        !- Vertex 4 Xcoordinate
    5711513.18737458,         !- Vertex 4 Ycoordinate
    6;                        !- Vertex 4 Zcoordinate

SHADING:SITE:DETAILED,
    shade_way/1058042190_1,    !- Name
    ,                         !- Transmittance Schedule Name
    autocalculate,            !- Number of Vertices
    705535.6445016034,        !- Vertex 1 Xcoordinate
    5711525.9745702455,       !- Vertex 1 Ycoordinate
    6,                        !- Vertex 1 Zcoordinate
    705535.6445016034,        !- Vertex 2 Xcoordinate
    5711525.9745702455,       !- Vertex 2 Ycoordinate
    0,                        !- Vertex 2 Zcoordinate
    705546.9604316512,        !- Vertex 3 Xcoordinate
    5711525.686871768,        !- Vertex 3 Ycoordinate
    0,                        !- Vertex 3 Zcoordinate
    705546.9604316512,        !- Vertex 4 Xcoordinate
    5711525.686871768,        !- Vertex 4 Ycoordinate
    6;                        !- Vertex 4 Zcoordinate

SHADING:SITE:DETAILED,
    shade_way/1058042190_2,    !- Name
    ,                         !- Transmittance Schedule Name
    autocalculate,            !- Number of Vertices
    705546.9604316512,        !- Vertex 1 Xcoordinate
    5711525.686871768,        !- Vertex 1 Ycoordinate
    6,                        !- Vertex 1 Zcoordinate
    705546.9604316512,        !- Vertex 2 Xcoordinate
    5711525.686871768,        !- Vertex 2 Ycoordinate
    0,                        !- Vertex 2 Zcoordinate
    705546.8119374599,        !- Vertex 3 Xcoordinate
    5711519.838976527,        !- Vertex 3 Ycoordinate
    0,                        !- Vertex 3 Zcoordinate
    705546.8119374599,        !- Vertex 4 Xcoordinate
    5711519.838976527,        !- Vertex 4 Ycoordinate
    6;                        !- Vertex 4 Zcoordinate

SHADING:SITE:DETAILED,
    shade_way/1058042190_3,    !- Name
    ,                         !- Transmittance Schedule Name
    autocalculate,            !- Number of Vertices
    705546.8119374599,        !- Vertex 1 Xcoordinate
    5711519.838976527,        !- Vertex 1 Ycoordinate
    6,                        !- Vertex 1 Zcoordinate
    705546.8119374599,        !- Vertex 2 Xcoordinate
    5711519.838976527,        !- Vertex 2 Ycoordinate
    0,                        !- Vertex 2 Zcoordinate
    705535.4960074121,        !- Vertex 3 Xcoordinate
    5711520.126675007,        !- Vertex 3 Ycoordinate
    0,                        !- Vertex 3 Zcoordinate
    705535.4960074121,        !- Vertex 4 Xcoordinate
    5711520.126675007,        !- Vertex 4 Ycoordinate
    6;                        !- Vertex 4 Zcoordinate

SHADING:SITE:DETAILED,
    shade_way/1058042190_4,    !- Name
    ,                         !- Transmittance Schedule Name
    autocalculate,            !- Number of Vertices
    705535.4960074121,        !- Vertex 1 Xcoordinate
    5711520.126675007,        !- Vertex 1 Ycoordinate
    6,                        !- Vertex 1 Zcoordinate
    705535.4960074121,        !- Vertex 2 Xcoordinate
    5711520.126675007,        !- Vertex 2 Ycoordinate
    0,                        !- Vertex 2 Zcoordinate
    705535.6445016034,        !- Vertex 3 Xcoordinate
    5711525.9745702455,       !- Vertex 3 Ycoordinate
    0,                        !- Vertex 3 Zcoordinate
    705535.6445016034,        !- Vertex 4 Xcoordinate
    5711525.9745702455,       !- Vertex 4 Ycoordinate
    6;                        !- Vertex 4 Zcoordinate

SHADING:SITE:DETAILED,
    shade_way/1058042189_1,    !- Name
    ,                         !- Transmittance Schedule Name
    autocalculate,            !- Number of Vertices
    705535.7878397376,        !- Vertex 1 Xcoordinate
    5711532.383728834,        !- Vertex 1 Ycoordinate
    6,                        !- Vertex 1 Zcoordinate
    705535.7878397376,        !- Vertex 2 Xcoordinate
    5711532.383728834,        !- Vertex 2 Ycoordinate
    0,                        !- Vertex 2 Zcoordinate
    705544.261308671,         !- Vertex 3 Xcoordinate
    5711532.114510251,        !- Vertex 3 Ycoordinate
    0,                        !- Vertex 3 Zcoordinate
    705544.261308671,         !- Vertex 4 Xcoordinate
    5711532.114510251,        !- Vertex 4 Ycoordinate
    6;                        !- Vertex 4 Zcoordinate

SHADING:SITE:DETAILED,
    shade_way/1058042189_2,    !- Name
    ,                         !- Transmittance Schedule Name
    autocalculate,            !- Number of Vertices
    705544.261308671,         !- Vertex 1 Xcoordinate
    5711532.114510251,        !- Vertex 1 Ycoordinate
    6,                        !- Vertex 1 Zcoordinate
    705544.261308671,         !- Vertex 2 Xcoordinate
    5711532.114510251,        !- Vertex 2 Ycoordinate
    0,                        !- Vertex 2 Zcoordinate
    705544.0576966368,        !- Vertex 3 Xcoordinate
    5711525.707519201,        !- Vertex 3 Ycoordinate
    0,                        !- Vertex 3 Zcoordinate
    705544.0576966368,        !- Vertex 4 Xcoordinate
    5711525.707519201,        !- Vertex 4 Ycoordinate
    6;                        !- Vertex 4 Zcoordinate

SHADING:SITE:DETAILED,
    shade_way/1058042189_3,    !- Name
    ,                         !- Transmittance Schedule Name
    autocalculate,            !- Number of Vertices
    705544.0576966368,        !- Vertex 1 Xcoordinate
    5711525.707519201,        !- Vertex 1 Ycoordinate
    6,                        !- Vertex 1 Zcoordinate
    705544.0576966368,        !- Vertex 2 Xcoordinate
    5711525.707519201,        !- Vertex 2 Ycoordinate
    0,                        !- Vertex 2 Zcoordinate
    705535.5842277034,        !- Vertex 3 Xcoordinate
    5711525.9767377805,       !- Vertex 3 Ycoordinate
    0,                        !- Vertex 3 Zcoordinate
    705535.5842277034,        !- Vertex 4 Xcoordinate
    5711525.9767377805,       !- Vertex 4 Ycoordinate
    6;                        !- Vertex 4 Zcoordinate

SHADING:SITE:DETAILED,
    shade_way/1058042189_4,    !- Name
    ,                         !- Transmittance Schedule Name
    autocalculate,            !- Number of Vertices
    705535.5842277034,        !- Vertex 1 Xcoordinate
    5711525.9767377805,       !- Vertex 1 Ycoordinate
    6,                        !- Vertex 1 Zcoordinate
    705535.5842277034,        !- Vertex 2 Xcoordinate
    5711525.9767377805,       !- Vertex 2 Ycoordinate
    0,                        !- Vertex 2 Zcoordinate
    705535.7878397376,        !- Vertex 3 Xcoordinate
    5711532.383728834,        !- Vertex 3 Ycoordinate
    0,                        !- Vertex 3 Zcoordinate
    705535.7878397376,        !- Vertex 4 Xcoordinate
    5711532.383728834,        !- Vertex 4 Ycoordinate
    6;                        !- Vertex 4 Zcoordinate

SHADING:SITE:DETAILED,
    shade_way/1056576471_1,    !- Name
    ,                         !- Transmittance Schedule Name
    autocalculate,            !- Number of Vertices
    705573.2971135206,        !- Vertex 1 Xcoordinate
    5711529.359808974,        !- Vertex 1 Ycoordinate
    6,                        !- Vertex 1 Zcoordinate
    705573.2971135206,        !- Vertex 2 Xcoordinate
    5711529.359808974,        !- Vertex 2 Ycoordinate
    0,                        !- Vertex 2 Zcoordinate
    705572.9354899745,        !- Vertex 3 Xcoordinate
    5711521.439264013,        !- Vertex 3 Ycoordinate
    0,                        !- Vertex 3 Zcoordinate
    705572.9354899745,        !- Vertex 4 Xcoordinate
    5711521.439264013,        !- Vertex 4 Ycoordinate
    6;                        !- Vertex 4 Zcoordinate

SHADING:SITE:DETAILED,
    shade_way/1056576471_2,    !- Name
    ,                         !- Transmittance Schedule Name
    autocalculate,            !- Number of Vertices
    705572.9354899745,        !- Vertex 1 Xcoordinate
    5711521.439264013,        !- Vertex 1 Ycoordinate
    6,                        !- Vertex 1 Zcoordinate
    705572.9354899745,        !- Vertex 2 Xcoordinate
    5711521.439264013,        !- Vertex 2 Ycoordinate
    0,                        !- Vertex 2 Zcoordinate
    705566.8742696822,        !- Vertex 3 Xcoordinate
    5711521.716223874,        !- Vertex 3 Ycoordinate
    0,                        !- Vertex 3 Zcoordinate
    705566.8742696822,        !- Vertex 4 Xcoordinate
    5711521.716223874,        !- Vertex 4 Ycoordinate
    6;                        !- Vertex 4 Zcoordinate

SHADING:SITE:DETAILED,
    shade_way/1056576471_3,    !- Name
    ,                         !- Transmittance Schedule Name
    autocalculate,            !- Number of Vertices
    705566.8742696822,        !- Vertex 1 Xcoordinate
    5711521.716223874,        !- Vertex 1 Ycoordinate
    6,                        !- Vertex 1 Zcoordinate
    705566.8742696822,        !- Vertex 2 Xcoordinate
    5711521.716223874,        !- Vertex 2 Ycoordinate
    0,                        !- Vertex 2 Zcoordinate
    705567.23582603,          !- Vertex 3 Xcoordinate
    5711529.636284637,        !- Vertex 3 Ycoordinate
    0,                        !- Vertex 3 Zcoordinate
    705567.23582603,          !- Vertex 4 Xcoordinate
    5711529.636284637,        !- Vertex 4 Ycoordinate
    6;                        !- Vertex 4 Zcoordinate

SHADING:SITE:DETAILED,
    shade_way/1056576471_4,    !- Name
    ,                         !- Transmittance Schedule Name
    autocalculate,            !- Number of Vertices
    705567.23582603,          !- Vertex 1 Xcoordinate
    5711529.636284637,        !- Vertex 1 Ycoordinate
    6,                        !- Vertex 1 Zcoordinate
    705567.23582603,          !- Vertex 2 Xcoordinate
    5711529.636284637,        !- Vertex 2 Ycoordinate
    0,                        !- Vertex 2 Zcoordinate
    705573.2971135206,        !- Vertex 3 Xcoordinate
    5711529.359808974,        !- Vertex 3 Ycoordinate
    0,                        !- Vertex 3 Zcoordinate
    705573.2971135206,        !- Vertex 4 Xcoordinate
    5711529.359808974,        !- Vertex 4 Ycoordinate
    6;                        !- Vertex 4 Zcoordinate

SHADING:SITE:DETAILED,
    shade_way/1056576470_1,    !- Name
    ,                         !- Transmittance Schedule Name
    autocalculate,            !- Number of Vertices
    705560.6730847647,        !- Vertex 1 Xcoordinate
    5711521.977242504,        !- Vertex 1 Ycoordinate
    9,                        !- Vertex 1 Zcoordinate
    705560.6730847647,        !- Vertex 2 Xcoordinate
    5711521.977242504,        !- Vertex 2 Ycoordinate
    0,                        !- Vertex 2 Zcoordinate
    705561.0144848224,        !- Vertex 3 Xcoordinate
    5711529.884116442,        !- Vertex 3 Ycoordinate
    0,                        !- Vertex 3 Zcoordinate
    705561.0144848224,        !- Vertex 4 Xcoordinate
    5711529.884116442,        !- Vertex 4 Ycoordinate
    9;                        !- Vertex 4 Zcoordinate

SHADING:SITE:DETAILED,
    shade_way/1056576470_2,    !- Name
    ,                         !- Transmittance Schedule Name
    autocalculate,            !- Number of Vertices
    705561.0144848224,        !- Vertex 1 Xcoordinate
    5711529.884116442,        !- Vertex 1 Ycoordinate
    9,                        !- Vertex 1 Zcoordinate
    705561.0144848224,        !- Vertex 2 Xcoordinate
    5711529.884116442,        !- Vertex 2 Ycoordinate
    0,                        !- Vertex 2 Zcoordinate
    705567.2351182264,        !- Vertex 3 Xcoordinate
    5711529.615322492,        !- Vertex 3 Ycoordinate
    0,                        !- Vertex 3 Zcoordinate
    705567.2351182264,        !- Vertex 4 Xcoordinate
    5711529.615322492,        !- Vertex 4 Ycoordinate
    9;                        !- Vertex 4 Zcoordinate

SHADING:SITE:DETAILED,
    shade_way/1056576470_3,    !- Name
    ,                         !- Transmittance Schedule Name
    autocalculate,            !- Number of Vertices
    705567.2351182264,        !- Vertex 1 Xcoordinate
    5711529.615322492,        !- Vertex 1 Ycoordinate
    9,                        !- Vertex 1 Zcoordinate
    705567.2351182264,        !- Vertex 2 Xcoordinate
    5711529.615322492,        !- Vertex 2 Ycoordinate
    0,                        !- Vertex 2 Zcoordinate
    705566.8938368186,        !- Vertex 3 Xcoordinate
    5711521.708924143,        !- Vertex 3 Ycoordinate
    0,                        !- Vertex 3 Zcoordinate
    705566.8938368186,        !- Vertex 4 Xcoordinate
    5711521.708924143,        !- Vertex 4 Ycoordinate
    9;                        !- Vertex 4 Zcoordinate

SHADING:SITE:DETAILED,
    shade_way/1056576470_4,    !- Name
    ,                         !- Transmittance Schedule Name
    autocalculate,            !- Number of Vertices
    705566.8938368186,        !- Vertex 1 Xcoordinate
    5711521.708924143,        !- Vertex 1 Ycoordinate
    9,                        !- Vertex 1 Zcoordinate
    705566.8938368186,        !- Vertex 2 Xcoordinate
    5711521.708924143,        !- Vertex 2 Ycoordinate
    0,                        !- Vertex 2 Zcoordinate
    705560.6730847647,        !- Vertex 3 Xcoordinate
    5711521.977242504,        !- Vertex 3 Ycoordinate
    0,                        !- Vertex 3 Zcoordinate
    705560.6730847647,        !- Vertex 4 Xcoordinate
    5711521.977242504,        !- Vertex 4 Ycoordinate
    9;                        !- Vertex 4 Zcoordinate

SHADING:SITE:DETAILED,
    shade_way/1056576473_1,    !- Name
    ,                         !- Transmittance Schedule Name
    autocalculate,            !- Number of Vertices
    705579.1572226445,        !- Vertex 1 Xcoordinate
    5711521.184432306,        !- Vertex 1 Ycoordinate
    9,                        !- Vertex 1 Zcoordinate
    705579.1572226445,        !- Vertex 2 Xcoordinate
    5711521.184432306,        !- Vertex 2 Ycoordinate
    0,                        !- Vertex 2 Zcoordinate
    705579.6862759471,        !- Vertex 3 Xcoordinate
    5711533.4500588095,       !- Vertex 3 Ycoordinate
    0,                        !- Vertex 3 Zcoordinate
    705579.6862759471,        !- Vertex 4 Xcoordinate
    5711533.4500588095,       !- Vertex 4 Ycoordinate
    9;                        !- Vertex 4 Zcoordinate

SHADING:SITE:DETAILED,
    shade_way/1056576473_2,    !- Name
    ,                         !- Transmittance Schedule Name
    autocalculate,            !- Number of Vertices
    705579.6862759471,        !- Vertex 1 Xcoordinate
    5711533.4500588095,       !- Vertex 1 Ycoordinate
    9,                        !- Vertex 1 Zcoordinate
    705579.6862759471,        !- Vertex 2 Xcoordinate
    5711533.4500588095,       !- Vertex 2 Ycoordinate
    0,                        !- Vertex 2 Zcoordinate
    705585.8247305356,        !- Vertex 3 Xcoordinate
    5711533.185288832,        !- Vertex 3 Ycoordinate
    0,                        !- Vertex 3 Zcoordinate
    705585.8247305356,        !- Vertex 4 Xcoordinate
    5711533.185288832,        !- Vertex 4 Ycoordinate
    9;                        !- Vertex 4 Zcoordinate

SHADING:SITE:DETAILED,
    shade_way/1056576473_3,    !- Name
    ,                         !- Transmittance Schedule Name
    autocalculate,            !- Number of Vertices
    705585.8247305356,        !- Vertex 1 Xcoordinate
    5711533.185288832,        !- Vertex 1 Ycoordinate
    9,                        !- Vertex 1 Zcoordinate
    705585.8247305356,        !- Vertex 2 Xcoordinate
    5711533.185288832,        !- Vertex 2 Ycoordinate
    0,                        !- Vertex 2 Zcoordinate
    705585.295677233,         !- Vertex 3 Xcoordinate
    5711520.919662328,        !- Vertex 3 Ycoordinate
    0,                        !- Vertex 3 Zcoordinate
    705585.295677233,         !- Vertex 4 Xcoordinate
    5711520.919662328,        !- Vertex 4 Ycoordinate
    9;                        !- Vertex 4 Zcoordinate

SHADING:SITE:DETAILED,
    shade_way/1056576473_4,    !- Name
    ,                         !- Transmittance Schedule Name
    autocalculate,            !- Number of Vertices
    705585.295677233,         !- Vertex 1 Xcoordinate
    5711520.919662328,        !- Vertex 1 Ycoordinate
    9,                        !- Vertex 1 Zcoordinate
    705585.295677233,         !- Vertex 2 Xcoordinate
    5711520.919662328,        !- Vertex 2 Ycoordinate
    0,                        !- Vertex 2 Zcoordinate
    705579.1572226445,        !- Vertex 3 Xcoordinate
    5711521.184432306,        !- Vertex 3 Ycoordinate
    0,                        !- Vertex 3 Zcoordinate
    705579.1572226445,        !- Vertex 4 Xcoordinate
    5711521.184432306,        !- Vertex 4 Ycoordinate
    9;                        !- Vertex 4 Zcoordinate

SHADING:SITE:DETAILED,
    shade_way/1056576472_1,    !- Name
    ,                         !- Transmittance Schedule Name
    autocalculate,            !- Number of Vertices
    705579.745896954,         !- Vertex 1 Xcoordinate
    5711534.832318405,        !- Vertex 1 Ycoordinate
    6,                        !- Vertex 1 Zcoordinate
    705579.745896954,         !- Vertex 2 Xcoordinate
    5711534.832318405,        !- Vertex 2 Ycoordinate
    0,                        !- Vertex 2 Zcoordinate
    705579.1609373176,        !- Vertex 3 Xcoordinate
    5711521.2705536755,       !- Vertex 3 Ycoordinate
    0,                        !- Vertex 3 Zcoordinate
    705579.1609373176,        !- Vertex 4 Xcoordinate
    5711521.2705536755,       !- Vertex 4 Ycoordinate
    6;                        !- Vertex 4 Zcoordinate

SHADING:SITE:DETAILED,
    shade_way/1056576472_2,    !- Name
    ,                         !- Transmittance Schedule Name
    autocalculate,            !- Number of Vertices
    705579.1609373176,        !- Vertex 1 Xcoordinate
    5711521.2705536755,       !- Vertex 1 Ycoordinate
    6,                        !- Vertex 1 Zcoordinate
    705579.1609373176,        !- Vertex 2 Xcoordinate
    5711521.2705536755,       !- Vertex 2 Ycoordinate
    0,                        !- Vertex 2 Zcoordinate
    705572.9400574618,        !- Vertex 3 Xcoordinate
    5711521.538816861,        !- Vertex 3 Ycoordinate
    0,                        !- Vertex 3 Zcoordinate
    705572.9400574618,        !- Vertex 4 Xcoordinate
    5711521.538816861,        !- Vertex 4 Ycoordinate
    6;                        !- Vertex 4 Zcoordinate

SHADING:SITE:DETAILED,
    shade_way/1056576472_3,    !- Name
    ,                         !- Transmittance Schedule Name
    autocalculate,            !- Number of Vertices
    705572.9400574618,        !- Vertex 1 Xcoordinate
    5711521.538816861,        !- Vertex 1 Ycoordinate
    6,                        !- Vertex 1 Zcoordinate
    705572.9400574618,        !- Vertex 2 Xcoordinate
    5711521.538816861,        !- Vertex 2 Ycoordinate
    0,                        !- Vertex 2 Zcoordinate
    705573.5251821539,        !- Vertex 3 Xcoordinate
    5711535.100636513,        !- Vertex 3 Ycoordinate
    0,                        !- Vertex 3 Zcoordinate
    705573.5251821539,        !- Vertex 4 Xcoordinate
    5711535.100636513,        !- Vertex 4 Ycoordinate
    6;                        !- Vertex 4 Zcoordinate

SHADING:SITE:DETAILED,
    shade_way/1056576472_4,    !- Name
    ,                         !- Transmittance Schedule Name
    autocalculate,            !- Number of Vertices
    705573.5251821539,        !- Vertex 1 Xcoordinate
    5711535.100636513,        !- Vertex 1 Ycoordinate
    6,                        !- Vertex 1 Zcoordinate
    705573.5251821539,        !- Vertex 2 Xcoordinate
    5711535.100636513,        !- Vertex 2 Ycoordinate
    0,                        !- Vertex 2 Zcoordinate
    705579.745896954,         !- Vertex 3 Xcoordinate
    5711534.832318405,        !- Vertex 3 Ycoordinate
    0,                        !- Vertex 3 Zcoordinate
    705579.745896954,         !- Vertex 4 Xcoordinate
    5711534.832318405,        !- Vertex 4 Ycoordinate
    6;                        !- Vertex 4 Zcoordinate

SHADING:SITE:DETAILED,
    shade_way/192335487_1,    !- Name
    ,                         !- Transmittance Schedule Name
    autocalculate,            !- Number of Vertices
    705580.0391559636,        !- Vertex 1 Xcoordinate
    5711540.035280399,        !- Vertex 1 Ycoordinate
    9,                        !- Vertex 1 Zcoordinate
    705580.0391559636,        !- Vertex 2 Xcoordinate
    5711540.035280399,        !- Vertex 2 Ycoordinate
    0,                        !- Vertex 2 Zcoordinate
    705580.6223659611,        !- Vertex 3 Xcoordinate
    5711555.370270926,        !- Vertex 3 Ycoordinate
    0,                        !- Vertex 3 Zcoordinate
    705580.6223659611,        !- Vertex 4 Xcoordinate
    5711555.370270926,        !- Vertex 4 Ycoordinate
    9;                        !- Vertex 4 Zcoordinate

SHADING:SITE:DETAILED,
    shade_way/192335487_2,    !- Name
    ,                         !- Transmittance Schedule Name
    autocalculate,            !- Number of Vertices
    705580.6223659611,        !- Vertex 1 Xcoordinate
    5711555.370270926,        !- Vertex 1 Ycoordinate
    9,                        !- Vertex 1 Zcoordinate
    705580.6223659611,        !- Vertex 2 Xcoordinate
    5711555.370270926,        !- Vertex 2 Ycoordinate
    0,                        !- Vertex 2 Zcoordinate
    705586.9333909595,        !- Vertex 3 Xcoordinate
    5711555.129986465,        !- Vertex 3 Ycoordinate
    0,                        !- Vertex 3 Zcoordinate
    705586.9333909595,        !- Vertex 4 Xcoordinate
    5711555.129986465,        !- Vertex 4 Ycoordinate
    9;                        !- Vertex 4 Zcoordinate

SHADING:SITE:DETAILED,
    shade_way/192335487_3,    !- Name
    ,                         !- Transmittance Schedule Name
    autocalculate,            !- Number of Vertices
    705586.9333909595,        !- Vertex 1 Xcoordinate
    5711555.129986465,        !- Vertex 1 Ycoordinate
    9,                        !- Vertex 1 Zcoordinate
    705586.9333909595,        !- Vertex 2 Xcoordinate
    5711555.129986465,        !- Vertex 2 Ycoordinate
    0,                        !- Vertex 2 Zcoordinate
    705586.3502284142,        !- Vertex 3 Xcoordinate
    5711539.795277082,        !- Vertex 3 Ycoordinate
    0,                        !- Vertex 3 Zcoordinate
    705586.3502284142,        !- Vertex 4 Xcoordinate
    5711539.795277082,        !- Vertex 4 Ycoordinate
    9;                        !- Vertex 4 Zcoordinate

SHADING:SITE:DETAILED,
    shade_way/192335487_4,    !- Name
    ,                         !- Transmittance Schedule Name
    autocalculate,            !- Number of Vertices
    705586.3502284142,        !- Vertex 1 Xcoordinate
    5711539.795277082,        !- Vertex 1 Ycoordinate
    9,                        !- Vertex 1 Zcoordinate
    705586.3502284142,        !- Vertex 2 Xcoordinate
    5711539.795277082,        !- Vertex 2 Ycoordinate
    0,                        !- Vertex 2 Zcoordinate
    705580.0391559636,        !- Vertex 3 Xcoordinate
    5711540.035280399,        !- Vertex 3 Ycoordinate
    0,                        !- Vertex 3 Zcoordinate
    705580.0391559636,        !- Vertex 4 Xcoordinate
    5711540.035280399,        !- Vertex 4 Ycoordinate
    9;                        !- Vertex 4 Zcoordinate

SHADING:SITE:DETAILED,
    shade_way/192335455_1,    !- Name
    ,                         !- Transmittance Schedule Name
    autocalculate,            !- Number of Vertices
    705561.8650748231,        !- Vertex 1 Xcoordinate
    5711545.221430482,        !- Vertex 1 Ycoordinate
    9,                        !- Vertex 1 Zcoordinate
    705561.8650748231,        !- Vertex 2 Xcoordinate
    5711545.221430482,        !- Vertex 2 Ycoordinate
    0,                        !- Vertex 2 Zcoordinate
    705555.2826745182,        !- Vertex 3 Xcoordinate
    5711545.423560919,        !- Vertex 3 Ycoordinate
    0,                        !- Vertex 3 Zcoordinate
    705555.2826745182,        !- Vertex 4 Xcoordinate
    5711545.423560919,        !- Vertex 4 Ycoordinate
    9;                        !- Vertex 4 Zcoordinate

SHADING:SITE:DETAILED,
    shade_way/192335455_2,    !- Name
    ,                         !- Transmittance Schedule Name
    autocalculate,            !- Number of Vertices
    705555.2826745182,        !- Vertex 1 Xcoordinate
    5711545.423560919,        !- Vertex 1 Ycoordinate
    9,                        !- Vertex 1 Zcoordinate
    705555.2826745182,        !- Vertex 2 Xcoordinate
    5711545.423560919,        !- Vertex 2 Ycoordinate
    0,                        !- Vertex 2 Zcoordinate
    705555.6155498323,        !- Vertex 3 Xcoordinate
    5711556.261354313,        !- Vertex 3 Ycoordinate
    0,                        !- Vertex 3 Zcoordinate
    705555.6155498323,        !- Vertex 4 Xcoordinate
    5711556.261354313,        !- Vertex 4 Ycoordinate
    9;                        !- Vertex 4 Zcoordinate

SHADING:SITE:DETAILED,
    shade_way/192335455_3,    !- Name
    ,                         !- Transmittance Schedule Name
    autocalculate,            !- Number of Vertices
    705555.6155498323,        !- Vertex 1 Xcoordinate
    5711556.261354313,        !- Vertex 1 Ycoordinate
    9,                        !- Vertex 1 Zcoordinate
    705555.6155498323,        !- Vertex 2 Xcoordinate
    5711556.261354313,        !- Vertex 2 Ycoordinate
    0,                        !- Vertex 2 Zcoordinate
    705562.1978814937,        !- Vertex 3 Xcoordinate
    5711556.059316954,        !- Vertex 3 Ycoordinate
    0,                        !- Vertex 3 Zcoordinate
    705562.1978814937,        !- Vertex 4 Xcoordinate
    5711556.059316954,        !- Vertex 4 Ycoordinate
    9;                        !- Vertex 4 Zcoordinate

SHADING:SITE:DETAILED,
    shade_way/192335455_4,    !- Name
    ,                         !- Transmittance Schedule Name
    autocalculate,            !- Number of Vertices
    705562.1978814937,        !- Vertex 1 Xcoordinate
    5711556.059316954,        !- Vertex 1 Ycoordinate
    9,                        !- Vertex 1 Zcoordinate
    705562.1978814937,        !- Vertex 2 Xcoordinate
    5711556.059316954,        !- Vertex 2 Ycoordinate
    0,                        !- Vertex 2 Zcoordinate
    705561.8650748231,        !- Vertex 3 Xcoordinate
    5711545.221430482,        !- Vertex 3 Ycoordinate
    0,                        !- Vertex 3 Zcoordinate
    705561.8650748231,        !- Vertex 4 Xcoordinate
    5711545.221430482,        !- Vertex 4 Ycoordinate
    9;                        !- Vertex 4 Zcoordinate

SHADING:SITE:DETAILED,
    shade_way/192335484_1,    !- Name
    ,                         !- Transmittance Schedule Name
    autocalculate,            !- Number of Vertices
    705580.3829764125,        !- Vertex 1 Xcoordinate
    5711547.732225198,        !- Vertex 1 Ycoordinate
    6,                        !- Vertex 1 Zcoordinate
    705580.3829764125,        !- Vertex 2 Xcoordinate
    5711547.732225198,        !- Vertex 2 Ycoordinate
    0,                        !- Vertex 2 Zcoordinate
    705573.8558051818,        !- Vertex 3 Xcoordinate
    5711547.98001678,         !- Vertex 3 Ycoordinate
    0,                        !- Vertex 3 Zcoordinate
    705573.8558051818,        !- Vertex 4 Xcoordinate
    5711547.98001678,         !- Vertex 4 Ycoordinate
    6;                        !- Vertex 4 Zcoordinate

SHADING:SITE:DETAILED,
    shade_way/192335484_2,    !- Name
    ,                         !- Transmittance Schedule Name
    autocalculate,            !- Number of Vertices
    705573.8558051818,        !- Vertex 1 Xcoordinate
    5711547.98001678,         !- Vertex 1 Ycoordinate
    6,                        !- Vertex 1 Zcoordinate
    705573.8558051818,        !- Vertex 2 Xcoordinate
    5711547.98001678,         !- Vertex 2 Ycoordinate
    0,                        !- Vertex 2 Zcoordinate
    705574.1478764686,        !- Vertex 3 Xcoordinate
    5711555.676686382,        !- Vertex 3 Ycoordinate
    0,                        !- Vertex 3 Zcoordinate
    705574.1478764686,        !- Vertex 4 Xcoordinate
    5711555.676686382,        !- Vertex 4 Ycoordinate
    6;                        !- Vertex 4 Zcoordinate

SHADING:SITE:DETAILED,
    shade_way/192335484_3,    !- Name
    ,                         !- Transmittance Schedule Name
    autocalculate,            !- Number of Vertices
    705574.1478764686,        !- Vertex 1 Xcoordinate
    5711555.676686382,        !- Vertex 1 Ycoordinate
    6,                        !- Vertex 1 Zcoordinate
    705574.1478764686,        !- Vertex 2 Xcoordinate
    5711555.676686382,        !- Vertex 2 Ycoordinate
    0,                        !- Vertex 2 Zcoordinate
    705580.6750476995,        !- Vertex 3 Xcoordinate
    5711555.428894802,        !- Vertex 3 Ycoordinate
    0,                        !- Vertex 3 Zcoordinate
    705580.6750476995,        !- Vertex 4 Xcoordinate
    5711555.428894802,        !- Vertex 4 Ycoordinate
    6;                        !- Vertex 4 Zcoordinate

SHADING:SITE:DETAILED,
    shade_way/192335484_4,    !- Name
    ,                         !- Transmittance Schedule Name
    autocalculate,            !- Number of Vertices
    705580.6750476995,        !- Vertex 1 Xcoordinate
    5711555.428894802,        !- Vertex 1 Ycoordinate
    6,                        !- Vertex 1 Zcoordinate
    705580.6750476995,        !- Vertex 2 Xcoordinate
    5711555.428894802,        !- Vertex 2 Ycoordinate
    0,                        !- Vertex 2 Zcoordinate
    705580.3829764125,        !- Vertex 3 Xcoordinate
    5711547.732225198,        !- Vertex 3 Ycoordinate
    0,                        !- Vertex 3 Zcoordinate
    705580.3829764125,        !- Vertex 4 Xcoordinate
    5711547.732225198,        !- Vertex 4 Ycoordinate
    6;                        !- Vertex 4 Zcoordinate

SHADING:SITE:DETAILED,
    shade_way/192335480_1,    !- Name
    ,                         !- Transmittance Schedule Name
    autocalculate,            !- Number of Vertices
    705574.1553805113,        !- Vertex 1 Xcoordinate
    5711555.676181572,        !- Vertex 1 Ycoordinate
    6,                        !- Vertex 1 Zcoordinate
    705574.1553805113,        !- Vertex 2 Xcoordinate
    5711555.676181572,        !- Vertex 2 Ycoordinate
    0,                        !- Vertex 2 Zcoordinate
    705573.8558051818,        !- Vertex 3 Xcoordinate
    5711547.98001678,         !- Vertex 3 Ycoordinate
    0,                        !- Vertex 3 Zcoordinate
    705573.8558051818,        !- Vertex 4 Xcoordinate
    5711547.98001678,         !- Vertex 4 Ycoordinate
    6;                        !- Vertex 4 Zcoordinate

SHADING:SITE:DETAILED,
    shade_way/192335480_2,    !- Name
    ,                         !- Transmittance Schedule Name
    autocalculate,            !- Number of Vertices
    705573.8558051818,        !- Vertex 1 Xcoordinate
    5711547.98001678,         !- Vertex 1 Ycoordinate
    6,                        !- Vertex 1 Zcoordinate
    705573.8558051818,        !- Vertex 2 Xcoordinate
    5711547.98001678,         !- Vertex 2 Ycoordinate
    0,                        !- Vertex 2 Zcoordinate
    705567.867276058,         !- Vertex 3 Xcoordinate
    5711548.212845262,        !- Vertex 3 Ycoordinate
    0,                        !- Vertex 3 Zcoordinate
    705567.867276058,         !- Vertex 4 Xcoordinate
    5711548.212845262,        !- Vertex 4 Ycoordinate
    6;                        !- Vertex 4 Zcoordinate

SHADING:SITE:DETAILED,
    shade_way/192335480_3,    !- Name
    ,                         !- Transmittance Schedule Name
    autocalculate,            !- Number of Vertices
    705567.867276058,         !- Vertex 1 Xcoordinate
    5711548.212845262,        !- Vertex 1 Ycoordinate
    6,                        !- Vertex 1 Zcoordinate
    705567.867276058,         !- Vertex 2 Xcoordinate
    5711548.212845262,        !- Vertex 2 Ycoordinate
    0,                        !- Vertex 2 Zcoordinate
    705568.1668513874,        !- Vertex 3 Xcoordinate
    5711555.909010053,        !- Vertex 3 Ycoordinate
    0,                        !- Vertex 3 Zcoordinate
    705568.1668513874,        !- Vertex 4 Xcoordinate
    5711555.909010053,        !- Vertex 4 Ycoordinate
    6;                        !- Vertex 4 Zcoordinate

SHADING:SITE:DETAILED,
    shade_way/192335480_4,    !- Name
    ,                         !- Transmittance Schedule Name
    autocalculate,            !- Number of Vertices
    705568.1668513874,        !- Vertex 1 Xcoordinate
    5711555.909010053,        !- Vertex 1 Ycoordinate
    6,                        !- Vertex 1 Zcoordinate
    705568.1668513874,        !- Vertex 2 Xcoordinate
    5711555.909010053,        !- Vertex 2 Ycoordinate
    0,                        !- Vertex 2 Zcoordinate
    705574.1553805113,        !- Vertex 3 Xcoordinate
    5711555.676181572,        !- Vertex 3 Ycoordinate
    0,                        !- Vertex 3 Zcoordinate
    705574.1553805113,        !- Vertex 4 Xcoordinate
    5711555.676181572,        !- Vertex 4 Ycoordinate
    6;                        !- Vertex 4 Zcoordinate

SHADING:SITE:DETAILED,
    shade_way/192335470_1,    !- Name
    ,                         !- Transmittance Schedule Name
    autocalculate,            !- Number of Vertices
    705568.1862936541,        !- Vertex 1 Xcoordinate
    5711555.86863884,         !- Vertex 1 Ycoordinate
    9,                        !- Vertex 1 Zcoordinate
    705568.1862936541,        !- Vertex 2 Xcoordinate
    5711555.86863884,         !- Vertex 2 Ycoordinate
    0,                        !- Vertex 2 Zcoordinate
    705567.8692325503,        !- Vertex 3 Xcoordinate
    5711548.26085666,         !- Vertex 3 Ycoordinate
    0,                        !- Vertex 3 Zcoordinate
    705567.8692325503,        !- Vertex 4 Xcoordinate
    5711548.26085666,         !- Vertex 4 Ycoordinate
    9;                        !- Vertex 4 Zcoordinate

SHADING:SITE:DETAILED,
    shade_way/192335470_2,    !- Name
    ,                         !- Transmittance Schedule Name
    autocalculate,            !- Number of Vertices
    705567.8692325503,        !- Vertex 1 Xcoordinate
    5711548.26085666,         !- Vertex 1 Ycoordinate
    9,                        !- Vertex 1 Zcoordinate
    705567.8692325503,        !- Vertex 2 Xcoordinate
    5711548.26085666,         !- Vertex 2 Ycoordinate
    0,                        !- Vertex 2 Zcoordinate
    705561.8834599033,        !- Vertex 3 Xcoordinate
    5711548.510085713,        !- Vertex 3 Ycoordinate
    0,                        !- Vertex 3 Zcoordinate
    705561.8834599033,        !- Vertex 4 Xcoordinate
    5711548.510085713,        !- Vertex 4 Ycoordinate
    9;                        !- Vertex 4 Zcoordinate

SHADING:SITE:DETAILED,
    shade_way/192335470_3,    !- Name
    ,                         !- Transmittance Schedule Name
    autocalculate,            !- Number of Vertices
    705561.8834599033,        !- Vertex 1 Xcoordinate
    5711548.510085713,        !- Vertex 1 Ycoordinate
    9,                        !- Vertex 1 Zcoordinate
    705561.8834599033,        !- Vertex 2 Xcoordinate
    5711548.510085713,        !- Vertex 2 Ycoordinate
    0,                        !- Vertex 2 Zcoordinate
    705562.2005210071,        !- Vertex 3 Xcoordinate
    5711556.117867894,        !- Vertex 3 Ycoordinate
    0,                        !- Vertex 3 Zcoordinate
    705562.2005210071,        !- Vertex 4 Xcoordinate
    5711556.117867894,        !- Vertex 4 Ycoordinate
    9;                        !- Vertex 4 Zcoordinate

SHADING:SITE:DETAILED,
    shade_way/192335470_4,    !- Name
    ,                         !- Transmittance Schedule Name
    autocalculate,            !- Number of Vertices
    705562.2005210071,        !- Vertex 1 Xcoordinate
    5711556.117867894,        !- Vertex 1 Ycoordinate
    9,                        !- Vertex 1 Zcoordinate
    705562.2005210071,        !- Vertex 2 Xcoordinate
    5711556.117867894,        !- Vertex 2 Ycoordinate
    0,                        !- Vertex 2 Zcoordinate
    705568.1862936541,        !- Vertex 3 Xcoordinate
    5711555.86863884,         !- Vertex 3 Ycoordinate
    0,                        !- Vertex 3 Zcoordinate
    705568.1862936541,        !- Vertex 4 Xcoordinate
    5711555.86863884,         !- Vertex 4 Ycoordinate
    9;                        !- Vertex 4 Zcoordinate

SHADING:SITE:DETAILED,
    shade_way/1058042188_1,    !- Name
    ,                         !- Transmittance Schedule Name
    autocalculate,            !- Number of Vertices
    705544.261308671,         !- Vertex 1 Xcoordinate
    5711532.114510251,        !- Vertex 1 Ycoordinate
    6,                        !- Vertex 1 Zcoordinate
    705544.261308671,         !- Vertex 2 Xcoordinate
    5711532.114510251,        !- Vertex 2 Ycoordinate
    0,                        !- Vertex 2 Zcoordinate
    705535.7878397376,        !- Vertex 3 Xcoordinate
    5711532.383728834,        !- Vertex 3 Ycoordinate
    0,                        !- Vertex 3 Zcoordinate
    705535.7878397376,        !- Vertex 4 Xcoordinate
    5711532.383728834,        !- Vertex 4 Ycoordinate
    6;                        !- Vertex 4 Zcoordinate

SHADING:SITE:DETAILED,
    shade_way/1058042188_2,    !- Name
    ,                         !- Transmittance Schedule Name
    autocalculate,            !- Number of Vertices
    705535.7878397376,        !- Vertex 1 Xcoordinate
    5711532.383728834,        !- Vertex 1 Ycoordinate
    6,                        !- Vertex 1 Zcoordinate
    705535.7878397376,        !- Vertex 2 Xcoordinate
    5711532.383728834,        !- Vertex 2 Ycoordinate
    0,                        !- Vertex 2 Zcoordinate
    705536.0043929815,        !- Vertex 3 Xcoordinate
    5711539.201149697,        !- Vertex 3 Ycoordinate
    0,                        !- Vertex 3 Zcoordinate
    705536.0043929815,        !- Vertex 4 Xcoordinate
    5711539.201149697,        !- Vertex 4 Ycoordinate
    6;                        !- Vertex 4 Zcoordinate

SHADING:SITE:DETAILED,
    shade_way/1058042188_3,    !- Name
    ,                         !- Transmittance Schedule Name
    autocalculate,            !- Number of Vertices
    705536.0043929815,        !- Vertex 1 Xcoordinate
    5711539.201149697,        !- Vertex 1 Ycoordinate
    6,                        !- Vertex 1 Zcoordinate
    705536.0043929815,        !- Vertex 2 Xcoordinate
    5711539.201149697,        !- Vertex 2 Ycoordinate
    0,                        !- Vertex 2 Zcoordinate
    705544.477861915,         !- Vertex 3 Xcoordinate
    5711538.931931118,        !- Vertex 3 Ycoordinate
    0,                        !- Vertex 3 Zcoordinate
    705544.477861915,         !- Vertex 4 Xcoordinate
    5711538.931931118,        !- Vertex 4 Ycoordinate
    6;                        !- Vertex 4 Zcoordinate

SHADING:SITE:DETAILED,
    shade_way/1058042188_4,    !- Name
    ,                         !- Transmittance Schedule Name
    autocalculate,            !- Number of Vertices
    705544.477861915,         !- Vertex 1 Xcoordinate
    5711538.931931118,        !- Vertex 1 Ycoordinate
    6,                        !- Vertex 1 Zcoordinate
    705544.477861915,         !- Vertex 2 Xcoordinate
    5711538.931931118,        !- Vertex 2 Ycoordinate
    0,                        !- Vertex 2 Zcoordinate
    705544.261308671,         !- Vertex 3 Xcoordinate
    5711532.114510251,        !- Vertex 3 Ycoordinate
    0,                        !- Vertex 3 Zcoordinate
    705544.261308671,         !- Vertex 4 Xcoordinate
    5711532.114510251,        !- Vertex 4 Ycoordinate
    6;                        !- Vertex 4 Zcoordinate

SHADING:SITE:DETAILED,
    shade_way/1058042187_1,    !- Name
    ,                         !- Transmittance Schedule Name
    autocalculate,            !- Number of Vertices
    705536.2555831996,        !- Vertex 1 Xcoordinate
    5711545.243182776,        !- Vertex 1 Ycoordinate
    6,                        !- Vertex 1 Zcoordinate
    705536.2555831996,        !- Vertex 2 Xcoordinate
    5711545.243182776,        !- Vertex 2 Ycoordinate
    0,                        !- Vertex 2 Zcoordinate
    705544.5972834013,        !- Vertex 3 Xcoordinate
    5711544.942704755,        !- Vertex 3 Ycoordinate
    0,                        !- Vertex 3 Zcoordinate
    705544.5972834013,        !- Vertex 4 Xcoordinate
    5711544.942704755,        !- Vertex 4 Ycoordinate
    6;                        !- Vertex 4 Zcoordinate

SHADING:SITE:DETAILED,
    shade_way/1058042187_2,    !- Name
    ,                         !- Transmittance Schedule Name
    autocalculate,            !- Number of Vertices
    705544.5972834013,        !- Vertex 1 Xcoordinate
    5711544.942704755,        !- Vertex 1 Ycoordinate
    6,                        !- Vertex 1 Zcoordinate
    705544.5972834013,        !- Vertex 2 Xcoordinate
    5711544.942704755,        !- Vertex 2 Ycoordinate
    0,                        !- Vertex 2 Zcoordinate
    705544.3771235904,        !- Vertex 3 Xcoordinate
    5711538.830753084,        !- Vertex 3 Ycoordinate
    0,                        !- Vertex 3 Zcoordinate
    705544.3771235904,        !- Vertex 4 Xcoordinate
    5711538.830753084,        !- Vertex 4 Ycoordinate
    6;                        !- Vertex 4 Zcoordinate

SHADING:SITE:DETAILED,
    shade_way/1058042187_3,    !- Name
    ,                         !- Transmittance Schedule Name
    autocalculate,            !- Number of Vertices
    705544.3771235904,        !- Vertex 1 Xcoordinate
    5711538.830753084,        !- Vertex 1 Ycoordinate
    6,                        !- Vertex 1 Zcoordinate
    705544.3771235904,        !- Vertex 2 Xcoordinate
    5711538.830753084,        !- Vertex 2 Ycoordinate
    0,                        !- Vertex 2 Zcoordinate
    705536.0355854267,        !- Vertex 3 Xcoordinate
    5711539.131205135,        !- Vertex 3 Ycoordinate
    0,                        !- Vertex 3 Zcoordinate
    705536.0355854267,        !- Vertex 4 Xcoordinate
    5711539.131205135,        !- Vertex 4 Ycoordinate
    6;                        !- Vertex 4 Zcoordinate

SHADING:SITE:DETAILED,
    shade_way/1058042187_4,    !- Name
    ,                         !- Transmittance Schedule Name
    autocalculate,            !- Number of Vertices
    705536.0355854267,        !- Vertex 1 Xcoordinate
    5711539.131205135,        !- Vertex 1 Ycoordinate
    6,                        !- Vertex 1 Zcoordinate
    705536.0355854267,        !- Vertex 2 Xcoordinate
    5711539.131205135,        !- Vertex 2 Ycoordinate
    0,                        !- Vertex 2 Zcoordinate
    705536.2555831996,        !- Vertex 3 Xcoordinate
    5711545.243182776,        !- Vertex 3 Ycoordinate
    0,                        !- Vertex 3 Zcoordinate
    705536.2555831996,        !- Vertex 4 Xcoordinate
    5711545.243182776,        !- Vertex 4 Ycoordinate
    6;                        !- Vertex 4 Zcoordinate

SHADING:SITE:DETAILED,
    shade_way/1058042186_1,    !- Name
    ,                         !- Transmittance Schedule Name
    autocalculate,            !- Number of Vertices
    705536.4142301632,        !- Vertex 1 Xcoordinate
    5711551.051211244,        !- Vertex 1 Ycoordinate
    6,                        !- Vertex 1 Zcoordinate
    705536.4142301632,        !- Vertex 2 Xcoordinate
    5711551.051211244,        !- Vertex 2 Ycoordinate
    0,                        !- Vertex 2 Zcoordinate
    705544.7632615484,        !- Vertex 3 Xcoordinate
    5711550.76581813,         !- Vertex 3 Ycoordinate
    0,                        !- Vertex 3 Zcoordinate
    705544.7632615484,        !- Vertex 4 Xcoordinate
    5711550.76581813,         !- Vertex 4 Ycoordinate
    6;                        !- Vertex 4 Zcoordinate

SHADING:SITE:DETAILED,
    shade_way/1058042186_2,    !- Name
    ,                         !- Transmittance Schedule Name
    autocalculate,            !- Number of Vertices
    705544.7632615484,        !- Vertex 1 Xcoordinate
    5711550.76581813,         !- Vertex 1 Ycoordinate
    6,                        !- Vertex 1 Zcoordinate
    705544.7632615484,        !- Vertex 2 Xcoordinate
    5711550.76581813,         !- Vertex 2 Ycoordinate
    0,                        !- Vertex 2 Zcoordinate
    705544.5643547935,        !- Vertex 3 Xcoordinate
    5711544.943876193,        !- Vertex 3 Ycoordinate
    0,                        !- Vertex 3 Zcoordinate
    705544.5643547935,        !- Vertex 4 Xcoordinate
    5711544.943876193,        !- Vertex 4 Ycoordinate
    6;                        !- Vertex 4 Zcoordinate

SHADING:SITE:DETAILED,
    shade_way/1058042186_3,    !- Name
    ,                         !- Transmittance Schedule Name
    autocalculate,            !- Number of Vertices
    705544.5643547935,        !- Vertex 1 Xcoordinate
    5711544.943876193,        !- Vertex 1 Ycoordinate
    6,                        !- Vertex 1 Zcoordinate
    705544.5643547935,        !- Vertex 2 Xcoordinate
    5711544.943876193,        !- Vertex 2 Ycoordinate
    0,                        !- Vertex 2 Zcoordinate
    705536.2153234085,        !- Vertex 3 Xcoordinate
    5711545.229269307,        !- Vertex 3 Ycoordinate
    0,                        !- Vertex 3 Zcoordinate
    705536.2153234085,        !- Vertex 4 Xcoordinate
    5711545.229269307,        !- Vertex 4 Ycoordinate
    6;                        !- Vertex 4 Zcoordinate

SHADING:SITE:DETAILED,
    shade_way/1058042186_4,    !- Name
    ,                         !- Transmittance Schedule Name
    autocalculate,            !- Number of Vertices
    705536.2153234085,        !- Vertex 1 Xcoordinate
    5711545.229269307,        !- Vertex 1 Ycoordinate
    6,                        !- Vertex 1 Zcoordinate
    705536.2153234085,        !- Vertex 2 Xcoordinate
    5711545.229269307,        !- Vertex 2 Ycoordinate
    0,                        !- Vertex 2 Zcoordinate
    705536.4142301632,        !- Vertex 3 Xcoordinate
    5711551.051211244,        !- Vertex 3 Ycoordinate
    0,                        !- Vertex 3 Zcoordinate
    705536.4142301632,        !- Vertex 4 Xcoordinate
    5711551.051211244,        !- Vertex 4 Ycoordinate
    6;                        !- Vertex 4 Zcoordinate

SHADING:SITE:DETAILED,
    shade_way/390799036_1,    !- Name
    ,                         !- Transmittance Schedule Name
    autocalculate,            !- Number of Vertices
    705548.1376419411,        !- Vertex 1 Xcoordinate
    5711556.481795104,        !- Vertex 1 Ycoordinate
    6,                        !- Vertex 1 Zcoordinate
    705548.1376419411,        !- Vertex 2 Xcoordinate
    5711556.481795104,        !- Vertex 2 Ycoordinate
    0,                        !- Vertex 2 Zcoordinate
    705547.9362182678,        !- Vertex 3 Xcoordinate
    5711550.649367369,        !- Vertex 3 Ycoordinate
    0,                        !- Vertex 3 Zcoordinate
    705547.9362182678,        !- Vertex 4 Xcoordinate
    5711550.649367369,        !- Vertex 4 Ycoordinate
    6;                        !- Vertex 4 Zcoordinate

SHADING:SITE:DETAILED,
    shade_way/390799036_2,    !- Name
    ,                         !- Transmittance Schedule Name
    autocalculate,            !- Number of Vertices
    705547.9362182678,        !- Vertex 1 Xcoordinate
    5711550.649367369,        !- Vertex 1 Ycoordinate
    6,                        !- Vertex 1 Zcoordinate
    705547.9362182678,        !- Vertex 2 Xcoordinate
    5711550.649367369,        !- Vertex 2 Ycoordinate
    0,                        !- Vertex 2 Zcoordinate
    705536.414044154,         !- Vertex 3 Xcoordinate
    5711551.047128485,        !- Vertex 3 Ycoordinate
    0,                        !- Vertex 3 Zcoordinate
    705536.414044154,         !- Vertex 4 Xcoordinate
    5711551.047128485,        !- Vertex 4 Ycoordinate
    6;                        !- Vertex 4 Zcoordinate

SHADING:SITE:DETAILED,
    shade_way/390799036_3,    !- Name
    ,                         !- Transmittance Schedule Name
    autocalculate,            !- Number of Vertices
    705536.414044154,         !- Vertex 1 Xcoordinate
    5711551.047128485,        !- Vertex 1 Ycoordinate
    6,                        !- Vertex 1 Zcoordinate
    705536.414044154,         !- Vertex 2 Xcoordinate
    5711551.047128485,        !- Vertex 2 Ycoordinate
    0,                        !- Vertex 2 Zcoordinate
    705536.6154678272,        !- Vertex 3 Xcoordinate
    5711556.87955622,         !- Vertex 3 Ycoordinate
    0,                        !- Vertex 3 Zcoordinate
    705536.6154678272,        !- Vertex 4 Xcoordinate
    5711556.87955622,         !- Vertex 4 Ycoordinate
    6;                        !- Vertex 4 Zcoordinate

SHADING:SITE:DETAILED,
    shade_way/390799036_4,    !- Name
    ,                         !- Transmittance Schedule Name
    autocalculate,            !- Number of Vertices
    705536.6154678272,        !- Vertex 1 Xcoordinate
    5711556.87955622,         !- Vertex 1 Ycoordinate
    6,                        !- Vertex 1 Zcoordinate
    705536.6154678272,        !- Vertex 2 Xcoordinate
    5711556.87955622,         !- Vertex 2 Ycoordinate
    0,                        !- Vertex 2 Zcoordinate
    705548.1376419411,        !- Vertex 3 Xcoordinate
    5711556.481795104,        !- Vertex 3 Ycoordinate
    0,                        !- Vertex 3 Zcoordinate
    705548.1376419411,        !- Vertex 4 Xcoordinate
    5711556.481795104,        !- Vertex 4 Ycoordinate
    6;                        !- Vertex 4 Zcoordinate

OTHEREQUIPMENT,
    EU_Step8_InternalGain_7be04e2c043270df_F0_dwelling_0_f000,    !- Name
    Electricity,              !- Fuel Type
    7be04e2c043270df_F0_dwelling_0,    !- Zone or ZoneList or Space or SpaceList Name
    EU_Step8_GainSchedule_7be04e2c043270df_F0_dwelling_0_f000,    !- Schedule Name
    Watts/Area,               !- Design Level Calculation Method
    ,                         !- Design Level
    1,                        !- Power per Zone Floor Area
    ,                         !- Power per Person
    0,                        !- Fraction Latent
    0,                        !- Fraction Radiant
    0,                        !- Fraction Lost
    0,                        !- Carbon Dioxide Generation Rate
    EU_Step8_InternalGains;    !- EndUse Subcategory

ZONEVENTILATION:DESIGNFLOWRATE,
    EU_ConstantAir_7be04e2c043270df_F0_dwelling_0,    !- Name
    7be04e2c043270df_F0_dwelling_0,    !- Zone or ZoneList or Space or SpaceList Name
    EU_AlwaysOn,              !- Schedule Name
    AirChanges/Hour,          !- Design Flow Rate Calculation Method
    ,                         !- Design Flow Rate
    ,                         !- Flow Rate per Floor Area
    ,                         !- Flow Rate per Person
    0.4800000000000001,       !- Air Changes per Hour
    Natural,                  !- Ventilation Type
    0,                        !- Fan Pressure Rise
    1,                        !- Fan Total Efficiency
    1,                        !- Constant Term Coefficient
    0,                        !- Temperature Term Coefficient
    0,                        !- Velocity Term Coefficient
    0,                        !- Velocity Squared Term Coefficient
    -100,                     !- Minimum Indoor Temperature
    ,                         !- Minimum Indoor Temperature Schedule Name
    100,                      !- Maximum Indoor Temperature
    ,                         !- Maximum Indoor Temperature Schedule Name
    -100,                     !- Delta Temperature
    ,                         !- Delta Temperature Schedule Name
    -100,                     !- Minimum Outdoor Temperature
    ,                         !- Minimum Outdoor Temperature Schedule Name
    100,                      !- Maximum Outdoor Temperature
    ,                         !- Maximum Outdoor Temperature Schedule Name
    40;                       !- Maximum Wind Speed

HVACTEMPLATE:THERMOSTAT,
    EU_HeatOnly_7be04e2c043270df_F0_dwelling_0,    !- Name
    ,                         !- Heating Setpoint Schedule Name
    20,                       !- Constant Heating Setpoint
    ,                         !- Cooling Setpoint Schedule Name
    50;                       !- Constant Cooling Setpoint

HVACTEMPLATE:ZONE:IDEALLOADSAIRSYSTEM,
    7be04e2c043270df_F0_dwelling_0,    !- Zone Name
    EU_HeatOnly_7be04e2c043270df_F0_dwelling_0,    !- Template Thermostat Name
    EU_AlwaysOn,              !- System Availability Schedule Name
    50,                       !- Maximum Heating Supply Air Temperature
    13,                       !- Minimum Cooling Supply Air Temperature
    0.0156,                   !- Maximum Heating Supply Air Humidity Ratio
    0.0077,                   !- Minimum Cooling Supply Air Humidity Ratio
    NoLimit,                  !- Heating Limit
    ,                         !- Maximum Heating Air Flow Rate
    ,                         !- Maximum Sensible Heating Capacity
    NoLimit,                  !- Cooling Limit
    ,                         !- Maximum Cooling Air Flow Rate
    ,                         !- Maximum Total Cooling Capacity
    EU_AlwaysOn,              !- Heating Availability Schedule Name
    EU_CoolingOff,            !- Cooling Availability Schedule Name
    ConstantSensibleHeatRatio,    !- Dehumidification Control Type
    0.7,                      !- Cooling Sensible Heat Ratio
    60,                       !- Dehumidification Setpoint
    None,                     !- Humidification Control Type
    30,                       !- Humidification Setpoint
    None,                     !- Outdoor Air Method
    0.00944,                  !- Outdoor Air Flow Rate per Person
    0.0,                      !- Outdoor Air Flow Rate per Zone Floor Area
    0,                        !- Outdoor Air Flow Rate per Zone
    ,                         !- Design Specification Outdoor Air Object Name
    None,                     !- Demand Controlled Ventilation Type
    NoEconomizer,             !- Outdoor Air Economizer Type
    None,                     !- Heat Recovery Type
    0.70,                     !- Sensible Heat Recovery Effectiveness
    0.65;                     !- Latent Heat Recovery Effectiveness

SIZING:ZONE,
    7be04e2c043270df_F0_dwelling_0,    !- Zone or ZoneList Name
    SupplyAirTemperature,     !- Zone Cooling Design Supply Air Temperature Input Method
    13,                       !- Zone Cooling Design Supply Air Temperature
    ,                         !- Zone Cooling Design Supply Air Temperature Difference
    SupplyAirTemperature,     !- Zone Heating Design Supply Air Temperature Input Method
    50,                       !- Zone Heating Design Supply Air Temperature
    ,                         !- Zone Heating Design Supply Air Temperature Difference
    0.008,                    !- Zone Cooling Design Supply Air Humidity Ratio
    0.008,                    !- Zone Heating Design Supply Air Humidity Ratio
    ,                         !- Design Specification Outdoor Air Object Name
    ,                         !- Zone Heating Sizing Factor
    ,                         !- Zone Cooling Sizing Factor
    DesignDay,                !- Cooling Design Air Flow Method
    0,                        !- Cooling Design Air Flow Rate
    0.000762,                 !- Cooling Minimum Air Flow per Zone Floor Area
    0,                        !- Cooling Minimum Air Flow
    0.2,                      !- Cooling Minimum Air Flow Fraction
    DesignDay,                !- Heating Design Air Flow Method
    0,                        !- Heating Design Air Flow Rate
    0.002032,                 !- Heating Maximum Air Flow per Zone Floor Area
    0.1415762,                !- Heating Maximum Air Flow
    0.3,                      !- Heating Maximum Air Flow Fraction
    ,                         !- Design Specification Zone Air Distribution Object Name
    No,                       !- Account for Dedicated Outdoor Air System
    NeutralSupplyAir,         !- Dedicated Outdoor Air System Control Strategy
    autosize,                 !- Dedicated Outdoor Air Low Setpoint Temperature for Design
    autosize,                 !- Dedicated Outdoor Air High Setpoint Temperature for Design
    Sensible Load Only No Latent Load,    !- Zone Load Sizing Method
    HumidityRatioDifference,    !- Zone Latent Cooling Design Supply Air Humidity Ratio Input Method
    ,                         !- Zone Dehumidification Design Supply Air Humidity Ratio
    0.005,                    !- Zone Cooling Design Supply Air Humidity Ratio Difference
    HumidityRatioDifference,    !- Zone Latent Heating Design Supply Air Humidity Ratio Input Method
    ,                         !- Zone Humidification Design Supply Air Humidity Ratio
    0.005;                    !- Zone Humidification Design Supply Air Humidity Ratio Difference

OUTPUT:VARIABLE,
    *,                        !- Key Value
    Zone Ideal Loads Zone Total Heating Energy,    !- Variable Name
    Hourly;                   !- Reporting Frequency

OUTPUT:SQLITE,
    SimpleAndTabular,         !- Option Type
    UseOutputControlTableStyle;    !- Unit Conversion for Tabular Data