!- Windows Line endings 

Version,
    23.1;                     !- Version Identifier

SimulationControl,
    Yes,                      !- Do Zone Sizing Calculation
    Yes,                      !- Do System Sizing Calculation
    Yes,                      !- Do Plant Sizing Calculation
    No,                       !- Run Simulation for Sizing Periods
    Yes,                      !- Run Simulation for Weather File Run Periods
    No,                       !- Do HVAC Sizing Simulation for Sizing Periods
    1;                        !- Maximum Number of HVAC Sizing Simulation Passes

Building,
    EU S2 Campaign,           !- Name
    0,                        !- North Axis
    City,                     !- Terrain
    ,                         !- Loads Convergence Tolerance Value
    ,                         !- Temperature Convergence Tolerance Value
    FullExterior,             !- Solar Distribution
    ,                         !- Maximum Number of Warmup Days
    ;                         !- Minimum Number of Warmup Days

ShadowCalculation,
    PolygonClipping,          !- Shading Calculation Method
    Periodic,                 !- Shading Calculation Update Frequency Method
    1;                        !- Shading Calculation Update Frequency

HeatBalanceAlgorithm,
    ConductionTransferFunction,    !- Algorithm
    200,                      !- Surface Temperature Upper Limit
    0.1,                      !- Minimum Surface Convection Heat Transfer Coefficient Value
    10000000;                 !- Maximum Surface Convection Heat Transfer Coefficient Value

Timestep,
    12;                       !- Number of Timesteps per Hour

Site:Location,
    Madrid,                   !- Name
    40.5,                     !- Latitude
    -3.5,                     !- Longitude
    1,                        !- Time Zone
    609;                      !- Elevation

SizingPeriod:WeatherFileDays,
    AnnualSizingPeriod,       !- Name
    1,                        !- Begin Month
    1,                        !- Begin Day of Month
    12,                       !- End Month
    31,                       !- End Day of Month
    Monday,                   !- Day of Week for Start Day
    No,                       !- Use Weather File Daylight Saving Period
    No;                       !- Use Weather File Rain and Snow Indicators

RunPeriod,
    RunPeriod1,               !- Name
    1,                        !- Begin Month
    1,                        !- Begin Day of Month
    ,                         !- Begin Year
    12,                       !- End Month
    31,                       !- End Day of Month
    ,                         !- End Year
    Sunday,                   !- Day of Week for Start Day
    No,                       !- Use Weather File Holidays and Special Days
    No,                       !- Use Weather File Daylight Saving Period
    No,                       !- Apply Weekend Holiday Rule
    Yes,                      !- Use Weather File Rain Indicators
    Yes;                      !- Use Weather File Snow Indicators

ScheduleTypeLimits,
    Any Number;               !- Name

SCHEDULETYPELIMITS,
    EU_Step8_AnyNumber_Wm2,    !- Name
    ,                         !- Lower Limit Value
    ,                         !- Upper Limit Value
    Continuous,               !- Numeric Type
    Dimensionless;            !- Unit Type

SCHEDULE:CONSTANT,
    EU_AlwaysOn,              !- Name
    ,                         !- Schedule Type Limits Name
    1;                        !- Hourly Value

SCHEDULE:CONSTANT,
    EU_CoolingOff,            !- Name
    ,                         !- Schedule Type Limits Name
    0;                        !- Hourly Value

SCHEDULE:FILE,
    EU_Step8_GainSchedule_355ace754731337d_F0_dwelling_0_f000,    !- Name
    EU_Step8_AnyNumber_Wm2,    !- Schedule Type Limits Name
    ../../schedules/355ace754731337d/355ace754731337d_F0_dwelling_0_f000_gain.csv,    !- File Name
    1,                        !- Column Number
    0,                        !- Rows to Skip at Top
    8760,                     !- Number of Hours of Data
    Comma,                    !- Column Separator
    No,                       !- Interpolate to Timestep
    60,                       !- Minutes per Item
    Yes;                      !- Adjust Schedule for Daylight Savings

MATERIAL,
    EU_InternalMass_Material,    !- Name
    MediumRough,              !- Roughness
    0.1,                      !- Thickness
    1,                        !- Conductivity
    1800,                     !- Density
    900,                      !- Specific Heat
    0.9,                      !- Thermal Absorptance
    0.7,                      !- Solar Absorptance
    0.7;                      !- Visible Absorptance

MATERIAL:NOMASS,
    EU_wall_NoMass,           !- Name
    MediumRough,              !- Roughness
    4.596726e-01,             !- Thermal Resistance
    0.9,                      !- Thermal Absorptance
    0.7,                      !- Solar Absorptance
    0.7;                      !- Visible Absorptance

MATERIAL:NOMASS,
    EU_roof_NoMass,           !- Name
    MediumRough,              !- Roughness
    4.958147e-01,             !- Thermal Resistance
    0.9,                      !- Thermal Absorptance
    0.7,                      !- Solar Absorptance
    0.7;                      !- Visible Absorptance

MATERIAL:NOMASS,
    EU_floor_NoMass,          !- Name
    MediumRough,              !- Roughness
    0.7889415933683683,       !- Thermal Resistance
    0.9,                      !- Thermal Absorptance
    0.7,                      !- Solar Absorptance
    0.7;                      !- Visible Absorptance

CONSTRUCTION,
    EU_wall_Construction,     !- Name
    EU_wall_NoMass;           !- Outside Layer

CONSTRUCTION,
    EU_roof_Construction,     !- Name
    EU_roof_NoMass;           !- Outside Layer

CONSTRUCTION,
    EU_floor_Construction,    !- Name
    EU_floor_NoMass;          !- Outside Layer

CONSTRUCTION,
    EU_InternalMass_Construction,    !- Name
    EU_InternalMass_Material;    !- Outside Layer

GlobalGeometryRules,
    UpperLeftCorner,          !- Starting Vertex Position
    CounterClockWise,         !- Vertex Entry Direction
    World;                    !- Coordinate System

ZONE,
    355ace754731337d_F0_dwelling_0,    !- Name
    0,                        !- Direction of Relative North
    0,                        !- X Origin
    0,                        !- Y Origin
    0,                        !- Z Origin
    1,                        !- Type
    1,                        !- Multiplier
    autocalculate,            !- Ceiling Height
    1572.380859375,           !- Volume
    autocalculate,            !- Floor Area
    ,                         !- Zone Inside Convection Algorithm
    ,                         !- Zone Outside Convection Algorithm
    Yes;                      !- Part of Total Floor Area

BUILDINGSURFACE:DETAILED,
    Block 355ace754731337d_0 Storey 0 Wall 0001,    !- Name
    wall,                     !- Surface Type
    EU_wall_Construction,     !- Construction Name
    355ace754731337d_F0_dwelling_0,    !- Zone Name
    ,                         !- Space Name
    outdoors,                 !- Outside Boundary Condition
    ,                         !- Outside Boundary Condition Object
    SunExposed,               !- Sun Exposure
    WindExposed,              !- Wind Exposure
    autocalculate,            !- View Factor to Ground
    autocalculate,            !- Number of Vertices
    439927.087,               !- Vertex 1 Xcoordinate
    4478875.861,              !- Vertex 1 Ycoordinate
    12,                       !- Vertex 1 Zcoordinate
    439927.087,               !- Vertex 2 Xcoordinate
    4478875.861,              !- Vertex 2 Ycoordinate
    0,                        !- Vertex 2 Zcoordinate
    439923.415,               !- Vertex 3 Xcoordinate
    4478875.824,              !- Vertex 3 Ycoordinate
    0,                        !- Vertex 3 Zcoordinate
    439923.415,               !- Vertex 4 Xcoordinate
    4478875.824,              !- Vertex 4 Ycoordinate
    12;                       !- Vertex 4 Zcoordinate

BUILDINGSURFACE:DETAILED,
    Block 355ace754731337d_0 Storey 0 Wall 0002,    !- Name
    wall,                     !- Surface Type
    EU_wall_Construction,     !- Construction Name
    355ace754731337d_F0_dwelling_0,    !- Zone Name
    ,                         !- Space Name
    Adiabatic,                !- Outside Boundary Condition
    ,                         !- Outside Boundary Condition Object
    NoSun,                    !- Sun Exposure
    NoWind,                   !- Wind Exposure
    autocalculate,            !- View Factor to Ground
    autocalculate,            !- Number of Vertices
    439923.415,               !- Vertex 1 Xcoordinate
    4478875.824,              !- Vertex 1 Ycoordinate
    12,                       !- Vertex 1 Zcoordinate
    439923.415,               !- Vertex 2 Xcoordinate
    4478875.824,              !- Vertex 2 Ycoordinate
    0,                        !- Vertex 2 Zcoordinate
    439916.249,               !- Vertex 3 Xcoordinate
    4478875.726,              !- Vertex 3 Ycoordinate
    0,                        !- Vertex 3 Zcoordinate
    439916.249,               !- Vertex 4 Xcoordinate
    4478875.726,              !- Vertex 4 Ycoordinate
    12;                       !- Vertex 4 Zcoordinate

BUILDINGSURFACE:DETAILED,
    Block 355ace754731337d_0 Storey 0 Wall 0003,    !- Name
    wall,                     !- Surface Type
    EU_wall_Construction,     !- Construction Name
    355ace754731337d_F0_dwelling_0,    !- Zone Name
    ,                         !- Space Name
    outdoors,                 !- Outside Boundary Condition
    ,                         !- Outside Boundary Condition Object
    SunExposed,               !- Sun Exposure
    WindExposed,              !- Wind Exposure
    autocalculate,            !- View Factor to Ground
    autocalculate,            !- Number of Vertices
    439916.249,               !- Vertex 1 Xcoordinate
    4478875.726,              !- Vertex 1 Ycoordinate
    12,                       !- Vertex 1 Zcoordinate
    439916.249,               !- Vertex 2 Xcoordinate
    4478875.726,              !- Vertex 2 Ycoordinate
    0,                        !- Vertex 2 Zcoordinate
    439916.147,               !- Vertex 3 Xcoordinate
    4478880.933,              !- Vertex 3 Ycoordinate
    0,                        !- Vertex 3 Zcoordinate
    439916.147,               !- Vertex 4 Xcoordinate
    4478880.933,              !- Vertex 4 Ycoordinate
    12;                       !- Vertex 4 Zcoordinate

BUILDINGSURFACE:DETAILED,
    Block 355ace754731337d_0 Storey 0 Wall 0004,    !- Name
    wall,                     !- Surface Type
    EU_wall_Construction,     !- Construction Name
    355ace754731337d_F0_dwelling_0,    !- Zone Name
    ,                         !- Space Name
    outdoors,                 !- Outside Boundary Condition
    ,                         !- Outside Boundary Condition Object
    SunExposed,               !- Sun Exposure
    WindExposed,              !- Wind Exposure
    autocalculate,            !- View Factor to Ground
    autocalculate,            !- Number of Vertices
    439916.147,               !- Vertex 1 Xcoordinate
    4478880.933,              !- Vertex 1 Ycoordinate
    12,                       !- Vertex 1 Zcoordinate
    439916.147,               !- Vertex 2 Xcoordinate
    4478880.933,              !- Vertex 2 Ycoordinate
    0,                        !- Vertex 2 Zcoordinate
    439916.036,               !- Vertex 3 Xcoordinate
    4478887.195,              !- Vertex 3 Ycoordinate
    0,                        !- Vertex 3 Zcoordinate
    439916.036,               !- Vertex 4 Xcoordinate
    4478887.195,              !- Vertex 4 Ycoordinate
    12;                       !- Vertex 4 Zcoordinate

BUILDINGSURFACE:DETAILED,
    Block 355ace754731337d_0 Storey 0 Wall 0005,    !- Name
    wall,                     !- Surface Type
    EU_wall_Construction,     !- Construction Name
    355ace754731337d_F0_dwelling_0,    !- Zone Name
    ,                         !- Space Name
    outdoors,                 !- Outside Boundary Condition
    ,                         !- Outside Boundary Condition Object
    SunExposed,               !- Sun Exposure
    WindExposed,              !- Wind Exposure
    autocalculate,            !- View Factor to Ground
    autocalculate,            !- Number of Vertices
    439916.036,               !- Vertex 1 Xcoordinate
    4478887.195,              !- Vertex 1 Ycoordinate
    12,                       !- Vertex 1 Zcoordinate
    439916.036,               !- Vertex 2 Xcoordinate
    4478887.195,              !- Vertex 2 Ycoordinate
    0,                        !- Vertex 2 Zcoordinate
    439927.851,               !- Vertex 3 Xcoordinate
    4478887.544,              !- Vertex 3 Ycoordinate
    0,                        !- Vertex 3 Zcoordinate
    439927.851,               !- Vertex 4 Xcoordinate
    4478887.544,              !- Vertex 4 Ycoordinate
    12;                       !- Vertex 4 Zcoordinate

BUILDINGSURFACE:DETAILED,
    Block 355ace754731337d_0 Storey 0 Wall 0006,    !- Name
    wall,                     !- Surface Type
    EU_wall_Construction,     !- Construction Name
    355ace754731337d_F0_dwelling_0,    !- Zone Name
    ,                         !- Space Name
    outdoors,                 !- Outside Boundary Condition
    ,                         !- Outside Boundary Condition Object
    SunExposed,               !- Sun Exposure
    WindExposed,              !- Wind Exposure
    autocalculate,            !- View Factor to Ground
    autocalculate,            !- Number of Vertices
    439927.851,               !- Vertex 1 Xcoordinate
    4478887.544,              !- Vertex 1 Ycoordinate
    12,                       !- Vertex 1 Zcoordinate
    439927.851,               !- Vertex 2 Xcoordinate
    4478887.544,              !- Vertex 2 Ycoordinate
    0,                        !- Vertex 2 Zcoordinate
    439927.087,               !- Vertex 3 Xcoordinate
    4478875.861,              !- Vertex 3 Ycoordinate
    0,                        !- Vertex 3 Zcoordinate
    439927.087,               !- Vertex 4 Xcoordinate
    4478875.861,              !- Vertex 4 Ycoordinate
    12;                       !- Vertex 4 Zcoordinate

BUILDINGSURFACE:DETAILED,
    Block 355ace754731337d_0 Storey 0 Floor 0001,    !- Name
    floor,                    !- Surface Type
    EU_floor_Construction,    !- Construction Name
    355ace754731337d_F0_dwelling_0,    !- Zone Name
    ,                         !- Space Name
    ground,                   !- Outside Boundary Condition
    ,                         !- Outside Boundary Condition Object
    NoSun,                    !- Sun Exposure
    NoWind,                   !- Wind Exposure
    autocalculate,            !- View Factor to Ground
    autocalculate,            !- Number of Vertices
    439927.087,               !- Vertex 1 Xcoordinate
    4478875.861,              !- Vertex 1 Ycoordinate
    0,                        !- Vertex 1 Zcoordinate
    439927.851,               !- Vertex 2 Xcoordinate
    4478887.544,              !- Vertex 2 Ycoordinate
    0,                        !- Vertex 2 Zcoordinate
    439916.036,               !- Vertex 3 Xcoordinate
    4478887.195,              !- Vertex 3 Ycoordinate
    0,                        !- Vertex 3 Zcoordinate
    439916.147,               !- Vertex 4 Xcoordinate
    4478880.933,              !- Vertex 4 Ycoordinate
    0,                        !- Vertex 4 Zcoordinate
    439916.249,               !- Vertex 5 Xcoordinate
    4478875.726,              !- Vertex 5 Ycoordinate
    0,                        !- Vertex 5 Zcoordinate
    439923.415,               !- Vertex 6 Xcoordinate
    4478875.824,              !- Vertex 6 Ycoordinate
    0;                        !- Vertex 6 Zcoordinate

BUILDINGSURFACE:DETAILED,
    Block 355ace754731337d_0 Storey 0 Roof 0001,    !- Name
    roof,                     !- Surface Type
    EU_roof_Construction,     !- Construction Name
    355ace754731337d_F0_dwelling_0,    !- Zone Name
    ,                         !- Space Name
    outdoors,                 !- Outside Boundary Condition
    ,                         !- Outside Boundary Condition Object
    NoSun,                    !- Sun Exposure
    WindExposed,              !- Wind Exposure
    autocalculate,            !- View Factor to Ground
    autocalculate,            !- Number of Vertices
    439927.851,               !- Vertex 1 Xcoordinate
    4478887.544,              !- Vertex 1 Ycoordinate
    12,                       !- Vertex 1 Zcoordinate
    439927.087,               !- Vertex 2 Xcoordinate
    4478875.861,              !- Vertex 2 Ycoordinate
    12,                       !- Vertex 2 Zcoordinate
    439923.415,               !- Vertex 3 Xcoordinate
    4478875.824,              !- Vertex 3 Ycoordinate
    12,                       !- Vertex 3 Zcoordinate
    439916.249,               !- Vertex 4 Xcoordinate
    4478875.726,              !- Vertex 4 Ycoordinate
    12,                       !- Vertex 4 Zcoordinate
    439916.147,               !- Vertex 5 Xcoordinate
    4478880.933,              !- Vertex 5 Ycoordinate
    12,                       !- Vertex 5 Zcoordinate
    439916.036,               !- Vertex 6 Xcoordinate
    4478887.195,              !- Vertex 6 Ycoordinate
    12;                       !- Vertex 6 Zcoordinate

INTERNALMASS,
    355ace754731337d_F0_dwelling_0_EU_InternalMass,    !- Name
    EU_InternalMass_Construction,    !- Construction Name
    355ace754731337d_F0_dwelling_0,    !- Zone or ZoneList Name
    ,                         !- Space or SpaceList Name
    131.03190950160936;       !- Surface Area

SHADING:SITE:DETAILED,
    shade_way/434869412_1,    !- Name
    ,                         !- Transmittance Schedule Name
    autocalculate,            !- Number of Vertices
    439920.0430667655,        !- Vertex 1 Xcoordinate
    4478845.5354839,          !- Vertex 1 Ycoordinate
    18,                       !- Vertex 1 Zcoordinate
    439920.0430667655,        !- Vertex 2 Xcoordinate
    4478845.5354839,          !- Vertex 2 Ycoordinate
    0,                        !- Vertex 2 Zcoordinate
    439922.0151455003,        !- Vertex 3 Xcoordinate
    4478873.52633457,         !- Vertex 3 Ycoordinate
    0,                        !- Vertex 3 Zcoordinate
    439922.0151455003,        !- Vertex 4 Xcoordinate
    4478873.52633457,         !- Vertex 4 Ycoordinate
    18;                       !- Vertex 4 Zcoordinate

SHADING:SITE:DETAILED,
    shade_way/434869412_2,    !- Name
    ,                         !- Transmittance Schedule Name
    autocalculate,            !- Number of Vertices
    439922.0151455003,        !- Vertex 1 Xcoordinate
    4478873.52633457,         !- Vertex 1 Ycoordinate
    18,                       !- Vertex 1 Zcoordinate
    439922.0151455003,        !- Vertex 2 Xcoordinate
    4478873.52633457,         !- Vertex 2 Ycoordinate
    0,                        !- Vertex 2 Zcoordinate
    439940.2958198415,        !- Vertex 3 Xcoordinate
    4478872.238381256,        !- Vertex 3 Ycoordinate
    0,                        !- Vertex 3 Zcoordinate
    439940.2958198415,        !- Vertex 4 Xcoordinate
    4478872.238381256,        !- Vertex 4 Ycoordinate
    18;                       !- Vertex 4 Zcoordinate

SHADING:SITE:DETAILED,
    shade_way/434869412_3,    !- Name
    ,                         !- Transmittance Schedule Name
    autocalculate,            !- Number of Vertices
    439940.2958198415,        !- Vertex 1 Xcoordinate
    4478872.238381256,        !- Vertex 1 Ycoordinate
    18,                       !- Vertex 1 Zcoordinate
    439940.2958198415,        !- Vertex 2 Xcoordinate
    4478872.238381256,        !- Vertex 2 Ycoordinate
    0,                        !- Vertex 2 Zcoordinate
    439938.32373727026,       !- Vertex 3 Xcoordinate
    4478844.247460331,        !- Vertex 3 Ycoordinate
    0,                        !- Vertex 3 Zcoordinate
    439938.32373727026,       !- Vertex 4 Xcoordinate
    4478844.247460331,        !- Vertex 4 Ycoordinate
    18;                       !- Vertex 4 Zcoordinate

SHADING:SITE:DETAILED,
    shade_way/434869412_4,    !- Name
    ,                         !- Transmittance Schedule Name
    autocalculate,            !- Number of Vertices
    439938.32373727026,       !- Vertex 1 Xcoordinate
    4478844.247460331,        !- Vertex 1 Ycoordinate
    18,                       !- Vertex 1 Zcoordinate
    439938.32373727026,       !- Vertex 2 Xcoordinate
    4478844.247460331,        !- Vertex 2 Ycoordinate
    0,                        !- Vertex 2 Zcoordinate
    439920.0430667655,        !- Vertex 3 Xcoordinate
    4478845.5354839,          !- Vertex 3 Ycoordinate
    0,                        !- Vertex 3 Zcoordinate
    439920.0430667655,        !- Vertex 4 Xcoordinate
    4478845.5354839,          !- Vertex 4 Ycoordinate
    18;                       !- Vertex 4 Zcoordinate

SHADING:SITE:DETAILED,
    shade_way/434869413_1,    !- Name
    ,                         !- Transmittance Schedule Name
    autocalculate,            !- Number of Vertices
    439923.63505601056,       !- Vertex 1 Xcoordinate
    4478875.793914937,        !- Vertex 1 Ycoordinate
    15,                       !- Vertex 1 Zcoordinate
    439923.63505601056,       !- Vertex 2 Xcoordinate
    4478875.793914937,        !- Vertex 2 Ycoordinate
    0,                        !- Vertex 2 Zcoordinate
    439920.5882967787,        !- Vertex 3 Xcoordinate
    4478853.878888271,        !- Vertex 3 Ycoordinate
    0,                        !- Vertex 3 Zcoordinate
    439920.5882967787,        !- Vertex 4 Xcoordinate
    4478853.878888271,        !- Vertex 4 Ycoordinate
    15;                       !- Vertex 4 Zcoordinate

SHADING:SITE:DETAILED,
    shade_way/434869413_2,    !- Name
    ,                         !- Transmittance Schedule Name
    autocalculate,            !- Number of Vertices
    439920.5882967787,        !- Vertex 1 Xcoordinate
    4478853.878888271,        !- Vertex 1 Ycoordinate
    15,                       !- Vertex 1 Zcoordinate
    439920.5882967787,        !- Vertex 2 Xcoordinate
    4478853.878888271,        !- Vertex 2 Ycoordinate
    0,                        !- Vertex 2 Zcoordinate
    439911.9456315095,        !- Vertex 3 Xcoordinate
    4478855.080518537,        !- Vertex 3 Ycoordinate
    0,                        !- Vertex 3 Zcoordinate
    439911.9456315095,        !- Vertex 4 Xcoordinate
    4478855.080518537,        !- Vertex 4 Ycoordinate
    15;                       !- Vertex 4 Zcoordinate

SHADING:SITE:DETAILED,
    shade_way/434869413_3,    !- Name
    ,                         !- Transmittance Schedule Name
    autocalculate,            !- Number of Vertices
    439911.9456315095,        !- Vertex 1 Xcoordinate
    4478855.080518537,        !- Vertex 1 Ycoordinate
    15,                       !- Vertex 1 Zcoordinate
    439911.9456315095,        !- Vertex 2 Xcoordinate
    4478855.080518537,        !- Vertex 2 Ycoordinate
    0,                        !- Vertex 2 Zcoordinate
    439914.992360315,         !- Vertex 3 Xcoordinate
    4478876.99547464,         !- Vertex 3 Ycoordinate
    0,                        !- Vertex 3 Zcoordinate
    439914.992360315,         !- Vertex 4 Xcoordinate
    4478876.99547464,         !- Vertex 4 Ycoordinate
    15;                       !- Vertex 4 Zcoordinate

SHADING:SITE:DETAILED,
    shade_way/434869413_4,    !- Name
    ,                         !- Transmittance Schedule Name
    autocalculate,            !- Number of Vertices
    439914.992360315,         !- Vertex 1 Xcoordinate
    4478876.99547464,         !- Vertex 1 Ycoordinate
    15,                       !- Vertex 1 Zcoordinate
    439914.992360315,         !- Vertex 2 Xcoordinate
    4478876.99547464,         !- Vertex 2 Ycoordinate
    0,                        !- Vertex 2 Zcoordinate
    439923.63505601056,       !- Vertex 3 Xcoordinate
    4478875.793914937,        !- Vertex 3 Ycoordinate
    0,                        !- Vertex 3 Zcoordinate
    439923.63505601056,       !- Vertex 4 Xcoordinate
    4478875.793914937,        !- Vertex 4 Ycoordinate
    15;                       !- Vertex 4 Zcoordinate

SHADING:SITE:DETAILED,
    shade_way/942968877_1,    !- Name
    ,                         !- Transmittance Schedule Name
    autocalculate,            !- Number of Vertices
    439966.4020224558,        !- Vertex 1 Xcoordinate
    4478876.5232000565,       !- Vertex 1 Ycoordinate
    6,                        !- Vertex 1 Zcoordinate
    439966.4020224558,        !- Vertex 2 Xcoordinate
    4478876.5232000565,       !- Vertex 2 Ycoordinate
    0,                        !- Vertex 2 Zcoordinate
    439948.5584770032,        !- Vertex 3 Xcoordinate
    4478873.959331583,        !- Vertex 3 Ycoordinate
    0,                        !- Vertex 3 Zcoordinate
    439948.5584770032,        !- Vertex 4 Xcoordinate
    4478873.959331583,        !- Vertex 4 Ycoordinate
    6;                        !- Vertex 4 Zcoordinate

SHADING:SITE:DETAILED,
    shade_way/942968877_2,    !- Name
    ,                         !- Transmittance Schedule Name
    autocalculate,            !- Number of Vertices
    439948.5584770032,        !- Vertex 1 Xcoordinate
    4478873.959331583,        !- Vertex 1 Ycoordinate
    6,                        !- Vertex 1 Zcoordinate
    439948.5584770032,        !- Vertex 2 Xcoordinate
    4478873.959331583,        !- Vertex 2 Ycoordinate
    0,                        !- Vertex 2 Zcoordinate
    439947.48188746814,       !- Vertex 3 Xcoordinate
    4478881.448276262,        !- Vertex 3 Ycoordinate
    0,                        !- Vertex 3 Zcoordinate
    439947.48188746814,       !- Vertex 4 Xcoordinate
    4478881.448276262,        !- Vertex 4 Ycoordinate
    6;                        !- Vertex 4 Zcoordinate

SHADING:SITE:DETAILED,
    shade_way/942968877_3,    !- Name
    ,                         !- Transmittance Schedule Name
    autocalculate,            !- Number of Vertices
    439947.48188746814,       !- Vertex 1 Xcoordinate
    4478881.448276262,        !- Vertex 1 Ycoordinate
    6,                        !- Vertex 1 Zcoordinate
    439947.48188746814,       !- Vertex 2 Xcoordinate
    4478881.448276262,        !- Vertex 2 Ycoordinate
    0,                        !- Vertex 2 Zcoordinate
    439965.32641906006,       !- Vertex 3 Xcoordinate
    4478884.01239096,         !- Vertex 3 Ycoordinate
    0,                        !- Vertex 3 Zcoordinate
    439965.32641906006,       !- Vertex 4 Xcoordinate
    4478884.01239096,         !- Vertex 4 Ycoordinate
    6;                        !- Vertex 4 Zcoordinate

SHADING:SITE:DETAILED,
    shade_way/942968877_4,    !- Name
    ,                         !- Transmittance Schedule Name
    autocalculate,            !- Number of Vertices
    439965.32641906006,       !- Vertex 1 Xcoordinate
    4478884.01239096,         !- Vertex 1 Ycoordinate
    6,                        !- Vertex 1 Zcoordinate
    439965.32641906006,       !- Vertex 2 Xcoordinate
    4478884.01239096,         !- Vertex 2 Ycoordinate
    0,                        !- Vertex 2 Zcoordinate
    439966.4020224558,        !- Vertex 3 Xcoordinate
    4478876.5232000565,       !- Vertex 3 Ycoordinate
    0,                        !- Vertex 3 Zcoordinate
    439966.4020224558,        !- Vertex 4 Xcoordinate
    4478876.5232000565,       !- Vertex 4 Ycoordinate
    6;                        !- Vertex 4 Zcoordinate

SHADING:SITE:DETAILED,
    shade_way/942968878_1,    !- Name
    ,                         !- Transmittance Schedule Name
    autocalculate,            !- Number of Vertices
    439961.4716896145,        !- Vertex 1 Xcoordinate
    4478882.803360526,        !- Vertex 1 Ycoordinate
    6,                        !- Vertex 1 Zcoordinate
    439961.4716896145,        !- Vertex 2 Xcoordinate
    4478882.803360526,        !- Vertex 2 Ycoordinate
    0,                        !- Vertex 2 Zcoordinate
    439945.8213235884,        !- Vertex 3 Xcoordinate
    4478881.287473887,        !- Vertex 3 Ycoordinate
    0,                        !- Vertex 3 Zcoordinate
    439945.8213235884,        !- Vertex 4 Xcoordinate
    4478881.287473887,        !- Vertex 4 Ycoordinate
    6;                        !- Vertex 4 Zcoordinate

SHADING:SITE:DETAILED,
    shade_way/942968878_2,    !- Name
    ,                         !- Transmittance Schedule Name
    autocalculate,            !- Number of Vertices
    439945.8213235884,        !- Vertex 1 Xcoordinate
    4478881.287473887,        !- Vertex 1 Ycoordinate
    6,                        !- Vertex 1 Zcoordinate
    439945.8213235884,        !- Vertex 2 Xcoordinate
    4478881.287473887,        !- Vertex 2 Ycoordinate
    0,                        !- Vertex 2 Zcoordinate
    439945.0984320834,        !- Vertex 3 Xcoordinate
    4478888.749491188,        !- Vertex 3 Ycoordinate
    0,                        !- Vertex 3 Zcoordinate
    439945.0984320834,        !- Vertex 4 Xcoordinate
    4478888.749491188,        !- Vertex 4 Ycoordinate
    6;                        !- Vertex 4 Zcoordinate

SHADING:SITE:DETAILED,
    shade_way/942968878_3,    !- Name
    ,                         !- Transmittance Schedule Name
    autocalculate,            !- Number of Vertices
    439945.0984320834,        !- Vertex 1 Xcoordinate
    4478888.749491188,        !- Vertex 1 Ycoordinate
    6,                        !- Vertex 1 Zcoordinate
    439945.0984320834,        !- Vertex 2 Xcoordinate
    4478888.749491188,        !- Vertex 2 Ycoordinate
    0,                        !- Vertex 2 Zcoordinate
    439960.7489174467,        !- Vertex 3 Xcoordinate
    4478890.2654284,          !- Vertex 3 Ycoordinate
    0,                        !- Vertex 3 Zcoordinate
    439960.7489174467,        !- Vertex 4 Xcoordinate
    4478890.2654284,          !- Vertex 4 Ycoordinate
    6;                        !- Vertex 4 Zcoordinate

SHADING:SITE:DETAILED,
    shade_way/942968878_4,    !- Name
    ,                         !- Transmittance Schedule Name
    autocalculate,            !- Number of Vertices
    439960.7489174467,        !- Vertex 1 Xcoordinate
    4478890.2654284,          !- Vertex 1 Ycoordinate
    6,                        !- Vertex 1 Zcoordinate
    439960.7489174467,        !- Vertex 2 Xcoordinate
    4478890.2654284,          !- Vertex 2 Ycoordinate
    0,                        !- Vertex 2 Zcoordinate
    439961.4716896145,        !- Vertex 3 Xcoordinate
    4478882.803360526,        !- Vertex 3 Ycoordinate
    0,                        !- Vertex 3 Zcoordinate
    439961.4716896145,        !- Vertex 4 Xcoordinate
    4478882.803360526,        !- Vertex 4 Ycoordinate
    6;                        !- Vertex 4 Zcoordinate

SHADING:SITE:DETAILED,
    shade_way/434878272_1,    !- Name
    ,                         !- Transmittance Schedule Name
    autocalculate,            !- Number of Vertices
    439901.9536865218,        !- Vertex 1 Xcoordinate
    4478873.676785811,        !- Vertex 1 Ycoordinate
    12,                       !- Vertex 1 Zcoordinate
    439901.9536865218,        !- Vertex 2 Xcoordinate
    4478873.676785811,        !- Vertex 2 Ycoordinate
    0,                        !- Vertex 2 Zcoordinate
    439899.1602527522,        !- Vertex 3 Xcoordinate
    4478861.310482255,        !- Vertex 3 Ycoordinate
    0,                        !- Vertex 3 Zcoordinate
    439899.1602527522,        !- Vertex 4 Xcoordinate
    4478861.310482255,        !- Vertex 4 Ycoordinate
    12;                       !- Vertex 4 Zcoordinate

SHADING:SITE:DETAILED,
    shade_way/434878272_2,    !- Name
    ,                         !- Transmittance Schedule Name
    autocalculate,            !- Number of Vertices
    439899.1602527522,        !- Vertex 1 Xcoordinate
    4478861.310482255,        !- Vertex 1 Ycoordinate
    12,                       !- Vertex 1 Zcoordinate
    439899.1602527522,        !- Vertex 2 Xcoordinate
    4478861.310482255,        !- Vertex 2 Ycoordinate
    0,                        !- Vertex 2 Zcoordinate
    439881.5666956427,        !- Vertex 3 Xcoordinate
    4478865.2847199775,       !- Vertex 3 Ycoordinate
    0,                        !- Vertex 3 Zcoordinate
    439881.5666956427,        !- Vertex 4 Xcoordinate
    4478865.2847199775,       !- Vertex 4 Ycoordinate
    12;                       !- Vertex 4 Zcoordinate

SHADING:SITE:DETAILED,
    shade_way/434878272_3,    !- Name
    ,                         !- Transmittance Schedule Name
    autocalculate,            !- Number of Vertices
    439881.5666956427,        !- Vertex 1 Xcoordinate
    4478865.2847199775,       !- Vertex 1 Ycoordinate
    12,                       !- Vertex 1 Zcoordinate
    439881.5666956427,        !- Vertex 2 Xcoordinate
    4478865.2847199775,       !- Vertex 2 Ycoordinate
    0,                        !- Vertex 2 Zcoordinate
    439884.3601836769,        !- Vertex 3 Xcoordinate
    4478877.651215039,        !- Vertex 3 Ycoordinate
    0,                        !- Vertex 3 Zcoordinate
    439884.3601836769,        !- Vertex 4 Xcoordinate
    4478877.651215039,        !- Vertex 4 Ycoordinate
    12;                       !- Vertex 4 Zcoordinate

SHADING:SITE:DETAILED,
    shade_way/434878272_4,    !- Name
    ,                         !- Transmittance Schedule Name
    autocalculate,            !- Number of Vertices
    439884.3601836769,        !- Vertex 1 Xcoordinate
    4478877.651215039,        !- Vertex 1 Ycoordinate
    12,                       !- Vertex 1 Zcoordinate
    439884.3601836769,        !- Vertex 2 Xcoordinate
    4478877.651215039,        !- Vertex 2 Ycoordinate
    0,                        !- Vertex 2 Zcoordinate
    439901.9536865218,        !- Vertex 3 Xcoordinate
    4478873.676785811,        !- Vertex 3 Ycoordinate
    0,                        !- Vertex 3 Zcoordinate
    439901.9536865218,        !- Vertex 4 Xcoordinate
    4478873.676785811,        !- Vertex 4 Ycoordinate
    12;                       !- Vertex 4 Zcoordinate

SHADING:SITE:DETAILED,
    shade_way/434878274_1,    !- Name
    ,                         !- Transmittance Schedule Name
    autocalculate,            !- Number of Vertices
    439902.08755227306,       !- Vertex 1 Xcoordinate
    4478873.672132591,        !- Vertex 1 Ycoordinate
    3,                        !- Vertex 1 Zcoordinate
    439902.08755227306,       !- Vertex 2 Xcoordinate
    4478873.672132591,        !- Vertex 2 Ycoordinate
    0,                        !- Vertex 2 Zcoordinate
    439883.600987081,         !- Vertex 3 Xcoordinate
    4478874.290375562,        !- Vertex 3 Ycoordinate
    0,                        !- Vertex 3 Zcoordinate
    439883.600987081,         !- Vertex 4 Xcoordinate
    4478874.290375562,        !- Vertex 4 Ycoordinate
    3;                        !- Vertex 4 Zcoordinate

SHADING:SITE:DETAILED,
    shade_way/434878274_2,    !- Name
    ,                         !- Transmittance Schedule Name
    autocalculate,            !- Number of Vertices
    439883.600987081,         !- Vertex 1 Xcoordinate
    4478874.290375562,        !- Vertex 1 Ycoordinate
    3,                        !- Vertex 1 Zcoordinate
    439883.600987081,         !- Vertex 2 Xcoordinate
    4478874.290375562,        !- Vertex 2 Ycoordinate
    0,                        !- Vertex 2 Zcoordinate
    439883.770641445,         !- Vertex 3 Xcoordinate
    4478879.365282987,        !- Vertex 3 Ycoordinate
    0,                        !- Vertex 3 Zcoordinate
    439883.770641445,         !- Vertex 4 Xcoordinate
    4478879.365282987,        !- Vertex 4 Ycoordinate
    3;                        !- Vertex 4 Zcoordinate

SHADING:SITE:DETAILED,
    shade_way/434878274_3,    !- Name
    ,                         !- Transmittance Schedule Name
    autocalculate,            !- Number of Vertices
    439883.770641445,         !- Vertex 1 Xcoordinate
    4478879.365282987,        !- Vertex 1 Ycoordinate
    3,                        !- Vertex 1 Zcoordinate
    439883.770641445,         !- Vertex 2 Xcoordinate
    4478879.365282987,        !- Vertex 2 Ycoordinate
    0,                        !- Vertex 2 Zcoordinate
    439902.25725068385,       !- Vertex 3 Xcoordinate
    4478878.747393851,        !- Vertex 3 Ycoordinate
    0,                        !- Vertex 3 Zcoordinate
    439902.25725068385,       !- Vertex 4 Xcoordinate
    4478878.747393851,        !- Vertex 4 Ycoordinate
    3;                        !- Vertex 4 Zcoordinate

SHADING:SITE:DETAILED,
    shade_way/434878274_4,    !- Name
    ,                         !- Transmittance Schedule Name
    autocalculate,            !- Number of Vertices
    439902.25725068385,       !- Vertex 1 Xcoordinate
    4478878.747393851,        !- Vertex 1 Ycoordinate
    3,                        !- Vertex 1 Zcoordinate
    439902.25725068385,       !- Vertex 2 Xcoordinate
    4478878.747393851,        !- Vertex 2 Ycoordinate
    0,                        !- Vertex 2 Zcoordinate
    439902.08755227306,       !- Vertex 3 Xcoordinate
    4478873.672132591,        !- Vertex 3 Ycoordinate
    0,                        !- Vertex 3 Zcoordinate
    439902.08755227306,       !- Vertex 4 Xcoordinate
    4478873.672132591,        !- Vertex 4 Ycoordinate
    3;                        !- Vertex 4 Zcoordinate

SHADING:SITE:DETAILED,
    shade_way/434869416_1,    !- Name
    ,                         !- Transmittance Schedule Name
    autocalculate,            !- Number of Vertices
    439934.5463086378,        !- Vertex 1 Xcoordinate
    4478889.673293278,        !- Vertex 1 Ycoordinate
    9,                        !- Vertex 1 Zcoordinate
    439934.5463086378,        !- Vertex 2 Xcoordinate
    4478889.673293278,        !- Vertex 2 Ycoordinate
    0,                        !- Vertex 2 Zcoordinate
    439940.04897979135,       !- Vertex 3 Xcoordinate
    4478872.360885024,        !- Vertex 3 Ycoordinate
    0,                        !- Vertex 3 Zcoordinate
    439940.04897979135,       !- Vertex 4 Xcoordinate
    4478872.360885024,        !- Vertex 4 Ycoordinate
    9;                        !- Vertex 4 Zcoordinate

SHADING:SITE:DETAILED,
    shade_way/434869416_2,    !- Name
    ,                         !- Transmittance Schedule Name
    autocalculate,            !- Number of Vertices
    439940.04897979135,       !- Vertex 1 Xcoordinate
    4478872.360885024,        !- Vertex 1 Ycoordinate
    9,                        !- Vertex 1 Zcoordinate
    439940.04897979135,       !- Vertex 2 Xcoordinate
    4478872.360885024,        !- Vertex 2 Ycoordinate
    0,                        !- Vertex 2 Zcoordinate
    439929.69065000425,       !- Vertex 3 Xcoordinate
    4478869.06838334,         !- Vertex 3 Ycoordinate
    0,                        !- Vertex 3 Zcoordinate
    439929.69065000425,       !- Vertex 4 Xcoordinate
    4478869.06838334,         !- Vertex 4 Ycoordinate
    9;                        !- Vertex 4 Zcoordinate

SHADING:SITE:DETAILED,
    shade_way/434869416_3,    !- Name
    ,                         !- Transmittance Schedule Name
    autocalculate,            !- Number of Vertices
    439929.69065000425,       !- Vertex 1 Xcoordinate
    4478869.06838334,         !- Vertex 1 Ycoordinate
    9,                        !- Vertex 1 Zcoordinate
    439929.69065000425,       !- Vertex 2 Xcoordinate
    4478869.06838334,         !- Vertex 2 Ycoordinate
    0,                        !- Vertex 2 Zcoordinate
    439924.1875566567,        !- Vertex 3 Xcoordinate
    4478886.380503007,        !- Vertex 3 Ycoordinate
    0,                        !- Vertex 3 Zcoordinate
    439924.1875566567,        !- Vertex 4 Xcoordinate
    4478886.380503007,        !- Vertex 4 Ycoordinate
    9;                        !- Vertex 4 Zcoordinate

SHADING:SITE:DETAILED,
    shade_way/434869416_4,    !- Name
    ,                         !- Transmittance Schedule Name
    autocalculate,            !- Number of Vertices
    439924.1875566567,        !- Vertex 1 Xcoordinate
    4478886.380503007,        !- Vertex 1 Ycoordinate
    9,                        !- Vertex 1 Zcoordinate
    439924.1875566567,        !- Vertex 2 Xcoordinate
    4478886.380503007,        !- Vertex 2 Ycoordinate
    0,                        !- Vertex 2 Zcoordinate
    439934.5463086378,        !- Vertex 3 Xcoordinate
    4478889.673293278,        !- Vertex 3 Ycoordinate
    0,                        !- Vertex 3 Zcoordinate
    439934.5463086378,        !- Vertex 4 Xcoordinate
    4478889.673293278,        !- Vertex 4 Ycoordinate
    9;                        !- Vertex 4 Zcoordinate

SHADING:SITE:DETAILED,
    shade_way/435505189_1,    !- Name
    ,                         !- Transmittance Schedule Name
    autocalculate,            !- Number of Vertices
    439873.0024861077,        !- Vertex 1 Xcoordinate
    4478895.349483199,        !- Vertex 1 Ycoordinate
    15,                       !- Vertex 1 Zcoordinate
    439873.0024861077,        !- Vertex 2 Xcoordinate
    4478895.349483199,        !- Vertex 2 Ycoordinate
    0,                        !- Vertex 2 Zcoordinate
    439872.51191896613,       !- Vertex 3 Xcoordinate
    4478902.158645018,        !- Vertex 3 Ycoordinate
    0,                        !- Vertex 3 Zcoordinate
    439872.51191896613,       !- Vertex 4 Xcoordinate
    4478902.158645018,        !- Vertex 4 Ycoordinate
    15;                       !- Vertex 4 Zcoordinate

SHADING:SITE:DETAILED,
    shade_way/435505189_2,    !- Name
    ,                         !- Transmittance Schedule Name
    autocalculate,            !- Number of Vertices
    439872.51191896613,       !- Vertex 1 Xcoordinate
    4478902.158645018,        !- Vertex 1 Ycoordinate
    15,                       !- Vertex 1 Zcoordinate
    439872.51191896613,       !- Vertex 2 Xcoordinate
    4478902.158645018,        !- Vertex 2 Ycoordinate
    0,                        !- Vertex 2 Zcoordinate
    439900.04212576133,       !- Vertex 3 Xcoordinate
    4478904.1420631325,       !- Vertex 3 Ycoordinate
    0,                        !- Vertex 3 Zcoordinate
    439900.04212576133,       !- Vertex 4 Xcoordinate
    4478904.1420631325,       !- Vertex 4 Ycoordinate
    15;                       !- Vertex 4 Zcoordinate

SHADING:SITE:DETAILED,
    shade_way/435505189_3,    !- Name
    ,                         !- Transmittance Schedule Name
    autocalculate,            !- Number of Vertices
    439900.04212576133,       !- Vertex 1 Xcoordinate
    4478904.1420631325,       !- Vertex 1 Ycoordinate
    15,                       !- Vertex 1 Zcoordinate
    439900.04212576133,       !- Vertex 2 Xcoordinate
    4478904.1420631325,       !- Vertex 2 Ycoordinate
    0,                        !- Vertex 2 Zcoordinate
    439900.5325407115,        !- Vertex 3 Xcoordinate
    4478897.332803567,        !- Vertex 3 Ycoordinate
    0,                        !- Vertex 3 Zcoordinate
    439900.5325407115,        !- Vertex 4 Xcoordinate
    4478897.332803567,        !- Vertex 4 Ycoordinate
    15;                       !- Vertex 4 Zcoordinate

SHADING:SITE:DETAILED,
    shade_way/435505189_4,    !- Name
    ,                         !- Transmittance Schedule Name
    autocalculate,            !- Number of Vertices
    439900.5325407115,        !- Vertex 1 Xcoordinate
    4478897.332803567,        !- Vertex 1 Ycoordinate
    15,                       !- Vertex 1 Zcoordinate
    439900.5325407115,        !- Vertex 2 Xcoordinate
    4478897.332803567,        !- Vertex 2 Ycoordinate
    0,                        !- Vertex 2 Zcoordinate
    439873.0024861077,        !- Vertex 3 Xcoordinate
    4478895.349483199,        !- Vertex 3 Ycoordinate
    0,                        !- Vertex 3 Zcoordinate
    439873.0024861077,        !- Vertex 4 Xcoordinate
    4478895.349483199,        !- Vertex 4 Ycoordinate
    15;                       !- Vertex 4 Zcoordinate

SHADING:SITE:DETAILED,
    shade_way/435449426_1,    !- Name
    ,                         !- Transmittance Schedule Name
    autocalculate,            !- Number of Vertices
    439943.6161731538,        !- Vertex 1 Xcoordinate
    4478893.2692792015,       !- Vertex 1 Ycoordinate
    12,                       !- Vertex 1 Zcoordinate
    439943.6161731538,        !- Vertex 2 Xcoordinate
    4478893.2692792015,       !- Vertex 2 Ycoordinate
    0,                        !- Vertex 2 Zcoordinate
    439936.70319601876,       !- Vertex 3 Xcoordinate
    4478914.411336368,        !- Vertex 3 Ycoordinate
    0,                        !- Vertex 3 Zcoordinate
    439936.70319601876,       !- Vertex 4 Xcoordinate
    4478914.411336368,        !- Vertex 4 Ycoordinate
    12;                       !- Vertex 4 Zcoordinate

SHADING:SITE:DETAILED,
    shade_way/435449426_2,    !- Name
    ,                         !- Transmittance Schedule Name
    autocalculate,            !- Number of Vertices
    439936.70319601876,       !- Vertex 1 Xcoordinate
    4478914.411336368,        !- Vertex 1 Ycoordinate
    12,                       !- Vertex 1 Zcoordinate
    439936.70319601876,       !- Vertex 2 Xcoordinate
    4478914.411336368,        !- Vertex 2 Ycoordinate
    0,                        !- Vertex 2 Zcoordinate
    439954.693108807,         !- Vertex 3 Xcoordinate
    4478920.29363319,         !- Vertex 3 Ycoordinate
    0,                        !- Vertex 3 Zcoordinate
    439954.693108807,         !- Vertex 4 Xcoordinate
    4478920.29363319,         !- Vertex 4 Ycoordinate
    12;                       !- Vertex 4 Zcoordinate

SHADING:SITE:DETAILED,
    shade_way/435449426_3,    !- Name
    ,                         !- Transmittance Schedule Name
    autocalculate,            !- Number of Vertices
    439954.693108807,         !- Vertex 1 Xcoordinate
    4478920.29363319,         !- Vertex 1 Ycoordinate
    12,                       !- Vertex 1 Zcoordinate
    439954.693108807,         !- Vertex 2 Xcoordinate
    4478920.29363319,         !- Vertex 2 Ycoordinate
    0,                        !- Vertex 2 Zcoordinate
    439961.6061745692,        !- Vertex 3 Xcoordinate
    4478899.151694914,        !- Vertex 3 Ycoordinate
    0,                        !- Vertex 3 Zcoordinate
    439961.6061745692,        !- Vertex 4 Xcoordinate
    4478899.151694914,        !- Vertex 4 Ycoordinate
    12;                       !- Vertex 4 Zcoordinate

SHADING:SITE:DETAILED,
    shade_way/435449426_4,    !- Name
    ,                         !- Transmittance Schedule Name
    autocalculate,            !- Number of Vertices
    439961.6061745692,        !- Vertex 1 Xcoordinate
    4478899.151694914,        !- Vertex 1 Ycoordinate
    12,                       !- Vertex 1 Zcoordinate
    439961.6061745692,        !- Vertex 2 Xcoordinate
    4478899.151694914,        !- Vertex 2 Ycoordinate
    0,                        !- Vertex 2 Zcoordinate
    439943.6161731538,        !- Vertex 3 Xcoordinate
    4478893.2692792015,       !- Vertex 3 Ycoordinate
    0,                        !- Vertex 3 Zcoordinate
    439943.6161731538,        !- Vertex 4 Xcoordinate
    4478893.2692792015,       !- Vertex 4 Ycoordinate
    12;                       !- Vertex 4 Zcoordinate

SHADING:SITE:DETAILED,
    shade_way/435449425_1,    !- Name
    ,                         !- Transmittance Schedule Name
    autocalculate,            !- Number of Vertices
    439915.3683742524,        !- Vertex 1 Xcoordinate
    4478894.88166898,         !- Vertex 1 Ycoordinate
    12,                       !- Vertex 1 Zcoordinate
    439915.3683742524,        !- Vertex 2 Xcoordinate
    4478894.88166898,         !- Vertex 2 Ycoordinate
    0,                        !- Vertex 2 Zcoordinate
    439911.5974140436,        !- Vertex 3 Xcoordinate
    4478921.053315885,        !- Vertex 3 Ycoordinate
    0,                        !- Vertex 3 Zcoordinate
    439911.5974140436,        !- Vertex 4 Xcoordinate
    4478921.053315885,        !- Vertex 4 Ycoordinate
    12;                       !- Vertex 4 Zcoordinate

SHADING:SITE:DETAILED,
    shade_way/435449425_2,    !- Name
    ,                         !- Transmittance Schedule Name
    autocalculate,            !- Number of Vertices
    439911.5974140436,        !- Vertex 1 Xcoordinate
    4478921.053315885,        !- Vertex 1 Ycoordinate
    12,                       !- Vertex 1 Zcoordinate
    439911.5974140436,        !- Vertex 2 Xcoordinate
    4478921.053315885,        !- Vertex 2 Ycoordinate
    0,                        !- Vertex 2 Zcoordinate
    439928.5336132053,        !- Vertex 3 Xcoordinate
    4478923.493580086,        !- Vertex 3 Ycoordinate
    0,                        !- Vertex 3 Zcoordinate
    439928.5336132053,        !- Vertex 4 Xcoordinate
    4478923.493580086,        !- Vertex 4 Ycoordinate
    12;                       !- Vertex 4 Zcoordinate

SHADING:SITE:DETAILED,
    shade_way/435449425_3,    !- Name
    ,                         !- Transmittance Schedule Name
    autocalculate,            !- Number of Vertices
    439928.5336132053,        !- Vertex 1 Xcoordinate
    4478923.493580086,        !- Vertex 1 Ycoordinate
    12,                       !- Vertex 1 Zcoordinate
    439928.5336132053,        !- Vertex 2 Xcoordinate
    4478923.493580086,        !- Vertex 2 Ycoordinate
    0,                        !- Vertex 2 Zcoordinate
    439932.30418838083,       !- Vertex 3 Xcoordinate
    4478897.32201677,         !- Vertex 3 Ycoordinate
    0,                        !- Vertex 3 Zcoordinate
    439932.30418838083,       !- Vertex 4 Xcoordinate
    4478897.32201677,         !- Vertex 4 Ycoordinate
    12;                       !- Vertex 4 Zcoordinate

SHADING:SITE:DETAILED,
    shade_way/435449425_4,    !- Name
    ,                         !- Transmittance Schedule Name
    autocalculate,            !- Number of Vertices
    439932.30418838083,       !- Vertex 1 Xcoordinate
    4478897.32201677,         !- Vertex 1 Ycoordinate
    12,                       !- Vertex 1 Zcoordinate
    439932.30418838083,       !- Vertex 2 Xcoordinate
    4478897.32201677,         !- Vertex 2 Ycoordinate
    0,                        !- Vertex 2 Zcoordinate
    439915.3683742524,        !- Vertex 3 Xcoordinate
    4478894.88166898,         !- Vertex 3 Ycoordinate
    0,                        !- Vertex 3 Zcoordinate
    439915.3683742524,        !- Vertex 4 Xcoordinate
    4478894.88166898,         !- Vertex 4 Ycoordinate
    12;                       !- Vertex 4 Zcoordinate

OTHEREQUIPMENT,
    EU_Step8_InternalGain_355ace754731337d_F0_dwelling_0_f000,    !- Name
    Electricity,              !- Fuel Type
    355ace754731337d_F0_dwelling_0,    !- Zone or ZoneList or Space or SpaceList Name
    EU_Step8_GainSchedule_355ace754731337d_F0_dwelling_0_f000,    !- Schedule Name
    Watts/Area,               !- Design Level Calculation Method
    ,                         !- Design Level
    1,                        !- Power per Zone Floor Area
    ,                         !- Power per Person
    0,                        !- Fraction Latent
    0,                        !- Fraction Radiant
    0,                        !- Fraction Lost
    0,                        !- Carbon Dioxide Generation Rate
    EU_Step8_InternalGains;    !- EndUse Subcategory

ZONEVENTILATION:DESIGNFLOWRATE,
    EU_ConstantAir_355ace754731337d_F0_dwelling_0,    !- Name
    355ace754731337d_F0_dwelling_0,    !- Zone or ZoneList or Space or SpaceList Name
    EU_AlwaysOn,              !- Schedule Name
    AirChanges/Hour,          !- Design Flow Rate Calculation Method
    ,                         !- Design Flow Rate
    ,                         !- Flow Rate per Floor Area
    ,                         !- Flow Rate per Person
    0.7191608241903235,       !- Air Changes per Hour
    Natural,                  !- Ventilation Type
    0,                        !- Fan Pressure Rise
    1,                        !- Fan Total Efficiency
    1,                        !- Constant Term Coefficient
    0,                        !- Temperature Term Coefficient
    0,                        !- Velocity Term Coefficient
    0,                        !- Velocity Squared Term Coefficient
    -100,                     !- Minimum Indoor Temperature
    ,                         !- Minimum Indoor Temperature Schedule Name
    100,                      !- Maximum Indoor Temperature
    ,                         !- Maximum Indoor Temperature Schedule Name
    -100,                     !- Delta Temperature
    ,                         !- Delta Temperature Schedule Name
    -100,                     !- Minimum Outdoor Temperature
    ,                         !- Minimum Outdoor Temperature Schedule Name
    100,                      !- Maximum Outdoor Temperature
    ,                         !- Maximum Outdoor Temperature Schedule Name
    40;                       !- Maximum Wind Speed

HVACTEMPLATE:THERMOSTAT,
    EU_HeatOnly_355ace754731337d_F0_dwelling_0,    !- Name
    ,                         !- Heating Setpoint Schedule Name
    20,                       !- Constant Heating Setpoint
    ,                         !- Cooling Setpoint Schedule Name
    50;                       !- Constant Cooling Setpoint

HVACTEMPLATE:ZONE:IDEALLOADSAIRSYSTEM,
    355ace754731337d_F0_dwelling_0,    !- Zone Name
    EU_HeatOnly_355ace754731337d_F0_dwelling_0,    !- Template Thermostat Name
    EU_AlwaysOn,              !- System Availability Schedule Name
    50,                       !- Maximum Heating Supply Air Temperature
    13,                       !- Minimum Cooling Supply Air Temperature
    0.0156,                   !- Maximum Heating Supply Air Humidity Ratio
    0.0077,                   !- Minimum Cooling Supply Air Humidity Ratio
    NoLimit,                  !- Heating Limit
    ,                         !- Maximum Heating Air Flow Rate
    ,                         !- Maximum Sensible Heating Capacity
    NoLimit,                  !- Cooling Limit
    ,                         !- Maximum Cooling Air Flow Rate
    ,                         !- Maximum Total Cooling Capacity
    EU_AlwaysOn,              !- Heating Availability Schedule Name
    EU_CoolingOff,            !- Cooling Availability Schedule Name
    ConstantSensibleHeatRatio,    !- Dehumidification Control Type
    0.7,                      !- Cooling Sensible Heat Ratio
    60,                       !- Dehumidification Setpoint
    None,                     !- Humidification Control Type
    30,                       !- Humidification Setpoint
    None,                     !- Outdoor Air Method
    0.00944,                  !- Outdoor Air Flow Rate per Person
    0.0,                      !- Outdoor Air Flow Rate per Zone Floor Area
    0,                        !- Outdoor Air Flow Rate per Zone
    ,                         !- Design Specification Outdoor Air Object Name
    None,                     !- Demand Controlled Ventilation Type
    NoEconomizer,             !- Outdoor Air Economizer Type
    None,                     !- Heat Recovery Type
    0.70,                     !- Sensible Heat Recovery Effectiveness
    0.65;                     !- Latent Heat Recovery Effectiveness

SIZING:ZONE,
    355ace754731337d_F0_dwelling_0,    !- Zone or ZoneList Name
    SupplyAirTemperature,     !- Zone Cooling Design Supply Air Temperature Input Method
    13,                       !- Zone Cooling Design Supply Air Temperature
    ,                         !- Zone Cooling Design Supply Air Temperature Difference
    SupplyAirTemperature,     !- Zone Heating Design Supply Air Temperature Input Method
    50,                       !- Zone Heating Design Supply Air Temperature
    ,                         !- Zone Heating Design Supply Air Temperature Difference
    0.008,                    !- Zone Cooling Design Supply Air Humidity Ratio
    0.008,                    !- Zone Heating Design Supply Air Humidity Ratio
    ,                         !- Design Specification Outdoor Air Object Name
    ,                         !- Zone Heating Sizing Factor
    ,                         !- Zone Cooling Sizing Factor
    DesignDay,                !- Cooling Design Air Flow Method
    0,                        !- Cooling Design Air Flow Rate
    0.000762,                 !- Cooling Minimum Air Flow per Zone Floor Area
    0,                        !- Cooling Minimum Air Flow
    0.2,                      !- Cooling Minimum Air Flow Fraction
    DesignDay,                !- Heating Design Air Flow Method
    0,                        !- Heating Design Air Flow Rate
    0.002032,                 !- Heating Maximum Air Flow per Zone Floor Area
    0.1415762,                !- Heating Maximum Air Flow
    0.3,                      !- Heating Maximum Air Flow Fraction
    ,                         !- Design Specification Zone Air Distribution Object Name
    No,                       !- Account for Dedicated Outdoor Air System
    NeutralSupplyAir,         !- Dedicated Outdoor Air System Control Strategy
    autosize,                 !- Dedicated Outdoor Air Low Setpoint Temperature for Design
    autosize,                 !- Dedicated Outdoor Air High Setpoint Temperature for Design
    Sensible Load Only No Latent Load,    !- Zone Load Sizing Method
    HumidityRatioDifference,    !- Zone Latent Cooling Design Supply Air Humidity Ratio Input Method
    ,                         !- Zone Dehumidification Design Supply Air Humidity Ratio
    0.005,                    !- Zone Cooling Design Supply Air Humidity Ratio Difference
    HumidityRatioDifference,    !- Zone Latent Heating Design Supply Air Humidity Ratio Input Method
    ,                         !- Zone Humidification Design Supply Air Humidity Ratio
    0.005;                    !- Zone Humidification Design Supply Air Humidity Ratio Difference

OUTPUT:VARIABLE,
    *,                        !- Key Value
    Zone Ideal Loads Zone Total Heating Energy,    !- Variable Name
    Hourly;                   !- Reporting Frequency

OUTPUT:SQLITE,
    SimpleAndTabular,         !- Option Type
    UseOutputControlTableStyle;    !- Unit Conversion for Tabular Data