!- Windows Line endings 

Version,
    23.1;                     !- Version Identifier

SimulationControl,
    Yes,                      !- Do Zone Sizing Calculation
    Yes,                      !- Do System Sizing Calculation
    Yes,                      !- Do Plant Sizing Calculation
    No,                       !- Run Simulation for Sizing Periods
    Yes,                      !- Run Simulation for Weather File Run Periods
    No,                       !- Do HVAC Sizing Simulation for Sizing Periods
    1;                        !- Maximum Number of HVAC Sizing Simulation Passes

Building,
    EU S2 Campaign,           !- Name
    0,                        !- North Axis
    City,                     !- Terrain
    ,                         !- Loads Convergence Tolerance Value
    ,                         !- Temperature Convergence Tolerance Value
    FullExterior,             !- Solar Distribution
    ,                         !- Maximum Number of Warmup Days
    ;                         !- Minimum Number of Warmup Days

ShadowCalculation,
    PolygonClipping,          !- Shading Calculation Method
    Periodic,                 !- Shading Calculation Update Frequency Method
    1;                        !- Shading Calculation Update Frequency

HeatBalanceAlgorithm,
    ConductionTransferFunction,    !- Algorithm
    200,                      !- Surface Temperature Upper Limit
    0.1,                      !- Minimum Surface Convection Heat Transfer Coefficient Value
    10000000;                 !- Maximum Surface Convection Heat Transfer Coefficient Value

Timestep,
    12;                       !- Number of Timesteps per Hour

Site:Location,
    Madrid,                   !- Name
    40.5,                     !- Latitude
    -3.5,                     !- Longitude
    1,                        !- Time Zone
    609;                      !- Elevation

SizingPeriod:WeatherFileDays,
    AnnualSizingPeriod,       !- Name
    1,                        !- Begin Month
    1,                        !- Begin Day of Month
    12,                       !- End Month
    31,                       !- End Day of Month
    Monday,                   !- Day of Week for Start Day
    No,                       !- Use Weather File Daylight Saving Period
    No;                       !- Use Weather File Rain and Snow Indicators

RunPeriod,
    RunPeriod1,               !- Name
    1,                        !- Begin Month
    1,                        !- Begin Day of Month
    ,                         !- Begin Year
    12,                       !- End Month
    31,                       !- End Day of Month
    ,                         !- End Year
    Sunday,                   !- Day of Week for Start Day
    No,                       !- Use Weather File Holidays and Special Days
    No,                       !- Use Weather File Daylight Saving Period
    No,                       !- Apply Weekend Holiday Rule
    Yes,                      !- Use Weather File Rain Indicators
    Yes;                      !- Use Weather File Snow Indicators

ScheduleTypeLimits,
    Any Number;               !- Name

SCHEDULETYPELIMITS,
    EU_Step8_AnyNumber_Wm2,    !- Name
    ,                         !- Lower Limit Value
    ,                         !- Upper Limit Value
    Continuous,               !- Numeric Type
    Dimensionless;            !- Unit Type

SCHEDULE:CONSTANT,
    EU_AlwaysOn,              !- Name
    ,                         !- Schedule Type Limits Name
    1;                        !- Hourly Value

SCHEDULE:CONSTANT,
    EU_CoolingOff,            !- Name
    ,                         !- Schedule Type Limits Name
    0;                        !- Hourly Value

SCHEDULE:FILE,
    EU_Step8_GainSchedule_609404ef061555bc_F0_dwelling_0_f000,    !- Name
    EU_Step8_AnyNumber_Wm2,    !- Schedule Type Limits Name
    ../../schedules/609404ef061555bc/609404ef061555bc_F0_dwelling_0_f000_gain.csv,    !- File Name
    1,                        !- Column Number
    0,                        !- Rows to Skip at Top
    8760,                     !- Number of Hours of Data
    Comma,                    !- Column Separator
    No,                       !- Interpolate to Timestep
    60,                       !- Minutes per Item
    Yes;                      !- Adjust Schedule for Daylight Savings

SCHEDULE:FILE,
    EU_Step8_GainSchedule_609404ef061555bc_F1_dwelling_0_f000,    !- Name
    EU_Step8_AnyNumber_Wm2,    !- Schedule Type Limits Name
    ../../schedules/609404ef061555bc/609404ef061555bc_F1_dwelling_0_f000_gain.csv,    !- File Name
    1,                        !- Column Number
    0,                        !- Rows to Skip at Top
    8760,                     !- Number of Hours of Data
    Comma,                    !- Column Separator
    No,                       !- Interpolate to Timestep
    60,                       !- Minutes per Item
    Yes;                      !- Adjust Schedule for Daylight Savings

SCHEDULE:FILE,
    EU_Step8_GainSchedule_609404ef061555bc_F2_dwelling_0_f000,    !- Name
    EU_Step8_AnyNumber_Wm2,    !- Schedule Type Limits Name
    ../../schedules/609404ef061555bc/609404ef061555bc_F2_dwelling_0_f000_gain.csv,    !- File Name
    1,                        !- Column Number
    0,                        !- Rows to Skip at Top
    8760,                     !- Number of Hours of Data
    Comma,                    !- Column Separator
    No,                       !- Interpolate to Timestep
    60,                       !- Minutes per Item
    Yes;                      !- Adjust Schedule for Daylight Savings

SCHEDULE:FILE,
    EU_Step8_GainSchedule_609404ef061555bc_F3_dwelling_0_f000,    !- Name
    EU_Step8_AnyNumber_Wm2,    !- Schedule Type Limits Name
    ../../schedules/609404ef061555bc/609404ef061555bc_F3_dwelling_0_f000_gain.csv,    !- File Name
    1,                        !- Column Number
    0,                        !- Rows to Skip at Top
    8760,                     !- Number of Hours of Data
    Comma,                    !- Column Separator
    No,                       !- Interpolate to Timestep
    60,                       !- Minutes per Item
    Yes;                      !- Adjust Schedule for Daylight Savings

MATERIAL,
    EU_InternalMass_Material,    !- Name
    MediumRough,              !- Roughness
    0.1,                      !- Thickness
    1,                        !- Conductivity
    1800,                     !- Density
    900,                      !- Specific Heat
    0.9,                      !- Thermal Absorptance
    0.7,                      !- Solar Absorptance
    0.7;                      !- Visible Absorptance

MATERIAL:NOMASS,
    EU_wall_NoMass,           !- Name
    MediumRough,              !- Roughness
    1.6002158098852093,       !- Thermal Resistance
    0.9,                      !- Thermal Absorptance
    0.7,                      !- Solar Absorptance
    0.7;                      !- Visible Absorptance

MATERIAL:NOMASS,
    EU_roof_NoMass,           !- Name
    MediumRough,              !- Roughness
    1.5759701157960397,       !- Thermal Resistance
    0.9,                      !- Thermal Absorptance
    0.7,                      !- Solar Absorptance
    0.7;                      !- Visible Absorptance

MATERIAL:NOMASS,
    EU_floor_NoMass,          !- Name
    MediumRough,              !- Roughness
    0.4706517087897675,       !- Thermal Resistance
    0.9,                      !- Thermal Absorptance
    0.7,                      !- Solar Absorptance
    0.7;                      !- Visible Absorptance

CONSTRUCTION,
    EU_wall_Construction,     !- Name
    EU_wall_NoMass;           !- Outside Layer

CONSTRUCTION,
    EU_roof_Construction,     !- Name
    EU_roof_NoMass;           !- Outside Layer

CONSTRUCTION,
    EU_floor_Construction,    !- Name
    EU_floor_NoMass;          !- Outside Layer

CONSTRUCTION,
    EU_InternalMass_Construction,    !- Name
    EU_InternalMass_Material;    !- Outside Layer

GlobalGeometryRules,
    UpperLeftCorner,          !- Starting Vertex Position
    CounterClockWise,         !- Vertex Entry Direction
    World;                    !- Coordinate System

ZONE,
    609404ef061555bc_F0_dwelling_0,    !- Name
    0,                        !- Direction of Relative North
    0,                        !- X Origin
    0,                        !- Y Origin
    0,                        !- Z Origin
    1,                        !- Type
    1,                        !- Multiplier
    autocalculate,            !- Ceiling Height
    222.284912109375,         !- Volume
    autocalculate,            !- Floor Area
    ,                         !- Zone Inside Convection Algorithm
    ,                         !- Zone Outside Convection Algorithm
    Yes;                      !- Part of Total Floor Area

ZONE,
    609404ef061555bc_F1_dwelling_0,    !- Name
    0,                        !- Direction of Relative North
    0,                        !- X Origin
    0,                        !- Y Origin
    0,                        !- Z Origin
    1,                        !- Type
    1,                        !- Multiplier
    autocalculate,            !- Ceiling Height
    222.2852783203125,        !- Volume
    autocalculate,            !- Floor Area
    ,                         !- Zone Inside Convection Algorithm
    ,                         !- Zone Outside Convection Algorithm
    Yes;                      !- Part of Total Floor Area

ZONE,
    609404ef061555bc_F2_dwelling_0,    !- Name
    0,                        !- Direction of Relative North
    0,                        !- X Origin
    0,                        !- Y Origin
    0,                        !- Z Origin
    1,                        !- Type
    1,                        !- Multiplier
    autocalculate,            !- Ceiling Height
    222.2852783203125,        !- Volume
    autocalculate,            !- Floor Area
    ,                         !- Zone Inside Convection Algorithm
    ,                         !- Zone Outside Convection Algorithm
    Yes;                      !- Part of Total Floor Area

ZONE,
    609404ef061555bc_F3_dwelling_0,    !- Name
    0,                        !- Direction of Relative North
    0,                        !- X Origin
    0,                        !- Y Origin
    0,                        !- Z Origin
    1,                        !- Type
    1,                        !- Multiplier
    autocalculate,            !- Ceiling Height
    222.2852783203125,        !- Volume
    autocalculate,            !- Floor Area
    ,                         !- Zone Inside Convection Algorithm
    ,                         !- Zone Outside Convection Algorithm
    Yes;                      !- Part of Total Floor Area

BUILDINGSURFACE:DETAILED,
    Block 609404ef061555bc_0 Storey 0 Wall 0001,    !- Name
    wall,                     !- Surface Type
    EU_wall_Construction,     !- Construction Name
    609404ef061555bc_F0_dwelling_0,    !- Zone Name
    ,                         !- Space Name
    outdoors,                 !- Outside Boundary Condition
    ,                         !- Outside Boundary Condition Object
    SunExposed,               !- Sun Exposure
    WindExposed,              !- Wind Exposure
    autocalculate,            !- View Factor to Ground
    autocalculate,            !- Number of Vertices
    439930.86,                !- Vertex 1 Xcoordinate
    4478835.702,              !- Vertex 1 Ycoordinate
    3,                        !- Vertex 1 Zcoordinate
    439930.86,                !- Vertex 2 Xcoordinate
    4478835.702,              !- Vertex 2 Ycoordinate
    0,                        !- Vertex 2 Zcoordinate
    439942.225,               !- Vertex 3 Xcoordinate
    4478834.978,              !- Vertex 3 Ycoordinate
    0,                        !- Vertex 3 Zcoordinate
    439942.225,               !- Vertex 4 Xcoordinate
    4478834.978,              !- Vertex 4 Ycoordinate
    3;                        !- Vertex 4 Zcoordinate

BUILDINGSURFACE:DETAILED,
    Block 609404ef061555bc_0 Storey 0 Wall 0002,    !- Name
    wall,                     !- Surface Type
    EU_wall_Construction,     !- Construction Name
    609404ef061555bc_F0_dwelling_0,    !- Zone Name
    ,                         !- Space Name
    Adiabatic,                !- Outside Boundary Condition
    ,                         !- Outside Boundary Condition Object
    NoSun,                    !- Sun Exposure
    NoWind,                   !- Wind Exposure
    autocalculate,            !- View Factor to Ground
    autocalculate,            !- Number of Vertices
    439942.225,               !- Vertex 1 Xcoordinate
    4478834.978,              !- Vertex 1 Ycoordinate
    3,                        !- Vertex 1 Zcoordinate
    439942.225,               !- Vertex 2 Xcoordinate
    4478834.978,              !- Vertex 2 Ycoordinate
    0,                        !- Vertex 2 Zcoordinate
    439941.743,               !- Vertex 3 Xcoordinate
    4478827.822,              !- Vertex 3 Ycoordinate
    0,                        !- Vertex 3 Zcoordinate
    439941.743,               !- Vertex 4 Xcoordinate
    4478827.822,              !- Vertex 4 Ycoordinate
    3;                        !- Vertex 4 Zcoordinate

BUILDINGSURFACE:DETAILED,
    Block 609404ef061555bc_0 Storey 0 Wall 0003,    !- Name
    wall,                     !- Surface Type
    EU_wall_Construction,     !- Construction Name
    609404ef061555bc_F0_dwelling_0,    !- Zone Name
    ,                         !- Space Name
    outdoors,                 !- Outside Boundary Condition
    ,                         !- Outside Boundary Condition Object
    SunExposed,               !- Sun Exposure
    WindExposed,              !- Wind Exposure
    autocalculate,            !- View Factor to Ground
    autocalculate,            !- Number of Vertices
    439941.743,               !- Vertex 1 Xcoordinate
    4478827.822,              !- Vertex 1 Ycoordinate
    3,                        !- Vertex 1 Zcoordinate
    439941.743,               !- Vertex 2 Xcoordinate
    4478827.822,              !- Vertex 2 Ycoordinate
    0,                        !- Vertex 2 Zcoordinate
    439932.649,               !- Vertex 3 Xcoordinate
    4478828.295,              !- Vertex 3 Ycoordinate
    0,                        !- Vertex 3 Zcoordinate
    439932.649,               !- Vertex 4 Xcoordinate
    4478828.295,              !- Vertex 4 Ycoordinate
    3;                        !- Vertex 4 Zcoordinate

BUILDINGSURFACE:DETAILED,
    Block 609404ef061555bc_0 Storey 0 Wall 0004,    !- Name
    wall,                     !- Surface Type
    EU_wall_Construction,     !- Construction Name
    609404ef061555bc_F0_dwelling_0,    !- Zone Name
    ,                         !- Space Name
    Adiabatic,                !- Outside Boundary Condition
    ,                         !- Outside Boundary Condition Object
    NoSun,                    !- Sun Exposure
    NoWind,                   !- Wind Exposure
    autocalculate,            !- View Factor to Ground
    autocalculate,            !- Number of Vertices
    439932.649,               !- Vertex 1 Xcoordinate
    4478828.295,              !- Vertex 1 Ycoordinate
    3,                        !- Vertex 1 Zcoordinate
    439932.649,               !- Vertex 2 Xcoordinate
    4478828.295,              !- Vertex 2 Ycoordinate
    0,                        !- Vertex 2 Zcoordinate
    439930.86,                !- Vertex 3 Xcoordinate
    4478835.702,              !- Vertex 3 Ycoordinate
    0,                        !- Vertex 3 Zcoordinate
    439930.86,                !- Vertex 4 Xcoordinate
    4478835.702,              !- Vertex 4 Ycoordinate
    3;                        !- Vertex 4 Zcoordinate

BUILDINGSURFACE:DETAILED,
    Block 609404ef061555bc_0 Storey 0 Floor 0001,    !- Name
    floor,                    !- Surface Type
    EU_floor_Construction,    !- Construction Name
    609404ef061555bc_F0_dwelling_0,    !- Zone Name
    ,                         !- Space Name
    ground,                   !- Outside Boundary Condition
    ,                         !- Outside Boundary Condition Object
    NoSun,                    !- Sun Exposure
    NoWind,                   !- Wind Exposure
    autocalculate,            !- View Factor to Ground
    autocalculate,            !- Number of Vertices
    439941.743,               !- Vertex 1 Xcoordinate
    4478827.822,              !- Vertex 1 Ycoordinate
    0,                        !- Vertex 1 Zcoordinate
    439942.225,               !- Vertex 2 Xcoordinate
    4478834.978,              !- Vertex 2 Ycoordinate
    0,                        !- Vertex 2 Zcoordinate
    439930.86,                !- Vertex 3 Xcoordinate
    4478835.702,              !- Vertex 3 Ycoordinate
    0,                        !- Vertex 3 Zcoordinate
    439932.649,               !- Vertex 4 Xcoordinate
    4478828.295,              !- Vertex 4 Ycoordinate
    0;                        !- Vertex 4 Zcoordinate

BUILDINGSURFACE:DETAILED,
    Block 609404ef061555bc_0 Storey 1 Wall 0001,    !- Name
    wall,                     !- Surface Type
    EU_wall_Construction,     !- Construction Name
    609404ef061555bc_F1_dwelling_0,    !- Zone Name
    ,                         !- Space Name
    outdoors,                 !- Outside Boundary Condition
    ,                         !- Outside Boundary Condition Object
    SunExposed,               !- Sun Exposure
    WindExposed,              !- Wind Exposure
    autocalculate,            !- View Factor to Ground
    autocalculate,            !- Number of Vertices
    439930.86,                !- Vertex 1 Xcoordinate
    4478835.702,              !- Vertex 1 Ycoordinate
    6,                        !- Vertex 1 Zcoordinate
    439930.86,                !- Vertex 2 Xcoordinate
    4478835.702,              !- Vertex 2 Ycoordinate
    3,                        !- Vertex 2 Zcoordinate
    439942.225,               !- Vertex 3 Xcoordinate
    4478834.978,              !- Vertex 3 Ycoordinate
    3,                        !- Vertex 3 Zcoordinate
    439942.225,               !- Vertex 4 Xcoordinate
    4478834.978,              !- Vertex 4 Ycoordinate
    6;                        !- Vertex 4 Zcoordinate

BUILDINGSURFACE:DETAILED,
    Block 609404ef061555bc_0 Storey 1 Wall 0002,    !- Name
    wall,                     !- Surface Type
    EU_wall_Construction,     !- Construction Name
    609404ef061555bc_F1_dwelling_0,    !- Zone Name
    ,                         !- Space Name
    Adiabatic,                !- Outside Boundary Condition
    ,                         !- Outside Boundary Condition Object
    NoSun,                    !- Sun Exposure
    NoWind,                   !- Wind Exposure
    autocalculate,            !- View Factor to Ground
    autocalculate,            !- Number of Vertices
    439942.225,               !- Vertex 1 Xcoordinate
    4478834.978,              !- Vertex 1 Ycoordinate
    6,                        !- Vertex 1 Zcoordinate
    439942.225,               !- Vertex 2 Xcoordinate
    4478834.978,              !- Vertex 2 Ycoordinate
    3,                        !- Vertex 2 Zcoordinate
    439941.743,               !- Vertex 3 Xcoordinate
    4478827.822,              !- Vertex 3 Ycoordinate
    3,                        !- Vertex 3 Zcoordinate
    439941.743,               !- Vertex 4 Xcoordinate
    4478827.822,              !- Vertex 4 Ycoordinate
    6;                        !- Vertex 4 Zcoordinate

BUILDINGSURFACE:DETAILED,
    Block 609404ef061555bc_0 Storey 1 Wall 0003,    !- Name
    wall,                     !- Surface Type
    EU_wall_Construction,     !- Construction Name
    609404ef061555bc_F1_dwelling_0,    !- Zone Name
    ,                         !- Space Name
    outdoors,                 !- Outside Boundary Condition
    ,                         !- Outside Boundary Condition Object
    SunExposed,               !- Sun Exposure
    WindExposed,              !- Wind Exposure
    autocalculate,            !- View Factor to Ground
    autocalculate,            !- Number of Vertices
    439941.743,               !- Vertex 1 Xcoordinate
    4478827.822,              !- Vertex 1 Ycoordinate
    6,                        !- Vertex 1 Zcoordinate
    439941.743,               !- Vertex 2 Xcoordinate
    4478827.822,              !- Vertex 2 Ycoordinate
    3,                        !- Vertex 2 Zcoordinate
    439932.649,               !- Vertex 3 Xcoordinate
    4478828.295,              !- Vertex 3 Ycoordinate
    3,                        !- Vertex 3 Zcoordinate
    439932.649,               !- Vertex 4 Xcoordinate
    4478828.295,              !- Vertex 4 Ycoordinate
    6;                        !- Vertex 4 Zcoordinate

BUILDINGSURFACE:DETAILED,
    Block 609404ef061555bc_0 Storey 1 Wall 0004,    !- Name
    wall,                     !- Surface Type
    EU_wall_Construction,     !- Construction Name
    609404ef061555bc_F1_dwelling_0,    !- Zone Name
    ,                         !- Space Name
    Adiabatic,                !- Outside Boundary Condition
    ,                         !- Outside Boundary Condition Object
    NoSun,                    !- Sun Exposure
    NoWind,                   !- Wind Exposure
    autocalculate,            !- View Factor to Ground
    autocalculate,            !- Number of Vertices
    439932.649,               !- Vertex 1 Xcoordinate
    4478828.295,              !- Vertex 1 Ycoordinate
    6,                        !- Vertex 1 Zcoordinate
    439932.649,               !- Vertex 2 Xcoordinate
    4478828.295,              !- Vertex 2 Ycoordinate
    3,                        !- Vertex 2 Zcoordinate
    439930.86,                !- Vertex 3 Xcoordinate
    4478835.702,              !- Vertex 3 Ycoordinate
    3,                        !- Vertex 3 Zcoordinate
    439930.86,                !- Vertex 4 Xcoordinate
    4478835.702,              !- Vertex 4 Ycoordinate
    6;                        !- Vertex 4 Zcoordinate

BUILDINGSURFACE:DETAILED,
    Block 609404ef061555bc_0 Storey 2 Wall 0001,    !- Name
    wall,                     !- Surface Type
    EU_wall_Construction,     !- Construction Name
    609404ef061555bc_F2_dwelling_0,    !- Zone Name
    ,                         !- Space Name
    outdoors,                 !- Outside Boundary Condition
    ,                         !- Outside Boundary Condition Object
    SunExposed,               !- Sun Exposure
    WindExposed,              !- Wind Exposure
    autocalculate,            !- View Factor to Ground
    autocalculate,            !- Number of Vertices
    439930.86,                !- Vertex 1 Xcoordinate
    4478835.702,              !- Vertex 1 Ycoordinate
    9,                        !- Vertex 1 Zcoordinate
    439930.86,                !- Vertex 2 Xcoordinate
    4478835.702,              !- Vertex 2 Ycoordinate
    6,                        !- Vertex 2 Zcoordinate
    439942.225,               !- Vertex 3 Xcoordinate
    4478834.978,              !- Vertex 3 Ycoordinate
    6,                        !- Vertex 3 Zcoordinate
    439942.225,               !- Vertex 4 Xcoordinate
    4478834.978,              !- Vertex 4 Ycoordinate
    9;                        !- Vertex 4 Zcoordinate

BUILDINGSURFACE:DETAILED,
    Block 609404ef061555bc_0 Storey 2 Wall 0002,    !- Name
    wall,                     !- Surface Type
    EU_wall_Construction,     !- Construction Name
    609404ef061555bc_F2_dwelling_0,    !- Zone Name
    ,                         !- Space Name
    Adiabatic,                !- Outside Boundary Condition
    ,                         !- Outside Boundary Condition Object
    NoSun,                    !- Sun Exposure
    NoWind,                   !- Wind Exposure
    autocalculate,            !- View Factor to Ground
    autocalculate,            !- Number of Vertices
    439942.225,               !- Vertex 1 Xcoordinate
    4478834.978,              !- Vertex 1 Ycoordinate
    9,                        !- Vertex 1 Zcoordinate
    439942.225,               !- Vertex 2 Xcoordinate
    4478834.978,              !- Vertex 2 Ycoordinate
    6,                        !- Vertex 2 Zcoordinate
    439941.743,               !- Vertex 3 Xcoordinate
    4478827.822,              !- Vertex 3 Ycoordinate
    6,                        !- Vertex 3 Zcoordinate
    439941.743,               !- Vertex 4 Xcoordinate
    4478827.822,              !- Vertex 4 Ycoordinate
    9;                        !- Vertex 4 Zcoordinate

BUILDINGSURFACE:DETAILED,
    Block 609404ef061555bc_0 Storey 2 Wall 0003,    !- Name
    wall,                     !- Surface Type
    EU_wall_Construction,     !- Construction Name
    609404ef061555bc_F2_dwelling_0,    !- Zone Name
    ,                         !- Space Name
    outdoors,                 !- Outside Boundary Condition
    ,                         !- Outside Boundary Condition Object
    SunExposed,               !- Sun Exposure
    WindExposed,              !- Wind Exposure
    autocalculate,            !- View Factor to Ground
    autocalculate,            !- Number of Vertices
    439941.743,               !- Vertex 1 Xcoordinate
    4478827.822,              !- Vertex 1 Ycoordinate
    9,                        !- Vertex 1 Zcoordinate
    439941.743,               !- Vertex 2 Xcoordinate
    4478827.822,              !- Vertex 2 Ycoordinate
    6,                        !- Vertex 2 Zcoordinate
    439932.649,               !- Vertex 3 Xcoordinate
    4478828.295,              !- Vertex 3 Ycoordinate
    6,                        !- Vertex 3 Zcoordinate
    439932.649,               !- Vertex 4 Xcoordinate
    4478828.295,              !- Vertex 4 Ycoordinate
    9;                        !- Vertex 4 Zcoordinate

BUILDINGSURFACE:DETAILED,
    Block 609404ef061555bc_0 Storey 2 Wall 0004,    !- Name
    wall,                     !- Surface Type
    EU_wall_Construction,     !- Construction Name
    609404ef061555bc_F2_dwelling_0,    !- Zone Name
    ,                         !- Space Name
    Adiabatic,                !- Outside Boundary Condition
    ,                         !- Outside Boundary Condition Object
    NoSun,                    !- Sun Exposure
    NoWind,                   !- Wind Exposure
    autocalculate,            !- View Factor to Ground
    autocalculate,            !- Number of Vertices
    439932.649,               !- Vertex 1 Xcoordinate
    4478828.295,              !- Vertex 1 Ycoordinate
    9,                        !- Vertex 1 Zcoordinate
    439932.649,               !- Vertex 2 Xcoordinate
    4478828.295,              !- Vertex 2 Ycoordinate
    6,                        !- Vertex 2 Zcoordinate
    439930.86,                !- Vertex 3 Xcoordinate
    4478835.702,              !- Vertex 3 Ycoordinate
    6,                        !- Vertex 3 Zcoordinate
    439930.86,                !- Vertex 4 Xcoordinate
    4478835.702,              !- Vertex 4 Ycoordinate
    9;                        !- Vertex 4 Zcoordinate

BUILDINGSURFACE:DETAILED,
    Block 609404ef061555bc_0 Storey 3 Wall 0001,    !- Name
    wall,                     !- Surface Type
    EU_wall_Construction,     !- Construction Name
    609404ef061555bc_F3_dwelling_0,    !- Zone Name
    ,                         !- Space Name
    outdoors,                 !- Outside Boundary Condition
    ,                         !- Outside Boundary Condition Object
    SunExposed,               !- Sun Exposure
    WindExposed,              !- Wind Exposure
    autocalculate,            !- View Factor to Ground
    autocalculate,            !- Number of Vertices
    439930.86,                !- Vertex 1 Xcoordinate
    4478835.702,              !- Vertex 1 Ycoordinate
    12,                       !- Vertex 1 Zcoordinate
    439930.86,                !- Vertex 2 Xcoordinate
    4478835.702,              !- Vertex 2 Ycoordinate
    9,                        !- Vertex 2 Zcoordinate
    439942.225,               !- Vertex 3 Xcoordinate
    4478834.978,              !- Vertex 3 Ycoordinate
    9,                        !- Vertex 3 Zcoordinate
    439942.225,               !- Vertex 4 Xcoordinate
    4478834.978,              !- Vertex 4 Ycoordinate
    12;                       !- Vertex 4 Zcoordinate

BUILDINGSURFACE:DETAILED,
    Block 609404ef061555bc_0 Storey 3 Wall 0002,    !- Name
    wall,                     !- Surface Type
    EU_wall_Construction,     !- Construction Name
    609404ef061555bc_F3_dwelling_0,    !- Zone Name
    ,                         !- Space Name
    Adiabatic,                !- Outside Boundary Condition
    ,                         !- Outside Boundary Condition Object
    NoSun,                    !- Sun Exposure
    NoWind,                   !- Wind Exposure
    autocalculate,            !- View Factor to Ground
    autocalculate,            !- Number of Vertices
    439942.225,               !- Vertex 1 Xcoordinate
    4478834.978,              !- Vertex 1 Ycoordinate
    12,                       !- Vertex 1 Zcoordinate
    439942.225,               !- Vertex 2 Xcoordinate
    4478834.978,              !- Vertex 2 Ycoordinate
    9,                        !- Vertex 2 Zcoordinate
    439941.743,               !- Vertex 3 Xcoordinate
    4478827.822,              !- Vertex 3 Ycoordinate
    9,                        !- Vertex 3 Zcoordinate
    439941.743,               !- Vertex 4 Xcoordinate
    4478827.822,              !- Vertex 4 Ycoordinate
    12;                       !- Vertex 4 Zcoordinate

BUILDINGSURFACE:DETAILED,
    Block 609404ef061555bc_0 Storey 3 Wall 0003,    !- Name
    wall,                     !- Surface Type
    EU_wall_Construction,     !- Construction Name
    609404ef061555bc_F3_dwelling_0,    !- Zone Name
    ,                         !- Space Name
    outdoors,                 !- Outside Boundary Condition
    ,                         !- Outside Boundary Condition Object
    SunExposed,               !- Sun Exposure
    WindExposed,              !- Wind Exposure
    autocalculate,            !- View Factor to Ground
    autocalculate,            !- Number of Vertices
    439941.743,               !- Vertex 1 Xcoordinate
    4478827.822,              !- Vertex 1 Ycoordinate
    12,                       !- Vertex 1 Zcoordinate
    439941.743,               !- Vertex 2 Xcoordinate
    4478827.822,              !- Vertex 2 Ycoordinate
    9,                        !- Vertex 2 Zcoordinate
    439932.649,               !- Vertex 3 Xcoordinate
    4478828.295,              !- Vertex 3 Ycoordinate
    9,                        !- Vertex 3 Zcoordinate
    439932.649,               !- Vertex 4 Xcoordinate
    4478828.295,              !- Vertex 4 Ycoordinate
    12;                       !- Vertex 4 Zcoordinate

BUILDINGSURFACE:DETAILED,
    Block 609404ef061555bc_0 Storey 3 Wall 0004,    !- Name
    wall,                     !- Surface Type
    EU_wall_Construction,     !- Construction Name
    609404ef061555bc_F3_dwelling_0,    !- Zone Name
    ,                         !- Space Name
    Adiabatic,                !- Outside Boundary Condition
    ,                         !- Outside Boundary Condition Object
    NoSun,                    !- Sun Exposure
    NoWind,                   !- Wind Exposure
    autocalculate,            !- View Factor to Ground
    autocalculate,            !- Number of Vertices
    439932.649,               !- Vertex 1 Xcoordinate
    4478828.295,              !- Vertex 1 Ycoordinate
    12,                       !- Vertex 1 Zcoordinate
    439932.649,               !- Vertex 2 Xcoordinate
    4478828.295,              !- Vertex 2 Ycoordinate
    9,                        !- Vertex 2 Zcoordinate
    439930.86,                !- Vertex 3 Xcoordinate
    4478835.702,              !- Vertex 3 Ycoordinate
    9,                        !- Vertex 3 Zcoordinate
    439930.86,                !- Vertex 4 Xcoordinate
    4478835.702,              !- Vertex 4 Ycoordinate
    12;                       !- Vertex 4 Zcoordinate

BUILDINGSURFACE:DETAILED,
    Block 609404ef061555bc_0 Storey 3 Roof 0001,    !- Name
    roof,                     !- Surface Type
    EU_roof_Construction,     !- Construction Name
    609404ef061555bc_F3_dwelling_0,    !- Zone Name
    ,                         !- Space Name
    outdoors,                 !- Outside Boundary Condition
    ,                         !- Outside Boundary Condition Object
    NoSun,                    !- Sun Exposure
    WindExposed,              !- Wind Exposure
    autocalculate,            !- View Factor to Ground
    autocalculate,            !- Number of Vertices
    439942.225,               !- Vertex 1 Xcoordinate
    4478834.978,              !- Vertex 1 Ycoordinate
    12,                       !- Vertex 1 Zcoordinate
    439941.743,               !- Vertex 2 Xcoordinate
    4478827.822,              !- Vertex 2 Ycoordinate
    12,                       !- Vertex 2 Zcoordinate
    439932.649,               !- Vertex 3 Xcoordinate
    4478828.295,              !- Vertex 3 Ycoordinate
    12,                       !- Vertex 3 Zcoordinate
    439930.86,                !- Vertex 4 Xcoordinate
    4478835.702,              !- Vertex 4 Ycoordinate
    12;                       !- Vertex 4 Zcoordinate

BUILDINGSURFACE:DETAILED,
    Block 609404ef061555bc_0 Storey 0 Ceiling 0001_1,    !- Name
    ceiling,                  !- Surface Type
    EU_floor_Construction,    !- Construction Name
    609404ef061555bc_F0_dwelling_0,    !- Zone Name
    ,                         !- Space Name
    Surface,                  !- Outside Boundary Condition
    Block 609404ef061555bc_0 Storey 1 Floor 0001_1,    !- Outside Boundary Condition Object
    NoSun,                    !- Sun Exposure
    NoWind,                   !- Wind Exposure
    autocalculate,            !- View Factor to Ground
    autocalculate,            !- Number of Vertices
    439942.2249999996,        !- Vertex 1 Xcoordinate
    4478834.978,              !- Vertex 1 Ycoordinate
    3,                        !- Vertex 1 Zcoordinate
    439941.7429999998,        !- Vertex 2 Xcoordinate
    4478827.822,              !- Vertex 2 Ycoordinate
    3,                        !- Vertex 2 Zcoordinate
    439932.64899999974,       !- Vertex 3 Xcoordinate
    4478828.295,              !- Vertex 3 Ycoordinate
    3,                        !- Vertex 3 Zcoordinate
    439930.85999999987,       !- Vertex 4 Xcoordinate
    4478835.702,              !- Vertex 4 Ycoordinate
    3;                        !- Vertex 4 Zcoordinate

BUILDINGSURFACE:DETAILED,
    Block 609404ef061555bc_0 Storey 1 Floor 0001_1,    !- Name
    floor,                    !- Surface Type
    EU_floor_Construction,    !- Construction Name
    609404ef061555bc_F1_dwelling_0,    !- Zone Name
    ,                         !- Space Name
    Surface,                  !- Outside Boundary Condition
    Block 609404ef061555bc_0 Storey 0 Ceiling 0001_1,    !- Outside Boundary Condition Object
    NoSun,                    !- Sun Exposure
    NoWind,                   !- Wind Exposure
    autocalculate,            !- View Factor to Ground
    autocalculate,            !- Number of Vertices
    439941.7429999998,        !- Vertex 1 Xcoordinate
    4478827.822,              !- Vertex 1 Ycoordinate
    3,                        !- Vertex 1 Zcoordinate
    439942.2249999996,        !- Vertex 2 Xcoordinate
    4478834.978,              !- Vertex 2 Ycoordinate
    3,                        !- Vertex 2 Zcoordinate
    439930.85999999987,       !- Vertex 3 Xcoordinate
    4478835.702,              !- Vertex 3 Ycoordinate
    3,                        !- Vertex 3 Zcoordinate
    439932.64899999974,       !- Vertex 4 Xcoordinate
    4478828.295,              !- Vertex 4 Ycoordinate
    3;                        !- Vertex 4 Zcoordinate

BUILDINGSURFACE:DETAILED,
    Block 609404ef061555bc_0 Storey 1 Ceiling 0001_1,    !- Name
    ceiling,                  !- Surface Type
    EU_floor_Construction,    !- Construction Name
    609404ef061555bc_F1_dwelling_0,    !- Zone Name
    ,                         !- Space Name
    Surface,                  !- Outside Boundary Condition
    Block 609404ef061555bc_0 Storey 2 Floor 0001_1,    !- Outside Boundary Condition Object
    NoSun,                    !- Sun Exposure
    NoWind,                   !- Wind Exposure
    autocalculate,            !- View Factor to Ground
    autocalculate,            !- Number of Vertices
    439942.2249999996,        !- Vertex 1 Xcoordinate
    4478834.978,              !- Vertex 1 Ycoordinate
    6,                        !- Vertex 1 Zcoordinate
    439941.7429999998,        !- Vertex 2 Xcoordinate
    4478827.822,              !- Vertex 2 Ycoordinate
    6,                        !- Vertex 2 Zcoordinate
    439932.64899999974,       !- Vertex 3 Xcoordinate
    4478828.295,              !- Vertex 3 Ycoordinate
    6,                        !- Vertex 3 Zcoordinate
    439930.85999999987,       !- Vertex 4 Xcoordinate
    4478835.702,              !- Vertex 4 Ycoordinate
    6;                        !- Vertex 4 Zcoordinate

BUILDINGSURFACE:DETAILED,
    Block 609404ef061555bc_0 Storey 2 Floor 0001_1,    !- Name
    floor,                    !- Surface Type
    EU_floor_Construction,    !- Construction Name
    609404ef061555bc_F2_dwelling_0,    !- Zone Name
    ,                         !- Space Name
    Surface,                  !- Outside Boundary Condition
    Block 609404ef061555bc_0 Storey 1 Ceiling 0001_1,    !- Outside Boundary Condition Object
    NoSun,                    !- Sun Exposure
    NoWind,                   !- Wind Exposure
    autocalculate,            !- View Factor to Ground
    autocalculate,            !- Number of Vertices
    439941.7429999998,        !- Vertex 1 Xcoordinate
    4478827.822,              !- Vertex 1 Ycoordinate
    6,                        !- Vertex 1 Zcoordinate
    439942.2249999996,        !- Vertex 2 Xcoordinate
    4478834.978,              !- Vertex 2 Ycoordinate
    6,                        !- Vertex 2 Zcoordinate
    439930.85999999987,       !- Vertex 3 Xcoordinate
    4478835.702,              !- Vertex 3 Ycoordinate
    6,                        !- Vertex 3 Zcoordinate
    439932.64899999974,       !- Vertex 4 Xcoordinate
    4478828.295,              !- Vertex 4 Ycoordinate
    6;                        !- Vertex 4 Zcoordinate

BUILDINGSURFACE:DETAILED,
    Block 609404ef061555bc_0 Storey 2 Ceiling 0001_1,    !- Name
    ceiling,                  !- Surface Type
    EU_floor_Construction,    !- Construction Name
    609404ef061555bc_F2_dwelling_0,    !- Zone Name
    ,                         !- Space Name
    Surface,                  !- Outside Boundary Condition
    Block 609404ef061555bc_0 Storey 3 Floor 0001_1,    !- Outside Boundary Condition Object
    NoSun,                    !- Sun Exposure
    NoWind,                   !- Wind Exposure
    autocalculate,            !- View Factor to Ground
    autocalculate,            !- Number of Vertices
    439942.2249999996,        !- Vertex 1 Xcoordinate
    4478834.978,              !- Vertex 1 Ycoordinate
    9,                        !- Vertex 1 Zcoordinate
    439941.7429999998,        !- Vertex 2 Xcoordinate
    4478827.822,              !- Vertex 2 Ycoordinate
    9,                        !- Vertex 2 Zcoordinate
    439932.64899999974,       !- Vertex 3 Xcoordinate
    4478828.295,              !- Vertex 3 Ycoordinate
    9,                        !- Vertex 3 Zcoordinate
    439930.85999999987,       !- Vertex 4 Xcoordinate
    4478835.702,              !- Vertex 4 Ycoordinate
    9;                        !- Vertex 4 Zcoordinate

BUILDINGSURFACE:DETAILED,
    Block 609404ef061555bc_0 Storey 3 Floor 0001_1,    !- Name
    floor,                    !- Surface Type
    EU_floor_Construction,    !- Construction Name
    609404ef061555bc_F3_dwelling_0,    !- Zone Name
    ,                         !- Space Name
    Surface,                  !- Outside Boundary Condition
    Block 609404ef061555bc_0 Storey 2 Ceiling 0001_1,    !- Outside Boundary Condition Object
    NoSun,                    !- Sun Exposure
    NoWind,                   !- Wind Exposure
    autocalculate,            !- View Factor to Ground
    autocalculate,            !- Number of Vertices
    439941.7429999998,        !- Vertex 1 Xcoordinate
    4478827.822,              !- Vertex 1 Ycoordinate
    9,                        !- Vertex 1 Zcoordinate
    439942.2249999996,        !- Vertex 2 Xcoordinate
    4478834.978,              !- Vertex 2 Ycoordinate
    9,                        !- Vertex 2 Zcoordinate
    439930.85999999987,       !- Vertex 3 Xcoordinate
    4478835.702,              !- Vertex 3 Ycoordinate
    9,                        !- Vertex 3 Zcoordinate
    439932.64899999974,       !- Vertex 4 Xcoordinate
    4478828.295,              !- Vertex 4 Ycoordinate
    9;                        !- Vertex 4 Zcoordinate

INTERNALMASS,
    609404ef061555bc_F0_dwelling_0_EU_InternalMass,    !- Name
    EU_InternalMass_Construction,    !- Construction Name
    609404ef061555bc_F0_dwelling_0,    !- Zone or ZoneList Name
    ,                         !- Space or SpaceList Name
    74.09498450062537;        !- Surface Area

INTERNALMASS,
    609404ef061555bc_F1_dwelling_0_EU_InternalMass,    !- Name
    EU_InternalMass_Construction,    !- Construction Name
    609404ef061555bc_F1_dwelling_0,    !- Zone or ZoneList Name
    ,                         !- Space or SpaceList Name
    74.09498450062537;        !- Surface Area

INTERNALMASS,
    609404ef061555bc_F2_dwelling_0_EU_InternalMass,    !- Name
    EU_InternalMass_Construction,    !- Construction Name
    609404ef061555bc_F2_dwelling_0,    !- Zone or ZoneList Name
    ,                         !- Space or SpaceList Name
    74.09498450062537;        !- Surface Area

INTERNALMASS,
    609404ef061555bc_F3_dwelling_0_EU_InternalMass,    !- Name
    EU_InternalMass_Construction,    !- Construction Name
    609404ef061555bc_F3_dwelling_0,    !- Zone or ZoneList Name
    ,                         !- Space or SpaceList Name
    74.09498450062537;        !- Surface Area

SHADING:SITE:DETAILED,
    shade_way/432864412_1,    !- Name
    ,                         !- Transmittance Schedule Name
    autocalculate,            !- Number of Vertices
    439955.4164895558,        !- Vertex 1 Xcoordinate
    4478825.609811383,        !- Vertex 1 Ycoordinate
    6,                        !- Vertex 1 Zcoordinate
    439955.4164895558,        !- Vertex 2 Xcoordinate
    4478825.609811383,        !- Vertex 2 Ycoordinate
    0,                        !- Vertex 2 Zcoordinate
    439961.2527494636,        !- Vertex 3 Xcoordinate
    4478807.506712973,        !- Vertex 3 Ycoordinate
    0,                        !- Vertex 3 Zcoordinate
    439961.2527494636,        !- Vertex 4 Xcoordinate
    4478807.506712973,        !- Vertex 4 Ycoordinate
    6;                        !- Vertex 4 Zcoordinate

SHADING:SITE:DETAILED,
    shade_way/432864412_2,    !- Name
    ,                         !- Transmittance Schedule Name
    autocalculate,            !- Number of Vertices
    439961.2527494636,        !- Vertex 1 Xcoordinate
    4478807.506712973,        !- Vertex 1 Ycoordinate
    6,                        !- Vertex 1 Zcoordinate
    439961.2527494636,        !- Vertex 2 Xcoordinate
    4478807.506712973,        !- Vertex 2 Ycoordinate
    0,                        !- Vertex 2 Zcoordinate
    439952.1513864745,        !- Vertex 3 Xcoordinate
    4478804.572483843,        !- Vertex 3 Ycoordinate
    0,                        !- Vertex 3 Zcoordinate
    439952.1513864745,        !- Vertex 4 Xcoordinate
    4478804.572483843,        !- Vertex 4 Ycoordinate
    6;                        !- Vertex 4 Zcoordinate

SHADING:SITE:DETAILED,
    shade_way/432864412_3,    !- Name
    ,                         !- Transmittance Schedule Name
    autocalculate,            !- Number of Vertices
    439952.1513864745,        !- Vertex 1 Xcoordinate
    4478804.572483843,        !- Vertex 1 Ycoordinate
    6,                        !- Vertex 1 Zcoordinate
    439952.1513864745,        !- Vertex 2 Xcoordinate
    4478804.572483843,        !- Vertex 2 Ycoordinate
    0,                        !- Vertex 2 Zcoordinate
    439946.31532357255,       !- Vertex 3 Xcoordinate
    4478822.675823639,        !- Vertex 3 Ycoordinate
    0,                        !- Vertex 3 Zcoordinate
    439946.31532357255,       !- Vertex 4 Xcoordinate
    4478822.675823639,        !- Vertex 4 Ycoordinate
    6;                        !- Vertex 4 Zcoordinate

SHADING:SITE:DETAILED,
    shade_way/432864412_4,    !- Name
    ,                         !- Transmittance Schedule Name
    autocalculate,            !- Number of Vertices
    439946.31532357255,       !- Vertex 1 Xcoordinate
    4478822.675823639,        !- Vertex 1 Ycoordinate
    6,                        !- Vertex 1 Zcoordinate
    439946.31532357255,       !- Vertex 2 Xcoordinate
    4478822.675823639,        !- Vertex 2 Ycoordinate
    0,                        !- Vertex 2 Zcoordinate
    439955.4164895558,        !- Vertex 3 Xcoordinate
    4478825.609811383,        !- Vertex 3 Ycoordinate
    0,                        !- Vertex 3 Zcoordinate
    439955.4164895558,        !- Vertex 4 Xcoordinate
    4478825.609811383,        !- Vertex 4 Ycoordinate
    6;                        !- Vertex 4 Zcoordinate

SHADING:SITE:DETAILED,
    shade_way/432864409_1,    !- Name
    ,                         !- Transmittance Schedule Name
    autocalculate,            !- Number of Vertices
    439931.6346464384,        !- Vertex 1 Xcoordinate
    4478816.47439742,         !- Vertex 1 Ycoordinate
    12,                       !- Vertex 1 Zcoordinate
    439931.6346464384,        !- Vertex 2 Xcoordinate
    4478816.47439742,         !- Vertex 2 Ycoordinate
    0,                        !- Vertex 2 Zcoordinate
    439945.1437535846,        !- Vertex 3 Xcoordinate
    4478778.130123302,        !- Vertex 3 Ycoordinate
    0,                        !- Vertex 3 Zcoordinate
    439945.1437535846,        !- Vertex 4 Xcoordinate
    4478778.130123302,        !- Vertex 4 Ycoordinate
    12;                       !- Vertex 4 Zcoordinate

SHADING:SITE:DETAILED,
    shade_way/432864409_2,    !- Name
    ,                         !- Transmittance Schedule Name
    autocalculate,            !- Number of Vertices
    439945.1437535846,        !- Vertex 1 Xcoordinate
    4478778.130123302,        !- Vertex 1 Ycoordinate
    12,                       !- Vertex 1 Zcoordinate
    439945.1437535846,        !- Vertex 2 Xcoordinate
    4478778.130123302,        !- Vertex 2 Ycoordinate
    0,                        !- Vertex 2 Zcoordinate
    439934.776426042,         !- Vertex 3 Xcoordinate
    4478774.477838463,        !- Vertex 3 Ycoordinate
    0,                        !- Vertex 3 Zcoordinate
    439934.776426042,         !- Vertex 4 Xcoordinate
    4478774.477838463,        !- Vertex 4 Ycoordinate
    12;                       !- Vertex 4 Zcoordinate

SHADING:SITE:DETAILED,
    shade_way/432864409_3,    !- Name
    ,                         !- Transmittance Schedule Name
    autocalculate,            !- Number of Vertices
    439934.776426042,         !- Vertex 1 Xcoordinate
    4478774.477838463,        !- Vertex 1 Ycoordinate
    12,                       !- Vertex 1 Zcoordinate
    439934.776426042,         !- Vertex 2 Xcoordinate
    4478774.477838463,        !- Vertex 2 Ycoordinate
    0,                        !- Vertex 2 Zcoordinate
    439921.2676896123,        !- Vertex 3 Xcoordinate
    4478812.822104613,        !- Vertex 3 Ycoordinate
    0,                        !- Vertex 3 Zcoordinate
    439921.2676896123,        !- Vertex 4 Xcoordinate
    4478812.822104613,        !- Vertex 4 Ycoordinate
    12;                       !- Vertex 4 Zcoordinate

SHADING:SITE:DETAILED,
    shade_way/432864409_4,    !- Name
    ,                         !- Transmittance Schedule Name
    autocalculate,            !- Number of Vertices
    439921.2676896123,        !- Vertex 1 Xcoordinate
    4478812.822104613,        !- Vertex 1 Ycoordinate
    12,                       !- Vertex 1 Zcoordinate
    439921.2676896123,        !- Vertex 2 Xcoordinate
    4478812.822104613,        !- Vertex 2 Ycoordinate
    0,                        !- Vertex 2 Zcoordinate
    439931.6346464384,        !- Vertex 3 Xcoordinate
    4478816.47439742,         !- Vertex 3 Ycoordinate
    0,                        !- Vertex 3 Zcoordinate
    439931.6346464384,        !- Vertex 4 Xcoordinate
    4478816.47439742,         !- Vertex 4 Ycoordinate
    12;                       !- Vertex 4 Zcoordinate

SHADING:SITE:DETAILED,
    shade_way/942666499_1,    !- Name
    ,                         !- Transmittance Schedule Name
    autocalculate,            !- Number of Vertices
    439949.85754855827,       !- Vertex 1 Xcoordinate
    4478805.522269459,        !- Vertex 1 Ycoordinate
    12,                       !- Vertex 1 Zcoordinate
    439949.85754855827,       !- Vertex 2 Xcoordinate
    4478805.522269459,        !- Vertex 2 Ycoordinate
    0,                        !- Vertex 2 Zcoordinate
    439941.2849258586,        !- Vertex 3 Xcoordinate
    4478804.014817796,        !- Vertex 3 Ycoordinate
    0,                        !- Vertex 3 Zcoordinate
    439941.2849258586,        !- Vertex 4 Xcoordinate
    4478804.014817796,        !- Vertex 4 Ycoordinate
    12;                       !- Vertex 4 Zcoordinate

SHADING:SITE:DETAILED,
    shade_way/942666499_2,    !- Name
    ,                         !- Transmittance Schedule Name
    autocalculate,            !- Number of Vertices
    439941.2849258586,        !- Vertex 1 Xcoordinate
    4478804.014817796,        !- Vertex 1 Ycoordinate
    12,                       !- Vertex 1 Zcoordinate
    439941.2849258586,        !- Vertex 2 Xcoordinate
    4478804.014817796,        !- Vertex 2 Ycoordinate
    0,                        !- Vertex 2 Zcoordinate
    439940.10558411665,       !- Vertex 3 Xcoordinate
    4478810.717947538,        !- Vertex 3 Ycoordinate
    0,                        !- Vertex 3 Zcoordinate
    439940.10558411665,       !- Vertex 4 Xcoordinate
    4478810.717947538,        !- Vertex 4 Ycoordinate
    12;                       !- Vertex 4 Zcoordinate

SHADING:SITE:DETAILED,
    shade_way/942666499_3,    !- Name
    ,                         !- Transmittance Schedule Name
    autocalculate,            !- Number of Vertices
    439940.10558411665,       !- Vertex 1 Xcoordinate
    4478810.717947538,        !- Vertex 1 Ycoordinate
    12,                       !- Vertex 1 Zcoordinate
    439940.10558411665,       !- Vertex 2 Xcoordinate
    4478810.717947538,        !- Vertex 2 Ycoordinate
    0,                        !- Vertex 2 Zcoordinate
    439948.6791429757,        !- Vertex 3 Xcoordinate
    4478812.225873419,        !- Vertex 3 Ycoordinate
    0,                        !- Vertex 3 Zcoordinate
    439948.6791429757,        !- Vertex 4 Xcoordinate
    4478812.225873419,        !- Vertex 4 Ycoordinate
    12;                       !- Vertex 4 Zcoordinate

SHADING:SITE:DETAILED,
    shade_way/942666499_4,    !- Name
    ,                         !- Transmittance Schedule Name
    autocalculate,            !- Number of Vertices
    439948.6791429757,        !- Vertex 1 Xcoordinate
    4478812.225873419,        !- Vertex 1 Ycoordinate
    12,                       !- Vertex 1 Zcoordinate
    439948.6791429757,        !- Vertex 2 Xcoordinate
    4478812.225873419,        !- Vertex 2 Ycoordinate
    0,                        !- Vertex 2 Zcoordinate
    439949.85754855827,       !- Vertex 3 Xcoordinate
    4478805.522269459,        !- Vertex 3 Ycoordinate
    0,                        !- Vertex 3 Zcoordinate
    439949.85754855827,       !- Vertex 4 Xcoordinate
    4478805.522269459,        !- Vertex 4 Ycoordinate
    12;                       !- Vertex 4 Zcoordinate

SHADING:SITE:DETAILED,
    shade_way/432864101_1,    !- Name
    ,                         !- Transmittance Schedule Name
    autocalculate,            !- Number of Vertices
    439925.4497172206,        !- Vertex 1 Xcoordinate
    4478805.78401887,         !- Vertex 1 Ycoordinate
    18,                       !- Vertex 1 Zcoordinate
    439925.4497172206,        !- Vertex 2 Xcoordinate
    4478805.78401887,         !- Vertex 2 Ycoordinate
    0,                        !- Vertex 2 Zcoordinate
    439903.68852318474,       !- Vertex 3 Xcoordinate
    4478801.724036954,        !- Vertex 3 Ycoordinate
    0,                        !- Vertex 3 Zcoordinate
    439903.68852318474,       !- Vertex 4 Xcoordinate
    4478801.724036954,        !- Vertex 4 Ycoordinate
    18;                       !- Vertex 4 Zcoordinate

SHADING:SITE:DETAILED,
    shade_way/432864101_2,    !- Name
    ,                         !- Transmittance Schedule Name
    autocalculate,            !- Number of Vertices
    439903.68852318474,       !- Vertex 1 Xcoordinate
    4478801.724036954,        !- Vertex 1 Ycoordinate
    18,                       !- Vertex 1 Zcoordinate
    439903.68852318474,       !- Vertex 2 Xcoordinate
    4478801.724036954,        !- Vertex 2 Ycoordinate
    0,                        !- Vertex 2 Zcoordinate
    439900.31706620974,       !- Vertex 3 Xcoordinate
    4478819.795761377,        !- Vertex 3 Ycoordinate
    0,                        !- Vertex 3 Zcoordinate
    439900.31706620974,       !- Vertex 4 Xcoordinate
    4478819.795761377,        !- Vertex 4 Ycoordinate
    18;                       !- Vertex 4 Zcoordinate

SHADING:SITE:DETAILED,
    shade_way/432864101_3,    !- Name
    ,                         !- Transmittance Schedule Name
    autocalculate,            !- Number of Vertices
    439900.31706620974,       !- Vertex 1 Xcoordinate
    4478819.795761377,        !- Vertex 1 Ycoordinate
    18,                       !- Vertex 1 Zcoordinate
    439900.31706620974,       !- Vertex 2 Xcoordinate
    4478819.795761377,        !- Vertex 2 Ycoordinate
    0,                        !- Vertex 2 Zcoordinate
    439922.07811877487,       !- Vertex 3 Xcoordinate
    4478823.855529859,        !- Vertex 3 Ycoordinate
    0,                        !- Vertex 3 Zcoordinate
    439922.07811877487,       !- Vertex 4 Xcoordinate
    4478823.855529859,        !- Vertex 4 Ycoordinate
    18;                       !- Vertex 4 Zcoordinate

SHADING:SITE:DETAILED,
    shade_way/432864101_4,    !- Name
    ,                         !- Transmittance Schedule Name
    autocalculate,            !- Number of Vertices
    439922.07811877487,       !- Vertex 1 Xcoordinate
    4478823.855529859,        !- Vertex 1 Ycoordinate
    18,                       !- Vertex 1 Zcoordinate
    439922.07811877487,       !- Vertex 2 Xcoordinate
    4478823.855529859,        !- Vertex 2 Ycoordinate
    0,                        !- Vertex 2 Zcoordinate
    439925.4497172206,        !- Vertex 3 Xcoordinate
    4478805.78401887,         !- Vertex 3 Ycoordinate
    0,                        !- Vertex 3 Zcoordinate
    439925.4497172206,        !- Vertex 4 Xcoordinate
    4478805.78401887,         !- Vertex 4 Ycoordinate
    18;                       !- Vertex 4 Zcoordinate

SHADING:SITE:DETAILED,
    shade_way/942666500_1,    !- Name
    ,                         !- Transmittance Schedule Name
    autocalculate,            !- Number of Vertices
    439938.09715591813,       !- Vertex 1 Xcoordinate
    4478817.205799871,        !- Vertex 1 Ycoordinate
    12,                       !- Vertex 1 Zcoordinate
    439938.09715591813,       !- Vertex 2 Xcoordinate
    4478817.205799871,        !- Vertex 2 Ycoordinate
    0,                        !- Vertex 2 Zcoordinate
    439947.88310433924,       !- Vertex 3 Xcoordinate
    4478819.166273271,        !- Vertex 3 Ycoordinate
    0,                        !- Vertex 3 Zcoordinate
    439947.88310433924,       !- Vertex 4 Xcoordinate
    4478819.166273271,        !- Vertex 4 Ycoordinate
    12;                       !- Vertex 4 Zcoordinate

SHADING:SITE:DETAILED,
    shade_way/942666500_2,    !- Name
    ,                         !- Transmittance Schedule Name
    autocalculate,            !- Number of Vertices
    439947.88310433924,       !- Vertex 1 Xcoordinate
    4478819.166273271,        !- Vertex 1 Ycoordinate
    12,                       !- Vertex 1 Zcoordinate
    439947.88310433924,       !- Vertex 2 Xcoordinate
    4478819.166273271,        !- Vertex 2 Ycoordinate
    0,                        !- Vertex 2 Zcoordinate
    439949.2639821293,        !- Vertex 3 Xcoordinate
    4478812.273870788,        !- Vertex 3 Ycoordinate
    0,                        !- Vertex 3 Zcoordinate
    439949.2639821293,        !- Vertex 4 Xcoordinate
    4478812.273870788,        !- Vertex 4 Ycoordinate
    12;                       !- Vertex 4 Zcoordinate

SHADING:SITE:DETAILED,
    shade_way/942666500_3,    !- Name
    ,                         !- Transmittance Schedule Name
    autocalculate,            !- Number of Vertices
    439949.2639821293,        !- Vertex 1 Xcoordinate
    4478812.273870788,        !- Vertex 1 Ycoordinate
    12,                       !- Vertex 1 Zcoordinate
    439949.2639821293,        !- Vertex 2 Xcoordinate
    4478812.273870788,        !- Vertex 2 Ycoordinate
    0,                        !- Vertex 2 Zcoordinate
    439939.4782287889,        !- Vertex 3 Xcoordinate
    4478810.313316472,        !- Vertex 3 Ycoordinate
    0,                        !- Vertex 3 Zcoordinate
    439939.4782287889,        !- Vertex 4 Xcoordinate
    4478810.313316472,        !- Vertex 4 Ycoordinate
    12;                       !- Vertex 4 Zcoordinate

SHADING:SITE:DETAILED,
    shade_way/942666500_4,    !- Name
    ,                         !- Transmittance Schedule Name
    autocalculate,            !- Number of Vertices
    439939.4782287889,        !- Vertex 1 Xcoordinate
    4478810.313316472,        !- Vertex 1 Ycoordinate
    12,                       !- Vertex 1 Zcoordinate
    439939.4782287889,        !- Vertex 2 Xcoordinate
    4478810.313316472,        !- Vertex 2 Ycoordinate
    0,                        !- Vertex 2 Zcoordinate
    439938.09715591813,       !- Vertex 3 Xcoordinate
    4478817.205799871,        !- Vertex 3 Ycoordinate
    0,                        !- Vertex 3 Zcoordinate
    439938.09715591813,       !- Vertex 4 Xcoordinate
    4478817.205799871,        !- Vertex 4 Ycoordinate
    12;                       !- Vertex 4 Zcoordinate

SHADING:SITE:DETAILED,
    shade_way/942666501_1,    !- Name
    ,                         !- Transmittance Schedule Name
    autocalculate,            !- Number of Vertices
    439947.9783462394,        !- Vertex 1 Xcoordinate
    4478819.185354777,        !- Vertex 1 Ycoordinate
    12,                       !- Vertex 1 Zcoordinate
    439947.9783462394,        !- Vertex 2 Xcoordinate
    4478819.185354777,        !- Vertex 2 Ycoordinate
    0,                        !- Vertex 2 Zcoordinate
    439937.3135927949,        !- Vertex 3 Xcoordinate
    4478817.04869471,         !- Vertex 3 Ycoordinate
    0,                        !- Vertex 3 Zcoordinate
    439937.3135927949,        !- Vertex 4 Xcoordinate
    4478817.04869471,         !- Vertex 4 Ycoordinate
    12;                       !- Vertex 4 Zcoordinate

SHADING:SITE:DETAILED,
    shade_way/942666501_2,    !- Name
    ,                         !- Transmittance Schedule Name
    autocalculate,            !- Number of Vertices
    439937.3135927949,        !- Vertex 1 Xcoordinate
    4478817.04869471,         !- Vertex 1 Ycoordinate
    12,                       !- Vertex 1 Zcoordinate
    439937.3135927949,        !- Vertex 2 Xcoordinate
    4478817.04869471,         !- Vertex 2 Ycoordinate
    0,                        !- Vertex 2 Zcoordinate
    439935.22631335567,       !- Vertex 3 Xcoordinate
    4478827.466973644,        !- Vertex 3 Ycoordinate
    0,                        !- Vertex 3 Zcoordinate
    439935.22631335567,       !- Vertex 4 Xcoordinate
    4478827.466973644,        !- Vertex 4 Ycoordinate
    12;                       !- Vertex 4 Zcoordinate

SHADING:SITE:DETAILED,
    shade_way/942666501_3,    !- Name
    ,                         !- Transmittance Schedule Name
    autocalculate,            !- Number of Vertices
    439935.22631335567,       !- Vertex 1 Xcoordinate
    4478827.466973644,        !- Vertex 1 Ycoordinate
    12,                       !- Vertex 1 Zcoordinate
    439935.22631335567,       !- Vertex 2 Xcoordinate
    4478827.466973644,        !- Vertex 2 Ycoordinate
    0,                        !- Vertex 2 Zcoordinate
    439945.89106680016,       !- Vertex 3 Xcoordinate
    4478829.603633711,        !- Vertex 3 Ycoordinate
    0,                        !- Vertex 3 Zcoordinate
    439945.89106680016,       !- Vertex 4 Xcoordinate
    4478829.603633711,        !- Vertex 4 Ycoordinate
    12;                       !- Vertex 4 Zcoordinate

SHADING:SITE:DETAILED,
    shade_way/942666501_4,    !- Name
    ,                         !- Transmittance Schedule Name
    autocalculate,            !- Number of Vertices
    439945.89106680016,       !- Vertex 1 Xcoordinate
    4478829.603633711,        !- Vertex 1 Ycoordinate
    12,                       !- Vertex 1 Zcoordinate
    439945.89106680016,       !- Vertex 2 Xcoordinate
    4478829.603633711,        !- Vertex 2 Ycoordinate
    0,                        !- Vertex 2 Zcoordinate
    439947.9783462394,        !- Vertex 3 Xcoordinate
    4478819.185354777,        !- Vertex 3 Ycoordinate
    0,                        !- Vertex 3 Zcoordinate
    439947.9783462394,        !- Vertex 4 Xcoordinate
    4478819.185354777,        !- Vertex 4 Ycoordinate
    12;                       !- Vertex 4 Zcoordinate

SHADING:SITE:DETAILED,
    shade_way/432864413_1,    !- Name
    ,                         !- Transmittance Schedule Name
    autocalculate,            !- Number of Vertices
    439927.4713062239,        !- Vertex 1 Xcoordinate
    4478814.937699241,        !- Vertex 1 Ycoordinate
    9,                        !- Vertex 1 Zcoordinate
    439927.4713062239,        !- Vertex 2 Xcoordinate
    4478814.937699241,        !- Vertex 2 Ycoordinate
    0,                        !- Vertex 2 Zcoordinate
    439922.26616118586,       !- Vertex 3 Xcoordinate
    4478836.215211034,        !- Vertex 3 Ycoordinate
    0,                        !- Vertex 3 Zcoordinate
    439922.26616118586,       !- Vertex 4 Xcoordinate
    4478836.215211034,        !- Vertex 4 Ycoordinate
    9;                        !- Vertex 4 Zcoordinate

SHADING:SITE:DETAILED,
    shade_way/432864413_2,    !- Name
    ,                         !- Transmittance Schedule Name
    autocalculate,            !- Number of Vertices
    439922.26616118586,       !- Vertex 1 Xcoordinate
    4478836.215211034,        !- Vertex 1 Ycoordinate
    9,                        !- Vertex 1 Zcoordinate
    439922.26616118586,       !- Vertex 2 Xcoordinate
    4478836.215211034,        !- Vertex 2 Ycoordinate
    0,                        !- Vertex 2 Zcoordinate
    439930.25636984425,       !- Vertex 3 Xcoordinate
    4478838.169669473,        !- Vertex 3 Ycoordinate
    0,                        !- Vertex 3 Zcoordinate
    439930.25636984425,       !- Vertex 4 Xcoordinate
    4478838.169669473,        !- Vertex 4 Ycoordinate
    9;                        !- Vertex 4 Zcoordinate

SHADING:SITE:DETAILED,
    shade_way/432864413_3,    !- Name
    ,                         !- Transmittance Schedule Name
    autocalculate,            !- Number of Vertices
    439930.25636984425,       !- Vertex 1 Xcoordinate
    4478838.169669473,        !- Vertex 1 Ycoordinate
    9,                        !- Vertex 1 Zcoordinate
    439930.25636984425,       !- Vertex 2 Xcoordinate
    4478838.169669473,        !- Vertex 2 Ycoordinate
    0,                        !- Vertex 2 Zcoordinate
    439935.461514883,         !- Vertex 3 Xcoordinate
    4478816.892157678,        !- Vertex 3 Ycoordinate
    0,                        !- Vertex 3 Zcoordinate
    439935.461514883,         !- Vertex 4 Xcoordinate
    4478816.892157678,        !- Vertex 4 Ycoordinate
    9;                        !- Vertex 4 Zcoordinate

SHADING:SITE:DETAILED,
    shade_way/432864413_4,    !- Name
    ,                         !- Transmittance Schedule Name
    autocalculate,            !- Number of Vertices
    439935.461514883,         !- Vertex 1 Xcoordinate
    4478816.892157678,        !- Vertex 1 Ycoordinate
    9,                        !- Vertex 1 Zcoordinate
    439935.461514883,         !- Vertex 2 Xcoordinate
    4478816.892157678,        !- Vertex 2 Ycoordinate
    0,                        !- Vertex 2 Zcoordinate
    439927.4713062239,        !- Vertex 3 Xcoordinate
    4478814.937699241,        !- Vertex 3 Ycoordinate
    0,                        !- Vertex 3 Zcoordinate
    439927.4713062239,        !- Vertex 4 Xcoordinate
    4478814.937699241,        !- Vertex 4 Ycoordinate
    9;                        !- Vertex 4 Zcoordinate

SHADING:SITE:DETAILED,
    shade_way/432864416_1,    !- Name
    ,                         !- Transmittance Schedule Name
    autocalculate,            !- Number of Vertices
    439914.035478643,         !- Vertex 1 Xcoordinate
    4478839.388597312,        !- Vertex 1 Ycoordinate
    15,                       !- Vertex 1 Zcoordinate
    439914.035478643,         !- Vertex 2 Xcoordinate
    4478839.388597312,        !- Vertex 2 Ycoordinate
    0,                        !- Vertex 2 Zcoordinate
    439917.31714391866,       !- Vertex 3 Xcoordinate
    4478820.859743807,        !- Vertex 3 Ycoordinate
    0,                        !- Vertex 3 Zcoordinate
    439917.31714391866,       !- Vertex 4 Xcoordinate
    4478820.859743807,        !- Vertex 4 Ycoordinate
    15;                       !- Vertex 4 Zcoordinate

SHADING:SITE:DETAILED,
    shade_way/432864416_2,    !- Name
    ,                         !- Transmittance Schedule Name
    autocalculate,            !- Number of Vertices
    439917.31714391866,       !- Vertex 1 Xcoordinate
    4478820.859743807,        !- Vertex 1 Ycoordinate
    15,                       !- Vertex 1 Zcoordinate
    439917.31714391866,       !- Vertex 2 Xcoordinate
    4478820.859743807,        !- Vertex 2 Ycoordinate
    0,                        !- Vertex 2 Zcoordinate
    439899.25281576667,       !- Vertex 3 Xcoordinate
    4478817.660351124,        !- Vertex 3 Ycoordinate
    0,                        !- Vertex 3 Zcoordinate
    439899.25281576667,       !- Vertex 4 Xcoordinate
    4478817.660351124,        !- Vertex 4 Ycoordinate
    15;                       !- Vertex 4 Zcoordinate

SHADING:SITE:DETAILED,
    shade_way/432864416_3,    !- Name
    ,                         !- Transmittance Schedule Name
    autocalculate,            !- Number of Vertices
    439899.25281576667,       !- Vertex 1 Xcoordinate
    4478817.660351124,        !- Vertex 1 Ycoordinate
    15,                       !- Vertex 1 Zcoordinate
    439899.25281576667,       !- Vertex 2 Xcoordinate
    4478817.660351124,        !- Vertex 2 Ycoordinate
    0,                        !- Vertex 2 Zcoordinate
    439895.9711504911,        !- Vertex 3 Xcoordinate
    4478836.189204629,        !- Vertex 3 Ycoordinate
    0,                        !- Vertex 3 Zcoordinate
    439895.9711504911,        !- Vertex 4 Xcoordinate
    4478836.189204629,        !- Vertex 4 Ycoordinate
    15;                       !- Vertex 4 Zcoordinate

SHADING:SITE:DETAILED,
    shade_way/432864416_4,    !- Name
    ,                         !- Transmittance Schedule Name
    autocalculate,            !- Number of Vertices
    439895.9711504911,        !- Vertex 1 Xcoordinate
    4478836.189204629,        !- Vertex 1 Ycoordinate
    15,                       !- Vertex 1 Zcoordinate
    439895.9711504911,        !- Vertex 2 Xcoordinate
    4478836.189204629,        !- Vertex 2 Ycoordinate
    0,                        !- Vertex 2 Zcoordinate
    439914.035478643,         !- Vertex 3 Xcoordinate
    4478839.388597312,        !- Vertex 3 Ycoordinate
    0,                        !- Vertex 3 Zcoordinate
    439914.035478643,         !- Vertex 4 Xcoordinate
    4478839.388597312,        !- Vertex 4 Ycoordinate
    15;                       !- Vertex 4 Zcoordinate

SHADING:SITE:DETAILED,
    shade_way/942666508_1,    !- Name
    ,                         !- Transmittance Schedule Name
    autocalculate,            !- Number of Vertices
    439942.2004135407,        !- Vertex 1 Xcoordinate
    4478834.979694856,        !- Vertex 1 Ycoordinate
    6,                        !- Vertex 1 Zcoordinate
    439942.2004135407,        !- Vertex 2 Xcoordinate
    4478834.979694856,        !- Vertex 2 Ycoordinate
    0,                        !- Vertex 2 Zcoordinate
    439956.7916324133,        !- Vertex 3 Xcoordinate
    4478834.048540304,        !- Vertex 3 Ycoordinate
    0,                        !- Vertex 3 Zcoordinate
    439956.7916324133,        !- Vertex 4 Xcoordinate
    4478834.048540304,        !- Vertex 4 Ycoordinate
    6;                        !- Vertex 4 Zcoordinate

SHADING:SITE:DETAILED,
    shade_way/942666508_2,    !- Name
    ,                         !- Transmittance Schedule Name
    autocalculate,            !- Number of Vertices
    439956.7916324133,        !- Vertex 1 Xcoordinate
    4478834.048540304,        !- Vertex 1 Ycoordinate
    6,                        !- Vertex 1 Zcoordinate
    439956.7916324133,        !- Vertex 2 Xcoordinate
    4478834.048540304,        !- Vertex 2 Ycoordinate
    0,                        !- Vertex 2 Zcoordinate
    439956.02903043083,       !- Vertex 3 Xcoordinate
    4478822.098545022,        !- Vertex 3 Ycoordinate
    0,                        !- Vertex 3 Zcoordinate
    439956.02903043083,       !- Vertex 4 Xcoordinate
    4478822.098545022,        !- Vertex 4 Ycoordinate
    6;                        !- Vertex 4 Zcoordinate

SHADING:SITE:DETAILED,
    shade_way/942666508_3,    !- Name
    ,                         !- Transmittance Schedule Name
    autocalculate,            !- Number of Vertices
    439956.02903043083,       !- Vertex 1 Xcoordinate
    4478822.098545022,        !- Vertex 1 Ycoordinate
    6,                        !- Vertex 1 Zcoordinate
    439956.02903043083,       !- Vertex 2 Xcoordinate
    4478822.098545022,        !- Vertex 2 Ycoordinate
    0,                        !- Vertex 2 Zcoordinate
    439941.4378115583,        !- Vertex 3 Xcoordinate
    4478823.029699574,        !- Vertex 3 Ycoordinate
    0,                        !- Vertex 3 Zcoordinate
    439941.4378115583,        !- Vertex 4 Xcoordinate
    4478823.029699574,        !- Vertex 4 Ycoordinate
    6;                        !- Vertex 4 Zcoordinate

SHADING:SITE:DETAILED,
    shade_way/942666508_4,    !- Name
    ,                         !- Transmittance Schedule Name
    autocalculate,            !- Number of Vertices
    439941.4378115583,        !- Vertex 1 Xcoordinate
    4478823.029699574,        !- Vertex 1 Ycoordinate
    6,                        !- Vertex 1 Zcoordinate
    439941.4378115583,        !- Vertex 2 Xcoordinate
    4478823.029699574,        !- Vertex 2 Ycoordinate
    0,                        !- Vertex 2 Zcoordinate
    439942.2004135407,        !- Vertex 3 Xcoordinate
    4478834.979694856,        !- Vertex 3 Ycoordinate
    0,                        !- Vertex 3 Zcoordinate
    439942.2004135407,        !- Vertex 4 Xcoordinate
    4478834.979694856,        !- Vertex 4 Ycoordinate
    6;                        !- Vertex 4 Zcoordinate

SHADING:SITE:DETAILED,
    shade_way/942677962_1,    !- Name
    ,                         !- Transmittance Schedule Name
    autocalculate,            !- Number of Vertices
    439910.4819335455,        !- Vertex 1 Xcoordinate
    4478855.178080167,        !- Vertex 1 Ycoordinate
    12,                       !- Vertex 1 Zcoordinate
    439910.4819335455,        !- Vertex 2 Xcoordinate
    4478855.178080167,        !- Vertex 2 Ycoordinate
    0,                        !- Vertex 2 Zcoordinate
    439920.6746436915,        !- Vertex 3 Xcoordinate
    4478854.499824468,        !- Vertex 3 Ycoordinate
    0,                        !- Vertex 3 Zcoordinate
    439920.6746436915,        !- Vertex 4 Xcoordinate
    4478854.499824468,        !- Vertex 4 Ycoordinate
    12;                       !- Vertex 4 Zcoordinate

SHADING:SITE:DETAILED,
    shade_way/942677962_2,    !- Name
    ,                         !- Transmittance Schedule Name
    autocalculate,            !- Number of Vertices
    439920.6746436915,        !- Vertex 1 Xcoordinate
    4478854.499824468,        !- Vertex 1 Ycoordinate
    12,                       !- Vertex 1 Zcoordinate
    439920.6746436915,        !- Vertex 2 Xcoordinate
    4478854.499824468,        !- Vertex 2 Ycoordinate
    0,                        !- Vertex 2 Zcoordinate
    439920.0740950483,        !- Vertex 3 Xcoordinate
    4478845.4719991945,       !- Vertex 3 Ycoordinate
    0,                        !- Vertex 3 Zcoordinate
    439920.0740950483,        !- Vertex 4 Xcoordinate
    4478845.4719991945,       !- Vertex 4 Ycoordinate
    12;                       !- Vertex 4 Zcoordinate

SHADING:SITE:DETAILED,
    shade_way/942677962_3,    !- Name
    ,                         !- Transmittance Schedule Name
    autocalculate,            !- Number of Vertices
    439920.0740950483,        !- Vertex 1 Xcoordinate
    4478845.4719991945,       !- Vertex 1 Ycoordinate
    12,                       !- Vertex 1 Zcoordinate
    439920.0740950483,        !- Vertex 2 Xcoordinate
    4478845.4719991945,       !- Vertex 2 Ycoordinate
    0,                        !- Vertex 2 Zcoordinate
    439909.88131228706,       !- Vertex 3 Xcoordinate
    4478846.149880312,        !- Vertex 3 Ycoordinate
    0,                        !- Vertex 3 Zcoordinate
    439909.88131228706,       !- Vertex 4 Xcoordinate
    4478846.149880312,        !- Vertex 4 Ycoordinate
    12;                       !- Vertex 4 Zcoordinate

SHADING:SITE:DETAILED,
    shade_way/942677962_4,    !- Name
    ,                         !- Transmittance Schedule Name
    autocalculate,            !- Number of Vertices
    439909.88131228706,       !- Vertex 1 Xcoordinate
    4478846.149880312,        !- Vertex 1 Ycoordinate
    12,                       !- Vertex 1 Zcoordinate
    439909.88131228706,       !- Vertex 2 Xcoordinate
    4478846.149880312,        !- Vertex 2 Ycoordinate
    0,                        !- Vertex 2 Zcoordinate
    439910.4819335455,        !- Vertex 3 Xcoordinate
    4478855.178080167,        !- Vertex 3 Ycoordinate
    0,                        !- Vertex 3 Zcoordinate
    439910.4819335455,        !- Vertex 4 Xcoordinate
    4478855.178080167,        !- Vertex 4 Ycoordinate
    12;                       !- Vertex 4 Zcoordinate

SHADING:SITE:DETAILED,
    shade_way/434869414_1,    !- Name
    ,                         !- Transmittance Schedule Name
    autocalculate,            !- Number of Vertices
    439935.9559649418,        !- Vertex 1 Xcoordinate
    4478844.232645578,        !- Vertex 1 Ycoordinate
    9,                        !- Vertex 1 Zcoordinate
    439935.9559649418,        !- Vertex 2 Xcoordinate
    4478844.232645578,        !- Vertex 2 Ycoordinate
    0,                        !- Vertex 2 Zcoordinate
    439936.4946117386,        !- Vertex 3 Xcoordinate
    4478857.861333851,        !- Vertex 3 Ycoordinate
    0,                        !- Vertex 3 Zcoordinate
    439936.4946117386,        !- Vertex 4 Xcoordinate
    4478857.861333851,        !- Vertex 4 Ycoordinate
    9;                        !- Vertex 4 Zcoordinate

SHADING:SITE:DETAILED,
    shade_way/434869414_2,    !- Name
    ,                         !- Transmittance Schedule Name
    autocalculate,            !- Number of Vertices
    439936.4946117386,        !- Vertex 1 Xcoordinate
    4478857.861333851,        !- Vertex 1 Ycoordinate
    9,                        !- Vertex 1 Zcoordinate
    439936.4946117386,        !- Vertex 2 Xcoordinate
    4478857.861333851,        !- Vertex 2 Ycoordinate
    0,                        !- Vertex 2 Zcoordinate
    439949.77443646,          !- Vertex 3 Xcoordinate
    4478857.336475192,        !- Vertex 3 Ycoordinate
    0,                        !- Vertex 3 Zcoordinate
    439949.77443646,          !- Vertex 4 Xcoordinate
    4478857.336475192,        !- Vertex 4 Ycoordinate
    9;                        !- Vertex 4 Zcoordinate

SHADING:SITE:DETAILED,
    shade_way/434869414_3,    !- Name
    ,                         !- Transmittance Schedule Name
    autocalculate,            !- Number of Vertices
    439949.77443646,          !- Vertex 1 Xcoordinate
    4478857.336475192,        !- Vertex 1 Ycoordinate
    9,                        !- Vertex 1 Zcoordinate
    439949.77443646,          !- Vertex 2 Xcoordinate
    4478857.336475192,        !- Vertex 2 Ycoordinate
    0,                        !- Vertex 2 Zcoordinate
    439949.2357896632,        !- Vertex 3 Xcoordinate
    4478843.707786919,        !- Vertex 3 Ycoordinate
    0,                        !- Vertex 3 Zcoordinate
    439949.2357896632,        !- Vertex 4 Xcoordinate
    4478843.707786919,        !- Vertex 4 Ycoordinate
    9;                        !- Vertex 4 Zcoordinate

SHADING:SITE:DETAILED,
    shade_way/434869414_4,    !- Name
    ,                         !- Transmittance Schedule Name
    autocalculate,            !- Number of Vertices
    439949.2357896632,        !- Vertex 1 Xcoordinate
    4478843.707786919,        !- Vertex 1 Ycoordinate
    9,                        !- Vertex 1 Zcoordinate
    439949.2357896632,        !- Vertex 2 Xcoordinate
    4478843.707786919,        !- Vertex 2 Ycoordinate
    0,                        !- Vertex 2 Zcoordinate
    439935.9559649418,        !- Vertex 3 Xcoordinate
    4478844.232645578,        !- Vertex 3 Ycoordinate
    0,                        !- Vertex 3 Zcoordinate
    439935.9559649418,        !- Vertex 4 Xcoordinate
    4478844.232645578,        !- Vertex 4 Ycoordinate
    9;                        !- Vertex 4 Zcoordinate

SHADING:SITE:DETAILED,
    shade_way/434869412_1,    !- Name
    ,                         !- Transmittance Schedule Name
    autocalculate,            !- Number of Vertices
    439920.0430667655,        !- Vertex 1 Xcoordinate
    4478845.5354839,          !- Vertex 1 Ycoordinate
    18,                       !- Vertex 1 Zcoordinate
    439920.0430667655,        !- Vertex 2 Xcoordinate
    4478845.5354839,          !- Vertex 2 Ycoordinate
    0,                        !- Vertex 2 Zcoordinate
    439922.0151455003,        !- Vertex 3 Xcoordinate
    4478873.52633457,         !- Vertex 3 Ycoordinate
    0,                        !- Vertex 3 Zcoordinate
    439922.0151455003,        !- Vertex 4 Xcoordinate
    4478873.52633457,         !- Vertex 4 Ycoordinate
    18;                       !- Vertex 4 Zcoordinate

SHADING:SITE:DETAILED,
    shade_way/434869412_2,    !- Name
    ,                         !- Transmittance Schedule Name
    autocalculate,            !- Number of Vertices
    439922.0151455003,        !- Vertex 1 Xcoordinate
    4478873.52633457,         !- Vertex 1 Ycoordinate
    18,                       !- Vertex 1 Zcoordinate
    439922.0151455003,        !- Vertex 2 Xcoordinate
    4478873.52633457,         !- Vertex 2 Ycoordinate
    0,                        !- Vertex 2 Zcoordinate
    439940.2958198415,        !- Vertex 3 Xcoordinate
    4478872.238381256,        !- Vertex 3 Ycoordinate
    0,                        !- Vertex 3 Zcoordinate
    439940.2958198415,        !- Vertex 4 Xcoordinate
    4478872.238381256,        !- Vertex 4 Ycoordinate
    18;                       !- Vertex 4 Zcoordinate

SHADING:SITE:DETAILED,
    shade_way/434869412_3,    !- Name
    ,                         !- Transmittance Schedule Name
    autocalculate,            !- Number of Vertices
    439940.2958198415,        !- Vertex 1 Xcoordinate
    4478872.238381256,        !- Vertex 1 Ycoordinate
    18,                       !- Vertex 1 Zcoordinate
    439940.2958198415,        !- Vertex 2 Xcoordinate
    4478872.238381256,        !- Vertex 2 Ycoordinate
    0,                        !- Vertex 2 Zcoordinate
    439938.32373727026,       !- Vertex 3 Xcoordinate
    4478844.247460331,        !- Vertex 3 Ycoordinate
    0,                        !- Vertex 3 Zcoordinate
    439938.32373727026,       !- Vertex 4 Xcoordinate
    4478844.247460331,        !- Vertex 4 Ycoordinate
    18;                       !- Vertex 4 Zcoordinate

SHADING:SITE:DETAILED,
    shade_way/434869412_4,    !- Name
    ,                         !- Transmittance Schedule Name
    autocalculate,            !- Number of Vertices
    439938.32373727026,       !- Vertex 1 Xcoordinate
    4478844.247460331,        !- Vertex 1 Ycoordinate
    18,                       !- Vertex 1 Zcoordinate
    439938.32373727026,       !- Vertex 2 Xcoordinate
    4478844.247460331,        !- Vertex 2 Ycoordinate
    0,                        !- Vertex 2 Zcoordinate
    439920.0430667655,        !- Vertex 3 Xcoordinate
    4478845.5354839,          !- Vertex 3 Ycoordinate
    0,                        !- Vertex 3 Zcoordinate
    439920.0430667655,        !- Vertex 4 Xcoordinate
    4478845.5354839,          !- Vertex 4 Ycoordinate
    18;                       !- Vertex 4 Zcoordinate

SHADING:SITE:DETAILED,
    shade_way/434868515_1,    !- Name
    ,                         !- Transmittance Schedule Name
    autocalculate,            !- Number of Vertices
    439977.85396207834,       !- Vertex 1 Xcoordinate
    4478840.42916571,         !- Vertex 1 Ycoordinate
    9,                        !- Vertex 1 Zcoordinate
    439977.85396207834,       !- Vertex 2 Xcoordinate
    4478840.42916571,         !- Vertex 2 Ycoordinate
    0,                        !- Vertex 2 Zcoordinate
    439963.4702836689,        !- Vertex 3 Xcoordinate
    4478832.376815556,        !- Vertex 3 Ycoordinate
    0,                        !- Vertex 3 Zcoordinate
    439963.4702836689,        !- Vertex 4 Xcoordinate
    4478832.376815556,        !- Vertex 4 Ycoordinate
    9;                        !- Vertex 4 Zcoordinate

SHADING:SITE:DETAILED,
    shade_way/434868515_2,    !- Name
    ,                         !- Transmittance Schedule Name
    autocalculate,            !- Number of Vertices
    439963.4702836689,        !- Vertex 1 Xcoordinate
    4478832.376815556,        !- Vertex 1 Ycoordinate
    9,                        !- Vertex 1 Zcoordinate
    439963.4702836689,        !- Vertex 2 Xcoordinate
    4478832.376815556,        !- Vertex 2 Ycoordinate
    0,                        !- Vertex 2 Zcoordinate
    439958.60642909864,       !- Vertex 3 Xcoordinate
    4478841.064559345,        !- Vertex 3 Ycoordinate
    0,                        !- Vertex 3 Zcoordinate
    439958.60642909864,       !- Vertex 4 Xcoordinate
    4478841.064559345,        !- Vertex 4 Ycoordinate
    9;                        !- Vertex 4 Zcoordinate

SHADING:SITE:DETAILED,
    shade_way/434868515_3,    !- Name
    ,                         !- Transmittance Schedule Name
    autocalculate,            !- Number of Vertices
    439958.60642909864,       !- Vertex 1 Xcoordinate
    4478841.064559345,        !- Vertex 1 Ycoordinate
    9,                        !- Vertex 1 Zcoordinate
    439958.60642909864,       !- Vertex 2 Xcoordinate
    4478841.064559345,        !- Vertex 2 Ycoordinate
    0,                        !- Vertex 2 Zcoordinate
    439972.99011427595,       !- Vertex 3 Xcoordinate
    4478849.117106655,        !- Vertex 3 Ycoordinate
    0,                        !- Vertex 3 Zcoordinate
    439972.99011427595,       !- Vertex 4 Xcoordinate
    4478849.117106655,        !- Vertex 4 Ycoordinate
    9;                        !- Vertex 4 Zcoordinate

SHADING:SITE:DETAILED,
    shade_way/434868515_4,    !- Name
    ,                         !- Transmittance Schedule Name
    autocalculate,            !- Number of Vertices
    439972.99011427595,       !- Vertex 1 Xcoordinate
    4478849.117106655,        !- Vertex 1 Ycoordinate
    9,                        !- Vertex 1 Zcoordinate
    439972.99011427595,       !- Vertex 2 Xcoordinate
    4478849.117106655,        !- Vertex 2 Ycoordinate
    0,                        !- Vertex 2 Zcoordinate
    439977.85396207834,       !- Vertex 3 Xcoordinate
    4478840.42916571,         !- Vertex 3 Ycoordinate
    0,                        !- Vertex 3 Zcoordinate
    439977.85396207834,       !- Vertex 4 Xcoordinate
    4478840.42916571,         !- Vertex 4 Ycoordinate
    9;                        !- Vertex 4 Zcoordinate

SHADING:SITE:DETAILED,
    shade_way/434868516_1,    !- Name
    ,                         !- Transmittance Schedule Name
    autocalculate,            !- Number of Vertices
    439979.6516693368,        !- Vertex 1 Xcoordinate
    4478852.883942424,        !- Vertex 1 Ycoordinate
    9,                        !- Vertex 1 Zcoordinate
    439979.6516693368,        !- Vertex 2 Xcoordinate
    4478852.883942424,        !- Vertex 2 Ycoordinate
    0,                        !- Vertex 2 Zcoordinate
    439960.3445403421,        !- Vertex 3 Xcoordinate
    4478841.977773897,        !- Vertex 3 Ycoordinate
    0,                        !- Vertex 3 Zcoordinate
    439960.3445403421,        !- Vertex 4 Xcoordinate
    4478841.977773897,        !- Vertex 4 Ycoordinate
    9;                        !- Vertex 4 Zcoordinate

SHADING:SITE:DETAILED,
    shade_way/434868516_2,    !- Name
    ,                         !- Transmittance Schedule Name
    autocalculate,            !- Number of Vertices
    439960.3445403421,        !- Vertex 1 Xcoordinate
    4478841.977773897,        !- Vertex 1 Ycoordinate
    9,                        !- Vertex 1 Zcoordinate
    439960.3445403421,        !- Vertex 2 Xcoordinate
    4478841.977773897,        !- Vertex 2 Ycoordinate
    0,                        !- Vertex 2 Zcoordinate
    439955.3370659318,        !- Vertex 3 Xcoordinate
    4478850.84247777,         !- Vertex 3 Ycoordinate
    0,                        !- Vertex 3 Zcoordinate
    439955.3370659318,        !- Vertex 4 Xcoordinate
    4478850.84247777,         !- Vertex 4 Ycoordinate
    9;                        !- Vertex 4 Zcoordinate

SHADING:SITE:DETAILED,
    shade_way/434868516_3,    !- Name
    ,                         !- Transmittance Schedule Name
    autocalculate,            !- Number of Vertices
    439955.3370659318,        !- Vertex 1 Xcoordinate
    4478850.84247777,         !- Vertex 1 Ycoordinate
    9,                        !- Vertex 1 Zcoordinate
    439955.3370659318,        !- Vertex 2 Xcoordinate
    4478850.84247777,         !- Vertex 2 Ycoordinate
    0,                        !- Vertex 2 Zcoordinate
    439974.6441137596,        !- Vertex 3 Xcoordinate
    4478861.748610413,        !- Vertex 3 Ycoordinate
    0,                        !- Vertex 3 Zcoordinate
    439974.6441137596,        !- Vertex 4 Xcoordinate
    4478861.748610413,        !- Vertex 4 Ycoordinate
    9;                        !- Vertex 4 Zcoordinate

SHADING:SITE:DETAILED,
    shade_way/434868516_4,    !- Name
    ,                         !- Transmittance Schedule Name
    autocalculate,            !- Number of Vertices
    439974.6441137596,        !- Vertex 1 Xcoordinate
    4478861.748610413,        !- Vertex 1 Ycoordinate
    9,                        !- Vertex 1 Zcoordinate
    439974.6441137596,        !- Vertex 2 Xcoordinate
    4478861.748610413,        !- Vertex 2 Ycoordinate
    0,                        !- Vertex 2 Zcoordinate
    439979.6516693368,        !- Vertex 3 Xcoordinate
    4478852.883942424,        !- Vertex 3 Ycoordinate
    0,                        !- Vertex 3 Zcoordinate
    439979.6516693368,        !- Vertex 4 Xcoordinate
    4478852.883942424,        !- Vertex 4 Ycoordinate
    9;                        !- Vertex 4 Zcoordinate

OTHEREQUIPMENT,
    EU_Step8_InternalGain_609404ef061555bc_F0_dwelling_0_f000,    !- Name
    Electricity,              !- Fuel Type
    609404ef061555bc_F0_dwelling_0,    !- Zone or ZoneList or Space or SpaceList Name
    EU_Step8_GainSchedule_609404ef061555bc_F0_dwelling_0_f000,    !- Schedule Name
    Watts/Area,               !- Design Level Calculation Method
    ,                         !- Design Level
    1,                        !- Power per Zone Floor Area
    ,                         !- Power per Person
    0,                        !- Fraction Latent
    0,                        !- Fraction Radiant
    0,                        !- Fraction Lost
    0,                        !- Carbon Dioxide Generation Rate
    EU_Step8_InternalGains;    !- EndUse Subcategory

OTHEREQUIPMENT,
    EU_Step8_InternalGain_609404ef061555bc_F1_dwelling_0_f000,    !- Name
    Electricity,              !- Fuel Type
    609404ef061555bc_F1_dwelling_0,    !- Zone or ZoneList or Space or SpaceList Name
    EU_Step8_GainSchedule_609404ef061555bc_F1_dwelling_0_f000,    !- Schedule Name
    Watts/Area,               !- Design Level Calculation Method
    ,                         !- Design Level
    1,                        !- Power per Zone Floor Area
    ,                         !- Power per Person
    0,                        !- Fraction Latent
    0,                        !- Fraction Radiant
    0,                        !- Fraction Lost
    0,                        !- Carbon Dioxide Generation Rate
    EU_Step8_InternalGains;    !- EndUse Subcategory

OTHEREQUIPMENT,
    EU_Step8_InternalGain_609404ef061555bc_F2_dwelling_0_f000,    !- Name
    Electricity,              !- Fuel Type
    609404ef061555bc_F2_dwelling_0,    !- Zone or ZoneList or Space or SpaceList Name
    EU_Step8_GainSchedule_609404ef061555bc_F2_dwelling_0_f000,    !- Schedule Name
    Watts/Area,               !- Design Level Calculation Method
    ,                         !- Design Level
    1,                        !- Power per Zone Floor Area
    ,                         !- Power per Person
    0,                        !- Fraction Latent
    0,                        !- Fraction Radiant
    0,                        !- Fraction Lost
    0,                        !- Carbon Dioxide Generation Rate
    EU_Step8_InternalGains;    !- EndUse Subcategory

OTHEREQUIPMENT,
    EU_Step8_InternalGain_609404ef061555bc_F3_dwelling_0_f000,    !- Name
    Electricity,              !- Fuel Type
    609404ef061555bc_F3_dwelling_0,    !- Zone or ZoneList or Space or SpaceList Name
    EU_Step8_GainSchedule_609404ef061555bc_F3_dwelling_0_f000,    !- Schedule Name
    Watts/Area,               !- Design Level Calculation Method
    ,                         !- Design Level
    1,                        !- Power per Zone Floor Area
    ,                         !- Power per Person
    0,                        !- Fraction Latent
    0,                        !- Fraction Radiant
    0,                        !- Fraction Lost
    0,                        !- Carbon Dioxide Generation Rate
    EU_Step8_InternalGains;    !- EndUse Subcategory

ZONEVENTILATION:DESIGNFLOWRATE,
    EU_ConstantAir_609404ef061555bc_F0_dwelling_0,    !- Name
    609404ef061555bc_F0_dwelling_0,    !- Zone or ZoneList or Space or SpaceList Name
    EU_AlwaysOn,              !- Schedule Name
    AirChanges/Hour,          !- Design Flow Rate Calculation Method
    ,                         !- Design Flow Rate
    ,                         !- Flow Rate per Floor Area
    ,                         !- Flow Rate per Person
    0.4807043927943379,       !- Air Changes per Hour
    Natural,                  !- Ventilation Type
    0,                        !- Fan Pressure Rise
    1,                        !- Fan Total Efficiency
    1,                        !- Constant Term Coefficient
    0,                        !- Temperature Term Coefficient
    0,                        !- Velocity Term Coefficient
    0,                        !- Velocity Squared Term Coefficient
    -100,                     !- Minimum Indoor Temperature
    ,                         !- Minimum Indoor Temperature Schedule Name
    100,                      !- Maximum Indoor Temperature
    ,                         !- Maximum Indoor Temperature Schedule Name
    -100,                     !- Delta Temperature
    ,                         !- Delta Temperature Schedule Name
    -100,                     !- Minimum Outdoor Temperature
    ,                         !- Minimum Outdoor Temperature Schedule Name
    100,                      !- Maximum Outdoor Temperature
    ,                         !- Maximum Outdoor Temperature Schedule Name
    40;                       !- Maximum Wind Speed

ZONEVENTILATION:DESIGNFLOWRATE,
    EU_ConstantAir_609404ef061555bc_F1_dwelling_0,    !- Name
    609404ef061555bc_F1_dwelling_0,    !- Zone or ZoneList or Space or SpaceList Name
    EU_AlwaysOn,              !- Schedule Name
    AirChanges/Hour,          !- Design Flow Rate Calculation Method
    ,                         !- Design Flow Rate
    ,                         !- Flow Rate per Floor Area
    ,                         !- Flow Rate per Person
    0.4807043927943379,       !- Air Changes per Hour
    Natural,                  !- Ventilation Type
    0,                        !- Fan Pressure Rise
    1,                        !- Fan Total Efficiency
    1,                        !- Constant Term Coefficient
    0,                        !- Temperature Term Coefficient
    0,                        !- Velocity Term Coefficient
    0,                        !- Velocity Squared Term Coefficient
    -100,                     !- Minimum Indoor Temperature
    ,                         !- Minimum Indoor Temperature Schedule Name
    100,                      !- Maximum Indoor Temperature
    ,                         !- Maximum Indoor Temperature Schedule Name
    -100,                     !- Delta Temperature
    ,                         !- Delta Temperature Schedule Name
    -100,                     !- Minimum Outdoor Temperature
    ,                         !- Minimum Outdoor Temperature Schedule Name
    100,                      !- Maximum Outdoor Temperature
    ,                         !- Maximum Outdoor Temperature Schedule Name
    40;                       !- Maximum Wind Speed

ZONEVENTILATION:DESIGNFLOWRATE,
    EU_ConstantAir_609404ef061555bc_F2_dwelling_0,    !- Name
    609404ef061555bc_F2_dwelling_0,    !- Zone or ZoneList or Space or SpaceList Name
    EU_AlwaysOn,              !- Schedule Name
    AirChanges/Hour,          !- Design Flow Rate Calculation Method
    ,                         !- Design Flow Rate
    ,                         !- Flow Rate per Floor Area
    ,                         !- Flow Rate per Person
    0.4807043927943379,       !- Air Changes per Hour
    Natural,                  !- Ventilation Type
    0,                        !- Fan Pressure Rise
    1,                        !- Fan Total Efficiency
    1,                        !- Constant Term Coefficient
    0,                        !- Temperature Term Coefficient
    0,                        !- Velocity Term Coefficient
    0,                        !- Velocity Squared Term Coefficient
    -100,                     !- Minimum Indoor Temperature
    ,                         !- Minimum Indoor Temperature Schedule Name
    100,                      !- Maximum Indoor Temperature
    ,                         !- Maximum Indoor Temperature Schedule Name
    -100,                     !- Delta Temperature
    ,                         !- Delta Temperature Schedule Name
    -100,                     !- Minimum Outdoor Temperature
    ,                         !- Minimum Outdoor Temperature Schedule Name
    100,                      !- Maximum Outdoor Temperature
    ,                         !- Maximum Outdoor Temperature Schedule Name
    40;                       !- Maximum Wind Speed

ZONEVENTILATION:DESIGNFLOWRATE,
    EU_ConstantAir_609404ef061555bc_F3_dwelling_0,    !- Name
    609404ef061555bc_F3_dwelling_0,    !- Zone or ZoneList or Space or SpaceList Name
    EU_AlwaysOn,              !- Schedule Name
    AirChanges/Hour,          !- Design Flow Rate Calculation Method
    ,                         !- Design Flow Rate
    ,                         !- Flow Rate per Floor Area
    ,                         !- Flow Rate per Person
    0.4807043927943379,       !- Air Changes per Hour
    Natural,                  !- Ventilation Type
    0,                        !- Fan Pressure Rise
    1,                        !- Fan Total Efficiency
    1,                        !- Constant Term Coefficient
    0,                        !- Temperature Term Coefficient
    0,                        !- Velocity Term Coefficient
    0,                        !- Velocity Squared Term Coefficient
    -100,                     !- Minimum Indoor Temperature
    ,                         !- Minimum Indoor Temperature Schedule Name
    100,                      !- Maximum Indoor Temperature
    ,                         !- Maximum Indoor Temperature Schedule Name
    -100,                     !- Delta Temperature
    ,                         !- Delta Temperature Schedule Name
    -100,                     !- Minimum Outdoor Temperature
    ,                         !- Minimum Outdoor Temperature Schedule Name
    100,                      !- Maximum Outdoor Temperature
    ,                         !- Maximum Outdoor Temperature Schedule Name
    40;                       !- Maximum Wind Speed

HVACTEMPLATE:THERMOSTAT,
    EU_HeatOnly_609404ef061555bc_F0_dwelling_0,    !- Name
    ,                         !- Heating Setpoint Schedule Name
    20,                       !- Constant Heating Setpoint
    ,                         !- Cooling Setpoint Schedule Name
    50;                       !- Constant Cooling Setpoint

HVACTEMPLATE:THERMOSTAT,
    EU_HeatOnly_609404ef061555bc_F1_dwelling_0,    !- Name
    ,                         !- Heating Setpoint Schedule Name
    20,                       !- Constant Heating Setpoint
    ,                         !- Cooling Setpoint Schedule Name
    50;                       !- Constant Cooling Setpoint

HVACTEMPLATE:THERMOSTAT,
    EU_HeatOnly_609404ef061555bc_F2_dwelling_0,    !- Name
    ,                         !- Heating Setpoint Schedule Name
    20,                       !- Constant Heating Setpoint
    ,                         !- Cooling Setpoint Schedule Name
    50;                       !- Constant Cooling Setpoint

HVACTEMPLATE:THERMOSTAT,
    EU_HeatOnly_609404ef061555bc_F3_dwelling_0,    !- Name
    ,                         !- Heating Setpoint Schedule Name
    20,                       !- Constant Heating Setpoint
    ,                         !- Cooling Setpoint Schedule Name
    50;                       !- Constant Cooling Setpoint

HVACTEMPLATE:ZONE:IDEALLOADSAIRSYSTEM,
    609404ef061555bc_F0_dwelling_0,    !- Zone Name
    EU_HeatOnly_609404ef061555bc_F0_dwelling_0,    !- Template Thermostat Name
    EU_AlwaysOn,              !- System Availability Schedule Name
    50,                       !- Maximum Heating Supply Air Temperature
    13,                       !- Minimum Cooling Supply Air Temperature
    0.0156,                   !- Maximum Heating Supply Air Humidity Ratio
    0.0077,                   !- Minimum Cooling Supply Air Humidity Ratio
    NoLimit,                  !- Heating Limit
    ,                         !- Maximum Heating Air Flow Rate
    ,                         !- Maximum Sensible Heating Capacity
    NoLimit,                  !- Cooling Limit
    ,                         !- Maximum Cooling Air Flow Rate
    ,                         !- Maximum Total Cooling Capacity
    EU_AlwaysOn,              !- Heating Availability Schedule Name
    EU_CoolingOff,            !- Cooling Availability Schedule Name
    ConstantSensibleHeatRatio,    !- Dehumidification Control Type
    0.7,                      !- Cooling Sensible Heat Ratio
    60,                       !- Dehumidification Setpoint
    None,                     !- Humidification Control Type
    30,                       !- Humidification Setpoint
    None,                     !- Outdoor Air Method
    0.00944,                  !- Outdoor Air Flow Rate per Person
    0.0,                      !- Outdoor Air Flow Rate per Zone Floor Area
    0,                        !- Outdoor Air Flow Rate per Zone
    ,                         !- Design Specification Outdoor Air Object Name
    None,                     !- Demand Controlled Ventilation Type
    NoEconomizer,             !- Outdoor Air Economizer Type
    None,                     !- Heat Recovery Type
    0.70,                     !- Sensible Heat Recovery Effectiveness
    0.65;                     !- Latent Heat Recovery Effectiveness

HVACTEMPLATE:ZONE:IDEALLOADSAIRSYSTEM,
    609404ef061555bc_F1_dwelling_0,    !- Zone Name
    EU_HeatOnly_609404ef061555bc_F1_dwelling_0,    !- Template Thermostat Name
    EU_AlwaysOn,              !- System Availability Schedule Name
    50,                       !- Maximum Heating Supply Air Temperature
    13,                       !- Minimum Cooling Supply Air Temperature
    0.0156,                   !- Maximum Heating Supply Air Humidity Ratio
    0.0077,                   !- Minimum Cooling Supply Air Humidity Ratio
    NoLimit,                  !- Heating Limit
    ,                         !- Maximum Heating Air Flow Rate
    ,                         !- Maximum Sensible Heating Capacity
    NoLimit,                  !- Cooling Limit
    ,                         !- Maximum Cooling Air Flow Rate
    ,                         !- Maximum Total Cooling Capacity
    EU_AlwaysOn,              !- Heating Availability Schedule Name
    EU_CoolingOff,            !- Cooling Availability Schedule Name
    ConstantSensibleHeatRatio,    !- Dehumidification Control Type
    0.7,                      !- Cooling Sensible Heat Ratio
    60,                       !- Dehumidification Setpoint
    None,                     !- Humidification Control Type
    30,                       !- Humidification Setpoint
    None,                     !- Outdoor Air Method
    0.00944,                  !- Outdoor Air Flow Rate per Person
    0.0,                      !- Outdoor Air Flow Rate per Zone Floor Area
    0,                        !- Outdoor Air Flow Rate per Zone
    ,                         !- Design Specification Outdoor Air Object Name
    None,                     !- Demand Controlled Ventilation Type
    NoEconomizer,             !- Outdoor Air Economizer Type
    None,                     !- Heat Recovery Type
    0.70,                     !- Sensible Heat Recovery Effectiveness
    0.65;                     !- Latent Heat Recovery Effectiveness

HVACTEMPLATE:ZONE:IDEALLOADSAIRSYSTEM,
    609404ef061555bc_F2_dwelling_0,    !- Zone Name
    EU_HeatOnly_609404ef061555bc_F2_dwelling_0,    !- Template Thermostat Name
    EU_AlwaysOn,              !- System Availability Schedule Name
    50,                       !- Maximum Heating Supply Air Temperature
    13,                       !- Minimum Cooling Supply Air Temperature
    0.0156,                   !- Maximum Heating Supply Air Humidity Ratio
    0.0077,                   !- Minimum Cooling Supply Air Humidity Ratio
    NoLimit,                  !- Heating Limit
    ,                         !- Maximum Heating Air Flow Rate
    ,                         !- Maximum Sensible Heating Capacity
    NoLimit,                  !- Cooling Limit
    ,                         !- Maximum Cooling Air Flow Rate
    ,                         !- Maximum Total Cooling Capacity
    EU_AlwaysOn,              !- Heating Availability Schedule Name
    EU_CoolingOff,            !- Cooling Availability Schedule Name
    ConstantSensibleHeatRatio,    !- Dehumidification Control Type
    0.7,                      !- Cooling Sensible Heat Ratio
    60,                       !- Dehumidification Setpoint
    None,                     !- Humidification Control Type
    30,                       !- Humidification Setpoint
    None,                     !- Outdoor Air Method
    0.00944,                  !- Outdoor Air Flow Rate per Person
    0.0,                      !- Outdoor Air Flow Rate per Zone Floor Area
    0,                        !- Outdoor Air Flow Rate per Zone
    ,                         !- Design Specification Outdoor Air Object Name
    None,                     !- Demand Controlled Ventilation Type
    NoEconomizer,             !- Outdoor Air Economizer Type
    None,                     !- Heat Recovery Type
    0.70,                     !- Sensible Heat Recovery Effectiveness
    0.65;                     !- Latent Heat Recovery Effectiveness

HVACTEMPLATE:ZONE:IDEALLOADSAIRSYSTEM,
    609404ef061555bc_F3_dwelling_0,    !- Zone Name
    EU_HeatOnly_609404ef061555bc_F3_dwelling_0,    !- Template Thermostat Name
    EU_AlwaysOn,              !- System Availability Schedule Name
    50,                       !- Maximum Heating Supply Air Temperature
    13,                       !- Minimum Cooling Supply Air Temperature
    0.0156,                   !- Maximum Heating Supply Air Humidity Ratio
    0.0077,                   !- Minimum Cooling Supply Air Humidity Ratio
    NoLimit,                  !- Heating Limit
    ,                         !- Maximum Heating Air Flow Rate
    ,                         !- Maximum Sensible Heating Capacity
    NoLimit,                  !- Cooling Limit
    ,                         !- Maximum Cooling Air Flow Rate
    ,                         !- Maximum Total Cooling Capacity
    EU_AlwaysOn,              !- Heating Availability Schedule Name
    EU_CoolingOff,            !- Cooling Availability Schedule Name
    ConstantSensibleHeatRatio,    !- Dehumidification Control Type
    0.7,                      !- Cooling Sensible Heat Ratio
    60,                       !- Dehumidification Setpoint
    None,                     !- Humidification Control Type
    30,                       !- Humidification Setpoint
    None,                     !- Outdoor Air Method
    0.00944,                  !- Outdoor Air Flow Rate per Person
    0.0,                      !- Outdoor Air Flow Rate per Zone Floor Area
    0,                        !- Outdoor Air Flow Rate per Zone
    ,                         !- Design Specification Outdoor Air Object Name
    None,                     !- Demand Controlled Ventilation Type
    NoEconomizer,             !- Outdoor Air Economizer Type
    None,                     !- Heat Recovery Type
    0.70,                     !- Sensible Heat Recovery Effectiveness
    0.65;                     !- Latent Heat Recovery Effectiveness

SIZING:ZONE,
    609404ef061555bc_F0_dwelling_0,    !- Zone or ZoneList Name
    SupplyAirTemperature,     !- Zone Cooling Design Supply Air Temperature Input Method
    13,                       !- Zone Cooling Design Supply Air Temperature
    ,                         !- Zone Cooling Design Supply Air Temperature Difference
    SupplyAirTemperature,     !- Zone Heating Design Supply Air Temperature Input Method
    50,                       !- Zone Heating Design Supply Air Temperature
    ,                         !- Zone Heating Design Supply Air Temperature Difference
    0.008,                    !- Zone Cooling Design Supply Air Humidity Ratio
    0.008,                    !- Zone Heating Design Supply Air Humidity Ratio
    ,                         !- Design Specification Outdoor Air Object Name
    ,                         !- Zone Heating Sizing Factor
    ,                         !- Zone Cooling Sizing Factor
    DesignDay,                !- Cooling Design Air Flow Method
    0,                        !- Cooling Design Air Flow Rate
    0.000762,                 !- Cooling Minimum Air Flow per Zone Floor Area
    0,                        !- Cooling Minimum Air Flow
    0.2,                      !- Cooling Minimum Air Flow Fraction
    DesignDay,                !- Heating Design Air Flow Method
    0,                        !- Heating Design Air Flow Rate
    0.002032,                 !- Heating Maximum Air Flow per Zone Floor Area
    0.1415762,                !- Heating Maximum Air Flow
    0.3,                      !- Heating Maximum Air Flow Fraction
    ,                         !- Design Specification Zone Air Distribution Object Name
    No,                       !- Account for Dedicated Outdoor Air System
    NeutralSupplyAir,         !- Dedicated Outdoor Air System Control Strategy
    autosize,                 !- Dedicated Outdoor Air Low Setpoint Temperature for Design
    autosize,                 !- Dedicated Outdoor Air High Setpoint Temperature for Design
    Sensible Load Only No Latent Load,    !- Zone Load Sizing Method
    HumidityRatioDifference,    !- Zone Latent Cooling Design Supply Air Humidity Ratio Input Method
    ,                         !- Zone Dehumidification Design Supply Air Humidity Ratio
    0.005,                    !- Zone Cooling Design Supply Air Humidity Ratio Difference
    HumidityRatioDifference,    !- Zone Latent Heating Design Supply Air Humidity Ratio Input Method
    ,                         !- Zone Humidification Design Supply Air Humidity Ratio
    0.005;                    !- Zone Humidification Design Supply Air Humidity Ratio Difference

SIZING:ZONE,
    609404ef061555bc_F1_dwelling_0,    !- Zone or ZoneList Name
    SupplyAirTemperature,     !- Zone Cooling Design Supply Air Temperature Input Method
    13,                       !- Zone Cooling Design Supply Air Temperature
    ,                         !- Zone Cooling Design Supply Air Temperature Difference
    SupplyAirTemperature,     !- Zone Heating Design Supply Air Temperature Input Method
    50,                       !- Zone Heating Design Supply Air Temperature
    ,                         !- Zone Heating Design Supply Air Temperature Difference
    0.008,                    !- Zone Cooling Design Supply Air Humidity Ratio
    0.008,                    !- Zone Heating Design Supply Air Humidity Ratio
    ,                         !- Design Specification Outdoor Air Object Name
    ,                         !- Zone Heating Sizing Factor
    ,                         !- Zone Cooling Sizing Factor
    DesignDay,                !- Cooling Design Air Flow Method
    0,                        !- Cooling Design Air Flow Rate
    0.000762,                 !- Cooling Minimum Air Flow per Zone Floor Area
    0,                        !- Cooling Minimum Air Flow
    0.2,                      !- Cooling Minimum Air Flow Fraction
    DesignDay,                !- Heating Design Air Flow Method
    0,                        !- Heating Design Air Flow Rate
    0.002032,                 !- Heating Maximum Air Flow per Zone Floor Area
    0.1415762,                !- Heating Maximum Air Flow
    0.3,                      !- Heating Maximum Air Flow Fraction
    ,                         !- Design Specification Zone Air Distribution Object Name
    No,                       !- Account for Dedicated Outdoor Air System
    NeutralSupplyAir,         !- Dedicated Outdoor Air System Control Strategy
    autosize,                 !- Dedicated Outdoor Air Low Setpoint Temperature for Design
    autosize,                 !- Dedicated Outdoor Air High Setpoint Temperature for Design
    Sensible Load Only No Latent Load,    !- Zone Load Sizing Method
    HumidityRatioDifference,    !- Zone Latent Cooling Design Supply Air Humidity Ratio Input Method
    ,                         !- Zone Dehumidification Design Supply Air Humidity Ratio
    0.005,                    !- Zone Cooling Design Supply Air Humidity Ratio Difference
    HumidityRatioDifference,    !- Zone Latent Heating Design Supply Air Humidity Ratio Input Method
    ,                         !- Zone Humidification Design Supply Air Humidity Ratio
    0.005;                    !- Zone Humidification Design Supply Air Humidity Ratio Difference

SIZING:ZONE,
    609404ef061555bc_F2_dwelling_0,    !- Zone or ZoneList Name
    SupplyAirTemperature,     !- Zone Cooling Design Supply Air Temperature Input Method
    13,                       !- Zone Cooling Design Supply Air Temperature
    ,                         !- Zone Cooling Design Supply Air Temperature Difference
    SupplyAirTemperature,     !- Zone Heating Design Supply Air Temperature Input Method
    50,                       !- Zone Heating Design Supply Air Temperature
    ,                         !- Zone Heating Design Supply Air Temperature Difference
    0.008,                    !- Zone Cooling Design Supply Air Humidity Ratio
    0.008,                    !- Zone Heating Design Supply Air Humidity Ratio
    ,                         !- Design Specification Outdoor Air Object Name
    ,                         !- Zone Heating Sizing Factor
    ,                         !- Zone Cooling Sizing Factor
    DesignDay,                !- Cooling Design Air Flow Method
    0,                        !- Cooling Design Air Flow Rate
    0.000762,                 !- Cooling Minimum Air Flow per Zone Floor Area
    0,                        !- Cooling Minimum Air Flow
    0.2,                      !- Cooling Minimum Air Flow Fraction
    DesignDay,                !- Heating Design Air Flow Method
    0,                        !- Heating Design Air Flow Rate
    0.002032,                 !- Heating Maximum Air Flow per Zone Floor Area
    0.1415762,                !- Heating Maximum Air Flow
    0.3,                      !- Heating Maximum Air Flow Fraction
    ,                         !- Design Specification Zone Air Distribution Object Name
    No,                       !- Account for Dedicated Outdoor Air System
    NeutralSupplyAir,         !- Dedicated Outdoor Air System Control Strategy
    autosize,                 !- Dedicated Outdoor Air Low Setpoint Temperature for Design
    autosize,                 !- Dedicated Outdoor Air High Setpoint Temperature for Design
    Sensible Load Only No Latent Load,    !- Zone Load Sizing Method
    HumidityRatioDifference,    !- Zone Latent Cooling Design Supply Air Humidity Ratio Input Method
    ,                         !- Zone Dehumidification Design Supply Air Humidity Ratio
    0.005,                    !- Zone Cooling Design Supply Air Humidity Ratio Difference
    HumidityRatioDifference,    !- Zone Latent Heating Design Supply Air Humidity Ratio Input Method
    ,                         !- Zone Humidification Design Supply Air Humidity Ratio
    0.005;                    !- Zone Humidification Design Supply Air Humidity Ratio Difference

SIZING:ZONE,
    609404ef061555bc_F3_dwelling_0,    !- Zone or ZoneList Name
    SupplyAirTemperature,     !- Zone Cooling Design Supply Air Temperature Input Method
    13,                       !- Zone Cooling Design Supply Air Temperature
    ,                         !- Zone Cooling Design Supply Air Temperature Difference
    SupplyAirTemperature,     !- Zone Heating Design Supply Air Temperature Input Method
    50,                       !- Zone Heating Design Supply Air Temperature
    ,                         !- Zone Heating Design Supply Air Temperature Difference
    0.008,                    !- Zone Cooling Design Supply Air Humidity Ratio
    0.008,                    !- Zone Heating Design Supply Air Humidity Ratio
    ,                         !- Design Specification Outdoor Air Object Name
    ,                         !- Zone Heating Sizing Factor
    ,                         !- Zone Cooling Sizing Factor
    DesignDay,                !- Cooling Design Air Flow Method
    0,                        !- Cooling Design Air Flow Rate
    0.000762,                 !- Cooling Minimum Air Flow per Zone Floor Area
    0,                        !- Cooling Minimum Air Flow
    0.2,                      !- Cooling Minimum Air Flow Fraction
    DesignDay,                !- Heating Design Air Flow Method
    0,                        !- Heating Design Air Flow Rate
    0.002032,                 !- Heating Maximum Air Flow per Zone Floor Area
    0.1415762,                !- Heating Maximum Air Flow
    0.3,                      !- Heating Maximum Air Flow Fraction
    ,                         !- Design Specification Zone Air Distribution Object Name
    No,                       !- Account for Dedicated Outdoor Air System
    NeutralSupplyAir,         !- Dedicated Outdoor Air System Control Strategy
    autosize,                 !- Dedicated Outdoor Air Low Setpoint Temperature for Design
    autosize,                 !- Dedicated Outdoor Air High Setpoint Temperature for Design
    Sensible Load Only No Latent Load,    !- Zone Load Sizing Method
    HumidityRatioDifference,    !- Zone Latent Cooling Design Supply Air Humidity Ratio Input Method
    ,                         !- Zone Dehumidification Design Supply Air Humidity Ratio
    0.005,                    !- Zone Cooling Design Supply Air Humidity Ratio Difference
    HumidityRatioDifference,    !- Zone Latent Heating Design Supply Air Humidity Ratio Input Method
    ,                         !- Zone Humidification Design Supply Air Humidity Ratio
    0.005;                    !- Zone Humidification Design Supply Air Humidity Ratio Difference

OUTPUT:VARIABLE,
    *,                        !- Key Value
    Zone Ideal Loads Zone Total Heating Energy,    !- Variable Name
    Hourly;                   !- Reporting Frequency

OUTPUT:SQLITE,
    SimpleAndTabular,         !- Option Type
    UseOutputControlTableStyle;    !- Unit Conversion for Tabular Data