!- Windows Line endings 

Version,
    23.1;                     !- Version Identifier

SimulationControl,
    Yes,                      !- Do Zone Sizing Calculation
    Yes,                      !- Do System Sizing Calculation
    Yes,                      !- Do Plant Sizing Calculation
    No,                       !- Run Simulation for Sizing Periods
    Yes,                      !- Run Simulation for Weather File Run Periods
    No,                       !- Do HVAC Sizing Simulation for Sizing Periods
    1;                        !- Maximum Number of HVAC Sizing Simulation Passes

Building,
    EU S2 Campaign,           !- Name
    0,                        !- North Axis
    City,                     !- Terrain
    ,                         !- Loads Convergence Tolerance Value
    ,                         !- Temperature Convergence Tolerance Value
    FullExterior,             !- Solar Distribution
    ,                         !- Maximum Number of Warmup Days
    ;                         !- Minimum Number of Warmup Days

ShadowCalculation,
    PolygonClipping,          !- Shading Calculation Method
    Periodic,                 !- Shading Calculation Update Frequency Method
    1;                        !- Shading Calculation Update Frequency

HeatBalanceAlgorithm,
    ConductionTransferFunction,    !- Algorithm
    200,                      !- Surface Temperature Upper Limit
    0.1,                      !- Minimum Surface Convection Heat Transfer Coefficient Value
    10000000;                 !- Maximum Surface Convection Heat Transfer Coefficient Value

Timestep,
    12;                       !- Number of Timesteps per Hour

Site:Location,
    London,                   !- Name
    51.5,                     !- Latitude
    -0.5,                     !- Longitude
    0,                        !- Time Zone
    25;                       !- Elevation

SizingPeriod:WeatherFileDays,
    AnnualSizingPeriod,       !- Name
    1,                        !- Begin Month
    1,                        !- Begin Day of Month
    12,                       !- End Month
    31,                       !- End Day of Month
    Monday,                   !- Day of Week for Start Day
    No,                       !- Use Weather File Daylight Saving Period
    No;                       !- Use Weather File Rain and Snow Indicators

RunPeriod,
    RunPeriod1,               !- Name
    1,                        !- Begin Month
    1,                        !- Begin Day of Month
    ,                         !- Begin Year
    12,                       !- End Month
    31,                       !- End Day of Month
    ,                         !- End Year
    Sunday,                   !- Day of Week for Start Day
    No,                       !- Use Weather File Holidays and Special Days
    No,                       !- Use Weather File Daylight Saving Period
    No,                       !- Apply Weekend Holiday Rule
    Yes,                      !- Use Weather File Rain Indicators
    Yes;                      !- Use Weather File Snow Indicators

ScheduleTypeLimits,
    Any Number;               !- Name

SCHEDULETYPELIMITS,
    EU_Step8_AnyNumber_Wm2,    !- Name
    ,                         !- Lower Limit Value
    ,                         !- Upper Limit Value
    Continuous,               !- Numeric Type
    Dimensionless;            !- Unit Type

SCHEDULE:CONSTANT,
    EU_AlwaysOn,              !- Name
    ,                         !- Schedule Type Limits Name
    1;                        !- Hourly Value

SCHEDULE:CONSTANT,
    EU_CoolingOff,            !- Name
    ,                         !- Schedule Type Limits Name
    0;                        !- Hourly Value

SCHEDULE:FILE,
    EU_Step8_GainSchedule_2054ca8ad91857ac_F0_dwelling_0_f000,    !- Name
    EU_Step8_AnyNumber_Wm2,    !- Schedule Type Limits Name
    ../../schedules/2054ca8ad91857ac/2054ca8ad91857ac_F0_dwelling_0_f000_gain.csv,    !- File Name
    1,                        !- Column Number
    0,                        !- Rows to Skip at Top
    8760,                     !- Number of Hours of Data
    Comma,                    !- Column Separator
    No,                       !- Interpolate to Timestep
    60,                       !- Minutes per Item
    Yes;                      !- Adjust Schedule for Daylight Savings

MATERIAL,
    EU_InternalMass_Material,    !- Name
    MediumRough,              !- Roughness
    0.1,                      !- Thickness
    1,                        !- Conductivity
    1800,                     !- Density
    900,                      !- Specific Heat
    0.9,                      !- Thermal Absorptance
    0.7,                      !- Solar Absorptance
    0.7;                      !- Visible Absorptance

MATERIAL:NOMASS,
    EU_wall_NoMass,           !- Name
    MediumRough,              !- Roughness
    0.7247189243747139,       !- Thermal Resistance
    0.9,                      !- Thermal Absorptance
    0.7,                      !- Solar Absorptance
    0.7;                      !- Visible Absorptance

MATERIAL:NOMASS,
    EU_roof_NoMass,           !- Name
    MediumRough,              !- Roughness
    2.989465563045695,        !- Thermal Resistance
    0.9,                      !- Thermal Absorptance
    0.7,                      !- Solar Absorptance
    0.7;                      !- Visible Absorptance

MATERIAL:NOMASS,
    EU_floor_NoMass,          !- Name
    MediumRough,              !- Roughness
    2.3915724504365556,       !- Thermal Resistance
    0.9,                      !- Thermal Absorptance
    0.7,                      !- Solar Absorptance
    0.7;                      !- Visible Absorptance

CONSTRUCTION,
    EU_wall_Construction,     !- Name
    EU_wall_NoMass;           !- Outside Layer

CONSTRUCTION,
    EU_roof_Construction,     !- Name
    EU_roof_NoMass;           !- Outside Layer

CONSTRUCTION,
    EU_floor_Construction,    !- Name
    EU_floor_NoMass;          !- Outside Layer

CONSTRUCTION,
    EU_InternalMass_Construction,    !- Name
    EU_InternalMass_Material;    !- Outside Layer

GlobalGeometryRules,
    UpperLeftCorner,          !- Starting Vertex Position
    CounterClockWise,         !- Vertex Entry Direction
    World;                    !- Coordinate System

ZONE,
    2054ca8ad91857ac_F0_dwelling_0,    !- Name
    0,                        !- Direction of Relative North
    0,                        !- X Origin
    0,                        !- Y Origin
    0,                        !- Z Origin
    1,                        !- Type
    1,                        !- Multiplier
    autocalculate,            !- Ceiling Height
    286.56591796875,          !- Volume
    autocalculate,            !- Floor Area
    ,                         !- Zone Inside Convection Algorithm
    ,                         !- Zone Outside Convection Algorithm
    Yes;                      !- Part of Total Floor Area

BUILDINGSURFACE:DETAILED,
    Block 2054ca8ad91857ac_0 Storey 0 Wall 0001,    !- Name
    wall,                     !- Surface Type
    EU_wall_Construction,     !- Construction Name
    2054ca8ad91857ac_F0_dwelling_0,    !- Zone Name
    ,                         !- Space Name
    Adiabatic,                !- Outside Boundary Condition
    ,                         !- Outside Boundary Condition Object
    NoSun,                    !- Sun Exposure
    NoWind,                   !- Wind Exposure
    autocalculate,            !- View Factor to Ground
    autocalculate,            !- Number of Vertices
    705611.066,               !- Vertex 1 Xcoordinate
    5711501.591,              !- Vertex 1 Ycoordinate
    6,                        !- Vertex 1 Zcoordinate
    705611.066,               !- Vertex 2 Xcoordinate
    5711501.591,              !- Vertex 2 Ycoordinate
    0,                        !- Vertex 2 Zcoordinate
    705600.606,               !- Vertex 3 Xcoordinate
    5711502.003,              !- Vertex 3 Ycoordinate
    0,                        !- Vertex 3 Zcoordinate
    705600.606,               !- Vertex 4 Xcoordinate
    5711502.003,              !- Vertex 4 Ycoordinate
    6;                        !- Vertex 4 Zcoordinate

BUILDINGSURFACE:DETAILED,
    Block 2054ca8ad91857ac_0 Storey 0 Wall 0002,    !- Name
    wall,                     !- Surface Type
    EU_wall_Construction,     !- Construction Name
    2054ca8ad91857ac_F0_dwelling_0,    !- Zone Name
    ,                         !- Space Name
    outdoors,                 !- Outside Boundary Condition
    ,                         !- Outside Boundary Condition Object
    SunExposed,               !- Sun Exposure
    WindExposed,              !- Wind Exposure
    autocalculate,            !- View Factor to Ground
    autocalculate,            !- Number of Vertices
    705600.606,               !- Vertex 1 Xcoordinate
    5711502.003,              !- Vertex 1 Ycoordinate
    6,                        !- Vertex 1 Zcoordinate
    705600.606,               !- Vertex 2 Xcoordinate
    5711502.003,              !- Vertex 2 Ycoordinate
    0,                        !- Vertex 2 Zcoordinate
    705600.783,               !- Vertex 3 Xcoordinate
    5711506.553,              !- Vertex 3 Ycoordinate
    0,                        !- Vertex 3 Zcoordinate
    705600.783,               !- Vertex 4 Xcoordinate
    5711506.553,              !- Vertex 4 Ycoordinate
    6;                        !- Vertex 4 Zcoordinate

BUILDINGSURFACE:DETAILED,
    Block 2054ca8ad91857ac_0 Storey 0 Wall 0003,    !- Name
    wall,                     !- Surface Type
    EU_wall_Construction,     !- Construction Name
    2054ca8ad91857ac_F0_dwelling_0,    !- Zone Name
    ,                         !- Space Name
    Adiabatic,                !- Outside Boundary Condition
    ,                         !- Outside Boundary Condition Object
    NoSun,                    !- Sun Exposure
    NoWind,                   !- Wind Exposure
    autocalculate,            !- View Factor to Ground
    autocalculate,            !- Number of Vertices
    705600.783,               !- Vertex 1 Xcoordinate
    5711506.553,              !- Vertex 1 Ycoordinate
    6,                        !- Vertex 1 Zcoordinate
    705600.783,               !- Vertex 2 Xcoordinate
    5711506.553,              !- Vertex 2 Ycoordinate
    0,                        !- Vertex 2 Zcoordinate
    705611.213,               !- Vertex 3 Xcoordinate
    5711506.174,              !- Vertex 3 Ycoordinate
    0,                        !- Vertex 3 Zcoordinate
    705611.213,               !- Vertex 4 Xcoordinate
    5711506.174,              !- Vertex 4 Ycoordinate
    6;                        !- Vertex 4 Zcoordinate

BUILDINGSURFACE:DETAILED,
    Block 2054ca8ad91857ac_0 Storey 0 Wall 0004,    !- Name
    wall,                     !- Surface Type
    EU_wall_Construction,     !- Construction Name
    2054ca8ad91857ac_F0_dwelling_0,    !- Zone Name
    ,                         !- Space Name
    outdoors,                 !- Outside Boundary Condition
    ,                         !- Outside Boundary Condition Object
    SunExposed,               !- Sun Exposure
    WindExposed,              !- Wind Exposure
    autocalculate,            !- View Factor to Ground
    autocalculate,            !- Number of Vertices
    705611.213,               !- Vertex 1 Xcoordinate
    5711506.174,              !- Vertex 1 Ycoordinate
    6,                        !- Vertex 1 Zcoordinate
    705611.213,               !- Vertex 2 Xcoordinate
    5711506.174,              !- Vertex 2 Ycoordinate
    0,                        !- Vertex 2 Zcoordinate
    705611.066,               !- Vertex 3 Xcoordinate
    5711501.591,              !- Vertex 3 Ycoordinate
    0,                        !- Vertex 3 Zcoordinate
    705611.066,               !- Vertex 4 Xcoordinate
    5711501.591,              !- Vertex 4 Ycoordinate
    6;                        !- Vertex 4 Zcoordinate

BUILDINGSURFACE:DETAILED,
    Block 2054ca8ad91857ac_0 Storey 0 Floor 0001,    !- Name
    floor,                    !- Surface Type
    EU_floor_Construction,    !- Construction Name
    2054ca8ad91857ac_F0_dwelling_0,    !- Zone Name
    ,                         !- Space Name
    ground,                   !- Outside Boundary Condition
    ,                         !- Outside Boundary Condition Object
    NoSun,                    !- Sun Exposure
    NoWind,                   !- Wind Exposure
    autocalculate,            !- View Factor to Ground
    autocalculate,            !- Number of Vertices
    705611.066,               !- Vertex 1 Xcoordinate
    5711501.591,              !- Vertex 1 Ycoordinate
    0,                        !- Vertex 1 Zcoordinate
    705611.213,               !- Vertex 2 Xcoordinate
    5711506.174,              !- Vertex 2 Ycoordinate
    0,                        !- Vertex 2 Zcoordinate
    705600.783,               !- Vertex 3 Xcoordinate
    5711506.553,              !- Vertex 3 Ycoordinate
    0,                        !- Vertex 3 Zcoordinate
    705600.606,               !- Vertex 4 Xcoordinate
    5711502.003,              !- Vertex 4 Ycoordinate
    0;                        !- Vertex 4 Zcoordinate

BUILDINGSURFACE:DETAILED,
    Block 2054ca8ad91857ac_0 Storey 0 Roof 0001,    !- Name
    roof,                     !- Surface Type
    EU_roof_Construction,     !- Construction Name
    2054ca8ad91857ac_F0_dwelling_0,    !- Zone Name
    ,                         !- Space Name
    outdoors,                 !- Outside Boundary Condition
    ,                         !- Outside Boundary Condition Object
    NoSun,                    !- Sun Exposure
    WindExposed,              !- Wind Exposure
    autocalculate,            !- View Factor to Ground
    autocalculate,            !- Number of Vertices
    705611.213,               !- Vertex 1 Xcoordinate
    5711506.174,              !- Vertex 1 Ycoordinate
    6,                        !- Vertex 1 Zcoordinate
    705611.066,               !- Vertex 2 Xcoordinate
    5711501.591,              !- Vertex 2 Ycoordinate
    6,                        !- Vertex 2 Zcoordinate
    705600.606,               !- Vertex 3 Xcoordinate
    5711502.003,              !- Vertex 3 Ycoordinate
    6,                        !- Vertex 3 Zcoordinate
    705600.783,               !- Vertex 4 Xcoordinate
    5711506.553,              !- Vertex 4 Ycoordinate
    6;                        !- Vertex 4 Zcoordinate

INTERNALMASS,
    2054ca8ad91857ac_F0_dwelling_0_EU_InternalMass,    !- Name
    EU_InternalMass_Construction,    !- Construction Name
    2054ca8ad91857ac_F0_dwelling_0,    !- Zone or ZoneList Name
    ,                         !- Space or SpaceList Name
    47.761163502302864;       !- Surface Area

SHADING:SITE:DETAILED,
    shade_way/395625733_1,    !- Name
    ,                         !- Transmittance Schedule Name
    autocalculate,            !- Number of Vertices
    705599.6319369447,        !- Vertex 1 Xcoordinate
    5711481.984135328,        !- Vertex 1 Ycoordinate
    6,                        !- Vertex 1 Zcoordinate
    705599.6319369447,        !- Vertex 2 Xcoordinate
    5711481.984135328,        !- Vertex 2 Ycoordinate
    0,                        !- Vertex 2 Zcoordinate
    705610.1480152421,        !- Vertex 3 Xcoordinate
    5711481.719839731,        !- Vertex 3 Ycoordinate
    0,                        !- Vertex 3 Zcoordinate
    705610.1480152421,        !- Vertex 4 Xcoordinate
    5711481.719839731,        !- Vertex 4 Ycoordinate
    6;                        !- Vertex 4 Zcoordinate

SHADING:SITE:DETAILED,
    shade_way/395625733_2,    !- Name
    ,                         !- Transmittance Schedule Name
    autocalculate,            !- Number of Vertices
    705610.1480152421,        !- Vertex 1 Xcoordinate
    5711481.719839731,        !- Vertex 1 Ycoordinate
    6,                        !- Vertex 1 Zcoordinate
    705610.1480152421,        !- Vertex 2 Xcoordinate
    5711481.719839731,        !- Vertex 2 Ycoordinate
    0,                        !- Vertex 2 Zcoordinate
    705610.0359568675,        !- Vertex 3 Xcoordinate
    5711477.249169643,        !- Vertex 3 Ycoordinate
    0,                        !- Vertex 3 Zcoordinate
    705610.0359568675,        !- Vertex 4 Xcoordinate
    5711477.249169643,        !- Vertex 4 Ycoordinate
    6;                        !- Vertex 4 Zcoordinate

SHADING:SITE:DETAILED,
    shade_way/395625733_3,    !- Name
    ,                         !- Transmittance Schedule Name
    autocalculate,            !- Number of Vertices
    705610.0359568675,        !- Vertex 1 Xcoordinate
    5711477.249169643,        !- Vertex 1 Ycoordinate
    6,                        !- Vertex 1 Zcoordinate
    705610.0359568675,        !- Vertex 2 Xcoordinate
    5711477.249169643,        !- Vertex 2 Ycoordinate
    0,                        !- Vertex 2 Zcoordinate
    705599.5198785702,        !- Vertex 3 Xcoordinate
    5711477.5134652415,       !- Vertex 3 Ycoordinate
    0,                        !- Vertex 3 Zcoordinate
    705599.5198785702,        !- Vertex 4 Xcoordinate
    5711477.5134652415,       !- Vertex 4 Ycoordinate
    6;                        !- Vertex 4 Zcoordinate

SHADING:SITE:DETAILED,
    shade_way/395625733_4,    !- Name
    ,                         !- Transmittance Schedule Name
    autocalculate,            !- Number of Vertices
    705599.5198785702,        !- Vertex 1 Xcoordinate
    5711477.5134652415,       !- Vertex 1 Ycoordinate
    6,                        !- Vertex 1 Zcoordinate
    705599.5198785702,        !- Vertex 2 Xcoordinate
    5711477.5134652415,       !- Vertex 2 Ycoordinate
    0,                        !- Vertex 2 Zcoordinate
    705599.6319369447,        !- Vertex 3 Xcoordinate
    5711481.984135328,        !- Vertex 3 Ycoordinate
    0,                        !- Vertex 3 Zcoordinate
    705599.6319369447,        !- Vertex 4 Xcoordinate
    5711481.984135328,        !- Vertex 4 Ycoordinate
    6;                        !- Vertex 4 Zcoordinate

SHADING:SITE:DETAILED,
    shade_way/395625735_1,    !- Name
    ,                         !- Transmittance Schedule Name
    autocalculate,            !- Number of Vertices
    705610.1484608292,        !- Vertex 1 Xcoordinate
    5711481.71970922,         !- Vertex 1 Ycoordinate
    6,                        !- Vertex 1 Zcoordinate
    705610.1484608292,        !- Vertex 2 Xcoordinate
    5711481.71970922,         !- Vertex 2 Ycoordinate
    0,                        !- Vertex 2 Zcoordinate
    705599.6319369447,        !- Vertex 3 Xcoordinate
    5711481.984135328,        !- Vertex 3 Ycoordinate
    0,                        !- Vertex 3 Zcoordinate
    705599.6319369447,        !- Vertex 4 Xcoordinate
    5711481.984135328,        !- Vertex 4 Ycoordinate
    6;                        !- Vertex 4 Zcoordinate

SHADING:SITE:DETAILED,
    shade_way/395625735_2,    !- Name
    ,                         !- Transmittance Schedule Name
    autocalculate,            !- Number of Vertices
    705599.6319369447,        !- Vertex 1 Xcoordinate
    5711481.984135328,        !- Vertex 1 Ycoordinate
    6,                        !- Vertex 1 Zcoordinate
    705599.6319369447,        !- Vertex 2 Xcoordinate
    5711481.984135328,        !- Vertex 2 Ycoordinate
    0,                        !- Vertex 2 Zcoordinate
    705599.7412202158,        !- Vertex 3 Xcoordinate
    5711486.320445382,        !- Vertex 3 Ycoordinate
    0,                        !- Vertex 3 Zcoordinate
    705599.7412202158,        !- Vertex 4 Xcoordinate
    5711486.320445382,        !- Vertex 4 Ycoordinate
    6;                        !- Vertex 4 Zcoordinate

SHADING:SITE:DETAILED,
    shade_way/395625735_3,    !- Name
    ,                         !- Transmittance Schedule Name
    autocalculate,            !- Number of Vertices
    705599.7412202158,        !- Vertex 1 Xcoordinate
    5711486.320445382,        !- Vertex 1 Ycoordinate
    6,                        !- Vertex 1 Zcoordinate
    705599.7412202158,        !- Vertex 2 Xcoordinate
    5711486.320445382,        !- Vertex 2 Ycoordinate
    0,                        !- Vertex 2 Zcoordinate
    705610.2571487698,        !- Vertex 3 Xcoordinate
    5711486.056272859,        !- Vertex 3 Ycoordinate
    0,                        !- Vertex 3 Zcoordinate
    705610.2571487698,        !- Vertex 4 Xcoordinate
    5711486.056272859,        !- Vertex 4 Ycoordinate
    6;                        !- Vertex 4 Zcoordinate

SHADING:SITE:DETAILED,
    shade_way/395625735_4,    !- Name
    ,                         !- Transmittance Schedule Name
    autocalculate,            !- Number of Vertices
    705610.2571487698,        !- Vertex 1 Xcoordinate
    5711486.056272859,        !- Vertex 1 Ycoordinate
    6,                        !- Vertex 1 Zcoordinate
    705610.2571487698,        !- Vertex 2 Xcoordinate
    5711486.056272859,        !- Vertex 2 Ycoordinate
    0,                        !- Vertex 2 Zcoordinate
    705610.1484608292,        !- Vertex 3 Xcoordinate
    5711481.71970922,         !- Vertex 3 Ycoordinate
    0,                        !- Vertex 3 Zcoordinate
    705610.1484608292,        !- Vertex 4 Xcoordinate
    5711481.71970922,         !- Vertex 4 Ycoordinate
    6;                        !- Vertex 4 Zcoordinate

SHADING:SITE:DETAILED,
    shade_way/1057823423_1,    !- Name
    ,                         !- Transmittance Schedule Name
    autocalculate,            !- Number of Vertices
    705609.9553506837,        !- Vertex 1 Xcoordinate
    5711497.219105826,        !- Vertex 1 Ycoordinate
    9,                        !- Vertex 1 Zcoordinate
    705609.9553506837,        !- Vertex 2 Xcoordinate
    5711497.219105826,        !- Vertex 2 Ycoordinate
    0,                        !- Vertex 2 Zcoordinate
    705609.5801225342,        !- Vertex 3 Xcoordinate
    5711485.959117064,        !- Vertex 3 Ycoordinate
    0,                        !- Vertex 3 Zcoordinate
    705609.5801225342,        !- Vertex 4 Xcoordinate
    5711485.959117064,        !- Vertex 4 Ycoordinate
    9;                        !- Vertex 4 Zcoordinate

SHADING:SITE:DETAILED,
    shade_way/1057823423_2,    !- Name
    ,                         !- Transmittance Schedule Name
    autocalculate,            !- Number of Vertices
    705609.5801225342,        !- Vertex 1 Xcoordinate
    5711485.959117064,        !- Vertex 1 Ycoordinate
    9,                        !- Vertex 1 Zcoordinate
    705609.5801225342,        !- Vertex 2 Xcoordinate
    5711485.959117064,        !- Vertex 2 Ycoordinate
    0,                        !- Vertex 2 Zcoordinate
    705595.6478310819,        !- Vertex 3 Xcoordinate
    5711486.4233971005,       !- Vertex 3 Ycoordinate
    0,                        !- Vertex 3 Zcoordinate
    705595.6478310819,        !- Vertex 4 Xcoordinate
    5711486.4233971005,       !- Vertex 4 Ycoordinate
    9;                        !- Vertex 4 Zcoordinate

SHADING:SITE:DETAILED,
    shade_way/1057823423_3,    !- Name
    ,                         !- Transmittance Schedule Name
    autocalculate,            !- Number of Vertices
    705595.6478310819,        !- Vertex 1 Xcoordinate
    5711486.4233971005,       !- Vertex 1 Ycoordinate
    9,                        !- Vertex 1 Zcoordinate
    705595.6478310819,        !- Vertex 2 Xcoordinate
    5711486.4233971005,       !- Vertex 2 Ycoordinate
    0,                        !- Vertex 2 Zcoordinate
    705596.0230592313,        !- Vertex 3 Xcoordinate
    5711497.683385862,        !- Vertex 3 Ycoordinate
    0,                        !- Vertex 3 Zcoordinate
    705596.0230592313,        !- Vertex 4 Xcoordinate
    5711497.683385862,        !- Vertex 4 Ycoordinate
    9;                        !- Vertex 4 Zcoordinate

SHADING:SITE:DETAILED,
    shade_way/1057823423_4,    !- Name
    ,                         !- Transmittance Schedule Name
    autocalculate,            !- Number of Vertices
    705596.0230592313,        !- Vertex 1 Xcoordinate
    5711497.683385862,        !- Vertex 1 Ycoordinate
    9,                        !- Vertex 1 Zcoordinate
    705596.0230592313,        !- Vertex 2 Xcoordinate
    5711497.683385862,        !- Vertex 2 Ycoordinate
    0,                        !- Vertex 2 Zcoordinate
    705609.9553506837,        !- Vertex 3 Xcoordinate
    5711497.219105826,        !- Vertex 3 Ycoordinate
    0,                        !- Vertex 3 Zcoordinate
    705609.9553506837,        !- Vertex 4 Xcoordinate
    5711497.219105826,        !- Vertex 4 Ycoordinate
    9;                        !- Vertex 4 Zcoordinate

SHADING:SITE:DETAILED,
    shade_way/395622186_1,    !- Name
    ,                         !- Transmittance Schedule Name
    autocalculate,            !- Number of Vertices
    705610.9620896003,        !- Vertex 1 Xcoordinate
    5711497.119505922,        !- Vertex 1 Ycoordinate
    6,                        !- Vertex 1 Zcoordinate
    705610.9620896003,        !- Vertex 2 Xcoordinate
    5711497.119505922,        !- Vertex 2 Ycoordinate
    0,                        !- Vertex 2 Zcoordinate
    705597.8167809097,        !- Vertex 3 Xcoordinate
    5711497.624162824,        !- Vertex 3 Ycoordinate
    0,                        !- Vertex 3 Zcoordinate
    705597.8167809097,        !- Vertex 4 Xcoordinate
    5711497.624162824,        !- Vertex 4 Ycoordinate
    6;                        !- Vertex 4 Zcoordinate

SHADING:SITE:DETAILED,
    shade_way/395622186_2,    !- Name
    ,                         !- Transmittance Schedule Name
    autocalculate,            !- Number of Vertices
    705597.8167809097,        !- Vertex 1 Xcoordinate
    5711497.624162824,        !- Vertex 1 Ycoordinate
    6,                        !- Vertex 1 Zcoordinate
    705597.8167809097,        !- Vertex 2 Xcoordinate
    5711497.624162824,        !- Vertex 2 Ycoordinate
    0,                        !- Vertex 2 Zcoordinate
    705597.9887215073,        !- Vertex 3 Xcoordinate
    5711502.10287341,         !- Vertex 3 Ycoordinate
    0,                        !- Vertex 3 Zcoordinate
    705597.9887215073,        !- Vertex 4 Xcoordinate
    5711502.10287341,         !- Vertex 4 Ycoordinate
    6;                        !- Vertex 4 Zcoordinate

SHADING:SITE:DETAILED,
    shade_way/395622186_3,    !- Name
    ,                         !- Transmittance Schedule Name
    autocalculate,            !- Number of Vertices
    705597.9887215073,        !- Vertex 1 Xcoordinate
    5711502.10287341,         !- Vertex 1 Ycoordinate
    6,                        !- Vertex 1 Zcoordinate
    705597.9887215073,        !- Vertex 2 Xcoordinate
    5711502.10287341,         !- Vertex 2 Ycoordinate
    0,                        !- Vertex 2 Zcoordinate
    705611.1340301977,        !- Vertex 3 Xcoordinate
    5711501.5982165085,       !- Vertex 3 Ycoordinate
    0,                        !- Vertex 3 Zcoordinate
    705611.1340301977,        !- Vertex 4 Xcoordinate
    5711501.5982165085,       !- Vertex 4 Ycoordinate
    6;                        !- Vertex 4 Zcoordinate

SHADING:SITE:DETAILED,
    shade_way/395622186_4,    !- Name
    ,                         !- Transmittance Schedule Name
    autocalculate,            !- Number of Vertices
    705611.1340301977,        !- Vertex 1 Xcoordinate
    5711501.5982165085,       !- Vertex 1 Ycoordinate
    6,                        !- Vertex 1 Zcoordinate
    705611.1340301977,        !- Vertex 2 Xcoordinate
    5711501.5982165085,       !- Vertex 2 Ycoordinate
    0,                        !- Vertex 2 Zcoordinate
    705610.9620896003,        !- Vertex 3 Xcoordinate
    5711497.119505922,        !- Vertex 3 Ycoordinate
    0,                        !- Vertex 3 Zcoordinate
    705610.9620896003,        !- Vertex 4 Xcoordinate
    5711497.119505922,        !- Vertex 4 Ycoordinate
    6;                        !- Vertex 4 Zcoordinate

SHADING:SITE:DETAILED,
    shade_way/395622188_1,    !- Name
    ,                         !- Transmittance Schedule Name
    autocalculate,            !- Number of Vertices
    705600.7832579836,        !- Vertex 1 Xcoordinate
    5711506.55286269,         !- Vertex 1 Ycoordinate
    9,                        !- Vertex 1 Zcoordinate
    705600.7832579836,        !- Vertex 2 Xcoordinate
    5711506.55286269,         !- Vertex 2 Ycoordinate
    0,                        !- Vertex 2 Zcoordinate
    705600.9865242866,        !- Vertex 3 Xcoordinate
    5711511.995600976,        !- Vertex 3 Ycoordinate
    0,                        !- Vertex 3 Zcoordinate
    705600.9865242866,        !- Vertex 4 Xcoordinate
    5711511.995600976,        !- Vertex 4 Ycoordinate
    9;                        !- Vertex 4 Zcoordinate

SHADING:SITE:DETAILED,
    shade_way/395622188_2,    !- Name
    ,                         !- Transmittance Schedule Name
    autocalculate,            !- Number of Vertices
    705600.9865242866,        !- Vertex 1 Xcoordinate
    5711511.995600976,        !- Vertex 1 Ycoordinate
    9,                        !- Vertex 1 Zcoordinate
    705600.9865242866,        !- Vertex 2 Xcoordinate
    5711511.995600976,        !- Vertex 2 Ycoordinate
    0,                        !- Vertex 2 Zcoordinate
    705611.4165837945,        !- Vertex 3 Xcoordinate
    5711511.6061066585,       !- Vertex 3 Ycoordinate
    0,                        !- Vertex 3 Zcoordinate
    705611.4165837945,        !- Vertex 4 Xcoordinate
    5711511.6061066585,       !- Vertex 4 Ycoordinate
    9;                        !- Vertex 4 Zcoordinate

SHADING:SITE:DETAILED,
    shade_way/395622188_3,    !- Name
    ,                         !- Transmittance Schedule Name
    autocalculate,            !- Number of Vertices
    705611.4165837945,        !- Vertex 1 Xcoordinate
    5711511.6061066585,       !- Vertex 1 Ycoordinate
    9,                        !- Vertex 1 Zcoordinate
    705611.4165837945,        !- Vertex 2 Xcoordinate
    5711511.6061066585,       !- Vertex 2 Ycoordinate
    0,                        !- Vertex 2 Zcoordinate
    705611.2133174915,        !- Vertex 3 Xcoordinate
    5711506.163368371,        !- Vertex 3 Ycoordinate
    0,                        !- Vertex 3 Zcoordinate
    705611.2133174915,        !- Vertex 4 Xcoordinate
    5711506.163368371,        !- Vertex 4 Ycoordinate
    9;                        !- Vertex 4 Zcoordinate

SHADING:SITE:DETAILED,
    shade_way/395622188_4,    !- Name
    ,                         !- Transmittance Schedule Name
    autocalculate,            !- Number of Vertices
    705611.2133174915,        !- Vertex 1 Xcoordinate
    5711506.163368371,        !- Vertex 1 Ycoordinate
    9,                        !- Vertex 1 Zcoordinate
    705611.2133174915,        !- Vertex 2 Xcoordinate
    5711506.163368371,        !- Vertex 2 Ycoordinate
    0,                        !- Vertex 2 Zcoordinate
    705600.7832579836,        !- Vertex 3 Xcoordinate
    5711506.55286269,         !- Vertex 3 Ycoordinate
    0,                        !- Vertex 3 Zcoordinate
    705600.7832579836,        !- Vertex 4 Xcoordinate
    5711506.55286269,         !- Vertex 4 Ycoordinate
    9;                        !- Vertex 4 Zcoordinate

SHADING:SITE:DETAILED,
    shade_way/1058252107_1,    !- Name
    ,                         !- Transmittance Schedule Name
    autocalculate,            !- Number of Vertices
    705641.546491907,         !- Vertex 1 Xcoordinate
    5711498.850421197,        !- Vertex 1 Ycoordinate
    6,                        !- Vertex 1 Zcoordinate
    705641.546491907,         !- Vertex 2 Xcoordinate
    5711498.850421197,        !- Vertex 2 Ycoordinate
    0,                        !- Vertex 2 Zcoordinate
    705641.3980200279,        !- Vertex 3 Xcoordinate
    5711494.456709679,        !- Vertex 3 Ycoordinate
    0,                        !- Vertex 3 Zcoordinate
    705641.3980200279,        !- Vertex 4 Xcoordinate
    5711494.456709679,        !- Vertex 4 Ycoordinate
    6;                        !- Vertex 4 Zcoordinate

SHADING:SITE:DETAILED,
    shade_way/1058252107_2,    !- Name
    ,                         !- Transmittance Schedule Name
    autocalculate,            !- Number of Vertices
    705641.3980200279,        !- Vertex 1 Xcoordinate
    5711494.456709679,        !- Vertex 1 Ycoordinate
    6,                        !- Vertex 1 Zcoordinate
    705641.3980200279,        !- Vertex 2 Xcoordinate
    5711494.456709679,        !- Vertex 2 Ycoordinate
    0,                        !- Vertex 2 Zcoordinate
    705630.3785578919,        !- Vertex 3 Xcoordinate
    5711494.829043812,        !- Vertex 3 Ycoordinate
    0,                        !- Vertex 3 Zcoordinate
    705630.3785578919,        !- Vertex 4 Xcoordinate
    5711494.829043812,        !- Vertex 4 Ycoordinate
    6;                        !- Vertex 4 Zcoordinate

SHADING:SITE:DETAILED,
    shade_way/1058252107_3,    !- Name
    ,                         !- Transmittance Schedule Name
    autocalculate,            !- Number of Vertices
    705630.3785578919,        !- Vertex 1 Xcoordinate
    5711494.829043812,        !- Vertex 1 Ycoordinate
    6,                        !- Vertex 1 Zcoordinate
    705630.3785578919,        !- Vertex 2 Xcoordinate
    5711494.829043812,        !- Vertex 2 Ycoordinate
    0,                        !- Vertex 2 Zcoordinate
    705630.527029771,         !- Vertex 3 Xcoordinate
    5711499.22275533,         !- Vertex 3 Ycoordinate
    0,                        !- Vertex 3 Zcoordinate
    705630.527029771,         !- Vertex 4 Xcoordinate
    5711499.22275533,         !- Vertex 4 Ycoordinate
    6;                        !- Vertex 4 Zcoordinate

SHADING:SITE:DETAILED,
    shade_way/1058252107_4,    !- Name
    ,                         !- Transmittance Schedule Name
    autocalculate,            !- Number of Vertices
    705630.527029771,         !- Vertex 1 Xcoordinate
    5711499.22275533,         !- Vertex 1 Ycoordinate
    6,                        !- Vertex 1 Zcoordinate
    705630.527029771,         !- Vertex 2 Xcoordinate
    5711499.22275533,         !- Vertex 2 Ycoordinate
    0,                        !- Vertex 2 Zcoordinate
    705641.546491907,         !- Vertex 3 Xcoordinate
    5711498.850421197,        !- Vertex 3 Ycoordinate
    0,                        !- Vertex 3 Zcoordinate
    705641.546491907,         !- Vertex 4 Xcoordinate
    5711498.850421197,        !- Vertex 4 Ycoordinate
    6;                        !- Vertex 4 Zcoordinate

SHADING:SITE:DETAILED,
    shade_way/1058252108_1,    !- Name
    ,                         !- Transmittance Schedule Name
    autocalculate,            !- Number of Vertices
    705641.546491907,         !- Vertex 1 Xcoordinate
    5711498.850421197,        !- Vertex 1 Ycoordinate
    6,                        !- Vertex 1 Zcoordinate
    705641.546491907,         !- Vertex 2 Xcoordinate
    5711498.850421197,        !- Vertex 2 Ycoordinate
    0,                        !- Vertex 2 Zcoordinate
    705630.5265030925,        !- Vertex 3 Xcoordinate
    5711499.205589344,        !- Vertex 3 Ycoordinate
    0,                        !- Vertex 3 Zcoordinate
    705630.5265030925,        !- Vertex 4 Xcoordinate
    5711499.205589344,        !- Vertex 4 Ycoordinate
    6;                        !- Vertex 4 Zcoordinate

SHADING:SITE:DETAILED,
    shade_way/1058252108_2,    !- Name
    ,                         !- Transmittance Schedule Name
    autocalculate,            !- Number of Vertices
    705630.5265030925,        !- Vertex 1 Xcoordinate
    5711499.205589344,        !- Vertex 1 Ycoordinate
    6,                        !- Vertex 1 Zcoordinate
    705630.5265030925,        !- Vertex 2 Xcoordinate
    5711499.205589344,        !- Vertex 2 Ycoordinate
    0,                        !- Vertex 2 Zcoordinate
    705630.6835506096,        !- Vertex 3 Xcoordinate
    5711504.076207633,        !- Vertex 3 Ycoordinate
    0,                        !- Vertex 3 Zcoordinate
    705630.6835506096,        !- Vertex 4 Xcoordinate
    5711504.076207633,        !- Vertex 4 Ycoordinate
    6;                        !- Vertex 4 Zcoordinate

SHADING:SITE:DETAILED,
    shade_way/1058252108_3,    !- Name
    ,                         !- Transmittance Schedule Name
    autocalculate,            !- Number of Vertices
    705630.6835506096,        !- Vertex 1 Xcoordinate
    5711504.076207633,        !- Vertex 1 Ycoordinate
    6,                        !- Vertex 1 Zcoordinate
    705630.6835506096,        !- Vertex 2 Xcoordinate
    5711504.076207633,        !- Vertex 2 Ycoordinate
    0,                        !- Vertex 2 Zcoordinate
    705641.7035394242,        !- Vertex 3 Xcoordinate
    5711503.72103949,         !- Vertex 3 Ycoordinate
    0,                        !- Vertex 3 Zcoordinate
    705641.7035394242,        !- Vertex 4 Xcoordinate
    5711503.72103949,         !- Vertex 4 Ycoordinate
    6;                        !- Vertex 4 Zcoordinate

SHADING:SITE:DETAILED,
    shade_way/1058252108_4,    !- Name
    ,                         !- Transmittance Schedule Name
    autocalculate,            !- Number of Vertices
    705641.7035394242,        !- Vertex 1 Xcoordinate
    5711503.72103949,         !- Vertex 1 Ycoordinate
    6,                        !- Vertex 1 Zcoordinate
    705641.7035394242,        !- Vertex 2 Xcoordinate
    5711503.72103949,         !- Vertex 2 Ycoordinate
    0,                        !- Vertex 2 Zcoordinate
    705641.546491907,         !- Vertex 3 Xcoordinate
    5711498.850421197,        !- Vertex 3 Ycoordinate
    0,                        !- Vertex 3 Zcoordinate
    705641.546491907,         !- Vertex 4 Xcoordinate
    5711498.850421197,        !- Vertex 4 Ycoordinate
    6;                        !- Vertex 4 Zcoordinate

SHADING:SITE:DETAILED,
    shade_way/1058252109_1,    !- Name
    ,                         !- Transmittance Schedule Name
    autocalculate,            !- Number of Vertices
    705641.7960347426,        !- Vertex 1 Xcoordinate
    5711508.053955984,        !- Vertex 1 Ycoordinate
    6,                        !- Vertex 1 Zcoordinate
    705641.7960347426,        !- Vertex 2 Xcoordinate
    5711508.053955984,        !- Vertex 2 Ycoordinate
    0,                        !- Vertex 2 Zcoordinate
    705641.6682087682,        !- Vertex 3 Xcoordinate
    5711503.71079324,         !- Vertex 3 Ycoordinate
    0,                        !- Vertex 3 Zcoordinate
    705641.6682087682,        !- Vertex 4 Xcoordinate
    5711503.71079324,         !- Vertex 4 Ycoordinate
    6;                        !- Vertex 4 Zcoordinate

SHADING:SITE:DETAILED,
    shade_way/1058252109_2,    !- Name
    ,                         !- Transmittance Schedule Name
    autocalculate,            !- Number of Vertices
    705641.6682087682,        !- Vertex 1 Xcoordinate
    5711503.71079324,         !- Vertex 1 Ycoordinate
    6,                        !- Vertex 1 Zcoordinate
    705641.6682087682,        !- Vertex 2 Xcoordinate
    5711503.71079324,         !- Vertex 2 Ycoordinate
    0,                        !- Vertex 2 Zcoordinate
    705630.6851564203,        !- Vertex 3 Xcoordinate
    5711504.034027435,        !- Vertex 3 Ycoordinate
    0,                        !- Vertex 3 Zcoordinate
    705630.6851564203,        !- Vertex 4 Xcoordinate
    5711504.034027435,        !- Vertex 4 Ycoordinate
    6;                        !- Vertex 4 Zcoordinate

SHADING:SITE:DETAILED,
    shade_way/1058252109_3,    !- Name
    ,                         !- Transmittance Schedule Name
    autocalculate,            !- Number of Vertices
    705630.6851564203,        !- Vertex 1 Xcoordinate
    5711504.034027435,        !- Vertex 1 Ycoordinate
    6,                        !- Vertex 1 Zcoordinate
    705630.6851564203,        !- Vertex 2 Xcoordinate
    5711504.034027435,        !- Vertex 2 Ycoordinate
    0,                        !- Vertex 2 Zcoordinate
    705630.8128698666,        !- Vertex 3 Xcoordinate
    5711508.377207456,        !- Vertex 3 Ycoordinate
    0,                        !- Vertex 3 Zcoordinate
    705630.8128698666,        !- Vertex 4 Xcoordinate
    5711508.377207456,        !- Vertex 4 Ycoordinate
    6;                        !- Vertex 4 Zcoordinate

SHADING:SITE:DETAILED,
    shade_way/1058252109_4,    !- Name
    ,                         !- Transmittance Schedule Name
    autocalculate,            !- Number of Vertices
    705630.8128698666,        !- Vertex 1 Xcoordinate
    5711508.377207456,        !- Vertex 1 Ycoordinate
    6,                        !- Vertex 1 Zcoordinate
    705630.8128698666,        !- Vertex 2 Xcoordinate
    5711508.377207456,        !- Vertex 2 Ycoordinate
    0,                        !- Vertex 2 Zcoordinate
    705641.7960347426,        !- Vertex 3 Xcoordinate
    5711508.053955984,        !- Vertex 3 Ycoordinate
    0,                        !- Vertex 3 Zcoordinate
    705641.7960347426,        !- Vertex 4 Xcoordinate
    5711508.053955984,        !- Vertex 4 Ycoordinate
    6;                        !- Vertex 4 Zcoordinate

SHADING:SITE:DETAILED,
    shade_way/1058252110_1,    !- Name
    ,                         !- Transmittance Schedule Name
    autocalculate,            !- Number of Vertices
    705644.4148856701,        !- Vertex 1 Xcoordinate
    5711512.304266096,        !- Vertex 1 Ycoordinate
    6,                        !- Vertex 1 Zcoordinate
    705644.4148856701,        !- Vertex 2 Xcoordinate
    5711512.304266096,        !- Vertex 2 Ycoordinate
    0,                        !- Vertex 2 Zcoordinate
    705644.2573152061,        !- Vertex 3 Xcoordinate
    5711507.897132462,        !- Vertex 3 Ycoordinate
    0,                        !- Vertex 3 Zcoordinate
    705644.2573152061,        !- Vertex 4 Xcoordinate
    5711507.897132462,        !- Vertex 4 Ycoordinate
    6;                        !- Vertex 4 Zcoordinate

SHADING:SITE:DETAILED,
    shade_way/1058252110_2,    !- Name
    ,                         !- Transmittance Schedule Name
    autocalculate,            !- Number of Vertices
    705644.2573152061,        !- Vertex 1 Xcoordinate
    5711507.897132462,        !- Vertex 1 Ycoordinate
    6,                        !- Vertex 1 Zcoordinate
    705644.2573152061,        !- Vertex 2 Xcoordinate
    5711507.897132462,        !- Vertex 2 Ycoordinate
    0,                        !- Vertex 2 Zcoordinate
    705630.8983185018,        !- Vertex 3 Xcoordinate
    5711508.374678606,        !- Vertex 3 Ycoordinate
    0,                        !- Vertex 3 Zcoordinate
    705630.8983185018,        !- Vertex 4 Xcoordinate
    5711508.374678606,        !- Vertex 4 Ycoordinate
    6;                        !- Vertex 4 Zcoordinate

SHADING:SITE:DETAILED,
    shade_way/1058252110_3,    !- Name
    ,                         !- Transmittance Schedule Name
    autocalculate,            !- Number of Vertices
    705630.8983185018,        !- Vertex 1 Xcoordinate
    5711508.374678606,        !- Vertex 1 Ycoordinate
    6,                        !- Vertex 1 Zcoordinate
    705630.8983185018,        !- Vertex 2 Xcoordinate
    5711508.374678606,        !- Vertex 2 Ycoordinate
    0,                        !- Vertex 2 Zcoordinate
    705631.0558707113,        !- Vertex 3 Xcoordinate
    5711512.7818976715,       !- Vertex 3 Ycoordinate
    0,                        !- Vertex 3 Zcoordinate
    705631.0558707113,        !- Vertex 4 Xcoordinate
    5711512.7818976715,       !- Vertex 4 Ycoordinate
    6;                        !- Vertex 4 Zcoordinate

SHADING:SITE:DETAILED,
    shade_way/1058252110_4,    !- Name
    ,                         !- Transmittance Schedule Name
    autocalculate,            !- Number of Vertices
    705631.0558707113,        !- Vertex 1 Xcoordinate
    5711512.7818976715,       !- Vertex 1 Ycoordinate
    6,                        !- Vertex 1 Zcoordinate
    705631.0558707113,        !- Vertex 2 Xcoordinate
    5711512.7818976715,       !- Vertex 2 Ycoordinate
    0,                        !- Vertex 2 Zcoordinate
    705644.4148856701,        !- Vertex 3 Xcoordinate
    5711512.304266096,        !- Vertex 3 Ycoordinate
    0,                        !- Vertex 3 Zcoordinate
    705644.4148856701,        !- Vertex 4 Xcoordinate
    5711512.304266096,        !- Vertex 4 Ycoordinate
    6;                        !- Vertex 4 Zcoordinate

SHADING:SITE:DETAILED,
    shade_way/395622189_1,    !- Name
    ,                         !- Transmittance Schedule Name
    autocalculate,            !- Number of Vertices
    705598.7004269018,        !- Vertex 1 Xcoordinate
    5711517.56065936,         !- Vertex 1 Ycoordinate
    9,                        !- Vertex 1 Zcoordinate
    705598.7004269018,        !- Vertex 2 Xcoordinate
    5711517.56065936,         !- Vertex 2 Ycoordinate
    0,                        !- Vertex 2 Zcoordinate
    705611.628413822,         !- Vertex 3 Xcoordinate
    5711517.026141289,        !- Vertex 3 Ycoordinate
    0,                        !- Vertex 3 Zcoordinate
    705611.628413822,         !- Vertex 4 Xcoordinate
    5711517.026141289,        !- Vertex 4 Ycoordinate
    9;                        !- Vertex 4 Zcoordinate

SHADING:SITE:DETAILED,
    shade_way/395622189_2,    !- Name
    ,                         !- Transmittance Schedule Name
    autocalculate,            !- Number of Vertices
    705611.628413822,         !- Vertex 1 Xcoordinate
    5711517.026141289,        !- Vertex 1 Ycoordinate
    9,                        !- Vertex 1 Zcoordinate
    705611.628413822,         !- Vertex 2 Xcoordinate
    5711517.026141289,        !- Vertex 2 Ycoordinate
    0,                        !- Vertex 2 Zcoordinate
    705611.4026325387,        !- Vertex 3 Xcoordinate
    5711511.560008279,        !- Vertex 3 Ycoordinate
    0,                        !- Vertex 3 Zcoordinate
    705611.4026325387,        !- Vertex 4 Xcoordinate
    5711511.560008279,        !- Vertex 4 Ycoordinate
    9;                        !- Vertex 4 Zcoordinate

SHADING:SITE:DETAILED,
    shade_way/395622189_3,    !- Name
    ,                         !- Transmittance Schedule Name
    autocalculate,            !- Number of Vertices
    705611.4026325387,        !- Vertex 1 Xcoordinate
    5711511.560008279,        !- Vertex 1 Ycoordinate
    9,                        !- Vertex 1 Zcoordinate
    705611.4026325387,        !- Vertex 2 Xcoordinate
    5711511.560008279,        !- Vertex 2 Ycoordinate
    0,                        !- Vertex 2 Zcoordinate
    705598.4743157021,        !- Vertex 3 Xcoordinate
    5711512.094250766,        !- Vertex 3 Ycoordinate
    0,                        !- Vertex 3 Zcoordinate
    705598.4743157021,        !- Vertex 4 Xcoordinate
    5711512.094250766,        !- Vertex 4 Ycoordinate
    9;                        !- Vertex 4 Zcoordinate

SHADING:SITE:DETAILED,
    shade_way/395622189_4,    !- Name
    ,                         !- Transmittance Schedule Name
    autocalculate,            !- Number of Vertices
    705598.4743157021,        !- Vertex 1 Xcoordinate
    5711512.094250766,        !- Vertex 1 Ycoordinate
    9,                        !- Vertex 1 Zcoordinate
    705598.4743157021,        !- Vertex 2 Xcoordinate
    5711512.094250766,        !- Vertex 2 Ycoordinate
    0,                        !- Vertex 2 Zcoordinate
    705598.7004269018,        !- Vertex 3 Xcoordinate
    5711517.56065936,         !- Vertex 3 Ycoordinate
    0,                        !- Vertex 3 Zcoordinate
    705598.7004269018,        !- Vertex 4 Xcoordinate
    5711517.56065936,         !- Vertex 4 Ycoordinate
    9;                        !- Vertex 4 Zcoordinate

SHADING:SITE:DETAILED,
    shade_way/192335471_1,    !- Name
    ,                         !- Transmittance Schedule Name
    autocalculate,            !- Number of Vertices
    705602.6364601523,        !- Vertex 1 Xcoordinate
    5711518.08718648,         !- Vertex 1 Ycoordinate
    6,                        !- Vertex 1 Zcoordinate
    705602.6364601523,        !- Vertex 2 Xcoordinate
    5711518.08718648,         !- Vertex 2 Ycoordinate
    0,                        !- Vertex 2 Zcoordinate
    705602.882862486,         !- Vertex 3 Xcoordinate
    5711524.522801532,        !- Vertex 3 Ycoordinate
    0,                        !- Vertex 3 Zcoordinate
    705602.882862486,         !- Vertex 4 Xcoordinate
    5711524.522801532,        !- Vertex 4 Ycoordinate
    6;                        !- Vertex 4 Zcoordinate

SHADING:SITE:DETAILED,
    shade_way/192335471_2,    !- Name
    ,                         !- Transmittance Schedule Name
    autocalculate,            !- Number of Vertices
    705602.882862486,         !- Vertex 1 Xcoordinate
    5711524.522801532,        !- Vertex 1 Ycoordinate
    6,                        !- Vertex 1 Zcoordinate
    705602.882862486,         !- Vertex 2 Xcoordinate
    5711524.522801532,        !- Vertex 2 Ycoordinate
    0,                        !- Vertex 2 Zcoordinate
    705611.2939155665,        !- Vertex 3 Xcoordinate
    5711524.200704415,        !- Vertex 3 Ycoordinate
    0,                        !- Vertex 3 Zcoordinate
    705611.2939155665,        !- Vertex 4 Xcoordinate
    5711524.200704415,        !- Vertex 4 Ycoordinate
    6;                        !- Vertex 4 Zcoordinate

SHADING:SITE:DETAILED,
    shade_way/192335471_3,    !- Name
    ,                         !- Transmittance Schedule Name
    autocalculate,            !- Number of Vertices
    705611.2939155665,        !- Vertex 1 Xcoordinate
    5711524.200704415,        !- Vertex 1 Ycoordinate
    6,                        !- Vertex 1 Zcoordinate
    705611.2939155665,        !- Vertex 2 Xcoordinate
    5711524.200704415,        !- Vertex 2 Ycoordinate
    0,                        !- Vertex 2 Zcoordinate
    705611.0475132327,        !- Vertex 3 Xcoordinate
    5711517.765089363,        !- Vertex 3 Ycoordinate
    0,                        !- Vertex 3 Zcoordinate
    705611.0475132327,        !- Vertex 4 Xcoordinate
    5711517.765089363,        !- Vertex 4 Ycoordinate
    6;                        !- Vertex 4 Zcoordinate

SHADING:SITE:DETAILED,
    shade_way/192335471_4,    !- Name
    ,                         !- Transmittance Schedule Name
    autocalculate,            !- Number of Vertices
    705611.0475132327,        !- Vertex 1 Xcoordinate
    5711517.765089363,        !- Vertex 1 Ycoordinate
    6,                        !- Vertex 1 Zcoordinate
    705611.0475132327,        !- Vertex 2 Xcoordinate
    5711517.765089363,        !- Vertex 2 Ycoordinate
    0,                        !- Vertex 2 Zcoordinate
    705602.6364601523,        !- Vertex 3 Xcoordinate
    5711518.08718648,         !- Vertex 3 Ycoordinate
    0,                        !- Vertex 3 Zcoordinate
    705602.6364601523,        !- Vertex 4 Xcoordinate
    5711518.08718648,         !- Vertex 4 Ycoordinate
    6;                        !- Vertex 4 Zcoordinate

SHADING:SITE:DETAILED,
    shade_way/1056576474_1,    !- Name
    ,                         !- Transmittance Schedule Name
    autocalculate,            !- Number of Vertices
    705591.8892080436,        !- Vertex 1 Xcoordinate
    5711528.6877217265,       !- Vertex 1 Ycoordinate
    9,                        !- Vertex 1 Zcoordinate
    705591.8892080436,        !- Vertex 2 Xcoordinate
    5711528.6877217265,       !- Vertex 2 Ycoordinate
    0,                        !- Vertex 2 Zcoordinate
    705591.4736273299,        !- Vertex 3 Xcoordinate
    5711520.597084385,        !- Vertex 3 Ycoordinate
    0,                        !- Vertex 3 Zcoordinate
    705591.4736273299,        !- Vertex 4 Xcoordinate
    5711520.597084385,        !- Vertex 4 Ycoordinate
    9;                        !- Vertex 4 Zcoordinate

SHADING:SITE:DETAILED,
    shade_way/1056576474_2,    !- Name
    ,                         !- Transmittance Schedule Name
    autocalculate,            !- Number of Vertices
    705591.4736273299,        !- Vertex 1 Xcoordinate
    5711520.597084385,        !- Vertex 1 Ycoordinate
    9,                        !- Vertex 1 Zcoordinate
    705591.4736273299,        !- Vertex 2 Xcoordinate
    5711520.597084385,        !- Vertex 2 Ycoordinate
    0,                        !- Vertex 2 Zcoordinate
    705585.2210661294,        !- Vertex 3 Xcoordinate
    5711520.918360037,        !- Vertex 3 Ycoordinate
    0,                        !- Vertex 3 Zcoordinate
    705585.2210661294,        !- Vertex 4 Xcoordinate
    5711520.918360037,        !- Vertex 4 Ycoordinate
    9;                        !- Vertex 4 Zcoordinate

SHADING:SITE:DETAILED,
    shade_way/1056576474_3,    !- Name
    ,                         !- Transmittance Schedule Name
    autocalculate,            !- Number of Vertices
    705585.2210661294,        !- Vertex 1 Xcoordinate
    5711520.918360037,        !- Vertex 1 Ycoordinate
    9,                        !- Vertex 1 Zcoordinate
    705585.2210661294,        !- Vertex 2 Xcoordinate
    5711520.918360037,        !- Vertex 2 Ycoordinate
    0,                        !- Vertex 2 Zcoordinate
    705585.6366468433,        !- Vertex 3 Xcoordinate
    5711529.00899738,         !- Vertex 3 Ycoordinate
    0,                        !- Vertex 3 Zcoordinate
    705585.6366468433,        !- Vertex 4 Xcoordinate
    5711529.00899738,         !- Vertex 4 Ycoordinate
    9;                        !- Vertex 4 Zcoordinate

SHADING:SITE:DETAILED,
    shade_way/1056576474_4,    !- Name
    ,                         !- Transmittance Schedule Name
    autocalculate,            !- Number of Vertices
    705585.6366468433,        !- Vertex 1 Xcoordinate
    5711529.00899738,         !- Vertex 1 Ycoordinate
    9,                        !- Vertex 1 Zcoordinate
    705585.6366468433,        !- Vertex 2 Xcoordinate
    5711529.00899738,         !- Vertex 2 Ycoordinate
    0,                        !- Vertex 2 Zcoordinate
    705591.8892080436,        !- Vertex 3 Xcoordinate
    5711528.6877217265,       !- Vertex 3 Ycoordinate
    0,                        !- Vertex 3 Zcoordinate
    705591.8892080436,        !- Vertex 4 Xcoordinate
    5711528.6877217265,       !- Vertex 4 Ycoordinate
    9;                        !- Vertex 4 Zcoordinate

SHADING:SITE:DETAILED,
    shade_way/192335472_1,    !- Name
    ,                         !- Transmittance Schedule Name
    autocalculate,            !- Number of Vertices
    705603.1251240463,        !- Vertex 1 Xcoordinate
    5711530.54620679,         !- Vertex 1 Ycoordinate
    6,                        !- Vertex 1 Zcoordinate
    705603.1251240463,        !- Vertex 2 Xcoordinate
    5711530.54620679,         !- Vertex 2 Ycoordinate
    0,                        !- Vertex 2 Zcoordinate
    705611.5532052153,        !- Vertex 3 Xcoordinate
    5711530.197306552,        !- Vertex 3 Ycoordinate
    0,                        !- Vertex 3 Zcoordinate
    705611.5532052153,        !- Vertex 4 Xcoordinate
    5711530.197306552,        !- Vertex 4 Ycoordinate
    6;                        !- Vertex 4 Zcoordinate

SHADING:SITE:DETAILED,
    shade_way/192335472_2,    !- Name
    ,                         !- Transmittance Schedule Name
    autocalculate,            !- Number of Vertices
    705611.5532052153,        !- Vertex 1 Xcoordinate
    5711530.197306552,        !- Vertex 1 Ycoordinate
    6,                        !- Vertex 1 Zcoordinate
    705611.5532052153,        !- Vertex 2 Xcoordinate
    5711530.197306552,        !- Vertex 2 Ycoordinate
    0,                        !- Vertex 2 Zcoordinate
    705611.3037958551,        !- Vertex 3 Xcoordinate
    5711524.173958013,        !- Vertex 3 Ycoordinate
    0,                        !- Vertex 3 Zcoordinate
    705611.3037958551,        !- Vertex 4 Xcoordinate
    5711524.173958013,        !- Vertex 4 Ycoordinate
    6;                        !- Vertex 4 Zcoordinate

SHADING:SITE:DETAILED,
    shade_way/192335472_3,    !- Name
    ,                         !- Transmittance Schedule Name
    autocalculate,            !- Number of Vertices
    705611.3037958551,        !- Vertex 1 Xcoordinate
    5711524.173958013,        !- Vertex 1 Ycoordinate
    6,                        !- Vertex 1 Zcoordinate
    705611.3037958551,        !- Vertex 2 Xcoordinate
    5711524.173958013,        !- Vertex 2 Ycoordinate
    0,                        !- Vertex 2 Zcoordinate
    705602.8757146863,        !- Vertex 3 Xcoordinate
    5711524.522858254,        !- Vertex 3 Ycoordinate
    0,                        !- Vertex 3 Zcoordinate
    705602.8757146863,        !- Vertex 4 Xcoordinate
    5711524.522858254,        !- Vertex 4 Ycoordinate
    6;                        !- Vertex 4 Zcoordinate

SHADING:SITE:DETAILED,
    shade_way/192335472_4,    !- Name
    ,                         !- Transmittance Schedule Name
    autocalculate,            !- Number of Vertices
    705602.8757146863,        !- Vertex 1 Xcoordinate
    5711524.522858254,        !- Vertex 1 Ycoordinate
    6,                        !- Vertex 1 Zcoordinate
    705602.8757146863,        !- Vertex 2 Xcoordinate
    5711524.522858254,        !- Vertex 2 Ycoordinate
    0,                        !- Vertex 2 Zcoordinate
    705603.1251240463,        !- Vertex 3 Xcoordinate
    5711530.54620679,         !- Vertex 3 Ycoordinate
    0,                        !- Vertex 3 Zcoordinate
    705603.1251240463,        !- Vertex 4 Xcoordinate
    5711530.54620679,         !- Vertex 4 Ycoordinate
    6;                        !- Vertex 4 Zcoordinate

OTHEREQUIPMENT,
    EU_Step8_InternalGain_2054ca8ad91857ac_F0_dwelling_0_f000,    !- Name
    Electricity,              !- Fuel Type
    2054ca8ad91857ac_F0_dwelling_0,    !- Zone or ZoneList or Space or SpaceList Name
    EU_Step8_GainSchedule_2054ca8ad91857ac_F0_dwelling_0_f000,    !- Schedule Name
    Watts/Area,               !- Design Level Calculation Method
    ,                         !- Design Level
    1,                        !- Power per Zone Floor Area
    ,                         !- Power per Person
    0,                        !- Fraction Latent
    0,                        !- Fraction Radiant
    0,                        !- Fraction Lost
    0,                        !- Carbon Dioxide Generation Rate
    EU_Step8_InternalGains;    !- EndUse Subcategory

ZONEVENTILATION:DESIGNFLOWRATE,
    EU_ConstantAir_2054ca8ad91857ac_F0_dwelling_0,    !- Name
    2054ca8ad91857ac_F0_dwelling_0,    !- Zone or ZoneList or Space or SpaceList Name
    EU_AlwaysOn,              !- Schedule Name
    AirChanges/Hour,          !- Design Flow Rate Calculation Method
    ,                         !- Design Flow Rate
    ,                         !- Flow Rate per Floor Area
    ,                         !- Flow Rate per Person
    0.418134938716768,        !- Air Changes per Hour
    Natural,                  !- Ventilation Type
    0,                        !- Fan Pressure Rise
    1,                        !- Fan Total Efficiency
    1,                        !- Constant Term Coefficient
    0,                        !- Temperature Term Coefficient
    0,                        !- Velocity Term Coefficient
    0,                        !- Velocity Squared Term Coefficient
    -100,                     !- Minimum Indoor Temperature
    ,                         !- Minimum Indoor Temperature Schedule Name
    100,                      !- Maximum Indoor Temperature
    ,                         !- Maximum Indoor Temperature Schedule Name
    -100,                     !- Delta Temperature
    ,                         !- Delta Temperature Schedule Name
    -100,                     !- Minimum Outdoor Temperature
    ,                         !- Minimum Outdoor Temperature Schedule Name
    100,                      !- Maximum Outdoor Temperature
    ,                         !- Maximum Outdoor Temperature Schedule Name
    40;                       !- Maximum Wind Speed

HVACTEMPLATE:THERMOSTAT,
    EU_HeatOnly_2054ca8ad91857ac_F0_dwelling_0,    !- Name
    ,                         !- Heating Setpoint Schedule Name
    20,                       !- Constant Heating Setpoint
    ,                         !- Cooling Setpoint Schedule Name
    50;                       !- Constant Cooling Setpoint

HVACTEMPLATE:ZONE:IDEALLOADSAIRSYSTEM,
    2054ca8ad91857ac_F0_dwelling_0,    !- Zone Name
    EU_HeatOnly_2054ca8ad91857ac_F0_dwelling_0,    !- Template Thermostat Name
    EU_AlwaysOn,              !- System Availability Schedule Name
    50,                       !- Maximum Heating Supply Air Temperature
    13,                       !- Minimum Cooling Supply Air Temperature
    0.0156,                   !- Maximum Heating Supply Air Humidity Ratio
    0.0077,                   !- Minimum Cooling Supply Air Humidity Ratio
    NoLimit,                  !- Heating Limit
    ,                         !- Maximum Heating Air Flow Rate
    ,                         !- Maximum Sensible Heating Capacity
    NoLimit,                  !- Cooling Limit
    ,                         !- Maximum Cooling Air Flow Rate
    ,                         !- Maximum Total Cooling Capacity
    EU_AlwaysOn,              !- Heating Availability Schedule Name
    EU_CoolingOff,            !- Cooling Availability Schedule Name
    ConstantSensibleHeatRatio,    !- Dehumidification Control Type
    0.7,                      !- Cooling Sensible Heat Ratio
    60,                       !- Dehumidification Setpoint
    None,                     !- Humidification Control Type
    30,                       !- Humidification Setpoint
    None,                     !- Outdoor Air Method
    0.00944,                  !- Outdoor Air Flow Rate per Person
    0.0,                      !- Outdoor Air Flow Rate per Zone Floor Area
    0,                        !- Outdoor Air Flow Rate per Zone
    ,                         !- Design Specification Outdoor Air Object Name
    None,                     !- Demand Controlled Ventilation Type
    NoEconomizer,             !- Outdoor Air Economizer Type
    None,                     !- Heat Recovery Type
    0.70,                     !- Sensible Heat Recovery Effectiveness
    0.65;                     !- Latent Heat Recovery Effectiveness

SIZING:ZONE,
    2054ca8ad91857ac_F0_dwelling_0,    !- Zone or ZoneList Name
    SupplyAirTemperature,     !- Zone Cooling Design Supply Air Temperature Input Method
    13,                       !- Zone Cooling Design Supply Air Temperature
    ,                         !- Zone Cooling Design Supply Air Temperature Difference
    SupplyAirTemperature,     !- Zone Heating Design Supply Air Temperature Input Method
    50,                       !- Zone Heating Design Supply Air Temperature
    ,                         !- Zone Heating Design Supply Air Temperature Difference
    0.008,                    !- Zone Cooling Design Supply Air Humidity Ratio
    0.008,                    !- Zone Heating Design Supply Air Humidity Ratio
    ,                         !- Design Specification Outdoor Air Object Name
    ,                         !- Zone Heating Sizing Factor
    ,                         !- Zone Cooling Sizing Factor
    DesignDay,                !- Cooling Design Air Flow Method
    0,                        !- Cooling Design Air Flow Rate
    0.000762,                 !- Cooling Minimum Air Flow per Zone Floor Area
    0,                        !- Cooling Minimum Air Flow
    0.2,                      !- Cooling Minimum Air Flow Fraction
    DesignDay,                !- Heating Design Air Flow Method
    0,                        !- Heating Design Air Flow Rate
    0.002032,                 !- Heating Maximum Air Flow per Zone Floor Area
    0.1415762,                !- Heating Maximum Air Flow
    0.3,                      !- Heating Maximum Air Flow Fraction
    ,                         !- Design Specification Zone Air Distribution Object Name
    No,                       !- Account for Dedicated Outdoor Air System
    NeutralSupplyAir,         !- Dedicated Outdoor Air System Control Strategy
    autosize,                 !- Dedicated Outdoor Air Low Setpoint Temperature for Design
    autosize,                 !- Dedicated Outdoor Air High Setpoint Temperature for Design
    Sensible Load Only No Latent Load,    !- Zone Load Sizing Method
    HumidityRatioDifference,    !- Zone Latent Cooling Design Supply Air Humidity Ratio Input Method
    ,                         !- Zone Dehumidification Design Supply Air Humidity Ratio
    0.005,                    !- Zone Cooling Design Supply Air Humidity Ratio Difference
    HumidityRatioDifference,    !- Zone Latent Heating Design Supply Air Humidity Ratio Input Method
    ,                         !- Zone Humidification Design Supply Air Humidity Ratio
    0.005;                    !- Zone Humidification Design Supply Air Humidity Ratio Difference

OUTPUT:VARIABLE,
    *,                        !- Key Value
    Zone Ideal Loads Zone Total Heating Energy,    !- Variable Name
    Hourly;                   !- Reporting Frequency

OUTPUT:SQLITE,
    SimpleAndTabular,         !- Option Type
    UseOutputControlTableStyle;    !- Unit Conversion for Tabular Data