!- Windows Line endings 

Version,
    23.1;                     !- Version Identifier

SimulationControl,
    Yes,                      !- Do Zone Sizing Calculation
    Yes,                      !- Do System Sizing Calculation
    Yes,                      !- Do Plant Sizing Calculation
    No,                       !- Run Simulation for Sizing Periods
    Yes,                      !- Run Simulation for Weather File Run Periods
    No,                       !- Do HVAC Sizing Simulation for Sizing Periods
    1;                        !- Maximum Number of HVAC Sizing Simulation Passes

Building,
    EU S2 Campaign,           !- Name
    0,                        !- North Axis
    City,                     !- Terrain
    ,                         !- Loads Convergence Tolerance Value
    ,                         !- Temperature Convergence Tolerance Value
    FullExterior,             !- Solar Distribution
    ,                         !- Maximum Number of Warmup Days
    ;                         !- Minimum Number of Warmup Days

ShadowCalculation,
    PolygonClipping,          !- Shading Calculation Method
    Periodic,                 !- Shading Calculation Update Frequency Method
    1;                        !- Shading Calculation Update Frequency

HeatBalanceAlgorithm,
    ConductionTransferFunction,    !- Algorithm
    200,                      !- Surface Temperature Upper Limit
    0.1,                      !- Minimum Surface Convection Heat Transfer Coefficient Value
    10000000;                 !- Maximum Surface Convection Heat Transfer Coefficient Value

Timestep,
    12;                       !- Number of Timesteps per Hour

Site:Location,
    London,                   !- Name
    51.5,                     !- Latitude
    -0.5,                     !- Longitude
    0,                        !- Time Zone
    25;                       !- Elevation

SizingPeriod:WeatherFileDays,
    AnnualSizingPeriod,       !- Name
    1,                        !- Begin Month
    1,                        !- Begin Day of Month
    12,                       !- End Month
    31,                       !- End Day of Month
    Monday,                   !- Day of Week for Start Day
    No,                       !- Use Weather File Daylight Saving Period
    No;                       !- Use Weather File Rain and Snow Indicators

RunPeriod,
    RunPeriod1,               !- Name
    1,                        !- Begin Month
    1,                        !- Begin Day of Month
    ,                         !- Begin Year
    12,                       !- End Month
    31,                       !- End Day of Month
    ,                         !- End Year
    Sunday,                   !- Day of Week for Start Day
    No,                       !- Use Weather File Holidays and Special Days
    No,                       !- Use Weather File Daylight Saving Period
    No,                       !- Apply Weekend Holiday Rule
    Yes,                      !- Use Weather File Rain Indicators
    Yes;                      !- Use Weather File Snow Indicators

ScheduleTypeLimits,
    Any Number;               !- Name

SCHEDULETYPELIMITS,
    EU_Step8_AnyNumber_Wm2,    !- Name
    ,                         !- Lower Limit Value
    ,                         !- Upper Limit Value
    Continuous,               !- Numeric Type
    Dimensionless;            !- Unit Type

SCHEDULE:CONSTANT,
    EU_AlwaysOn,              !- Name
    ,                         !- Schedule Type Limits Name
    1;                        !- Hourly Value

SCHEDULE:CONSTANT,
    EU_CoolingOff,            !- Name
    ,                         !- Schedule Type Limits Name
    0;                        !- Hourly Value

SCHEDULE:FILE,
    EU_Step8_GainSchedule_3f7a88623712f3b2_F0_dwelling_0_f000,    !- Name
    EU_Step8_AnyNumber_Wm2,    !- Schedule Type Limits Name
    ../../schedules/3f7a88623712f3b2/3f7a88623712f3b2_F0_dwelling_0_f000_gain.csv,    !- File Name
    1,                        !- Column Number
    0,                        !- Rows to Skip at Top
    8760,                     !- Number of Hours of Data
    Comma,                    !- Column Separator
    No,                       !- Interpolate to Timestep
    60,                       !- Minutes per Item
    Yes;                      !- Adjust Schedule for Daylight Savings

MATERIAL,
    EU_InternalMass_Material,    !- Name
    MediumRough,              !- Roughness
    0.1,                      !- Thickness
    1,                        !- Conductivity
    1800,                     !- Density
    900,                      !- Specific Heat
    0.9,                      !- Thermal Absorptance
    0.7,                      !- Solar Absorptance
    0.7;                      !- Visible Absorptance

MATERIAL:NOMASS,
    EU_wall_NoMass,           !- Name
    MediumRough,              !- Roughness
    0.5555555555555555,       !- Thermal Resistance
    0.9,                      !- Thermal Absorptance
    0.7,                      !- Solar Absorptance
    0.7;                      !- Visible Absorptance

MATERIAL:NOMASS,
    EU_roof_NoMass,           !- Name
    MediumRough,              !- Roughness
    0.5102040816326531,       !- Thermal Resistance
    0.9,                      !- Thermal Absorptance
    0.7,                      !- Solar Absorptance
    0.7;                      !- Visible Absorptance

MATERIAL:NOMASS,
    EU_floor_NoMass,          !- Name
    MediumRough,              !- Roughness
    1.6891891891891893,       !- Thermal Resistance
    0.9,                      !- Thermal Absorptance
    0.7,                      !- Solar Absorptance
    0.7;                      !- Visible Absorptance

CONSTRUCTION,
    EU_wall_Construction,     !- Name
    EU_wall_NoMass;           !- Outside Layer

CONSTRUCTION,
    EU_roof_Construction,     !- Name
    EU_roof_NoMass;           !- Outside Layer

CONSTRUCTION,
    EU_floor_Construction,    !- Name
    EU_floor_NoMass;          !- Outside Layer

CONSTRUCTION,
    EU_InternalMass_Construction,    !- Name
    EU_InternalMass_Material;    !- Outside Layer

GlobalGeometryRules,
    UpperLeftCorner,          !- Starting Vertex Position
    CounterClockWise,         !- Vertex Entry Direction
    World;                    !- Coordinate System

ZONE,
    3f7a88623712f3b2_F0_dwelling_0,    !- Name
    0,                        !- Direction of Relative North
    0,                        !- X Origin
    0,                        !- Y Origin
    0,                        !- Z Origin
    1,                        !- Type
    1,                        !- Multiplier
    autocalculate,            !- Ceiling Height
    184.50732421875,          !- Volume
    autocalculate,            !- Floor Area
    ,                         !- Zone Inside Convection Algorithm
    ,                         !- Zone Outside Convection Algorithm
    Yes;                      !- Part of Total Floor Area

BUILDINGSURFACE:DETAILED,
    Block 3f7a88623712f3b2_0 Storey 0 Wall 0001,    !- Name
    wall,                     !- Surface Type
    EU_wall_Construction,     !- Construction Name
    3f7a88623712f3b2_F0_dwelling_0,    !- Zone Name
    ,                         !- Space Name
    outdoors,                 !- Outside Boundary Condition
    ,                         !- Outside Boundary Condition Object
    SunExposed,               !- Sun Exposure
    WindExposed,              !- Wind Exposure
    autocalculate,            !- View Factor to Ground
    autocalculate,            !- Number of Vertices
    705324.51,                !- Vertex 1 Xcoordinate
    5711278.075,              !- Vertex 1 Ycoordinate
    6,                        !- Vertex 1 Zcoordinate
    705324.51,                !- Vertex 2 Xcoordinate
    5711278.075,              !- Vertex 2 Ycoordinate
    0,                        !- Vertex 2 Zcoordinate
    705324.346,               !- Vertex 3 Xcoordinate
    5711282.311,              !- Vertex 3 Ycoordinate
    0,                        !- Vertex 3 Zcoordinate
    705324.346,               !- Vertex 4 Xcoordinate
    5711282.311,              !- Vertex 4 Ycoordinate
    6;                        !- Vertex 4 Zcoordinate

BUILDINGSURFACE:DETAILED,
    Block 3f7a88623712f3b2_0 Storey 0 Wall 0002,    !- Name
    wall,                     !- Surface Type
    EU_wall_Construction,     !- Construction Name
    3f7a88623712f3b2_F0_dwelling_0,    !- Zone Name
    ,                         !- Space Name
    Adiabatic,                !- Outside Boundary Condition
    ,                         !- Outside Boundary Condition Object
    NoSun,                    !- Sun Exposure
    NoWind,                   !- Wind Exposure
    autocalculate,            !- View Factor to Ground
    autocalculate,            !- Number of Vertices
    705324.346,               !- Vertex 1 Xcoordinate
    5711282.311,              !- Vertex 1 Ycoordinate
    6,                        !- Vertex 1 Zcoordinate
    705324.346,               !- Vertex 2 Xcoordinate
    5711282.311,              !- Vertex 2 Ycoordinate
    0,                        !- Vertex 2 Zcoordinate
    705331.505,               !- Vertex 3 Xcoordinate
    5711282.589,              !- Vertex 3 Ycoordinate
    0,                        !- Vertex 3 Zcoordinate
    705331.505,               !- Vertex 4 Xcoordinate
    5711282.589,              !- Vertex 4 Ycoordinate
    6;                        !- Vertex 4 Zcoordinate

BUILDINGSURFACE:DETAILED,
    Block 3f7a88623712f3b2_0 Storey 0 Wall 0003,    !- Name
    wall,                     !- Surface Type
    EU_wall_Construction,     !- Construction Name
    3f7a88623712f3b2_F0_dwelling_0,    !- Zone Name
    ,                         !- Space Name
    outdoors,                 !- Outside Boundary Condition
    ,                         !- Outside Boundary Condition Object
    SunExposed,               !- Sun Exposure
    WindExposed,              !- Wind Exposure
    autocalculate,            !- View Factor to Ground
    autocalculate,            !- Number of Vertices
    705331.505,               !- Vertex 1 Xcoordinate
    5711282.589,              !- Vertex 1 Ycoordinate
    6,                        !- Vertex 1 Zcoordinate
    705331.505,               !- Vertex 2 Xcoordinate
    5711282.589,              !- Vertex 2 Ycoordinate
    0,                        !- Vertex 2 Zcoordinate
    705331.647,               !- Vertex 3 Xcoordinate
    5711278.23,               !- Vertex 3 Ycoordinate
    0,                        !- Vertex 3 Zcoordinate
    705331.647,               !- Vertex 4 Xcoordinate
    5711278.23,               !- Vertex 4 Ycoordinate
    6;                        !- Vertex 4 Zcoordinate

BUILDINGSURFACE:DETAILED,
    Block 3f7a88623712f3b2_0 Storey 0 Wall 0004,    !- Name
    wall,                     !- Surface Type
    EU_wall_Construction,     !- Construction Name
    3f7a88623712f3b2_F0_dwelling_0,    !- Zone Name
    ,                         !- Space Name
    Adiabatic,                !- Outside Boundary Condition
    ,                         !- Outside Boundary Condition Object
    NoSun,                    !- Sun Exposure
    NoWind,                   !- Wind Exposure
    autocalculate,            !- View Factor to Ground
    autocalculate,            !- Number of Vertices
    705331.647,               !- Vertex 1 Xcoordinate
    5711278.23,               !- Vertex 1 Ycoordinate
    6,                        !- Vertex 1 Zcoordinate
    705331.647,               !- Vertex 2 Xcoordinate
    5711278.23,               !- Vertex 2 Ycoordinate
    0,                        !- Vertex 2 Zcoordinate
    705324.51,                !- Vertex 3 Xcoordinate
    5711278.075,              !- Vertex 3 Ycoordinate
    0,                        !- Vertex 3 Zcoordinate
    705324.51,                !- Vertex 4 Xcoordinate
    5711278.075,              !- Vertex 4 Ycoordinate
    6;                        !- Vertex 4 Zcoordinate

BUILDINGSURFACE:DETAILED,
    Block 3f7a88623712f3b2_0 Storey 0 Floor 0001,    !- Name
    floor,                    !- Surface Type
    EU_floor_Construction,    !- Construction Name
    3f7a88623712f3b2_F0_dwelling_0,    !- Zone Name
    ,                         !- Space Name
    ground,                   !- Outside Boundary Condition
    ,                         !- Outside Boundary Condition Object
    NoSun,                    !- Sun Exposure
    NoWind,                   !- Wind Exposure
    autocalculate,            !- View Factor to Ground
    autocalculate,            !- Number of Vertices
    705331.647,               !- Vertex 1 Xcoordinate
    5711278.23,               !- Vertex 1 Ycoordinate
    0,                        !- Vertex 1 Zcoordinate
    705331.505,               !- Vertex 2 Xcoordinate
    5711282.589,              !- Vertex 2 Ycoordinate
    0,                        !- Vertex 2 Zcoordinate
    705324.346,               !- Vertex 3 Xcoordinate
    5711282.311,              !- Vertex 3 Ycoordinate
    0,                        !- Vertex 3 Zcoordinate
    705324.51,                !- Vertex 4 Xcoordinate
    5711278.075,              !- Vertex 4 Ycoordinate
    0;                        !- Vertex 4 Zcoordinate

BUILDINGSURFACE:DETAILED,
    Block 3f7a88623712f3b2_0 Storey 0 Roof 0001,    !- Name
    roof,                     !- Surface Type
    EU_roof_Construction,     !- Construction Name
    3f7a88623712f3b2_F0_dwelling_0,    !- Zone Name
    ,                         !- Space Name
    outdoors,                 !- Outside Boundary Condition
    ,                         !- Outside Boundary Condition Object
    NoSun,                    !- Sun Exposure
    WindExposed,              !- Wind Exposure
    autocalculate,            !- View Factor to Ground
    autocalculate,            !- Number of Vertices
    705331.505,               !- Vertex 1 Xcoordinate
    5711282.589,              !- Vertex 1 Ycoordinate
    6,                        !- Vertex 1 Zcoordinate
    705331.647,               !- Vertex 2 Xcoordinate
    5711278.23,               !- Vertex 2 Ycoordinate
    6,                        !- Vertex 2 Zcoordinate
    705324.51,                !- Vertex 3 Xcoordinate
    5711278.075,              !- Vertex 3 Ycoordinate
    6,                        !- Vertex 3 Zcoordinate
    705324.346,               !- Vertex 4 Xcoordinate
    5711282.311,              !- Vertex 4 Ycoordinate
    6;                        !- Vertex 4 Zcoordinate

INTERNALMASS,
    3f7a88623712f3b2_F0_dwelling_0_EU_InternalMass,    !- Name
    EU_InternalMass_Construction,    !- Construction Name
    3f7a88623712f3b2_F0_dwelling_0,    !- Zone or ZoneList Name
    ,                         !- Space or SpaceList Name
    30.751654502351425;       !- Surface Area

SHADING:SITE:DETAILED,
    shade_way/360408499_1,    !- Name
    ,                         !- Transmittance Schedule Name
    autocalculate,            !- Number of Vertices
    705325.3155983798,        !- Vertex 1 Xcoordinate
    5711259.721404221,        !- Vertex 1 Ycoordinate
    6,                        !- Vertex 1 Zcoordinate
    705325.3155983798,        !- Vertex 2 Xcoordinate
    5711259.721404221,        !- Vertex 2 Ycoordinate
    0,                        !- Vertex 2 Zcoordinate
    705332.1003339556,        !- Vertex 3 Xcoordinate
    5711259.984823787,        !- Vertex 3 Ycoordinate
    0,                        !- Vertex 3 Zcoordinate
    705332.1003339556,        !- Vertex 4 Xcoordinate
    5711259.984823787,        !- Vertex 4 Ycoordinate
    6;                        !- Vertex 4 Zcoordinate

SHADING:SITE:DETAILED,
    shade_way/360408499_2,    !- Name
    ,                         !- Transmittance Schedule Name
    autocalculate,            !- Number of Vertices
    705332.1003339556,        !- Vertex 1 Xcoordinate
    5711259.984823787,        !- Vertex 1 Ycoordinate
    6,                        !- Vertex 1 Zcoordinate
    705332.1003339556,        !- Vertex 2 Xcoordinate
    5711259.984823787,        !- Vertex 2 Ycoordinate
    0,                        !- Vertex 2 Zcoordinate
    705332.2784626327,        !- Vertex 3 Xcoordinate
    5711255.392843081,        !- Vertex 3 Ycoordinate
    0,                        !- Vertex 3 Zcoordinate
    705332.2784626327,        !- Vertex 4 Xcoordinate
    5711255.392843081,        !- Vertex 4 Ycoordinate
    6;                        !- Vertex 4 Zcoordinate

SHADING:SITE:DETAILED,
    shade_way/360408499_3,    !- Name
    ,                         !- Transmittance Schedule Name
    autocalculate,            !- Number of Vertices
    705332.2784626327,        !- Vertex 1 Xcoordinate
    5711255.392843081,        !- Vertex 1 Ycoordinate
    6,                        !- Vertex 1 Zcoordinate
    705332.2784626327,        !- Vertex 2 Xcoordinate
    5711255.392843081,        !- Vertex 2 Ycoordinate
    0,                        !- Vertex 2 Zcoordinate
    705325.493727057,         !- Vertex 3 Xcoordinate
    5711255.129423512,        !- Vertex 3 Ycoordinate
    0,                        !- Vertex 3 Zcoordinate
    705325.493727057,         !- Vertex 4 Xcoordinate
    5711255.129423512,        !- Vertex 4 Ycoordinate
    6;                        !- Vertex 4 Zcoordinate

SHADING:SITE:DETAILED,
    shade_way/360408499_4,    !- Name
    ,                         !- Transmittance Schedule Name
    autocalculate,            !- Number of Vertices
    705325.493727057,         !- Vertex 1 Xcoordinate
    5711255.129423512,        !- Vertex 1 Ycoordinate
    6,                        !- Vertex 1 Zcoordinate
    705325.493727057,         !- Vertex 2 Xcoordinate
    5711255.129423512,        !- Vertex 2 Ycoordinate
    0,                        !- Vertex 2 Zcoordinate
    705325.3155983798,        !- Vertex 3 Xcoordinate
    5711259.721404221,        !- Vertex 3 Ycoordinate
    0,                        !- Vertex 3 Zcoordinate
    705325.3155983798,        !- Vertex 4 Xcoordinate
    5711259.721404221,        !- Vertex 4 Ycoordinate
    6;                        !- Vertex 4 Zcoordinate

SHADING:SITE:DETAILED,
    shade_way/360408503_1,    !- Name
    ,                         !- Transmittance Schedule Name
    autocalculate,            !- Number of Vertices
    705332.1832799712,        !- Vertex 1 Xcoordinate
    5711259.98830985,         !- Vertex 1 Ycoordinate
    6,                        !- Vertex 1 Zcoordinate
    705332.1832799712,        !- Vertex 2 Xcoordinate
    5711259.98830985,         !- Vertex 2 Ycoordinate
    0,                        !- Vertex 2 Zcoordinate
    705325.3155983798,        !- Vertex 3 Xcoordinate
    5711259.721404221,        !- Vertex 3 Ycoordinate
    0,                        !- Vertex 3 Zcoordinate
    705325.3155983798,        !- Vertex 4 Xcoordinate
    5711259.721404221,        !- Vertex 4 Ycoordinate
    6;                        !- Vertex 4 Zcoordinate

SHADING:SITE:DETAILED,
    shade_way/360408503_2,    !- Name
    ,                         !- Transmittance Schedule Name
    autocalculate,            !- Number of Vertices
    705325.3155983798,        !- Vertex 1 Xcoordinate
    5711259.721404221,        !- Vertex 1 Ycoordinate
    6,                        !- Vertex 1 Zcoordinate
    705325.3155983798,        !- Vertex 2 Xcoordinate
    5711259.721404221,        !- Vertex 2 Ycoordinate
    0,                        !- Vertex 2 Zcoordinate
    705325.1479310547,        !- Vertex 3 Xcoordinate
    5711264.035878243,        !- Vertex 3 Ycoordinate
    0,                        !- Vertex 3 Zcoordinate
    705325.1479310547,        !- Vertex 4 Xcoordinate
    5711264.035878243,        !- Vertex 4 Ycoordinate
    6;                        !- Vertex 4 Zcoordinate

SHADING:SITE:DETAILED,
    shade_way/360408503_3,    !- Name
    ,                         !- Transmittance Schedule Name
    autocalculate,            !- Number of Vertices
    705325.1479310547,        !- Vertex 1 Xcoordinate
    5711264.035878243,        !- Vertex 1 Ycoordinate
    6,                        !- Vertex 1 Zcoordinate
    705325.1479310547,        !- Vertex 2 Xcoordinate
    5711264.035878243,        !- Vertex 2 Ycoordinate
    0,                        !- Vertex 2 Zcoordinate
    705332.0159457079,        !- Vertex 3 Xcoordinate
    5711264.30226549,         !- Vertex 3 Ycoordinate
    0,                        !- Vertex 3 Zcoordinate
    705332.0159457079,        !- Vertex 4 Xcoordinate
    5711264.30226549,         !- Vertex 4 Ycoordinate
    6;                        !- Vertex 4 Zcoordinate

SHADING:SITE:DETAILED,
    shade_way/360408503_4,    !- Name
    ,                         !- Transmittance Schedule Name
    autocalculate,            !- Number of Vertices
    705332.0159457079,        !- Vertex 1 Xcoordinate
    5711264.30226549,         !- Vertex 1 Ycoordinate
    6,                        !- Vertex 1 Zcoordinate
    705332.0159457079,        !- Vertex 2 Xcoordinate
    5711264.30226549,         !- Vertex 2 Ycoordinate
    0,                        !- Vertex 2 Zcoordinate
    705332.1832799712,        !- Vertex 3 Xcoordinate
    5711259.98830985,         !- Vertex 3 Ycoordinate
    0,                        !- Vertex 3 Zcoordinate
    705332.1832799712,        !- Vertex 4 Xcoordinate
    5711259.98830985,         !- Vertex 4 Ycoordinate
    6;                        !- Vertex 4 Zcoordinate

SHADING:SITE:DETAILED,
    shade_way/360408512_1,    !- Name
    ,                         !- Transmittance Schedule Name
    autocalculate,            !- Number of Vertices
    705332.0494530888,        !- Vertex 1 Xcoordinate
    5711264.3032598,          !- Vertex 1 Ycoordinate
    6,                        !- Vertex 1 Zcoordinate
    705332.0494530888,        !- Vertex 2 Xcoordinate
    5711264.3032598,          !- Vertex 2 Ycoordinate
    0,                        !- Vertex 2 Zcoordinate
    705325.1757207767,        !- Vertex 3 Xcoordinate
    5711264.036600219,        !- Vertex 3 Ycoordinate
    0,                        !- Vertex 3 Zcoordinate
    705325.1757207767,        !- Vertex 4 Xcoordinate
    5711264.036600219,        !- Vertex 4 Ycoordinate
    6;                        !- Vertex 4 Zcoordinate

SHADING:SITE:DETAILED,
    shade_way/360408512_2,    !- Name
    ,                         !- Transmittance Schedule Name
    autocalculate,            !- Number of Vertices
    705325.1757207767,        !- Vertex 1 Xcoordinate
    5711264.036600219,        !- Vertex 1 Ycoordinate
    6,                        !- Vertex 1 Zcoordinate
    705325.1757207767,        !- Vertex 2 Xcoordinate
    5711264.036600219,        !- Vertex 2 Ycoordinate
    0,                        !- Vertex 2 Zcoordinate
    705324.9855491985,        !- Vertex 3 Xcoordinate
    5711268.928593092,        !- Vertex 3 Ycoordinate
    0,                        !- Vertex 3 Zcoordinate
    705324.9855491985,        !- Vertex 4 Xcoordinate
    5711268.928593092,        !- Vertex 4 Ycoordinate
    6;                        !- Vertex 4 Zcoordinate

SHADING:SITE:DETAILED,
    shade_way/360408512_3,    !- Name
    ,                         !- Transmittance Schedule Name
    autocalculate,            !- Number of Vertices
    705324.9855491985,        !- Vertex 1 Xcoordinate
    5711268.928593092,        !- Vertex 1 Ycoordinate
    6,                        !- Vertex 1 Zcoordinate
    705324.9855491985,        !- Vertex 2 Xcoordinate
    5711268.928593092,        !- Vertex 2 Ycoordinate
    0,                        !- Vertex 2 Zcoordinate
    705331.8596032888,        !- Vertex 3 Xcoordinate
    5711269.195879312,        !- Vertex 3 Ycoordinate
    0,                        !- Vertex 3 Zcoordinate
    705331.8596032888,        !- Vertex 4 Xcoordinate
    5711269.195879312,        !- Vertex 4 Ycoordinate
    6;                        !- Vertex 4 Zcoordinate

SHADING:SITE:DETAILED,
    shade_way/360408512_4,    !- Name
    ,                         !- Transmittance Schedule Name
    autocalculate,            !- Number of Vertices
    705331.8596032888,        !- Vertex 1 Xcoordinate
    5711269.195879312,        !- Vertex 1 Ycoordinate
    6,                        !- Vertex 1 Zcoordinate
    705331.8596032888,        !- Vertex 2 Xcoordinate
    5711269.195879312,        !- Vertex 2 Ycoordinate
    0,                        !- Vertex 2 Zcoordinate
    705332.0494530888,        !- Vertex 3 Xcoordinate
    5711264.3032598,          !- Vertex 3 Ycoordinate
    0,                        !- Vertex 3 Zcoordinate
    705332.0494530888,        !- Vertex 4 Xcoordinate
    5711264.3032598,          !- Vertex 4 Ycoordinate
    6;                        !- Vertex 4 Zcoordinate

SHADING:SITE:DETAILED,
    shade_way/360408489_1,    !- Name
    ,                         !- Transmittance Schedule Name
    autocalculate,            !- Number of Vertices
    705322.1803672084,        !- Vertex 1 Xcoordinate
    5711273.158358575,        !- Vertex 1 Ycoordinate
    6,                        !- Vertex 1 Zcoordinate
    705322.1803672084,        !- Vertex 2 Xcoordinate
    5711273.158358575,        !- Vertex 2 Ycoordinate
    0,                        !- Vertex 2 Zcoordinate
    705331.7304438625,        !- Vertex 3 Xcoordinate
    5711273.589462902,        !- Vertex 3 Ycoordinate
    0,                        !- Vertex 3 Zcoordinate
    705331.7304438625,        !- Vertex 4 Xcoordinate
    5711273.589462902,        !- Vertex 4 Ycoordinate
    6;                        !- Vertex 4 Zcoordinate

SHADING:SITE:DETAILED,
    shade_way/360408489_2,    !- Name
    ,                         !- Transmittance Schedule Name
    autocalculate,            !- Number of Vertices
    705331.7304438625,        !- Vertex 1 Xcoordinate
    5711273.589462902,        !- Vertex 1 Ycoordinate
    6,                        !- Vertex 1 Zcoordinate
    705331.7304438625,        !- Vertex 2 Xcoordinate
    5711273.589462902,        !- Vertex 2 Ycoordinate
    0,                        !- Vertex 2 Zcoordinate
    705331.9313528938,        !- Vertex 3 Xcoordinate
    5711269.1433253195,       !- Vertex 3 Ycoordinate
    0,                        !- Vertex 3 Zcoordinate
    705331.9313528938,        !- Vertex 4 Xcoordinate
    5711269.1433253195,       !- Vertex 4 Ycoordinate
    6;                        !- Vertex 4 Zcoordinate

SHADING:SITE:DETAILED,
    shade_way/360408489_3,    !- Name
    ,                         !- Transmittance Schedule Name
    autocalculate,            !- Number of Vertices
    705331.9313528938,        !- Vertex 1 Xcoordinate
    5711269.1433253195,       !- Vertex 1 Ycoordinate
    6,                        !- Vertex 1 Zcoordinate
    705331.9313528938,        !- Vertex 2 Xcoordinate
    5711269.1433253195,       !- Vertex 2 Ycoordinate
    0,                        !- Vertex 2 Zcoordinate
    705322.380930787,         !- Vertex 3 Xcoordinate
    5711268.712084597,        !- Vertex 3 Ycoordinate
    0,                        !- Vertex 3 Zcoordinate
    705322.380930787,         !- Vertex 4 Xcoordinate
    5711268.712084597,        !- Vertex 4 Ycoordinate
    6;                        !- Vertex 4 Zcoordinate

SHADING:SITE:DETAILED,
    shade_way/360408489_4,    !- Name
    ,                         !- Transmittance Schedule Name
    autocalculate,            !- Number of Vertices
    705322.380930787,         !- Vertex 1 Xcoordinate
    5711268.712084597,        !- Vertex 1 Ycoordinate
    6,                        !- Vertex 1 Zcoordinate
    705322.380930787,         !- Vertex 2 Xcoordinate
    5711268.712084597,        !- Vertex 2 Ycoordinate
    0,                        !- Vertex 2 Zcoordinate
    705322.1803672084,        !- Vertex 3 Xcoordinate
    5711273.158358575,        !- Vertex 3 Ycoordinate
    0,                        !- Vertex 3 Zcoordinate
    705322.1803672084,        !- Vertex 4 Xcoordinate
    5711273.158358575,        !- Vertex 4 Ycoordinate
    6;                        !- Vertex 4 Zcoordinate

SHADING:SITE:DETAILED,
    shade_way/360408494_1,    !- Name
    ,                         !- Transmittance Schedule Name
    autocalculate,            !- Number of Vertices
    705322.0663487474,        !- Vertex 1 Xcoordinate
    5711278.031513396,        !- Vertex 1 Ycoordinate
    6,                        !- Vertex 1 Zcoordinate
    705322.0663487474,        !- Vertex 2 Xcoordinate
    5711278.031513396,        !- Vertex 2 Ycoordinate
    0,                        !- Vertex 2 Zcoordinate
    705331.6468810256,        !- Vertex 3 Xcoordinate
    5711278.229888736,        !- Vertex 3 Ycoordinate
    0,                        !- Vertex 3 Zcoordinate
    705331.6468810256,        !- Vertex 4 Xcoordinate
    5711278.229888736,        !- Vertex 4 Ycoordinate
    6;                        !- Vertex 4 Zcoordinate

SHADING:SITE:DETAILED,
    shade_way/360408494_2,    !- Name
    ,                         !- Transmittance Schedule Name
    autocalculate,            !- Number of Vertices
    705331.6468810256,        !- Vertex 1 Xcoordinate
    5711278.229888736,        !- Vertex 1 Ycoordinate
    6,                        !- Vertex 1 Zcoordinate
    705331.6468810256,        !- Vertex 2 Xcoordinate
    5711278.229888736,        !- Vertex 2 Ycoordinate
    0,                        !- Vertex 2 Zcoordinate
    705331.7478368261,        !- Vertex 3 Xcoordinate
    5711273.357074258,        !- Vertex 3 Ycoordinate
    0,                        !- Vertex 3 Zcoordinate
    705331.7478368261,        !- Vertex 4 Xcoordinate
    5711273.357074258,        !- Vertex 4 Ycoordinate
    6;                        !- Vertex 4 Zcoordinate

SHADING:SITE:DETAILED,
    shade_way/360408494_3,    !- Name
    ,                         !- Transmittance Schedule Name
    autocalculate,            !- Number of Vertices
    705331.7478368261,        !- Vertex 1 Xcoordinate
    5711273.357074258,        !- Vertex 1 Ycoordinate
    6,                        !- Vertex 1 Zcoordinate
    705331.7478368261,        !- Vertex 2 Xcoordinate
    5711273.357074258,        !- Vertex 2 Ycoordinate
    0,                        !- Vertex 2 Zcoordinate
    705322.1673045479,        !- Vertex 3 Xcoordinate
    5711273.15869892,         !- Vertex 3 Ycoordinate
    0,                        !- Vertex 3 Zcoordinate
    705322.1673045479,        !- Vertex 4 Xcoordinate
    5711273.15869892,         !- Vertex 4 Ycoordinate
    6;                        !- Vertex 4 Zcoordinate

SHADING:SITE:DETAILED,
    shade_way/360408494_4,    !- Name
    ,                         !- Transmittance Schedule Name
    autocalculate,            !- Number of Vertices
    705322.1673045479,        !- Vertex 1 Xcoordinate
    5711273.15869892,         !- Vertex 1 Ycoordinate
    6,                        !- Vertex 1 Zcoordinate
    705322.1673045479,        !- Vertex 2 Xcoordinate
    5711273.15869892,         !- Vertex 2 Ycoordinate
    0,                        !- Vertex 2 Zcoordinate
    705322.0663487474,        !- Vertex 3 Xcoordinate
    5711278.031513396,        !- Vertex 3 Ycoordinate
    0,                        !- Vertex 3 Zcoordinate
    705322.0663487474,        !- Vertex 4 Xcoordinate
    5711278.031513396,        !- Vertex 4 Ycoordinate
    6;                        !- Vertex 4 Zcoordinate

SHADING:SITE:DETAILED,
    shade_way/360408502_1,    !- Name
    ,                         !- Transmittance Schedule Name
    autocalculate,            !- Number of Vertices
    705331.5813367626,        !- Vertex 1 Xcoordinate
    5711282.592260433,        !- Vertex 1 Ycoordinate
    6,                        !- Vertex 1 Zcoordinate
    705331.5813367626,        !- Vertex 2 Xcoordinate
    5711282.592260433,        !- Vertex 2 Ycoordinate
    0,                        !- Vertex 2 Zcoordinate
    705324.3459960356,        !- Vertex 3 Xcoordinate
    5711282.310723645,        !- Vertex 3 Ycoordinate
    0,                        !- Vertex 3 Zcoordinate
    705324.3459960356,        !- Vertex 4 Xcoordinate
    5711282.310723645,        !- Vertex 4 Ycoordinate
    6;                        !- Vertex 4 Zcoordinate

SHADING:SITE:DETAILED,
    shade_way/360408502_2,    !- Name
    ,                         !- Transmittance Schedule Name
    autocalculate,            !- Number of Vertices
    705324.3459960356,        !- Vertex 1 Xcoordinate
    5711282.310723645,        !- Vertex 1 Ycoordinate
    6,                        !- Vertex 1 Zcoordinate
    705324.3459960356,        !- Vertex 2 Xcoordinate
    5711282.310723645,        !- Vertex 2 Ycoordinate
    0,                        !- Vertex 2 Zcoordinate
    705324.165146117,         !- Vertex 3 Xcoordinate
    5711286.9584671175,       !- Vertex 3 Ycoordinate
    0,                        !- Vertex 3 Zcoordinate
    705324.165146117,         !- Vertex 4 Xcoordinate
    5711286.9584671175,       !- Vertex 4 Ycoordinate
    6;                        !- Vertex 4 Zcoordinate

SHADING:SITE:DETAILED,
    shade_way/360408502_3,    !- Name
    ,                         !- Transmittance Schedule Name
    autocalculate,            !- Number of Vertices
    705324.165146117,         !- Vertex 1 Xcoordinate
    5711286.9584671175,       !- Vertex 1 Ycoordinate
    6,                        !- Vertex 1 Zcoordinate
    705324.165146117,         !- Vertex 2 Xcoordinate
    5711286.9584671175,       !- Vertex 2 Ycoordinate
    0,                        !- Vertex 2 Zcoordinate
    705331.4003733422,        !- Vertex 3 Xcoordinate
    5711287.240258616,        !- Vertex 3 Ycoordinate
    0,                        !- Vertex 3 Zcoordinate
    705331.4003733422,        !- Vertex 4 Xcoordinate
    5711287.240258616,        !- Vertex 4 Ycoordinate
    6;                        !- Vertex 4 Zcoordinate

SHADING:SITE:DETAILED,
    shade_way/360408502_4,    !- Name
    ,                         !- Transmittance Schedule Name
    autocalculate,            !- Number of Vertices
    705331.4003733422,        !- Vertex 1 Xcoordinate
    5711287.240258616,        !- Vertex 1 Ycoordinate
    6,                        !- Vertex 1 Zcoordinate
    705331.4003733422,        !- Vertex 2 Xcoordinate
    5711287.240258616,        !- Vertex 2 Ycoordinate
    0,                        !- Vertex 2 Zcoordinate
    705331.5813367626,        !- Vertex 3 Xcoordinate
    5711282.592260433,        !- Vertex 3 Ycoordinate
    0,                        !- Vertex 3 Zcoordinate
    705331.5813367626,        !- Vertex 4 Xcoordinate
    5711282.592260433,        !- Vertex 4 Ycoordinate
    6;                        !- Vertex 4 Zcoordinate

SHADING:SITE:DETAILED,
    shade_way/360408511_1,    !- Name
    ,                         !- Transmittance Schedule Name
    autocalculate,            !- Number of Vertices
    705331.5744152704,        !- Vertex 1 Xcoordinate
    5711287.251170945,        !- Vertex 1 Ycoordinate
    6,                        !- Vertex 1 Zcoordinate
    705331.5744152704,        !- Vertex 2 Xcoordinate
    5711287.251170945,        !- Vertex 2 Ycoordinate
    0,                        !- Vertex 2 Zcoordinate
    705321.4839960653,        !- Vertex 3 Xcoordinate
    5711286.6252195425,       !- Vertex 3 Ycoordinate
    0,                        !- Vertex 3 Zcoordinate
    705321.4839960653,        !- Vertex 4 Xcoordinate
    5711286.6252195425,       !- Vertex 4 Ycoordinate
    6;                        !- Vertex 4 Zcoordinate

SHADING:SITE:DETAILED,
    shade_way/360408511_2,    !- Name
    ,                         !- Transmittance Schedule Name
    autocalculate,            !- Number of Vertices
    705321.4839960653,        !- Vertex 1 Xcoordinate
    5711286.6252195425,       !- Vertex 1 Ycoordinate
    6,                        !- Vertex 1 Zcoordinate
    705321.4839960653,        !- Vertex 2 Xcoordinate
    5711286.6252195425,       !- Vertex 2 Ycoordinate
    0,                        !- Vertex 2 Zcoordinate
    705321.203076029,         !- Vertex 3 Xcoordinate
    5711291.153687619,        !- Vertex 3 Ycoordinate
    0,                        !- Vertex 3 Zcoordinate
    705321.203076029,         !- Vertex 4 Xcoordinate
    5711291.153687619,        !- Vertex 4 Ycoordinate
    6;                        !- Vertex 4 Zcoordinate

SHADING:SITE:DETAILED,
    shade_way/360408511_3,    !- Name
    ,                         !- Transmittance Schedule Name
    autocalculate,            !- Number of Vertices
    705321.203076029,         !- Vertex 1 Xcoordinate
    5711291.153687619,        !- Vertex 1 Ycoordinate
    6,                        !- Vertex 1 Zcoordinate
    705321.203076029,         !- Vertex 2 Xcoordinate
    5711291.153687619,        !- Vertex 2 Ycoordinate
    0,                        !- Vertex 2 Zcoordinate
    705331.2931115633,        !- Vertex 3 Xcoordinate
    5711291.779499449,        !- Vertex 3 Ycoordinate
    0,                        !- Vertex 3 Zcoordinate
    705331.2931115633,        !- Vertex 4 Xcoordinate
    5711291.779499449,        !- Vertex 4 Ycoordinate
    6;                        !- Vertex 4 Zcoordinate

SHADING:SITE:DETAILED,
    shade_way/360408511_4,    !- Name
    ,                         !- Transmittance Schedule Name
    autocalculate,            !- Number of Vertices
    705331.2931115633,        !- Vertex 1 Xcoordinate
    5711291.779499449,        !- Vertex 1 Ycoordinate
    6,                        !- Vertex 1 Zcoordinate
    705331.2931115633,        !- Vertex 2 Xcoordinate
    5711291.779499449,        !- Vertex 2 Ycoordinate
    0,                        !- Vertex 2 Zcoordinate
    705331.5744152704,        !- Vertex 3 Xcoordinate
    5711287.251170945,        !- Vertex 3 Ycoordinate
    0,                        !- Vertex 3 Zcoordinate
    705331.5744152704,        !- Vertex 4 Xcoordinate
    5711287.251170945,        !- Vertex 4 Ycoordinate
    6;                        !- Vertex 4 Zcoordinate

SHADING:SITE:DETAILED,
    shade_way/360408488_1,    !- Name
    ,                         !- Transmittance Schedule Name
    autocalculate,            !- Number of Vertices
    705323.6732320131,        !- Vertex 1 Xcoordinate
    5711295.820757336,        !- Vertex 1 Ycoordinate
    6,                        !- Vertex 1 Zcoordinate
    705323.6732320131,        !- Vertex 2 Xcoordinate
    5711295.820757336,        !- Vertex 2 Ycoordinate
    0,                        !- Vertex 2 Zcoordinate
    705331.1359418493,        !- Vertex 3 Xcoordinate
    5711296.350129345,        !- Vertex 3 Ycoordinate
    0,                        !- Vertex 3 Zcoordinate
    705331.1359418493,        !- Vertex 4 Xcoordinate
    5711296.350129345,        !- Vertex 4 Ycoordinate
    6;                        !- Vertex 4 Zcoordinate

SHADING:SITE:DETAILED,
    shade_way/360408488_2,    !- Name
    ,                         !- Transmittance Schedule Name
    autocalculate,            !- Number of Vertices
    705331.1359418493,        !- Vertex 1 Xcoordinate
    5711296.350129345,        !- Vertex 1 Ycoordinate
    6,                        !- Vertex 1 Zcoordinate
    705331.1359418493,        !- Vertex 2 Xcoordinate
    5711296.350129345,        !- Vertex 2 Ycoordinate
    0,                        !- Vertex 2 Zcoordinate
    705331.4626828139,        !- Vertex 3 Xcoordinate
    5711291.746092856,        !- Vertex 3 Ycoordinate
    0,                        !- Vertex 3 Zcoordinate
    705331.4626828139,        !- Vertex 4 Xcoordinate
    5711291.746092856,        !- Vertex 4 Ycoordinate
    6;                        !- Vertex 4 Zcoordinate

SHADING:SITE:DETAILED,
    shade_way/360408488_3,    !- Name
    ,                         !- Transmittance Schedule Name
    autocalculate,            !- Number of Vertices
    705331.4626828139,        !- Vertex 1 Xcoordinate
    5711291.746092856,        !- Vertex 1 Ycoordinate
    6,                        !- Vertex 1 Zcoordinate
    705331.4626828139,        !- Vertex 2 Xcoordinate
    5711291.746092856,        !- Vertex 2 Ycoordinate
    0,                        !- Vertex 2 Zcoordinate
    705323.9994020863,        !- Vertex 3 Xcoordinate
    5711291.217076201,        !- Vertex 3 Ycoordinate
    0,                        !- Vertex 3 Zcoordinate
    705323.9994020863,        !- Vertex 4 Xcoordinate
    5711291.217076201,        !- Vertex 4 Ycoordinate
    6;                        !- Vertex 4 Zcoordinate

SHADING:SITE:DETAILED,
    shade_way/360408488_4,    !- Name
    ,                         !- Transmittance Schedule Name
    autocalculate,            !- Number of Vertices
    705323.9994020863,        !- Vertex 1 Xcoordinate
    5711291.217076201,        !- Vertex 1 Ycoordinate
    6,                        !- Vertex 1 Zcoordinate
    705323.9994020863,        !- Vertex 2 Xcoordinate
    5711291.217076201,        !- Vertex 2 Ycoordinate
    0,                        !- Vertex 2 Zcoordinate
    705323.6732320131,        !- Vertex 3 Xcoordinate
    5711295.820757336,        !- Vertex 3 Ycoordinate
    0,                        !- Vertex 3 Zcoordinate
    705323.6732320131,        !- Vertex 4 Xcoordinate
    5711295.820757336,        !- Vertex 4 Ycoordinate
    6;                        !- Vertex 4 Zcoordinate

SHADING:SITE:DETAILED,
    shade_way/360408493_1,    !- Name
    ,                         !- Transmittance Schedule Name
    autocalculate,            !- Number of Vertices
    705331.3485678016,        !- Vertex 1 Xcoordinate
    5711296.365008543,        !- Vertex 1 Ycoordinate
    6,                        !- Vertex 1 Zcoordinate
    705331.3485678016,        !- Vertex 2 Xcoordinate
    5711296.365008543,        !- Vertex 2 Ycoordinate
    0,                        !- Vertex 2 Zcoordinate
    705323.8196288074,        !- Vertex 3 Xcoordinate
    5711295.831336118,        !- Vertex 3 Ycoordinate
    0,                        !- Vertex 3 Zcoordinate
    705323.8196288074,        !- Vertex 4 Xcoordinate
    5711295.831336118,        !- Vertex 4 Ycoordinate
    6;                        !- Vertex 4 Zcoordinate

SHADING:SITE:DETAILED,
    shade_way/360408493_2,    !- Name
    ,                         !- Transmittance Schedule Name
    autocalculate,            !- Number of Vertices
    705323.8196288074,        !- Vertex 1 Xcoordinate
    5711295.831336118,        !- Vertex 1 Ycoordinate
    6,                        !- Vertex 1 Zcoordinate
    705323.8196288074,        !- Vertex 2 Xcoordinate
    5711295.831336118,        !- Vertex 2 Ycoordinate
    0,                        !- Vertex 2 Zcoordinate
    705323.4857260361,        !- Vertex 3 Xcoordinate
    5711300.544068102,        !- Vertex 3 Ycoordinate
    0,                        !- Vertex 3 Zcoordinate
    705323.4857260361,        !- Vertex 4 Xcoordinate
    5711300.544068102,        !- Vertex 4 Ycoordinate
    6;                        !- Vertex 4 Zcoordinate

SHADING:SITE:DETAILED,
    shade_way/360408493_3,    !- Name
    ,                         !- Transmittance Schedule Name
    autocalculate,            !- Number of Vertices
    705323.4857260361,        !- Vertex 1 Xcoordinate
    5711300.544068102,        !- Vertex 1 Ycoordinate
    6,                        !- Vertex 1 Zcoordinate
    705323.4857260361,        !- Vertex 2 Xcoordinate
    5711300.544068102,        !- Vertex 2 Ycoordinate
    0,                        !- Vertex 2 Zcoordinate
    705331.0140941388,        !- Vertex 3 Xcoordinate
    5711301.07809588,         !- Vertex 3 Ycoordinate
    0,                        !- Vertex 3 Zcoordinate
    705331.0140941388,        !- Vertex 4 Xcoordinate
    5711301.07809588,         !- Vertex 4 Ycoordinate
    6;                        !- Vertex 4 Zcoordinate

SHADING:SITE:DETAILED,
    shade_way/360408493_4,    !- Name
    ,                         !- Transmittance Schedule Name
    autocalculate,            !- Number of Vertices
    705331.0140941388,        !- Vertex 1 Xcoordinate
    5711301.07809588,         !- Vertex 1 Ycoordinate
    6,                        !- Vertex 1 Zcoordinate
    705331.0140941388,        !- Vertex 2 Xcoordinate
    5711301.07809588,         !- Vertex 2 Ycoordinate
    0,                        !- Vertex 2 Zcoordinate
    705331.3485678016,        !- Vertex 3 Xcoordinate
    5711296.365008543,        !- Vertex 3 Ycoordinate
    0,                        !- Vertex 3 Zcoordinate
    705331.3485678016,        !- Vertex 4 Xcoordinate
    5711296.365008543,        !- Vertex 4 Ycoordinate
    6;                        !- Vertex 4 Zcoordinate

SHADING:SITE:DETAILED,
    shade_way/394341585_1,    !- Name
    ,                         !- Transmittance Schedule Name
    autocalculate,            !- Number of Vertices
    705344.0921170267,        !- Vertex 1 Xcoordinate
    5711307.208969478,        !- Vertex 1 Ycoordinate
    6,                        !- Vertex 1 Zcoordinate
    705344.0921170267,        !- Vertex 2 Xcoordinate
    5711307.208969478,        !- Vertex 2 Ycoordinate
    0,                        !- Vertex 2 Zcoordinate
    705359.4048597137,        !- Vertex 3 Xcoordinate
    5711308.114534554,        !- Vertex 3 Ycoordinate
    0,                        !- Vertex 3 Zcoordinate
    705359.4048597137,        !- Vertex 4 Xcoordinate
    5711308.114534554,        !- Vertex 4 Ycoordinate
    6;                        !- Vertex 4 Zcoordinate

SHADING:SITE:DETAILED,
    shade_way/394341585_2,    !- Name
    ,                         !- Transmittance Schedule Name
    autocalculate,            !- Number of Vertices
    705359.4048597137,        !- Vertex 1 Xcoordinate
    5711308.114534554,        !- Vertex 1 Ycoordinate
    6,                        !- Vertex 1 Zcoordinate
    705359.4048597137,        !- Vertex 2 Xcoordinate
    5711308.114534554,        !- Vertex 2 Ycoordinate
    0,                        !- Vertex 2 Zcoordinate
    705360.0513454922,        !- Vertex 3 Xcoordinate
    5711297.182718954,        !- Vertex 3 Ycoordinate
    0,                        !- Vertex 3 Zcoordinate
    705360.0513454922,        !- Vertex 4 Xcoordinate
    5711297.182718954,        !- Vertex 4 Ycoordinate
    6;                        !- Vertex 4 Zcoordinate

SHADING:SITE:DETAILED,
    shade_way/394341585_3,    !- Name
    ,                         !- Transmittance Schedule Name
    autocalculate,            !- Number of Vertices
    705360.0513454922,        !- Vertex 1 Xcoordinate
    5711297.182718954,        !- Vertex 1 Ycoordinate
    6,                        !- Vertex 1 Zcoordinate
    705360.0513454922,        !- Vertex 2 Xcoordinate
    5711297.182718954,        !- Vertex 2 Ycoordinate
    0,                        !- Vertex 2 Zcoordinate
    705344.7386028052,        !- Vertex 3 Xcoordinate
    5711296.277153877,        !- Vertex 3 Ycoordinate
    0,                        !- Vertex 3 Zcoordinate
    705344.7386028052,        !- Vertex 4 Xcoordinate
    5711296.277153877,        !- Vertex 4 Ycoordinate
    6;                        !- Vertex 4 Zcoordinate

SHADING:SITE:DETAILED,
    shade_way/394341585_4,    !- Name
    ,                         !- Transmittance Schedule Name
    autocalculate,            !- Number of Vertices
    705344.7386028052,        !- Vertex 1 Xcoordinate
    5711296.277153877,        !- Vertex 1 Ycoordinate
    6,                        !- Vertex 1 Zcoordinate
    705344.7386028052,        !- Vertex 2 Xcoordinate
    5711296.277153877,        !- Vertex 2 Ycoordinate
    0,                        !- Vertex 2 Zcoordinate
    705344.0921170267,        !- Vertex 3 Xcoordinate
    5711307.208969478,        !- Vertex 3 Ycoordinate
    0,                        !- Vertex 3 Zcoordinate
    705344.0921170267,        !- Vertex 4 Xcoordinate
    5711307.208969478,        !- Vertex 4 Ycoordinate
    6;                        !- Vertex 4 Zcoordinate

OTHEREQUIPMENT,
    EU_Step8_InternalGain_3f7a88623712f3b2_F0_dwelling_0_f000,    !- Name
    Electricity,              !- Fuel Type
    3f7a88623712f3b2_F0_dwelling_0,    !- Zone or ZoneList or Space or SpaceList Name
    EU_Step8_GainSchedule_3f7a88623712f3b2_F0_dwelling_0_f000,    !- Schedule Name
    Watts/Area,               !- Design Level Calculation Method
    ,                         !- Design Level
    1,                        !- Power per Zone Floor Area
    ,                         !- Power per Person
    0,                        !- Fraction Latent
    0,                        !- Fraction Radiant
    0,                        !- Fraction Lost
    0,                        !- Carbon Dioxide Generation Rate
    EU_Step8_InternalGains;    !- EndUse Subcategory

ZONEVENTILATION:DESIGNFLOWRATE,
    EU_ConstantAir_3f7a88623712f3b2_F0_dwelling_0,    !- Name
    3f7a88623712f3b2_F0_dwelling_0,    !- Zone or ZoneList or Space or SpaceList Name
    EU_AlwaysOn,              !- Schedule Name
    AirChanges/Hour,          !- Design Flow Rate Calculation Method
    ,                         !- Design Flow Rate
    ,                         !- Flow Rate per Floor Area
    ,                         !- Flow Rate per Person
    0.4800000000000001,       !- Air Changes per Hour
    Natural,                  !- Ventilation Type
    0,                        !- Fan Pressure Rise
    1,                        !- Fan Total Efficiency
    1,                        !- Constant Term Coefficient
    0,                        !- Temperature Term Coefficient
    0,                        !- Velocity Term Coefficient
    0,                        !- Velocity Squared Term Coefficient
    -100,                     !- Minimum Indoor Temperature
    ,                         !- Minimum Indoor Temperature Schedule Name
    100,                      !- Maximum Indoor Temperature
    ,                         !- Maximum Indoor Temperature Schedule Name
    -100,                     !- Delta Temperature
    ,                         !- Delta Temperature Schedule Name
    -100,                     !- Minimum Outdoor Temperature
    ,                         !- Minimum Outdoor Temperature Schedule Name
    100,                      !- Maximum Outdoor Temperature
    ,                         !- Maximum Outdoor Temperature Schedule Name
    40;                       !- Maximum Wind Speed

HVACTEMPLATE:THERMOSTAT,
    EU_HeatOnly_3f7a88623712f3b2_F0_dwelling_0,    !- Name
    ,                         !- Heating Setpoint Schedule Name
    20,                       !- Constant Heating Setpoint
    ,                         !- Cooling Setpoint Schedule Name
    50;                       !- Constant Cooling Setpoint

HVACTEMPLATE:ZONE:IDEALLOADSAIRSYSTEM,
    3f7a88623712f3b2_F0_dwelling_0,    !- Zone Name
    EU_HeatOnly_3f7a88623712f3b2_F0_dwelling_0,    !- Template Thermostat Name
    EU_AlwaysOn,              !- System Availability Schedule Name
    50,                       !- Maximum Heating Supply Air Temperature
    13,                       !- Minimum Cooling Supply Air Temperature
    0.0156,                   !- Maximum Heating Supply Air Humidity Ratio
    0.0077,                   !- Minimum Cooling Supply Air Humidity Ratio
    NoLimit,                  !- Heating Limit
    ,                         !- Maximum Heating Air Flow Rate
    ,                         !- Maximum Sensible Heating Capacity
    NoLimit,                  !- Cooling Limit
    ,                         !- Maximum Cooling Air Flow Rate
    ,                         !- Maximum Total Cooling Capacity
    EU_AlwaysOn,              !- Heating Availability Schedule Name
    EU_CoolingOff,            !- Cooling Availability Schedule Name
    ConstantSensibleHeatRatio,    !- Dehumidification Control Type
    0.7,                      !- Cooling Sensible Heat Ratio
    60,                       !- Dehumidification Setpoint
    None,                     !- Humidification Control Type
    30,                       !- Humidification Setpoint
    None,                     !- Outdoor Air Method
    0.00944,                  !- Outdoor Air Flow Rate per Person
    0.0,                      !- Outdoor Air Flow Rate per Zone Floor Area
    0,                        !- Outdoor Air Flow Rate per Zone
    ,                         !- Design Specification Outdoor Air Object Name
    None,                     !- Demand Controlled Ventilation Type
    NoEconomizer,             !- Outdoor Air Economizer Type
    None,                     !- Heat Recovery Type
    0.70,                     !- Sensible Heat Recovery Effectiveness
    0.65;                     !- Latent Heat Recovery Effectiveness

SIZING:ZONE,
    3f7a88623712f3b2_F0_dwelling_0,    !- Zone or ZoneList Name
    SupplyAirTemperature,     !- Zone Cooling Design Supply Air Temperature Input Method
    13,                       !- Zone Cooling Design Supply Air Temperature
    ,                         !- Zone Cooling Design Supply Air Temperature Difference
    SupplyAirTemperature,     !- Zone Heating Design Supply Air Temperature Input Method
    50,                       !- Zone Heating Design Supply Air Temperature
    ,                         !- Zone Heating Design Supply Air Temperature Difference
    0.008,                    !- Zone Cooling Design Supply Air Humidity Ratio
    0.008,                    !- Zone Heating Design Supply Air Humidity Ratio
    ,                         !- Design Specification Outdoor Air Object Name
    ,                         !- Zone Heating Sizing Factor
    ,                         !- Zone Cooling Sizing Factor
    DesignDay,                !- Cooling Design Air Flow Method
    0,                        !- Cooling Design Air Flow Rate
    0.000762,                 !- Cooling Minimum Air Flow per Zone Floor Area
    0,                        !- Cooling Minimum Air Flow
    0.2,                      !- Cooling Minimum Air Flow Fraction
    DesignDay,                !- Heating Design Air Flow Method
    0,                        !- Heating Design Air Flow Rate
    0.002032,                 !- Heating Maximum Air Flow per Zone Floor Area
    0.1415762,                !- Heating Maximum Air Flow
    0.3,                      !- Heating Maximum Air Flow Fraction
    ,                         !- Design Specification Zone Air Distribution Object Name
    No,                       !- Account for Dedicated Outdoor Air System
    NeutralSupplyAir,         !- Dedicated Outdoor Air System Control Strategy
    autosize,                 !- Dedicated Outdoor Air Low Setpoint Temperature for Design
    autosize,                 !- Dedicated Outdoor Air High Setpoint Temperature for Design
    Sensible Load Only No Latent Load,    !- Zone Load Sizing Method
    HumidityRatioDifference,    !- Zone Latent Cooling Design Supply Air Humidity Ratio Input Method
    ,                         !- Zone Dehumidification Design Supply Air Humidity Ratio
    0.005,                    !- Zone Cooling Design Supply Air Humidity Ratio Difference
    HumidityRatioDifference,    !- Zone Latent Heating Design Supply Air Humidity Ratio Input Method
    ,                         !- Zone Humidification Design Supply Air Humidity Ratio
    0.005;                    !- Zone Humidification Design Supply Air Humidity Ratio Difference

OUTPUT:VARIABLE,
    *,                        !- Key Value
    Zone Ideal Loads Zone Total Heating Energy,    !- Variable Name
    Hourly;                   !- Reporting Frequency

OUTPUT:SQLITE,
    SimpleAndTabular,         !- Option Type
    UseOutputControlTableStyle;    !- Unit Conversion for Tabular Data