!- Windows Line endings 

Version,
    23.1;                     !- Version Identifier

SimulationControl,
    Yes,                      !- Do Zone Sizing Calculation
    Yes,                      !- Do System Sizing Calculation
    Yes,                      !- Do Plant Sizing Calculation
    No,                       !- Run Simulation for Sizing Periods
    Yes,                      !- Run Simulation for Weather File Run Periods
    No,                       !- Do HVAC Sizing Simulation for Sizing Periods
    1;                        !- Maximum Number of HVAC Sizing Simulation Passes

Building,
    EU S2 Campaign,           !- Name
    0,                        !- North Axis
    City,                     !- Terrain
    ,                         !- Loads Convergence Tolerance Value
    ,                         !- Temperature Convergence Tolerance Value
    FullExterior,             !- Solar Distribution
    ,                         !- Maximum Number of Warmup Days
    ;                         !- Minimum Number of Warmup Days

ShadowCalculation,
    PolygonClipping,          !- Shading Calculation Method
    Periodic,                 !- Shading Calculation Update Frequency Method
    1;                        !- Shading Calculation Update Frequency

HeatBalanceAlgorithm,
    ConductionTransferFunction,    !- Algorithm
    200,                      !- Surface Temperature Upper Limit
    0.1,                      !- Minimum Surface Convection Heat Transfer Coefficient Value
    10000000;                 !- Maximum Surface Convection Heat Transfer Coefficient Value

Timestep,
    12;                       !- Number of Timesteps per Hour

Site:Location,
    London,                   !- Name
    51.5,                     !- Latitude
    -0.5,                     !- Longitude
    0,                        !- Time Zone
    25;                       !- Elevation

SizingPeriod:WeatherFileDays,
    AnnualSizingPeriod,       !- Name
    1,                        !- Begin Month
    1,                        !- Begin Day of Month
    12,                       !- End Month
    31,                       !- End Day of Month
    Monday,                   !- Day of Week for Start Day
    No,                       !- Use Weather File Daylight Saving Period
    No;                       !- Use Weather File Rain and Snow Indicators

RunPeriod,
    RunPeriod1,               !- Name
    1,                        !- Begin Month
    1,                        !- Begin Day of Month
    ,                         !- Begin Year
    12,                       !- End Month
    31,                       !- End Day of Month
    ,                         !- End Year
    Sunday,                   !- Day of Week for Start Day
    No,                       !- Use Weather File Holidays and Special Days
    No,                       !- Use Weather File Daylight Saving Period
    No,                       !- Apply Weekend Holiday Rule
    Yes,                      !- Use Weather File Rain Indicators
    Yes;                      !- Use Weather File Snow Indicators

ScheduleTypeLimits,
    Any Number;               !- Name

SCHEDULETYPELIMITS,
    EU_Step8_AnyNumber_Wm2,    !- Name
    ,                         !- Lower Limit Value
    ,                         !- Upper Limit Value
    Continuous,               !- Numeric Type
    Dimensionless;            !- Unit Type

SCHEDULE:CONSTANT,
    EU_AlwaysOn,              !- Name
    ,                         !- Schedule Type Limits Name
    1;                        !- Hourly Value

SCHEDULE:CONSTANT,
    EU_CoolingOff,            !- Name
    ,                         !- Schedule Type Limits Name
    0;                        !- Hourly Value

SCHEDULE:FILE,
    EU_Step8_GainSchedule_58bdcf3b3f3405dc_F0_dwelling_0_f000,    !- Name
    EU_Step8_AnyNumber_Wm2,    !- Schedule Type Limits Name
    ../../schedules/58bdcf3b3f3405dc/58bdcf3b3f3405dc_F0_dwelling_0_f000_gain.csv,    !- File Name
    1,                        !- Column Number
    0,                        !- Rows to Skip at Top
    8760,                     !- Number of Hours of Data
    Comma,                    !- Column Separator
    No,                       !- Interpolate to Timestep
    60,                       !- Minutes per Item
    Yes;                      !- Adjust Schedule for Daylight Savings

SCHEDULE:FILE,
    EU_Step8_GainSchedule_58bdcf3b3f3405dc_F0_dwelling_1_f000,    !- Name
    EU_Step8_AnyNumber_Wm2,    !- Schedule Type Limits Name
    ../../schedules/58bdcf3b3f3405dc/58bdcf3b3f3405dc_F0_dwelling_1_f000_gain.csv,    !- File Name
    1,                        !- Column Number
    0,                        !- Rows to Skip at Top
    8760,                     !- Number of Hours of Data
    Comma,                    !- Column Separator
    No,                       !- Interpolate to Timestep
    60,                       !- Minutes per Item
    Yes;                      !- Adjust Schedule for Daylight Savings

SCHEDULE:FILE,
    EU_Step8_GainSchedule_58bdcf3b3f3405dc_F0_dwelling_2_f000,    !- Name
    EU_Step8_AnyNumber_Wm2,    !- Schedule Type Limits Name
    ../../schedules/58bdcf3b3f3405dc/58bdcf3b3f3405dc_F0_dwelling_2_f000_gain.csv,    !- File Name
    1,                        !- Column Number
    0,                        !- Rows to Skip at Top
    8760,                     !- Number of Hours of Data
    Comma,                    !- Column Separator
    No,                       !- Interpolate to Timestep
    60,                       !- Minutes per Item
    Yes;                      !- Adjust Schedule for Daylight Savings

SCHEDULE:FILE,
    EU_Step8_GainSchedule_58bdcf3b3f3405dc_F0_dwelling_3_f000,    !- Name
    EU_Step8_AnyNumber_Wm2,    !- Schedule Type Limits Name
    ../../schedules/58bdcf3b3f3405dc/58bdcf3b3f3405dc_F0_dwelling_3_f000_gain.csv,    !- File Name
    1,                        !- Column Number
    0,                        !- Rows to Skip at Top
    8760,                     !- Number of Hours of Data
    Comma,                    !- Column Separator
    No,                       !- Interpolate to Timestep
    60,                       !- Minutes per Item
    Yes;                      !- Adjust Schedule for Daylight Savings

SCHEDULE:FILE,
    EU_Step8_GainSchedule_58bdcf3b3f3405dc_F0_dwelling_4_f000,    !- Name
    EU_Step8_AnyNumber_Wm2,    !- Schedule Type Limits Name
    ../../schedules/58bdcf3b3f3405dc/58bdcf3b3f3405dc_F0_dwelling_4_f000_gain.csv,    !- File Name
    1,                        !- Column Number
    0,                        !- Rows to Skip at Top
    8760,                     !- Number of Hours of Data
    Comma,                    !- Column Separator
    No,                       !- Interpolate to Timestep
    60,                       !- Minutes per Item
    Yes;                      !- Adjust Schedule for Daylight Savings

SCHEDULE:FILE,
    EU_Step8_GainSchedule_58bdcf3b3f3405dc_F0_dwelling_5_f000,    !- Name
    EU_Step8_AnyNumber_Wm2,    !- Schedule Type Limits Name
    ../../schedules/58bdcf3b3f3405dc/58bdcf3b3f3405dc_F0_dwelling_5_f000_gain.csv,    !- File Name
    1,                        !- Column Number
    0,                        !- Rows to Skip at Top
    8760,                     !- Number of Hours of Data
    Comma,                    !- Column Separator
    No,                       !- Interpolate to Timestep
    60,                       !- Minutes per Item
    Yes;                      !- Adjust Schedule for Daylight Savings

SCHEDULE:FILE,
    EU_Step8_GainSchedule_58bdcf3b3f3405dc_F1_dwelling_0_f000,    !- Name
    EU_Step8_AnyNumber_Wm2,    !- Schedule Type Limits Name
    ../../schedules/58bdcf3b3f3405dc/58bdcf3b3f3405dc_F1_dwelling_0_f000_gain.csv,    !- File Name
    1,                        !- Column Number
    0,                        !- Rows to Skip at Top
    8760,                     !- Number of Hours of Data
    Comma,                    !- Column Separator
    No,                       !- Interpolate to Timestep
    60,                       !- Minutes per Item
    Yes;                      !- Adjust Schedule for Daylight Savings

SCHEDULE:FILE,
    EU_Step8_GainSchedule_58bdcf3b3f3405dc_F1_dwelling_1_f000,    !- Name
    EU_Step8_AnyNumber_Wm2,    !- Schedule Type Limits Name
    ../../schedules/58bdcf3b3f3405dc/58bdcf3b3f3405dc_F1_dwelling_1_f000_gain.csv,    !- File Name
    1,                        !- Column Number
    0,                        !- Rows to Skip at Top
    8760,                     !- Number of Hours of Data
    Comma,                    !- Column Separator
    No,                       !- Interpolate to Timestep
    60,                       !- Minutes per Item
    Yes;                      !- Adjust Schedule for Daylight Savings

SCHEDULE:FILE,
    EU_Step8_GainSchedule_58bdcf3b3f3405dc_F1_dwelling_2_f000,    !- Name
    EU_Step8_AnyNumber_Wm2,    !- Schedule Type Limits Name
    ../../schedules/58bdcf3b3f3405dc/58bdcf3b3f3405dc_F1_dwelling_2_f000_gain.csv,    !- File Name
    1,                        !- Column Number
    0,                        !- Rows to Skip at Top
    8760,                     !- Number of Hours of Data
    Comma,                    !- Column Separator
    No,                       !- Interpolate to Timestep
    60,                       !- Minutes per Item
    Yes;                      !- Adjust Schedule for Daylight Savings

SCHEDULE:FILE,
    EU_Step8_GainSchedule_58bdcf3b3f3405dc_F1_dwelling_3_f000,    !- Name
    EU_Step8_AnyNumber_Wm2,    !- Schedule Type Limits Name
    ../../schedules/58bdcf3b3f3405dc/58bdcf3b3f3405dc_F1_dwelling_3_f000_gain.csv,    !- File Name
    1,                        !- Column Number
    0,                        !- Rows to Skip at Top
    8760,                     !- Number of Hours of Data
    Comma,                    !- Column Separator
    No,                       !- Interpolate to Timestep
    60,                       !- Minutes per Item
    Yes;                      !- Adjust Schedule for Daylight Savings

SCHEDULE:FILE,
    EU_Step8_GainSchedule_58bdcf3b3f3405dc_F1_dwelling_4_f000,    !- Name
    EU_Step8_AnyNumber_Wm2,    !- Schedule Type Limits Name
    ../../schedules/58bdcf3b3f3405dc/58bdcf3b3f3405dc_F1_dwelling_4_f000_gain.csv,    !- File Name
    1,                        !- Column Number
    0,                        !- Rows to Skip at Top
    8760,                     !- Number of Hours of Data
    Comma,                    !- Column Separator
    No,                       !- Interpolate to Timestep
    60,                       !- Minutes per Item
    Yes;                      !- Adjust Schedule for Daylight Savings

SCHEDULE:FILE,
    EU_Step8_GainSchedule_58bdcf3b3f3405dc_F1_dwelling_5_f000,    !- Name
    EU_Step8_AnyNumber_Wm2,    !- Schedule Type Limits Name
    ../../schedules/58bdcf3b3f3405dc/58bdcf3b3f3405dc_F1_dwelling_5_f000_gain.csv,    !- File Name
    1,                        !- Column Number
    0,                        !- Rows to Skip at Top
    8760,                     !- Number of Hours of Data
    Comma,                    !- Column Separator
    No,                       !- Interpolate to Timestep
    60,                       !- Minutes per Item
    Yes;                      !- Adjust Schedule for Daylight Savings

SCHEDULE:FILE,
    EU_Step8_GainSchedule_58bdcf3b3f3405dc_F2_dwelling_0_f000,    !- Name
    EU_Step8_AnyNumber_Wm2,    !- Schedule Type Limits Name
    ../../schedules/58bdcf3b3f3405dc/58bdcf3b3f3405dc_F2_dwelling_0_f000_gain.csv,    !- File Name
    1,                        !- Column Number
    0,                        !- Rows to Skip at Top
    8760,                     !- Number of Hours of Data
    Comma,                    !- Column Separator
    No,                       !- Interpolate to Timestep
    60,                       !- Minutes per Item
    Yes;                      !- Adjust Schedule for Daylight Savings

SCHEDULE:FILE,
    EU_Step8_GainSchedule_58bdcf3b3f3405dc_F2_dwelling_1_f000,    !- Name
    EU_Step8_AnyNumber_Wm2,    !- Schedule Type Limits Name
    ../../schedules/58bdcf3b3f3405dc/58bdcf3b3f3405dc_F2_dwelling_1_f000_gain.csv,    !- File Name
    1,                        !- Column Number
    0,                        !- Rows to Skip at Top
    8760,                     !- Number of Hours of Data
    Comma,                    !- Column Separator
    No,                       !- Interpolate to Timestep
    60,                       !- Minutes per Item
    Yes;                      !- Adjust Schedule for Daylight Savings

SCHEDULE:FILE,
    EU_Step8_GainSchedule_58bdcf3b3f3405dc_F2_dwelling_2_f000,    !- Name
    EU_Step8_AnyNumber_Wm2,    !- Schedule Type Limits Name
    ../../schedules/58bdcf3b3f3405dc/58bdcf3b3f3405dc_F2_dwelling_2_f000_gain.csv,    !- File Name
    1,                        !- Column Number
    0,                        !- Rows to Skip at Top
    8760,                     !- Number of Hours of Data
    Comma,                    !- Column Separator
    No,                       !- Interpolate to Timestep
    60,                       !- Minutes per Item
    Yes;                      !- Adjust Schedule for Daylight Savings

SCHEDULE:FILE,
    EU_Step8_GainSchedule_58bdcf3b3f3405dc_F2_dwelling_3_f000,    !- Name
    EU_Step8_AnyNumber_Wm2,    !- Schedule Type Limits Name
    ../../schedules/58bdcf3b3f3405dc/58bdcf3b3f3405dc_F2_dwelling_3_f000_gain.csv,    !- File Name
    1,                        !- Column Number
    0,                        !- Rows to Skip at Top
    8760,                     !- Number of Hours of Data
    Comma,                    !- Column Separator
    No,                       !- Interpolate to Timestep
    60,                       !- Minutes per Item
    Yes;                      !- Adjust Schedule for Daylight Savings

SCHEDULE:FILE,
    EU_Step8_GainSchedule_58bdcf3b3f3405dc_F2_dwelling_4_f000,    !- Name
    EU_Step8_AnyNumber_Wm2,    !- Schedule Type Limits Name
    ../../schedules/58bdcf3b3f3405dc/58bdcf3b3f3405dc_F2_dwelling_4_f000_gain.csv,    !- File Name
    1,                        !- Column Number
    0,                        !- Rows to Skip at Top
    8760,                     !- Number of Hours of Data
    Comma,                    !- Column Separator
    No,                       !- Interpolate to Timestep
    60,                       !- Minutes per Item
    Yes;                      !- Adjust Schedule for Daylight Savings

MATERIAL,
    EU_InternalMass_Material,    !- Name
    MediumRough,              !- Roughness
    0.1,                      !- Thickness
    1,                        !- Conductivity
    1800,                     !- Density
    900,                      !- Specific Heat
    0.9,                      !- Thermal Absorptance
    0.7,                      !- Solar Absorptance
    0.7;                      !- Visible Absorptance

MATERIAL:NOMASS,
    EU_wall_NoMass,           !- Name
    MediumRough,              !- Roughness
    1.0467423948334633,       !- Thermal Resistance
    0.9,                      !- Thermal Absorptance
    0.7,                      !- Solar Absorptance
    0.7;                      !- Visible Absorptance

MATERIAL:NOMASS,
    EU_roof_NoMass,           !- Name
    MediumRough,              !- Roughness
    4.324420935091105,        !- Thermal Resistance
    0.9,                      !- Thermal Absorptance
    0.7,                      !- Solar Absorptance
    0.7;                      !- Visible Absorptance

MATERIAL:NOMASS,
    EU_floor_NoMass,          !- Name
    MediumRough,              !- Roughness
    2.046164069677634,        !- Thermal Resistance
    0.9,                      !- Thermal Absorptance
    0.7,                      !- Solar Absorptance
    0.7;                      !- Visible Absorptance

CONSTRUCTION,
    EU_wall_Construction,     !- Name
    EU_wall_NoMass;           !- Outside Layer

CONSTRUCTION,
    EU_roof_Construction,     !- Name
    EU_roof_NoMass;           !- Outside Layer

CONSTRUCTION,
    EU_floor_Construction,    !- Name
    EU_floor_NoMass;          !- Outside Layer

CONSTRUCTION,
    EU_InternalMass_Construction,    !- Name
    EU_InternalMass_Material;    !- Outside Layer

GlobalGeometryRules,
    UpperLeftCorner,          !- Starting Vertex Position
    CounterClockWise,         !- Vertex Entry Direction
    World;                    !- Coordinate System

ZONE,
    58bdcf3b3f3405dc_F0_dwelling_0,    !- Name
    0,                        !- Direction of Relative North
    0,                        !- X Origin
    0,                        !- Y Origin
    0,                        !- Z Origin
    1,                        !- Type
    1,                        !- Multiplier
    autocalculate,            !- Ceiling Height
    70.53662109375,           !- Volume
    autocalculate,            !- Floor Area
    ,                         !- Zone Inside Convection Algorithm
    ,                         !- Zone Outside Convection Algorithm
    Yes;                      !- Part of Total Floor Area

ZONE,
    58bdcf3b3f3405dc_F1_dwelling_0,    !- Name
    0,                        !- Direction of Relative North
    0,                        !- X Origin
    0,                        !- Y Origin
    0,                        !- Z Origin
    1,                        !- Type
    1,                        !- Multiplier
    autocalculate,            !- Ceiling Height
    70.53662109375,           !- Volume
    autocalculate,            !- Floor Area
    ,                         !- Zone Inside Convection Algorithm
    ,                         !- Zone Outside Convection Algorithm
    Yes;                      !- Part of Total Floor Area

ZONE,
    58bdcf3b3f3405dc_F2_dwelling_0,    !- Name
    0,                        !- Direction of Relative North
    0,                        !- X Origin
    0,                        !- Y Origin
    0,                        !- Z Origin
    1,                        !- Type
    1,                        !- Multiplier
    autocalculate,            !- Ceiling Height
    70.53662109375,           !- Volume
    autocalculate,            !- Floor Area
    ,                         !- Zone Inside Convection Algorithm
    ,                         !- Zone Outside Convection Algorithm
    Yes;                      !- Part of Total Floor Area

ZONE,
    58bdcf3b3f3405dc_F0_dwelling_1,    !- Name
    0,                        !- Direction of Relative North
    0,                        !- X Origin
    0,                        !- Y Origin
    0,                        !- Z Origin
    1,                        !- Type
    1,                        !- Multiplier
    autocalculate,            !- Ceiling Height
    70.553466796875,          !- Volume
    autocalculate,            !- Floor Area
    ,                         !- Zone Inside Convection Algorithm
    ,                         !- Zone Outside Convection Algorithm
    Yes;                      !- Part of Total Floor Area

ZONE,
    58bdcf3b3f3405dc_F1_dwelling_1,    !- Name
    0,                        !- Direction of Relative North
    0,                        !- X Origin
    0,                        !- Y Origin
    0,                        !- Z Origin
    1,                        !- Type
    1,                        !- Multiplier
    autocalculate,            !- Ceiling Height
    70.552001953125,          !- Volume
    autocalculate,            !- Floor Area
    ,                         !- Zone Inside Convection Algorithm
    ,                         !- Zone Outside Convection Algorithm
    Yes;                      !- Part of Total Floor Area

ZONE,
    58bdcf3b3f3405dc_F2_dwelling_1,    !- Name
    0,                        !- Direction of Relative North
    0,                        !- X Origin
    0,                        !- Y Origin
    0,                        !- Z Origin
    1,                        !- Type
    1,                        !- Multiplier
    autocalculate,            !- Ceiling Height
    70.552001953125,          !- Volume
    autocalculate,            !- Floor Area
    ,                         !- Zone Inside Convection Algorithm
    ,                         !- Zone Outside Convection Algorithm
    Yes;                      !- Part of Total Floor Area

ZONE,
    58bdcf3b3f3405dc_F0_dwelling_2,    !- Name
    0,                        !- Direction of Relative North
    0,                        !- X Origin
    0,                        !- Y Origin
    0,                        !- Z Origin
    1,                        !- Type
    1,                        !- Multiplier
    autocalculate,            !- Ceiling Height
    70.54833984375,           !- Volume
    autocalculate,            !- Floor Area
    ,                         !- Zone Inside Convection Algorithm
    ,                         !- Zone Outside Convection Algorithm
    Yes;                      !- Part of Total Floor Area

ZONE,
    58bdcf3b3f3405dc_F1_dwelling_2,    !- Name
    0,                        !- Direction of Relative North
    0,                        !- X Origin
    0,                        !- Y Origin
    0,                        !- Z Origin
    1,                        !- Type
    1,                        !- Multiplier
    autocalculate,            !- Ceiling Height
    70.549072265625,          !- Volume
    autocalculate,            !- Floor Area
    ,                         !- Zone Inside Convection Algorithm
    ,                         !- Zone Outside Convection Algorithm
    Yes;                      !- Part of Total Floor Area

ZONE,
    58bdcf3b3f3405dc_F2_dwelling_2,    !- Name
    0,                        !- Direction of Relative North
    0,                        !- X Origin
    0,                        !- Y Origin
    0,                        !- Z Origin
    1,                        !- Type
    1,                        !- Multiplier
    autocalculate,            !- Ceiling Height
    70.549072265625,          !- Volume
    autocalculate,            !- Floor Area
    ,                         !- Zone Inside Convection Algorithm
    ,                         !- Zone Outside Convection Algorithm
    Yes;                      !- Part of Total Floor Area

ZONE,
    58bdcf3b3f3405dc_F0_dwelling_3,    !- Name
    0,                        !- Direction of Relative North
    0,                        !- X Origin
    0,                        !- Y Origin
    0,                        !- Z Origin
    1,                        !- Type
    1,                        !- Multiplier
    autocalculate,            !- Ceiling Height
    70.541748046875,          !- Volume
    autocalculate,            !- Floor Area
    ,                         !- Zone Inside Convection Algorithm
    ,                         !- Zone Outside Convection Algorithm
    Yes;                      !- Part of Total Floor Area

ZONE,
    58bdcf3b3f3405dc_F1_dwelling_3,    !- Name
    0,                        !- Direction of Relative North
    0,                        !- X Origin
    0,                        !- Y Origin
    0,                        !- Z Origin
    1,                        !- Type
    1,                        !- Multiplier
    autocalculate,            !- Ceiling Height
    70.54248046875,           !- Volume
    autocalculate,            !- Floor Area
    ,                         !- Zone Inside Convection Algorithm
    ,                         !- Zone Outside Convection Algorithm
    Yes;                      !- Part of Total Floor Area

ZONE,
    58bdcf3b3f3405dc_F2_dwelling_3,    !- Name
    0,                        !- Direction of Relative North
    0,                        !- X Origin
    0,                        !- Y Origin
    0,                        !- Z Origin
    1,                        !- Type
    1,                        !- Multiplier
    autocalculate,            !- Ceiling Height
    70.54248046875,           !- Volume
    autocalculate,            !- Floor Area
    ,                         !- Zone Inside Convection Algorithm
    ,                         !- Zone Outside Convection Algorithm
    Yes;                      !- Part of Total Floor Area

ZONE,
    58bdcf3b3f3405dc_F0_dwelling_4,    !- Name
    0,                        !- Direction of Relative North
    0,                        !- X Origin
    0,                        !- Y Origin
    0,                        !- Z Origin
    1,                        !- Type
    1,                        !- Multiplier
    autocalculate,            !- Ceiling Height
    70.537353515625,          !- Volume
    autocalculate,            !- Floor Area
    ,                         !- Zone Inside Convection Algorithm
    ,                         !- Zone Outside Convection Algorithm
    Yes;                      !- Part of Total Floor Area

ZONE,
    58bdcf3b3f3405dc_F1_dwelling_4,    !- Name
    0,                        !- Direction of Relative North
    0,                        !- X Origin
    0,                        !- Y Origin
    0,                        !- Z Origin
    1,                        !- Type
    1,                        !- Multiplier
    autocalculate,            !- Ceiling Height
    70.537353515625,          !- Volume
    autocalculate,            !- Floor Area
    ,                         !- Zone Inside Convection Algorithm
    ,                         !- Zone Outside Convection Algorithm
    Yes;                      !- Part of Total Floor Area

ZONE,
    58bdcf3b3f3405dc_F2_dwelling_4,    !- Name
    0,                        !- Direction of Relative North
    0,                        !- X Origin
    0,                        !- Y Origin
    0,                        !- Z Origin
    1,                        !- Type
    1,                        !- Multiplier
    autocalculate,            !- Ceiling Height
    70.537353515625,          !- Volume
    autocalculate,            !- Floor Area
    ,                         !- Zone Inside Convection Algorithm
    ,                         !- Zone Outside Convection Algorithm
    Yes;                      !- Part of Total Floor Area

ZONE,
    58bdcf3b3f3405dc_F0_dwelling_5,    !- Name
    0,                        !- Direction of Relative North
    0,                        !- X Origin
    0,                        !- Y Origin
    0,                        !- Z Origin
    1,                        !- Type
    1,                        !- Multiplier
    autocalculate,            !- Ceiling Height
    70.537353515625,          !- Volume
    autocalculate,            !- Floor Area
    ,                         !- Zone Inside Convection Algorithm
    ,                         !- Zone Outside Convection Algorithm
    Yes;                      !- Part of Total Floor Area

ZONE,
    58bdcf3b3f3405dc_F1_dwelling_5,    !- Name
    0,                        !- Direction of Relative North
    0,                        !- X Origin
    0,                        !- Y Origin
    0,                        !- Z Origin
    1,                        !- Type
    1,                        !- Multiplier
    autocalculate,            !- Ceiling Height
    70.5380859375,            !- Volume
    autocalculate,            !- Floor Area
    ,                         !- Zone Inside Convection Algorithm
    ,                         !- Zone Outside Convection Algorithm
    Yes;                      !- Part of Total Floor Area

BUILDINGSURFACE:DETAILED,
    Block 58bdcf3b3f3405dc_0 Storey 0 Wall 0001,    !- Name
    wall,                     !- Surface Type
    EU_wall_Construction,     !- Construction Name
    58bdcf3b3f3405dc_F0_dwelling_0,    !- Zone Name
    ,                         !- Space Name
    outdoors,                 !- Outside Boundary Condition
    ,                         !- Outside Boundary Condition Object
    SunExposed,               !- Sun Exposure
    WindExposed,              !- Wind Exposure
    autocalculate,            !- View Factor to Ground
    autocalculate,            !- Number of Vertices
    705072.475,               !- Vertex 1 Xcoordinate
    5711757.217,              !- Vertex 1 Ycoordinate
    3,                        !- Vertex 1 Zcoordinate
    705072.475,               !- Vertex 2 Xcoordinate
    5711757.217,              !- Vertex 2 Ycoordinate
    0,                        !- Vertex 2 Zcoordinate
    705076.943,               !- Vertex 3 Xcoordinate
    5711759.092,              !- Vertex 3 Ycoordinate
    0,                        !- Vertex 3 Zcoordinate
    705076.943,               !- Vertex 4 Xcoordinate
    5711759.092,              !- Vertex 4 Ycoordinate
    3;                        !- Vertex 4 Zcoordinate

BUILDINGSURFACE:DETAILED,
    Block 58bdcf3b3f3405dc_0 Storey 0 Wall 0002,    !- Name
    wall,                     !- Surface Type
    EU_wall_Construction,     !- Construction Name
    58bdcf3b3f3405dc_F0_dwelling_0,    !- Zone Name
    ,                         !- Space Name
    outdoors,                 !- Outside Boundary Condition
    ,                         !- Outside Boundary Condition Object
    SunExposed,               !- Sun Exposure
    WindExposed,              !- Wind Exposure
    autocalculate,            !- View Factor to Ground
    autocalculate,            !- Number of Vertices
    705076.943,               !- Vertex 1 Xcoordinate
    5711759.092,              !- Vertex 1 Ycoordinate
    3,                        !- Vertex 1 Zcoordinate
    705076.943,               !- Vertex 2 Xcoordinate
    5711759.092,              !- Vertex 2 Ycoordinate
    0,                        !- Vertex 2 Zcoordinate
    705081.696,               !- Vertex 3 Xcoordinate
    5711757.189,              !- Vertex 3 Ycoordinate
    0,                        !- Vertex 3 Zcoordinate
    705081.696,               !- Vertex 4 Xcoordinate
    5711757.189,              !- Vertex 4 Ycoordinate
    3;                        !- Vertex 4 Zcoordinate

BUILDINGSURFACE:DETAILED,
    Block 58bdcf3b3f3405dc_0 Storey 0 Wall 0003,    !- Name
    wall,                     !- Surface Type
    EU_wall_Construction,     !- Construction Name
    58bdcf3b3f3405dc_F0_dwelling_0,    !- Zone Name
    ,                         !- Space Name
    Adiabatic,                !- Outside Boundary Condition
    ,                         !- Outside Boundary Condition Object
    NoSun,                    !- Sun Exposure
    NoWind,                   !- Wind Exposure
    autocalculate,            !- View Factor to Ground
    autocalculate,            !- Number of Vertices
    705081.696,               !- Vertex 1 Xcoordinate
    5711757.189,              !- Vertex 1 Ycoordinate
    3,                        !- Vertex 1 Zcoordinate
    705081.696,               !- Vertex 2 Xcoordinate
    5711757.189,              !- Vertex 2 Ycoordinate
    0,                        !- Vertex 2 Zcoordinate
    705078.48,                !- Vertex 3 Xcoordinate
    5711755.935,              !- Vertex 3 Ycoordinate
    0,                        !- Vertex 3 Zcoordinate
    705078.48,                !- Vertex 4 Xcoordinate
    5711755.935,              !- Vertex 4 Ycoordinate
    3;                        !- Vertex 4 Zcoordinate

BUILDINGSURFACE:DETAILED,
    Block 58bdcf3b3f3405dc_0 Storey 0 Wall 0004,    !- Name
    wall,                     !- Surface Type
    EU_wall_Construction,     !- Construction Name
    58bdcf3b3f3405dc_F0_dwelling_0,    !- Zone Name
    ,                         !- Space Name
    outdoors,                 !- Outside Boundary Condition
    ,                         !- Outside Boundary Condition Object
    SunExposed,               !- Sun Exposure
    WindExposed,              !- Wind Exposure
    autocalculate,            !- View Factor to Ground
    autocalculate,            !- Number of Vertices
    705078.48,                !- Vertex 1 Xcoordinate
    5711755.935,              !- Vertex 1 Ycoordinate
    3,                        !- Vertex 1 Zcoordinate
    705078.48,                !- Vertex 2 Xcoordinate
    5711755.935,              !- Vertex 2 Ycoordinate
    0,                        !- Vertex 2 Zcoordinate
    705073.809,               !- Vertex 3 Xcoordinate
    5711753.942,              !- Vertex 3 Ycoordinate
    0,                        !- Vertex 3 Zcoordinate
    705073.809,               !- Vertex 4 Xcoordinate
    5711753.942,              !- Vertex 4 Ycoordinate
    3;                        !- Vertex 4 Zcoordinate

BUILDINGSURFACE:DETAILED,
    Block 58bdcf3b3f3405dc_0 Storey 0 Wall 0005,    !- Name
    wall,                     !- Surface Type
    EU_wall_Construction,     !- Construction Name
    58bdcf3b3f3405dc_F0_dwelling_0,    !- Zone Name
    ,                         !- Space Name
    outdoors,                 !- Outside Boundary Condition
    ,                         !- Outside Boundary Condition Object
    SunExposed,               !- Sun Exposure
    WindExposed,              !- Wind Exposure
    autocalculate,            !- View Factor to Ground
    autocalculate,            !- Number of Vertices
    705073.809,               !- Vertex 1 Xcoordinate
    5711753.942,              !- Vertex 1 Ycoordinate
    3,                        !- Vertex 1 Zcoordinate
    705073.809,               !- Vertex 2 Xcoordinate
    5711753.942,              !- Vertex 2 Ycoordinate
    0,                        !- Vertex 2 Zcoordinate
    705072.475,               !- Vertex 3 Xcoordinate
    5711757.217,              !- Vertex 3 Ycoordinate
    0,                        !- Vertex 3 Zcoordinate
    705072.475,               !- Vertex 4 Xcoordinate
    5711757.217,              !- Vertex 4 Ycoordinate
    3;                        !- Vertex 4 Zcoordinate

BUILDINGSURFACE:DETAILED,
    Block 58bdcf3b3f3405dc_0 Storey 0 Floor 0001,    !- Name
    floor,                    !- Surface Type
    EU_floor_Construction,    !- Construction Name
    58bdcf3b3f3405dc_F0_dwelling_0,    !- Zone Name
    ,                         !- Space Name
    ground,                   !- Outside Boundary Condition
    ,                         !- Outside Boundary Condition Object
    NoSun,                    !- Sun Exposure
    NoWind,                   !- Wind Exposure
    autocalculate,            !- View Factor to Ground
    autocalculate,            !- Number of Vertices
    705081.696,               !- Vertex 1 Xcoordinate
    5711757.189,              !- Vertex 1 Ycoordinate
    0,                        !- Vertex 1 Zcoordinate
    705076.943,               !- Vertex 2 Xcoordinate
    5711759.092,              !- Vertex 2 Ycoordinate
    0,                        !- Vertex 2 Zcoordinate
    705072.475,               !- Vertex 3 Xcoordinate
    5711757.217,              !- Vertex 3 Ycoordinate
    0,                        !- Vertex 3 Zcoordinate
    705073.809,               !- Vertex 4 Xcoordinate
    5711753.942,              !- Vertex 4 Ycoordinate
    0,                        !- Vertex 4 Zcoordinate
    705078.48,                !- Vertex 5 Xcoordinate
    5711755.935,              !- Vertex 5 Ycoordinate
    0;                        !- Vertex 5 Zcoordinate

BUILDINGSURFACE:DETAILED,
    Block 58bdcf3b3f3405dc_0 Storey 1 Wall 0001,    !- Name
    wall,                     !- Surface Type
    EU_wall_Construction,     !- Construction Name
    58bdcf3b3f3405dc_F1_dwelling_0,    !- Zone Name
    ,                         !- Space Name
    outdoors,                 !- Outside Boundary Condition
    ,                         !- Outside Boundary Condition Object
    SunExposed,               !- Sun Exposure
    WindExposed,              !- Wind Exposure
    autocalculate,            !- View Factor to Ground
    autocalculate,            !- Number of Vertices
    705072.475,               !- Vertex 1 Xcoordinate
    5711757.217,              !- Vertex 1 Ycoordinate
    6,                        !- Vertex 1 Zcoordinate
    705072.475,               !- Vertex 2 Xcoordinate
    5711757.217,              !- Vertex 2 Ycoordinate
    3,                        !- Vertex 2 Zcoordinate
    705076.943,               !- Vertex 3 Xcoordinate
    5711759.092,              !- Vertex 3 Ycoordinate
    3,                        !- Vertex 3 Zcoordinate
    705076.943,               !- Vertex 4 Xcoordinate
    5711759.092,              !- Vertex 4 Ycoordinate
    6;                        !- Vertex 4 Zcoordinate

BUILDINGSURFACE:DETAILED,
    Block 58bdcf3b3f3405dc_0 Storey 1 Wall 0002,    !- Name
    wall,                     !- Surface Type
    EU_wall_Construction,     !- Construction Name
    58bdcf3b3f3405dc_F1_dwelling_0,    !- Zone Name
    ,                         !- Space Name
    outdoors,                 !- Outside Boundary Condition
    ,                         !- Outside Boundary Condition Object
    SunExposed,               !- Sun Exposure
    WindExposed,              !- Wind Exposure
    autocalculate,            !- View Factor to Ground
    autocalculate,            !- Number of Vertices
    705076.943,               !- Vertex 1 Xcoordinate
    5711759.092,              !- Vertex 1 Ycoordinate
    6,                        !- Vertex 1 Zcoordinate
    705076.943,               !- Vertex 2 Xcoordinate
    5711759.092,              !- Vertex 2 Ycoordinate
    3,                        !- Vertex 2 Zcoordinate
    705081.696,               !- Vertex 3 Xcoordinate
    5711757.189,              !- Vertex 3 Ycoordinate
    3,                        !- Vertex 3 Zcoordinate
    705081.696,               !- Vertex 4 Xcoordinate
    5711757.189,              !- Vertex 4 Ycoordinate
    6;                        !- Vertex 4 Zcoordinate

BUILDINGSURFACE:DETAILED,
    Block 58bdcf3b3f3405dc_0 Storey 1 Wall 0003,    !- Name
    wall,                     !- Surface Type
    EU_wall_Construction,     !- Construction Name
    58bdcf3b3f3405dc_F1_dwelling_0,    !- Zone Name
    ,                         !- Space Name
    Adiabatic,                !- Outside Boundary Condition
    ,                         !- Outside Boundary Condition Object
    NoSun,                    !- Sun Exposure
    NoWind,                   !- Wind Exposure
    autocalculate,            !- View Factor to Ground
    autocalculate,            !- Number of Vertices
    705081.696,               !- Vertex 1 Xcoordinate
    5711757.189,              !- Vertex 1 Ycoordinate
    6,                        !- Vertex 1 Zcoordinate
    705081.696,               !- Vertex 2 Xcoordinate
    5711757.189,              !- Vertex 2 Ycoordinate
    3,                        !- Vertex 2 Zcoordinate
    705078.48,                !- Vertex 3 Xcoordinate
    5711755.935,              !- Vertex 3 Ycoordinate
    3,                        !- Vertex 3 Zcoordinate
    705078.48,                !- Vertex 4 Xcoordinate
    5711755.935,              !- Vertex 4 Ycoordinate
    6;                        !- Vertex 4 Zcoordinate

BUILDINGSURFACE:DETAILED,
    Block 58bdcf3b3f3405dc_0 Storey 1 Wall 0004,    !- Name
    wall,                     !- Surface Type
    EU_wall_Construction,     !- Construction Name
    58bdcf3b3f3405dc_F1_dwelling_0,    !- Zone Name
    ,                         !- Space Name
    outdoors,                 !- Outside Boundary Condition
    ,                         !- Outside Boundary Condition Object
    SunExposed,               !- Sun Exposure
    WindExposed,              !- Wind Exposure
    autocalculate,            !- View Factor to Ground
    autocalculate,            !- Number of Vertices
    705078.48,                !- Vertex 1 Xcoordinate
    5711755.935,              !- Vertex 1 Ycoordinate
    6,                        !- Vertex 1 Zcoordinate
    705078.48,                !- Vertex 2 Xcoordinate
    5711755.935,              !- Vertex 2 Ycoordinate
    3,                        !- Vertex 2 Zcoordinate
    705073.809,               !- Vertex 3 Xcoordinate
    5711753.942,              !- Vertex 3 Ycoordinate
    3,                        !- Vertex 3 Zcoordinate
    705073.809,               !- Vertex 4 Xcoordinate
    5711753.942,              !- Vertex 4 Ycoordinate
    6;                        !- Vertex 4 Zcoordinate

BUILDINGSURFACE:DETAILED,
    Block 58bdcf3b3f3405dc_0 Storey 1 Wall 0005,    !- Name
    wall,                     !- Surface Type
    EU_wall_Construction,     !- Construction Name
    58bdcf3b3f3405dc_F1_dwelling_0,    !- Zone Name
    ,                         !- Space Name
    outdoors,                 !- Outside Boundary Condition
    ,                         !- Outside Boundary Condition Object
    SunExposed,               !- Sun Exposure
    WindExposed,              !- Wind Exposure
    autocalculate,            !- View Factor to Ground
    autocalculate,            !- Number of Vertices
    705073.809,               !- Vertex 1 Xcoordinate
    5711753.942,              !- Vertex 1 Ycoordinate
    6,                        !- Vertex 1 Zcoordinate
    705073.809,               !- Vertex 2 Xcoordinate
    5711753.942,              !- Vertex 2 Ycoordinate
    3,                        !- Vertex 2 Zcoordinate
    705072.475,               !- Vertex 3 Xcoordinate
    5711757.217,              !- Vertex 3 Ycoordinate
    3,                        !- Vertex 3 Zcoordinate
    705072.475,               !- Vertex 4 Xcoordinate
    5711757.217,              !- Vertex 4 Ycoordinate
    6;                        !- Vertex 4 Zcoordinate

BUILDINGSURFACE:DETAILED,
    Block 58bdcf3b3f3405dc_0 Storey 2 Wall 0001,    !- Name
    wall,                     !- Surface Type
    EU_wall_Construction,     !- Construction Name
    58bdcf3b3f3405dc_F2_dwelling_0,    !- Zone Name
    ,                         !- Space Name
    outdoors,                 !- Outside Boundary Condition
    ,                         !- Outside Boundary Condition Object
    SunExposed,               !- Sun Exposure
    WindExposed,              !- Wind Exposure
    autocalculate,            !- View Factor to Ground
    autocalculate,            !- Number of Vertices
    705072.475,               !- Vertex 1 Xcoordinate
    5711757.217,              !- Vertex 1 Ycoordinate
    9,                        !- Vertex 1 Zcoordinate
    705072.475,               !- Vertex 2 Xcoordinate
    5711757.217,              !- Vertex 2 Ycoordinate
    6,                        !- Vertex 2 Zcoordinate
    705076.943,               !- Vertex 3 Xcoordinate
    5711759.092,              !- Vertex 3 Ycoordinate
    6,                        !- Vertex 3 Zcoordinate
    705076.943,               !- Vertex 4 Xcoordinate
    5711759.092,              !- Vertex 4 Ycoordinate
    9;                        !- Vertex 4 Zcoordinate

BUILDINGSURFACE:DETAILED,
    Block 58bdcf3b3f3405dc_0 Storey 2 Wall 0002,    !- Name
    wall,                     !- Surface Type
    EU_wall_Construction,     !- Construction Name
    58bdcf3b3f3405dc_F2_dwelling_0,    !- Zone Name
    ,                         !- Space Name
    outdoors,                 !- Outside Boundary Condition
    ,                         !- Outside Boundary Condition Object
    SunExposed,               !- Sun Exposure
    WindExposed,              !- Wind Exposure
    autocalculate,            !- View Factor to Ground
    autocalculate,            !- Number of Vertices
    705076.943,               !- Vertex 1 Xcoordinate
    5711759.092,              !- Vertex 1 Ycoordinate
    9,                        !- Vertex 1 Zcoordinate
    705076.943,               !- Vertex 2 Xcoordinate
    5711759.092,              !- Vertex 2 Ycoordinate
    6,                        !- Vertex 2 Zcoordinate
    705081.696,               !- Vertex 3 Xcoordinate
    5711757.189,              !- Vertex 3 Ycoordinate
    6,                        !- Vertex 3 Zcoordinate
    705081.696,               !- Vertex 4 Xcoordinate
    5711757.189,              !- Vertex 4 Ycoordinate
    9;                        !- Vertex 4 Zcoordinate

BUILDINGSURFACE:DETAILED,
    Block 58bdcf3b3f3405dc_0 Storey 2 Wall 0003,    !- Name
    wall,                     !- Surface Type
    EU_wall_Construction,     !- Construction Name
    58bdcf3b3f3405dc_F2_dwelling_0,    !- Zone Name
    ,                         !- Space Name
    Adiabatic,                !- Outside Boundary Condition
    ,                         !- Outside Boundary Condition Object
    NoSun,                    !- Sun Exposure
    NoWind,                   !- Wind Exposure
    autocalculate,            !- View Factor to Ground
    autocalculate,            !- Number of Vertices
    705081.696,               !- Vertex 1 Xcoordinate
    5711757.189,              !- Vertex 1 Ycoordinate
    9,                        !- Vertex 1 Zcoordinate
    705081.696,               !- Vertex 2 Xcoordinate
    5711757.189,              !- Vertex 2 Ycoordinate
    6,                        !- Vertex 2 Zcoordinate
    705078.48,                !- Vertex 3 Xcoordinate
    5711755.935,              !- Vertex 3 Ycoordinate
    6,                        !- Vertex 3 Zcoordinate
    705078.48,                !- Vertex 4 Xcoordinate
    5711755.935,              !- Vertex 4 Ycoordinate
    9;                        !- Vertex 4 Zcoordinate

BUILDINGSURFACE:DETAILED,
    Block 58bdcf3b3f3405dc_0 Storey 2 Wall 0004,    !- Name
    wall,                     !- Surface Type
    EU_wall_Construction,     !- Construction Name
    58bdcf3b3f3405dc_F2_dwelling_0,    !- Zone Name
    ,                         !- Space Name
    outdoors,                 !- Outside Boundary Condition
    ,                         !- Outside Boundary Condition Object
    SunExposed,               !- Sun Exposure
    WindExposed,              !- Wind Exposure
    autocalculate,            !- View Factor to Ground
    autocalculate,            !- Number of Vertices
    705078.48,                !- Vertex 1 Xcoordinate
    5711755.935,              !- Vertex 1 Ycoordinate
    9,                        !- Vertex 1 Zcoordinate
    705078.48,                !- Vertex 2 Xcoordinate
    5711755.935,              !- Vertex 2 Ycoordinate
    6,                        !- Vertex 2 Zcoordinate
    705073.809,               !- Vertex 3 Xcoordinate
    5711753.942,              !- Vertex 3 Ycoordinate
    6,                        !- Vertex 3 Zcoordinate
    705073.809,               !- Vertex 4 Xcoordinate
    5711753.942,              !- Vertex 4 Ycoordinate
    9;                        !- Vertex 4 Zcoordinate

BUILDINGSURFACE:DETAILED,
    Block 58bdcf3b3f3405dc_0 Storey 2 Wall 0005,    !- Name
    wall,                     !- Surface Type
    EU_wall_Construction,     !- Construction Name
    58bdcf3b3f3405dc_F2_dwelling_0,    !- Zone Name
    ,                         !- Space Name
    outdoors,                 !- Outside Boundary Condition
    ,                         !- Outside Boundary Condition Object
    SunExposed,               !- Sun Exposure
    WindExposed,              !- Wind Exposure
    autocalculate,            !- View Factor to Ground
    autocalculate,            !- Number of Vertices
    705073.809,               !- Vertex 1 Xcoordinate
    5711753.942,              !- Vertex 1 Ycoordinate
    9,                        !- Vertex 1 Zcoordinate
    705073.809,               !- Vertex 2 Xcoordinate
    5711753.942,              !- Vertex 2 Ycoordinate
    6,                        !- Vertex 2 Zcoordinate
    705072.475,               !- Vertex 3 Xcoordinate
    5711757.217,              !- Vertex 3 Ycoordinate
    6,                        !- Vertex 3 Zcoordinate
    705072.475,               !- Vertex 4 Xcoordinate
    5711757.217,              !- Vertex 4 Ycoordinate
    9;                        !- Vertex 4 Zcoordinate

BUILDINGSURFACE:DETAILED,
    Block 58bdcf3b3f3405dc_0 Storey 2 Roof 0001,    !- Name
    roof,                     !- Surface Type
    EU_roof_Construction,     !- Construction Name
    58bdcf3b3f3405dc_F2_dwelling_0,    !- Zone Name
    ,                         !- Space Name
    outdoors,                 !- Outside Boundary Condition
    ,                         !- Outside Boundary Condition Object
    NoSun,                    !- Sun Exposure
    WindExposed,              !- Wind Exposure
    autocalculate,            !- View Factor to Ground
    autocalculate,            !- Number of Vertices
    705081.696,               !- Vertex 1 Xcoordinate
    5711757.189,              !- Vertex 1 Ycoordinate
    9,                        !- Vertex 1 Zcoordinate
    705078.48,                !- Vertex 2 Xcoordinate
    5711755.935,              !- Vertex 2 Ycoordinate
    9,                        !- Vertex 2 Zcoordinate
    705073.809,               !- Vertex 3 Xcoordinate
    5711753.942,              !- Vertex 3 Ycoordinate
    9,                        !- Vertex 3 Zcoordinate
    705072.475,               !- Vertex 4 Xcoordinate
    5711757.217,              !- Vertex 4 Ycoordinate
    9,                        !- Vertex 4 Zcoordinate
    705076.943,               !- Vertex 5 Xcoordinate
    5711759.092,              !- Vertex 5 Ycoordinate
    9;                        !- Vertex 5 Zcoordinate

BUILDINGSURFACE:DETAILED,
    Block 58bdcf3b3f3405dc_1 Storey 0 Wall 0002,    !- Name
    wall,                     !- Surface Type
    EU_wall_Construction,     !- Construction Name
    58bdcf3b3f3405dc_F0_dwelling_1,    !- Zone Name
    ,                         !- Space Name
    outdoors,                 !- Outside Boundary Condition
    ,                         !- Outside Boundary Condition Object
    SunExposed,               !- Sun Exposure
    WindExposed,              !- Wind Exposure
    autocalculate,            !- View Factor to Ground
    autocalculate,            !- Number of Vertices
    705079.754,               !- Vertex 1 Xcoordinate
    5711757.967,              !- Vertex 1 Ycoordinate
    3,                        !- Vertex 1 Zcoordinate
    705079.754,               !- Vertex 2 Xcoordinate
    5711757.967,              !- Vertex 2 Ycoordinate
    0,                        !- Vertex 2 Zcoordinate
    705076.943,               !- Vertex 3 Xcoordinate
    5711759.092,              !- Vertex 3 Ycoordinate
    0,                        !- Vertex 3 Zcoordinate
    705076.943,               !- Vertex 4 Xcoordinate
    5711759.092,              !- Vertex 4 Ycoordinate
    3;                        !- Vertex 4 Zcoordinate

BUILDINGSURFACE:DETAILED,
    Block 58bdcf3b3f3405dc_1 Storey 0 Wall 0003,    !- Name
    wall,                     !- Surface Type
    EU_wall_Construction,     !- Construction Name
    58bdcf3b3f3405dc_F0_dwelling_1,    !- Zone Name
    ,                         !- Space Name
    outdoors,                 !- Outside Boundary Condition
    ,                         !- Outside Boundary Condition Object
    SunExposed,               !- Sun Exposure
    WindExposed,              !- Wind Exposure
    autocalculate,            !- View Factor to Ground
    autocalculate,            !- Number of Vertices
    705076.943,               !- Vertex 1 Xcoordinate
    5711759.092,              !- Vertex 1 Ycoordinate
    3,                        !- Vertex 1 Zcoordinate
    705076.943,               !- Vertex 2 Xcoordinate
    5711759.092,              !- Vertex 2 Ycoordinate
    0,                        !- Vertex 2 Zcoordinate
    705077.086,               !- Vertex 3 Xcoordinate
    5711759.152,              !- Vertex 3 Ycoordinate
    0,                        !- Vertex 3 Zcoordinate
    705077.086,               !- Vertex 4 Xcoordinate
    5711759.152,              !- Vertex 4 Ycoordinate
    3;                        !- Vertex 4 Zcoordinate

BUILDINGSURFACE:DETAILED,
    Block 58bdcf3b3f3405dc_1 Storey 0 Wall 0004,    !- Name
    wall,                     !- Surface Type
    EU_wall_Construction,     !- Construction Name
    58bdcf3b3f3405dc_F0_dwelling_1,    !- Zone Name
    ,                         !- Space Name
    outdoors,                 !- Outside Boundary Condition
    ,                         !- Outside Boundary Condition Object
    SunExposed,               !- Sun Exposure
    WindExposed,              !- Wind Exposure
    autocalculate,            !- View Factor to Ground
    autocalculate,            !- Number of Vertices
    705077.086,               !- Vertex 1 Xcoordinate
    5711759.152,              !- Vertex 1 Ycoordinate
    3,                        !- Vertex 1 Zcoordinate
    705077.086,               !- Vertex 2 Xcoordinate
    5711759.152,              !- Vertex 2 Ycoordinate
    0,                        !- Vertex 2 Zcoordinate
    705075.317,               !- Vertex 3 Xcoordinate
    5711763.201,              !- Vertex 3 Ycoordinate
    0,                        !- Vertex 3 Zcoordinate
    705075.317,               !- Vertex 4 Xcoordinate
    5711763.201,              !- Vertex 4 Ycoordinate
    3;                        !- Vertex 4 Zcoordinate

BUILDINGSURFACE:DETAILED,
    Block 58bdcf3b3f3405dc_1 Storey 0 Wall 0005,    !- Name
    wall,                     !- Surface Type
    EU_wall_Construction,     !- Construction Name
    58bdcf3b3f3405dc_F0_dwelling_1,    !- Zone Name
    ,                         !- Space Name
    outdoors,                 !- Outside Boundary Condition
    ,                         !- Outside Boundary Condition Object
    SunExposed,               !- Sun Exposure
    WindExposed,              !- Wind Exposure
    autocalculate,            !- View Factor to Ground
    autocalculate,            !- Number of Vertices
    705075.317,               !- Vertex 1 Xcoordinate
    5711763.201,              !- Vertex 1 Ycoordinate
    3,                        !- Vertex 1 Zcoordinate
    705075.317,               !- Vertex 2 Xcoordinate
    5711763.201,              !- Vertex 2 Ycoordinate
    0,                        !- Vertex 2 Zcoordinate
    705077.396,               !- Vertex 3 Xcoordinate
    5711764.254,              !- Vertex 3 Ycoordinate
    0,                        !- Vertex 3 Zcoordinate
    705077.396,               !- Vertex 4 Xcoordinate
    5711764.254,              !- Vertex 4 Ycoordinate
    3;                        !- Vertex 4 Zcoordinate

BUILDINGSURFACE:DETAILED,
    Block 58bdcf3b3f3405dc_1 Storey 0 Wall 0006,    !- Name
    wall,                     !- Surface Type
    EU_wall_Construction,     !- Construction Name
    58bdcf3b3f3405dc_F0_dwelling_1,    !- Zone Name
    ,                         !- Space Name
    outdoors,                 !- Outside Boundary Condition
    ,                         !- Outside Boundary Condition Object
    SunExposed,               !- Sun Exposure
    WindExposed,              !- Wind Exposure
    autocalculate,            !- View Factor to Ground
    autocalculate,            !- Number of Vertices
    705077.396,               !- Vertex 1 Xcoordinate
    5711764.254,              !- Vertex 1 Ycoordinate
    3,                        !- Vertex 1 Zcoordinate
    705077.396,               !- Vertex 2 Xcoordinate
    5711764.254,              !- Vertex 2 Ycoordinate
    0,                        !- Vertex 2 Zcoordinate
    705081.597,               !- Vertex 3 Xcoordinate
    5711762.572,              !- Vertex 3 Ycoordinate
    0,                        !- Vertex 3 Zcoordinate
    705081.597,               !- Vertex 4 Xcoordinate
    5711762.572,              !- Vertex 4 Ycoordinate
    3;                        !- Vertex 4 Zcoordinate

BUILDINGSURFACE:DETAILED,
    Block 58bdcf3b3f3405dc_1 Storey 0 Floor 0001,    !- Name
    floor,                    !- Surface Type
    EU_floor_Construction,    !- Construction Name
    58bdcf3b3f3405dc_F0_dwelling_1,    !- Zone Name
    ,                         !- Space Name
    ground,                   !- Outside Boundary Condition
    ,                         !- Outside Boundary Condition Object
    NoSun,                    !- Sun Exposure
    NoWind,                   !- Wind Exposure
    autocalculate,            !- View Factor to Ground
    autocalculate,            !- Number of Vertices
    705079.754,               !- Vertex 1 Xcoordinate
    5711757.967,              !- Vertex 1 Ycoordinate
    0,                        !- Vertex 1 Zcoordinate
    705081.597,               !- Vertex 2 Xcoordinate
    5711762.572,              !- Vertex 2 Ycoordinate
    0,                        !- Vertex 2 Zcoordinate
    705077.396,               !- Vertex 3 Xcoordinate
    5711764.254,              !- Vertex 3 Ycoordinate
    0,                        !- Vertex 3 Zcoordinate
    705075.317,               !- Vertex 4 Xcoordinate
    5711763.201,              !- Vertex 4 Ycoordinate
    0,                        !- Vertex 4 Zcoordinate
    705077.086,               !- Vertex 5 Xcoordinate
    5711759.152,              !- Vertex 5 Ycoordinate
    0,                        !- Vertex 5 Zcoordinate
    705076.943,               !- Vertex 6 Xcoordinate
    5711759.092,              !- Vertex 6 Ycoordinate
    0;                        !- Vertex 6 Zcoordinate

BUILDINGSURFACE:DETAILED,
    Block 58bdcf3b3f3405dc_1 Storey 1 Wall 0002,    !- Name
    wall,                     !- Surface Type
    EU_wall_Construction,     !- Construction Name
    58bdcf3b3f3405dc_F1_dwelling_1,    !- Zone Name
    ,                         !- Space Name
    outdoors,                 !- Outside Boundary Condition
    ,                         !- Outside Boundary Condition Object
    SunExposed,               !- Sun Exposure
    WindExposed,              !- Wind Exposure
    autocalculate,            !- View Factor to Ground
    autocalculate,            !- Number of Vertices
    705079.754,               !- Vertex 1 Xcoordinate
    5711757.967,              !- Vertex 1 Ycoordinate
    6,                        !- Vertex 1 Zcoordinate
    705079.754,               !- Vertex 2 Xcoordinate
    5711757.967,              !- Vertex 2 Ycoordinate
    3,                        !- Vertex 2 Zcoordinate
    705076.943,               !- Vertex 3 Xcoordinate
    5711759.092,              !- Vertex 3 Ycoordinate
    3,                        !- Vertex 3 Zcoordinate
    705076.943,               !- Vertex 4 Xcoordinate
    5711759.092,              !- Vertex 4 Ycoordinate
    6;                        !- Vertex 4 Zcoordinate

BUILDINGSURFACE:DETAILED,
    Block 58bdcf3b3f3405dc_1 Storey 1 Wall 0003,    !- Name
    wall,                     !- Surface Type
    EU_wall_Construction,     !- Construction Name
    58bdcf3b3f3405dc_F1_dwelling_1,    !- Zone Name
    ,                         !- Space Name
    outdoors,                 !- Outside Boundary Condition
    ,                         !- Outside Boundary Condition Object
    SunExposed,               !- Sun Exposure
    WindExposed,              !- Wind Exposure
    autocalculate,            !- View Factor to Ground
    autocalculate,            !- Number of Vertices
    705076.943,               !- Vertex 1 Xcoordinate
    5711759.092,              !- Vertex 1 Ycoordinate
    6,                        !- Vertex 1 Zcoordinate
    705076.943,               !- Vertex 2 Xcoordinate
    5711759.092,              !- Vertex 2 Ycoordinate
    3,                        !- Vertex 2 Zcoordinate
    705077.086,               !- Vertex 3 Xcoordinate
    5711759.152,              !- Vertex 3 Ycoordinate
    3,                        !- Vertex 3 Zcoordinate
    705077.086,               !- Vertex 4 Xcoordinate
    5711759.152,              !- Vertex 4 Ycoordinate
    6;                        !- Vertex 4 Zcoordinate

BUILDINGSURFACE:DETAILED,
    Block 58bdcf3b3f3405dc_1 Storey 1 Wall 0004,    !- Name
    wall,                     !- Surface Type
    EU_wall_Construction,     !- Construction Name
    58bdcf3b3f3405dc_F1_dwelling_1,    !- Zone Name
    ,                         !- Space Name
    outdoors,                 !- Outside Boundary Condition
    ,                         !- Outside Boundary Condition Object
    SunExposed,               !- Sun Exposure
    WindExposed,              !- Wind Exposure
    autocalculate,            !- View Factor to Ground
    autocalculate,            !- Number of Vertices
    705077.086,               !- Vertex 1 Xcoordinate
    5711759.152,              !- Vertex 1 Ycoordinate
    6,                        !- Vertex 1 Zcoordinate
    705077.086,               !- Vertex 2 Xcoordinate
    5711759.152,              !- Vertex 2 Ycoordinate
    3,                        !- Vertex 2 Zcoordinate
    705075.317,               !- Vertex 3 Xcoordinate
    5711763.201,              !- Vertex 3 Ycoordinate
    3,                        !- Vertex 3 Zcoordinate
    705075.317,               !- Vertex 4 Xcoordinate
    5711763.201,              !- Vertex 4 Ycoordinate
    6;                        !- Vertex 4 Zcoordinate

BUILDINGSURFACE:DETAILED,
    Block 58bdcf3b3f3405dc_1 Storey 1 Wall 0005,    !- Name
    wall,                     !- Surface Type
    EU_wall_Construction,     !- Construction Name
    58bdcf3b3f3405dc_F1_dwelling_1,    !- Zone Name
    ,                         !- Space Name
    outdoors,                 !- Outside Boundary Condition
    ,                         !- Outside Boundary Condition Object
    SunExposed,               !- Sun Exposure
    WindExposed,              !- Wind Exposure
    autocalculate,            !- View Factor to Ground
    autocalculate,            !- Number of Vertices
    705075.317,               !- Vertex 1 Xcoordinate
    5711763.201,              !- Vertex 1 Ycoordinate
    6,                        !- Vertex 1 Zcoordinate
    705075.317,               !- Vertex 2 Xcoordinate
    5711763.201,              !- Vertex 2 Ycoordinate
    3,                        !- Vertex 2 Zcoordinate
    705077.396,               !- Vertex 3 Xcoordinate
    5711764.254,              !- Vertex 3 Ycoordinate
    3,                        !- Vertex 3 Zcoordinate
    705077.396,               !- Vertex 4 Xcoordinate
    5711764.254,              !- Vertex 4 Ycoordinate
    6;                        !- Vertex 4 Zcoordinate

BUILDINGSURFACE:DETAILED,
    Block 58bdcf3b3f3405dc_1 Storey 1 Wall 0006,    !- Name
    wall,                     !- Surface Type
    EU_wall_Construction,     !- Construction Name
    58bdcf3b3f3405dc_F1_dwelling_1,    !- Zone Name
    ,                         !- Space Name
    outdoors,                 !- Outside Boundary Condition
    ,                         !- Outside Boundary Condition Object
    SunExposed,               !- Sun Exposure
    WindExposed,              !- Wind Exposure
    autocalculate,            !- View Factor to Ground
    autocalculate,            !- Number of Vertices
    705077.396,               !- Vertex 1 Xcoordinate
    5711764.254,              !- Vertex 1 Ycoordinate
    6,                        !- Vertex 1 Zcoordinate
    705077.396,               !- Vertex 2 Xcoordinate
    5711764.254,              !- Vertex 2 Ycoordinate
    3,                        !- Vertex 2 Zcoordinate
    705081.597,               !- Vertex 3 Xcoordinate
    5711762.572,              !- Vertex 3 Ycoordinate
    3,                        !- Vertex 3 Zcoordinate
    705081.597,               !- Vertex 4 Xcoordinate
    5711762.572,              !- Vertex 4 Ycoordinate
    6;                        !- Vertex 4 Zcoordinate

BUILDINGSURFACE:DETAILED,
    Block 58bdcf3b3f3405dc_1 Storey 2 Wall 0002,    !- Name
    wall,                     !- Surface Type
    EU_wall_Construction,     !- Construction Name
    58bdcf3b3f3405dc_F2_dwelling_1,    !- Zone Name
    ,                         !- Space Name
    outdoors,                 !- Outside Boundary Condition
    ,                         !- Outside Boundary Condition Object
    SunExposed,               !- Sun Exposure
    WindExposed,              !- Wind Exposure
    autocalculate,            !- View Factor to Ground
    autocalculate,            !- Number of Vertices
    705079.754,               !- Vertex 1 Xcoordinate
    5711757.967,              !- Vertex 1 Ycoordinate
    9,                        !- Vertex 1 Zcoordinate
    705079.754,               !- Vertex 2 Xcoordinate
    5711757.967,              !- Vertex 2 Ycoordinate
    6,                        !- Vertex 2 Zcoordinate
    705076.943,               !- Vertex 3 Xcoordinate
    5711759.092,              !- Vertex 3 Ycoordinate
    6,                        !- Vertex 3 Zcoordinate
    705076.943,               !- Vertex 4 Xcoordinate
    5711759.092,              !- Vertex 4 Ycoordinate
    9;                        !- Vertex 4 Zcoordinate

BUILDINGSURFACE:DETAILED,
    Block 58bdcf3b3f3405dc_1 Storey 2 Wall 0003,    !- Name
    wall,                     !- Surface Type
    EU_wall_Construction,     !- Construction Name
    58bdcf3b3f3405dc_F2_dwelling_1,    !- Zone Name
    ,                         !- Space Name
    outdoors,                 !- Outside Boundary Condition
    ,                         !- Outside Boundary Condition Object
    SunExposed,               !- Sun Exposure
    WindExposed,              !- Wind Exposure
    autocalculate,            !- View Factor to Ground
    autocalculate,            !- Number of Vertices
    705076.943,               !- Vertex 1 Xcoordinate
    5711759.092,              !- Vertex 1 Ycoordinate
    9,                        !- Vertex 1 Zcoordinate
    705076.943,               !- Vertex 2 Xcoordinate
    5711759.092,              !- Vertex 2 Ycoordinate
    6,                        !- Vertex 2 Zcoordinate
    705077.086,               !- Vertex 3 Xcoordinate
    5711759.152,              !- Vertex 3 Ycoordinate
    6,                        !- Vertex 3 Zcoordinate
    705077.086,               !- Vertex 4 Xcoordinate
    5711759.152,              !- Vertex 4 Ycoordinate
    9;                        !- Vertex 4 Zcoordinate

BUILDINGSURFACE:DETAILED,
    Block 58bdcf3b3f3405dc_1 Storey 2 Wall 0004,    !- Name
    wall,                     !- Surface Type
    EU_wall_Construction,     !- Construction Name
    58bdcf3b3f3405dc_F2_dwelling_1,    !- Zone Name
    ,                         !- Space Name
    outdoors,                 !- Outside Boundary Condition
    ,                         !- Outside Boundary Condition Object
    SunExposed,               !- Sun Exposure
    WindExposed,              !- Wind Exposure
    autocalculate,            !- View Factor to Ground
    autocalculate,            !- Number of Vertices
    705077.086,               !- Vertex 1 Xcoordinate
    5711759.152,              !- Vertex 1 Ycoordinate
    9,                        !- Vertex 1 Zcoordinate
    705077.086,               !- Vertex 2 Xcoordinate
    5711759.152,              !- Vertex 2 Ycoordinate
    6,                        !- Vertex 2 Zcoordinate
    705075.317,               !- Vertex 3 Xcoordinate
    5711763.201,              !- Vertex 3 Ycoordinate
    6,                        !- Vertex 3 Zcoordinate
    705075.317,               !- Vertex 4 Xcoordinate
    5711763.201,              !- Vertex 4 Ycoordinate
    9;                        !- Vertex 4 Zcoordinate

BUILDINGSURFACE:DETAILED,
    Block 58bdcf3b3f3405dc_1 Storey 2 Wall 0005,    !- Name
    wall,                     !- Surface Type
    EU_wall_Construction,     !- Construction Name
    58bdcf3b3f3405dc_F2_dwelling_1,    !- Zone Name
    ,                         !- Space Name
    outdoors,                 !- Outside Boundary Condition
    ,                         !- Outside Boundary Condition Object
    SunExposed,               !- Sun Exposure
    WindExposed,              !- Wind Exposure
    autocalculate,            !- View Factor to Ground
    autocalculate,            !- Number of Vertices
    705075.317,               !- Vertex 1 Xcoordinate
    5711763.201,              !- Vertex 1 Ycoordinate
    9,                        !- Vertex 1 Zcoordinate
    705075.317,               !- Vertex 2 Xcoordinate
    5711763.201,              !- Vertex 2 Ycoordinate
    6,                        !- Vertex 2 Zcoordinate
    705077.396,               !- Vertex 3 Xcoordinate
    5711764.254,              !- Vertex 3 Ycoordinate
    6,                        !- Vertex 3 Zcoordinate
    705077.396,               !- Vertex 4 Xcoordinate
    5711764.254,              !- Vertex 4 Ycoordinate
    9;                        !- Vertex 4 Zcoordinate

BUILDINGSURFACE:DETAILED,
    Block 58bdcf3b3f3405dc_1 Storey 2 Wall 0006,    !- Name
    wall,                     !- Surface Type
    EU_wall_Construction,     !- Construction Name
    58bdcf3b3f3405dc_F2_dwelling_1,    !- Zone Name
    ,                         !- Space Name
    outdoors,                 !- Outside Boundary Condition
    ,                         !- Outside Boundary Condition Object
    SunExposed,               !- Sun Exposure
    WindExposed,              !- Wind Exposure
    autocalculate,            !- View Factor to Ground
    autocalculate,            !- Number of Vertices
    705077.396,               !- Vertex 1 Xcoordinate
    5711764.254,              !- Vertex 1 Ycoordinate
    9,                        !- Vertex 1 Zcoordinate
    705077.396,               !- Vertex 2 Xcoordinate
    5711764.254,              !- Vertex 2 Ycoordinate
    6,                        !- Vertex 2 Zcoordinate
    705081.597,               !- Vertex 3 Xcoordinate
    5711762.572,              !- Vertex 3 Ycoordinate
    6,                        !- Vertex 3 Zcoordinate
    705081.597,               !- Vertex 4 Xcoordinate
    5711762.572,              !- Vertex 4 Ycoordinate
    9;                        !- Vertex 4 Zcoordinate

BUILDINGSURFACE:DETAILED,
    Block 58bdcf3b3f3405dc_1 Storey 2 Roof 0001,    !- Name
    roof,                     !- Surface Type
    EU_roof_Construction,     !- Construction Name
    58bdcf3b3f3405dc_F2_dwelling_1,    !- Zone Name
    ,                         !- Space Name
    outdoors,                 !- Outside Boundary Condition
    ,                         !- Outside Boundary Condition Object
    NoSun,                    !- Sun Exposure
    WindExposed,              !- Wind Exposure
    autocalculate,            !- View Factor to Ground
    autocalculate,            !- Number of Vertices
    705081.597,               !- Vertex 1 Xcoordinate
    5711762.572,              !- Vertex 1 Ycoordinate
    9,                        !- Vertex 1 Zcoordinate
    705079.754,               !- Vertex 2 Xcoordinate
    5711757.967,              !- Vertex 2 Ycoordinate
    9,                        !- Vertex 2 Zcoordinate
    705076.943,               !- Vertex 3 Xcoordinate
    5711759.092,              !- Vertex 3 Ycoordinate
    9,                        !- Vertex 3 Zcoordinate
    705077.086,               !- Vertex 4 Xcoordinate
    5711759.152,              !- Vertex 4 Ycoordinate
    9,                        !- Vertex 4 Zcoordinate
    705075.317,               !- Vertex 5 Xcoordinate
    5711763.201,              !- Vertex 5 Ycoordinate
    9,                        !- Vertex 5 Zcoordinate
    705077.396,               !- Vertex 6 Xcoordinate
    5711764.254,              !- Vertex 6 Ycoordinate
    9;                        !- Vertex 6 Zcoordinate

BUILDINGSURFACE:DETAILED,
    Block 58bdcf3b3f3405dc_2 Storey 0 Wall 0001,    !- Name
    wall,                     !- Surface Type
    EU_wall_Construction,     !- Construction Name
    58bdcf3b3f3405dc_F0_dwelling_2,    !- Zone Name
    ,                         !- Space Name
    outdoors,                 !- Outside Boundary Condition
    ,                         !- Outside Boundary Condition Object
    SunExposed,               !- Sun Exposure
    WindExposed,              !- Wind Exposure
    autocalculate,            !- View Factor to Ground
    autocalculate,            !- Number of Vertices
    705081.696,               !- Vertex 1 Xcoordinate
    5711757.189,              !- Vertex 1 Ycoordinate
    3,                        !- Vertex 1 Zcoordinate
    705081.696,               !- Vertex 2 Xcoordinate
    5711757.189,              !- Vertex 2 Ycoordinate
    0,                        !- Vertex 2 Zcoordinate
    705079.754,               !- Vertex 3 Xcoordinate
    5711757.967,              !- Vertex 3 Ycoordinate
    0,                        !- Vertex 3 Zcoordinate
    705079.754,               !- Vertex 4 Xcoordinate
    5711757.967,              !- Vertex 4 Ycoordinate
    3;                        !- Vertex 4 Zcoordinate

BUILDINGSURFACE:DETAILED,
    Block 58bdcf3b3f3405dc_2 Storey 0 Wall 0003,    !- Name
    wall,                     !- Surface Type
    EU_wall_Construction,     !- Construction Name
    58bdcf3b3f3405dc_F0_dwelling_2,    !- Zone Name
    ,                         !- Space Name
    outdoors,                 !- Outside Boundary Condition
    ,                         !- Outside Boundary Condition Object
    SunExposed,               !- Sun Exposure
    WindExposed,              !- Wind Exposure
    autocalculate,            !- View Factor to Ground
    autocalculate,            !- Number of Vertices
    705081.597,               !- Vertex 1 Xcoordinate
    5711762.572,              !- Vertex 1 Ycoordinate
    3,                        !- Vertex 1 Zcoordinate
    705081.597,               !- Vertex 2 Xcoordinate
    5711762.572,              !- Vertex 2 Ycoordinate
    0,                        !- Vertex 2 Zcoordinate
    705088.457,               !- Vertex 3 Xcoordinate
    5711759.826,              !- Vertex 3 Ycoordinate
    0,                        !- Vertex 3 Zcoordinate
    705088.457,               !- Vertex 4 Xcoordinate
    5711759.826,              !- Vertex 4 Ycoordinate
    3;                        !- Vertex 4 Zcoordinate

BUILDINGSURFACE:DETAILED,
    Block 58bdcf3b3f3405dc_2 Storey 0 Wall 0004,    !- Name
    wall,                     !- Surface Type
    EU_wall_Construction,     !- Construction Name
    58bdcf3b3f3405dc_F0_dwelling_2,    !- Zone Name
    ,                         !- Space Name
    Adiabatic,                !- Outside Boundary Condition
    ,                         !- Outside Boundary Condition Object
    NoSun,                    !- Sun Exposure
    NoWind,                   !- Wind Exposure
    autocalculate,            !- View Factor to Ground
    autocalculate,            !- Number of Vertices
    705088.457,               !- Vertex 1 Xcoordinate
    5711759.826,              !- Vertex 1 Ycoordinate
    3,                        !- Vertex 1 Zcoordinate
    705088.457,               !- Vertex 2 Xcoordinate
    5711759.826,              !- Vertex 2 Ycoordinate
    0,                        !- Vertex 2 Zcoordinate
    705081.696,               !- Vertex 3 Xcoordinate
    5711757.189,              !- Vertex 3 Ycoordinate
    0,                        !- Vertex 3 Zcoordinate
    705081.696,               !- Vertex 4 Xcoordinate
    5711757.189,              !- Vertex 4 Ycoordinate
    3;                        !- Vertex 4 Zcoordinate

BUILDINGSURFACE:DETAILED,
    Block 58bdcf3b3f3405dc_2 Storey 0 Floor 0001,    !- Name
    floor,                    !- Surface Type
    EU_floor_Construction,    !- Construction Name
    58bdcf3b3f3405dc_F0_dwelling_2,    !- Zone Name
    ,                         !- Space Name
    ground,                   !- Outside Boundary Condition
    ,                         !- Outside Boundary Condition Object
    NoSun,                    !- Sun Exposure
    NoWind,                   !- Wind Exposure
    autocalculate,            !- View Factor to Ground
    autocalculate,            !- Number of Vertices
    705088.457,               !- Vertex 1 Xcoordinate
    5711759.826,              !- Vertex 1 Ycoordinate
    0,                        !- Vertex 1 Zcoordinate
    705081.597,               !- Vertex 2 Xcoordinate
    5711762.572,              !- Vertex 2 Ycoordinate
    0,                        !- Vertex 2 Zcoordinate
    705079.754,               !- Vertex 3 Xcoordinate
    5711757.967,              !- Vertex 3 Ycoordinate
    0,                        !- Vertex 3 Zcoordinate
    705081.696,               !- Vertex 4 Xcoordinate
    5711757.189,              !- Vertex 4 Ycoordinate
    0;                        !- Vertex 4 Zcoordinate

BUILDINGSURFACE:DETAILED,
    Block 58bdcf3b3f3405dc_2 Storey 1 Wall 0001,    !- Name
    wall,                     !- Surface Type
    EU_wall_Construction,     !- Construction Name
    58bdcf3b3f3405dc_F1_dwelling_2,    !- Zone Name
    ,                         !- Space Name
    outdoors,                 !- Outside Boundary Condition
    ,                         !- Outside Boundary Condition Object
    SunExposed,               !- Sun Exposure
    WindExposed,              !- Wind Exposure
    autocalculate,            !- View Factor to Ground
    autocalculate,            !- Number of Vertices
    705081.696,               !- Vertex 1 Xcoordinate
    5711757.189,              !- Vertex 1 Ycoordinate
    6,                        !- Vertex 1 Zcoordinate
    705081.696,               !- Vertex 2 Xcoordinate
    5711757.189,              !- Vertex 2 Ycoordinate
    3,                        !- Vertex 2 Zcoordinate
    705079.754,               !- Vertex 3 Xcoordinate
    5711757.967,              !- Vertex 3 Ycoordinate
    3,                        !- Vertex 3 Zcoordinate
    705079.754,               !- Vertex 4 Xcoordinate
    5711757.967,              !- Vertex 4 Ycoordinate
    6;                        !- Vertex 4 Zcoordinate

BUILDINGSURFACE:DETAILED,
    Block 58bdcf3b3f3405dc_2 Storey 1 Wall 0003,    !- Name
    wall,                     !- Surface Type
    EU_wall_Construction,     !- Construction Name
    58bdcf3b3f3405dc_F1_dwelling_2,    !- Zone Name
    ,                         !- Space Name
    outdoors,                 !- Outside Boundary Condition
    ,                         !- Outside Boundary Condition Object
    SunExposed,               !- Sun Exposure
    WindExposed,              !- Wind Exposure
    autocalculate,            !- View Factor to Ground
    autocalculate,            !- Number of Vertices
    705081.597,               !- Vertex 1 Xcoordinate
    5711762.572,              !- Vertex 1 Ycoordinate
    6,                        !- Vertex 1 Zcoordinate
    705081.597,               !- Vertex 2 Xcoordinate
    5711762.572,              !- Vertex 2 Ycoordinate
    3,                        !- Vertex 2 Zcoordinate
    705088.457,               !- Vertex 3 Xcoordinate
    5711759.826,              !- Vertex 3 Ycoordinate
    3,                        !- Vertex 3 Zcoordinate
    705088.457,               !- Vertex 4 Xcoordinate
    5711759.826,              !- Vertex 4 Ycoordinate
    6;                        !- Vertex 4 Zcoordinate

BUILDINGSURFACE:DETAILED,
    Block 58bdcf3b3f3405dc_2 Storey 1 Wall 0004,    !- Name
    wall,                     !- Surface Type
    EU_wall_Construction,     !- Construction Name
    58bdcf3b3f3405dc_F1_dwelling_2,    !- Zone Name
    ,                         !- Space Name
    Adiabatic,                !- Outside Boundary Condition
    ,                         !- Outside Boundary Condition Object
    NoSun,                    !- Sun Exposure
    NoWind,                   !- Wind Exposure
    autocalculate,            !- View Factor to Ground
    autocalculate,            !- Number of Vertices
    705088.457,               !- Vertex 1 Xcoordinate
    5711759.826,              !- Vertex 1 Ycoordinate
    6,                        !- Vertex 1 Zcoordinate
    705088.457,               !- Vertex 2 Xcoordinate
    5711759.826,              !- Vertex 2 Ycoordinate
    3,                        !- Vertex 2 Zcoordinate
    705081.696,               !- Vertex 3 Xcoordinate
    5711757.189,              !- Vertex 3 Ycoordinate
    3,                        !- Vertex 3 Zcoordinate
    705081.696,               !- Vertex 4 Xcoordinate
    5711757.189,              !- Vertex 4 Ycoordinate
    6;                        !- Vertex 4 Zcoordinate

BUILDINGSURFACE:DETAILED,
    Block 58bdcf3b3f3405dc_2 Storey 2 Wall 0001,    !- Name
    wall,                     !- Surface Type
    EU_wall_Construction,     !- Construction Name
    58bdcf3b3f3405dc_F2_dwelling_2,    !- Zone Name
    ,                         !- Space Name
    outdoors,                 !- Outside Boundary Condition
    ,                         !- Outside Boundary Condition Object
    SunExposed,               !- Sun Exposure
    WindExposed,              !- Wind Exposure
    autocalculate,            !- View Factor to Ground
    autocalculate,            !- Number of Vertices
    705081.696,               !- Vertex 1 Xcoordinate
    5711757.189,              !- Vertex 1 Ycoordinate
    9,                        !- Vertex 1 Zcoordinate
    705081.696,               !- Vertex 2 Xcoordinate
    5711757.189,              !- Vertex 2 Ycoordinate
    6,                        !- Vertex 2 Zcoordinate
    705079.754,               !- Vertex 3 Xcoordinate
    5711757.967,              !- Vertex 3 Ycoordinate
    6,                        !- Vertex 3 Zcoordinate
    705079.754,               !- Vertex 4 Xcoordinate
    5711757.967,              !- Vertex 4 Ycoordinate
    9;                        !- Vertex 4 Zcoordinate

BUILDINGSURFACE:DETAILED,
    Block 58bdcf3b3f3405dc_2 Storey 2 Wall 0003,    !- Name
    wall,                     !- Surface Type
    EU_wall_Construction,     !- Construction Name
    58bdcf3b3f3405dc_F2_dwelling_2,    !- Zone Name
    ,                         !- Space Name
    outdoors,                 !- Outside Boundary Condition
    ,                         !- Outside Boundary Condition Object
    SunExposed,               !- Sun Exposure
    WindExposed,              !- Wind Exposure
    autocalculate,            !- View Factor to Ground
    autocalculate,            !- Number of Vertices
    705081.597,               !- Vertex 1 Xcoordinate
    5711762.572,              !- Vertex 1 Ycoordinate
    9,                        !- Vertex 1 Zcoordinate
    705081.597,               !- Vertex 2 Xcoordinate
    5711762.572,              !- Vertex 2 Ycoordinate
    6,                        !- Vertex 2 Zcoordinate
    705088.457,               !- Vertex 3 Xcoordinate
    5711759.826,              !- Vertex 3 Ycoordinate
    6,                        !- Vertex 3 Zcoordinate
    705088.457,               !- Vertex 4 Xcoordinate
    5711759.826,              !- Vertex 4 Ycoordinate
    9;                        !- Vertex 4 Zcoordinate

BUILDINGSURFACE:DETAILED,
    Block 58bdcf3b3f3405dc_2 Storey 2 Wall 0004,    !- Name
    wall,                     !- Surface Type
    EU_wall_Construction,     !- Construction Name
    58bdcf3b3f3405dc_F2_dwelling_2,    !- Zone Name
    ,                         !- Space Name
    Adiabatic,                !- Outside Boundary Condition
    ,                         !- Outside Boundary Condition Object
    NoSun,                    !- Sun Exposure
    NoWind,                   !- Wind Exposure
    autocalculate,            !- View Factor to Ground
    autocalculate,            !- Number of Vertices
    705088.457,               !- Vertex 1 Xcoordinate
    5711759.826,              !- Vertex 1 Ycoordinate
    9,                        !- Vertex 1 Zcoordinate
    705088.457,               !- Vertex 2 Xcoordinate
    5711759.826,              !- Vertex 2 Ycoordinate
    6,                        !- Vertex 2 Zcoordinate
    705081.696,               !- Vertex 3 Xcoordinate
    5711757.189,              !- Vertex 3 Ycoordinate
    6,                        !- Vertex 3 Zcoordinate
    705081.696,               !- Vertex 4 Xcoordinate
    5711757.189,              !- Vertex 4 Ycoordinate
    9;                        !- Vertex 4 Zcoordinate

BUILDINGSURFACE:DETAILED,
    Block 58bdcf3b3f3405dc_2 Storey 2 Roof 0001,    !- Name
    roof,                     !- Surface Type
    EU_roof_Construction,     !- Construction Name
    58bdcf3b3f3405dc_F2_dwelling_2,    !- Zone Name
    ,                         !- Space Name
    outdoors,                 !- Outside Boundary Condition
    ,                         !- Outside Boundary Condition Object
    NoSun,                    !- Sun Exposure
    WindExposed,              !- Wind Exposure
    autocalculate,            !- View Factor to Ground
    autocalculate,            !- Number of Vertices
    705088.457,               !- Vertex 1 Xcoordinate
    5711759.826,              !- Vertex 1 Ycoordinate
    9,                        !- Vertex 1 Zcoordinate
    705081.696,               !- Vertex 2 Xcoordinate
    5711757.189,              !- Vertex 2 Ycoordinate
    9,                        !- Vertex 2 Zcoordinate
    705079.754,               !- Vertex 3 Xcoordinate
    5711757.967,              !- Vertex 3 Ycoordinate
    9,                        !- Vertex 3 Zcoordinate
    705081.597,               !- Vertex 4 Xcoordinate
    5711762.572,              !- Vertex 4 Ycoordinate
    9;                        !- Vertex 4 Zcoordinate

BUILDINGSURFACE:DETAILED,
    Block 58bdcf3b3f3405dc_3 Storey 0 Wall 0001,    !- Name
    wall,                     !- Surface Type
    EU_wall_Construction,     !- Construction Name
    58bdcf3b3f3405dc_F0_dwelling_3,    !- Zone Name
    ,                         !- Space Name
    outdoors,                 !- Outside Boundary Condition
    ,                         !- Outside Boundary Condition Object
    SunExposed,               !- Sun Exposure
    WindExposed,              !- Wind Exposure
    autocalculate,            !- View Factor to Ground
    autocalculate,            !- Number of Vertices
    705084.463,               !- Vertex 1 Xcoordinate
    5711761.425,              !- Vertex 1 Ycoordinate
    3,                        !- Vertex 1 Zcoordinate
    705084.463,               !- Vertex 2 Xcoordinate
    5711761.425,              !- Vertex 2 Ycoordinate
    0,                        !- Vertex 2 Zcoordinate
    705077.396,               !- Vertex 3 Xcoordinate
    5711764.254,              !- Vertex 3 Ycoordinate
    0,                        !- Vertex 3 Zcoordinate
    705077.396,               !- Vertex 4 Xcoordinate
    5711764.254,              !- Vertex 4 Ycoordinate
    3;                        !- Vertex 4 Zcoordinate

BUILDINGSURFACE:DETAILED,
    Block 58bdcf3b3f3405dc_3 Storey 0 Wall 0002,    !- Name
    wall,                     !- Surface Type
    EU_wall_Construction,     !- Construction Name
    58bdcf3b3f3405dc_F0_dwelling_3,    !- Zone Name
    ,                         !- Space Name
    outdoors,                 !- Outside Boundary Condition
    ,                         !- Outside Boundary Condition Object
    SunExposed,               !- Sun Exposure
    WindExposed,              !- Wind Exposure
    autocalculate,            !- View Factor to Ground
    autocalculate,            !- Number of Vertices
    705077.396,               !- Vertex 1 Xcoordinate
    5711764.254,              !- Vertex 1 Ycoordinate
    3,                        !- Vertex 1 Zcoordinate
    705077.396,               !- Vertex 2 Xcoordinate
    5711764.254,              !- Vertex 2 Ycoordinate
    0,                        !- Vertex 2 Zcoordinate
    705082.178,               !- Vertex 3 Xcoordinate
    5711766.675,              !- Vertex 3 Ycoordinate
    0,                        !- Vertex 3 Zcoordinate
    705082.178,               !- Vertex 4 Xcoordinate
    5711766.675,              !- Vertex 4 Ycoordinate
    3;                        !- Vertex 4 Zcoordinate

BUILDINGSURFACE:DETAILED,
    Block 58bdcf3b3f3405dc_3 Storey 0 Wall 0003,    !- Name
    wall,                     !- Surface Type
    EU_wall_Construction,     !- Construction Name
    58bdcf3b3f3405dc_F0_dwelling_3,    !- Zone Name
    ,                         !- Space Name
    outdoors,                 !- Outside Boundary Condition
    ,                         !- Outside Boundary Condition Object
    SunExposed,               !- Sun Exposure
    WindExposed,              !- Wind Exposure
    autocalculate,            !- View Factor to Ground
    autocalculate,            !- Number of Vertices
    705082.178,               !- Vertex 1 Xcoordinate
    5711766.675,              !- Vertex 1 Ycoordinate
    3,                        !- Vertex 1 Zcoordinate
    705082.178,               !- Vertex 2 Xcoordinate
    5711766.675,              !- Vertex 2 Ycoordinate
    0,                        !- Vertex 2 Zcoordinate
    705085.959,               !- Vertex 3 Xcoordinate
    5711765.161,              !- Vertex 3 Ycoordinate
    0,                        !- Vertex 3 Zcoordinate
    705085.959,               !- Vertex 4 Xcoordinate
    5711765.161,              !- Vertex 4 Ycoordinate
    3;                        !- Vertex 4 Zcoordinate

BUILDINGSURFACE:DETAILED,
    Block 58bdcf3b3f3405dc_3 Storey 0 Floor 0001,    !- Name
    floor,                    !- Surface Type
    EU_floor_Construction,    !- Construction Name
    58bdcf3b3f3405dc_F0_dwelling_3,    !- Zone Name
    ,                         !- Space Name
    ground,                   !- Outside Boundary Condition
    ,                         !- Outside Boundary Condition Object
    NoSun,                    !- Sun Exposure
    NoWind,                   !- Wind Exposure
    autocalculate,            !- View Factor to Ground
    autocalculate,            !- Number of Vertices
    705084.463,               !- Vertex 1 Xcoordinate
    5711761.425,              !- Vertex 1 Ycoordinate
    0,                        !- Vertex 1 Zcoordinate
    705085.959,               !- Vertex 2 Xcoordinate
    5711765.161,              !- Vertex 2 Ycoordinate
    0,                        !- Vertex 2 Zcoordinate
    705082.178,               !- Vertex 3 Xcoordinate
    5711766.675,              !- Vertex 3 Ycoordinate
    0,                        !- Vertex 3 Zcoordinate
    705077.396,               !- Vertex 4 Xcoordinate
    5711764.254,              !- Vertex 4 Ycoordinate
    0;                        !- Vertex 4 Zcoordinate

BUILDINGSURFACE:DETAILED,
    Block 58bdcf3b3f3405dc_3 Storey 1 Wall 0001,    !- Name
    wall,                     !- Surface Type
    EU_wall_Construction,     !- Construction Name
    58bdcf3b3f3405dc_F1_dwelling_3,    !- Zone Name
    ,                         !- Space Name
    outdoors,                 !- Outside Boundary Condition
    ,                         !- Outside Boundary Condition Object
    SunExposed,               !- Sun Exposure
    WindExposed,              !- Wind Exposure
    autocalculate,            !- View Factor to Ground
    autocalculate,            !- Number of Vertices
    705084.463,               !- Vertex 1 Xcoordinate
    5711761.425,              !- Vertex 1 Ycoordinate
    6,                        !- Vertex 1 Zcoordinate
    705084.463,               !- Vertex 2 Xcoordinate
    5711761.425,              !- Vertex 2 Ycoordinate
    3,                        !- Vertex 2 Zcoordinate
    705077.396,               !- Vertex 3 Xcoordinate
    5711764.254,              !- Vertex 3 Ycoordinate
    3,                        !- Vertex 3 Zcoordinate
    705077.396,               !- Vertex 4 Xcoordinate
    5711764.254,              !- Vertex 4 Ycoordinate
    6;                        !- Vertex 4 Zcoordinate

BUILDINGSURFACE:DETAILED,
    Block 58bdcf3b3f3405dc_3 Storey 1 Wall 0002,    !- Name
    wall,                     !- Surface Type
    EU_wall_Construction,     !- Construction Name
    58bdcf3b3f3405dc_F1_dwelling_3,    !- Zone Name
    ,                         !- Space Name
    outdoors,                 !- Outside Boundary Condition
    ,                         !- Outside Boundary Condition Object
    SunExposed,               !- Sun Exposure
    WindExposed,              !- Wind Exposure
    autocalculate,            !- View Factor to Ground
    autocalculate,            !- Number of Vertices
    705077.396,               !- Vertex 1 Xcoordinate
    5711764.254,              !- Vertex 1 Ycoordinate
    6,                        !- Vertex 1 Zcoordinate
    705077.396,               !- Vertex 2 Xcoordinate
    5711764.254,              !- Vertex 2 Ycoordinate
    3,                        !- Vertex 2 Zcoordinate
    705082.178,               !- Vertex 3 Xcoordinate
    5711766.675,              !- Vertex 3 Ycoordinate
    3,                        !- Vertex 3 Zcoordinate
    705082.178,               !- Vertex 4 Xcoordinate
    5711766.675,              !- Vertex 4 Ycoordinate
    6;                        !- Vertex 4 Zcoordinate

BUILDINGSURFACE:DETAILED,
    Block 58bdcf3b3f3405dc_3 Storey 1 Wall 0003,    !- Name
    wall,                     !- Surface Type
    EU_wall_Construction,     !- Construction Name
    58bdcf3b3f3405dc_F1_dwelling_3,    !- Zone Name
    ,                         !- Space Name
    outdoors,                 !- Outside Boundary Condition
    ,                         !- Outside Boundary Condition Object
    SunExposed,               !- Sun Exposure
    WindExposed,              !- Wind Exposure
    autocalculate,            !- View Factor to Ground
    autocalculate,            !- Number of Vertices
    705082.178,               !- Vertex 1 Xcoordinate
    5711766.675,              !- Vertex 1 Ycoordinate
    6,                        !- Vertex 1 Zcoordinate
    705082.178,               !- Vertex 2 Xcoordinate
    5711766.675,              !- Vertex 2 Ycoordinate
    3,                        !- Vertex 2 Zcoordinate
    705085.959,               !- Vertex 3 Xcoordinate
    5711765.161,              !- Vertex 3 Ycoordinate
    3,                        !- Vertex 3 Zcoordinate
    705085.959,               !- Vertex 4 Xcoordinate
    5711765.161,              !- Vertex 4 Ycoordinate
    6;                        !- Vertex 4 Zcoordinate

BUILDINGSURFACE:DETAILED,
    Block 58bdcf3b3f3405dc_3 Storey 2 Wall 0001,    !- Name
    wall,                     !- Surface Type
    EU_wall_Construction,     !- Construction Name
    58bdcf3b3f3405dc_F2_dwelling_3,    !- Zone Name
    ,                         !- Space Name
    outdoors,                 !- Outside Boundary Condition
    ,                         !- Outside Boundary Condition Object
    SunExposed,               !- Sun Exposure
    WindExposed,              !- Wind Exposure
    autocalculate,            !- View Factor to Ground
    autocalculate,            !- Number of Vertices
    705084.463,               !- Vertex 1 Xcoordinate
    5711761.425,              !- Vertex 1 Ycoordinate
    9,                        !- Vertex 1 Zcoordinate
    705084.463,               !- Vertex 2 Xcoordinate
    5711761.425,              !- Vertex 2 Ycoordinate
    6,                        !- Vertex 2 Zcoordinate
    705077.396,               !- Vertex 3 Xcoordinate
    5711764.254,              !- Vertex 3 Ycoordinate
    6,                        !- Vertex 3 Zcoordinate
    705077.396,               !- Vertex 4 Xcoordinate
    5711764.254,              !- Vertex 4 Ycoordinate
    9;                        !- Vertex 4 Zcoordinate

BUILDINGSURFACE:DETAILED,
    Block 58bdcf3b3f3405dc_3 Storey 2 Wall 0002,    !- Name
    wall,                     !- Surface Type
    EU_wall_Construction,     !- Construction Name
    58bdcf3b3f3405dc_F2_dwelling_3,    !- Zone Name
    ,                         !- Space Name
    outdoors,                 !- Outside Boundary Condition
    ,                         !- Outside Boundary Condition Object
    SunExposed,               !- Sun Exposure
    WindExposed,              !- Wind Exposure
    autocalculate,            !- View Factor to Ground
    autocalculate,            !- Number of Vertices
    705077.396,               !- Vertex 1 Xcoordinate
    5711764.254,              !- Vertex 1 Ycoordinate
    9,                        !- Vertex 1 Zcoordinate
    705077.396,               !- Vertex 2 Xcoordinate
    5711764.254,              !- Vertex 2 Ycoordinate
    6,                        !- Vertex 2 Zcoordinate
    705082.178,               !- Vertex 3 Xcoordinate
    5711766.675,              !- Vertex 3 Ycoordinate
    6,                        !- Vertex 3 Zcoordinate
    705082.178,               !- Vertex 4 Xcoordinate
    5711766.675,              !- Vertex 4 Ycoordinate
    9;                        !- Vertex 4 Zcoordinate

BUILDINGSURFACE:DETAILED,
    Block 58bdcf3b3f3405dc_3 Storey 2 Wall 0003,    !- Name
    wall,                     !- Surface Type
    EU_wall_Construction,     !- Construction Name
    58bdcf3b3f3405dc_F2_dwelling_3,    !- Zone Name
    ,                         !- Space Name
    outdoors,                 !- Outside Boundary Condition
    ,                         !- Outside Boundary Condition Object
    SunExposed,               !- Sun Exposure
    WindExposed,              !- Wind Exposure
    autocalculate,            !- View Factor to Ground
    autocalculate,            !- Number of Vertices
    705082.178,               !- Vertex 1 Xcoordinate
    5711766.675,              !- Vertex 1 Ycoordinate
    9,                        !- Vertex 1 Zcoordinate
    705082.178,               !- Vertex 2 Xcoordinate
    5711766.675,              !- Vertex 2 Ycoordinate
    6,                        !- Vertex 2 Zcoordinate
    705085.959,               !- Vertex 3 Xcoordinate
    5711765.161,              !- Vertex 3 Ycoordinate
    6,                        !- Vertex 3 Zcoordinate
    705085.959,               !- Vertex 4 Xcoordinate
    5711765.161,              !- Vertex 4 Ycoordinate
    9;                        !- Vertex 4 Zcoordinate

BUILDINGSURFACE:DETAILED,
    Block 58bdcf3b3f3405dc_3 Storey 2 Roof 0001,    !- Name
    roof,                     !- Surface Type
    EU_roof_Construction,     !- Construction Name
    58bdcf3b3f3405dc_F2_dwelling_3,    !- Zone Name
    ,                         !- Space Name
    outdoors,                 !- Outside Boundary Condition
    ,                         !- Outside Boundary Condition Object
    NoSun,                    !- Sun Exposure
    WindExposed,              !- Wind Exposure
    autocalculate,            !- View Factor to Ground
    autocalculate,            !- Number of Vertices
    705085.959,               !- Vertex 1 Xcoordinate
    5711765.161,              !- Vertex 1 Ycoordinate
    9,                        !- Vertex 1 Zcoordinate
    705084.463,               !- Vertex 2 Xcoordinate
    5711761.425,              !- Vertex 2 Ycoordinate
    9,                        !- Vertex 2 Zcoordinate
    705077.396,               !- Vertex 3 Xcoordinate
    5711764.254,              !- Vertex 3 Ycoordinate
    9,                        !- Vertex 3 Zcoordinate
    705082.178,               !- Vertex 4 Xcoordinate
    5711766.675,              !- Vertex 4 Ycoordinate
    9;                        !- Vertex 4 Zcoordinate

BUILDINGSURFACE:DETAILED,
    Block 58bdcf3b3f3405dc_4 Storey 0 Wall 0001,    !- Name
    wall,                     !- Surface Type
    EU_wall_Construction,     !- Construction Name
    58bdcf3b3f3405dc_F0_dwelling_4,    !- Zone Name
    ,                         !- Space Name
    Adiabatic,                !- Outside Boundary Condition
    ,                         !- Outside Boundary Condition Object
    NoSun,                    !- Sun Exposure
    NoWind,                   !- Wind Exposure
    autocalculate,            !- View Factor to Ground
    autocalculate,            !- Number of Vertices
    705091.859,               !- Vertex 1 Xcoordinate
    5711761.153,              !- Vertex 1 Ycoordinate
    3,                        !- Vertex 1 Zcoordinate
    705091.859,               !- Vertex 2 Xcoordinate
    5711761.153,              !- Vertex 2 Ycoordinate
    0,                        !- Vertex 2 Zcoordinate
    705088.457,               !- Vertex 3 Xcoordinate
    5711759.826,              !- Vertex 3 Ycoordinate
    0,                        !- Vertex 3 Zcoordinate
    705088.457,               !- Vertex 4 Xcoordinate
    5711759.826,              !- Vertex 4 Ycoordinate
    3;                        !- Vertex 4 Zcoordinate

BUILDINGSURFACE:DETAILED,
    Block 58bdcf3b3f3405dc_4 Storey 0 Wall 0002,    !- Name
    wall,                     !- Surface Type
    EU_wall_Construction,     !- Construction Name
    58bdcf3b3f3405dc_F0_dwelling_4,    !- Zone Name
    ,                         !- Space Name
    outdoors,                 !- Outside Boundary Condition
    ,                         !- Outside Boundary Condition Object
    SunExposed,               !- Sun Exposure
    WindExposed,              !- Wind Exposure
    autocalculate,            !- View Factor to Ground
    autocalculate,            !- Number of Vertices
    705088.457,               !- Vertex 1 Xcoordinate
    5711759.826,              !- Vertex 1 Ycoordinate
    3,                        !- Vertex 1 Zcoordinate
    705088.457,               !- Vertex 2 Xcoordinate
    5711759.826,              !- Vertex 2 Ycoordinate
    0,                        !- Vertex 2 Zcoordinate
    705084.463,               !- Vertex 3 Xcoordinate
    5711761.425,              !- Vertex 3 Ycoordinate
    0,                        !- Vertex 3 Zcoordinate
    705084.463,               !- Vertex 4 Xcoordinate
    5711761.425,              !- Vertex 4 Ycoordinate
    3;                        !- Vertex 4 Zcoordinate

BUILDINGSURFACE:DETAILED,
    Block 58bdcf3b3f3405dc_4 Storey 0 Wall 0004,    !- Name
    wall,                     !- Surface Type
    EU_wall_Construction,     !- Construction Name
    58bdcf3b3f3405dc_F0_dwelling_4,    !- Zone Name
    ,                         !- Space Name
    outdoors,                 !- Outside Boundary Condition
    ,                         !- Outside Boundary Condition Object
    SunExposed,               !- Sun Exposure
    WindExposed,              !- Wind Exposure
    autocalculate,            !- View Factor to Ground
    autocalculate,            !- Number of Vertices
    705085.959,               !- Vertex 1 Xcoordinate
    5711765.161,              !- Vertex 1 Ycoordinate
    3,                        !- Vertex 1 Zcoordinate
    705085.959,               !- Vertex 2 Xcoordinate
    5711765.161,              !- Vertex 2 Ycoordinate
    0,                        !- Vertex 2 Zcoordinate
    705090.968,               !- Vertex 3 Xcoordinate
    5711763.156,              !- Vertex 3 Ycoordinate
    0,                        !- Vertex 3 Zcoordinate
    705090.968,               !- Vertex 4 Xcoordinate
    5711763.156,              !- Vertex 4 Ycoordinate
    3;                        !- Vertex 4 Zcoordinate

BUILDINGSURFACE:DETAILED,
    Block 58bdcf3b3f3405dc_4 Storey 0 Wall 0005,    !- Name
    wall,                     !- Surface Type
    EU_wall_Construction,     !- Construction Name
    58bdcf3b3f3405dc_F0_dwelling_4,    !- Zone Name
    ,                         !- Space Name
    outdoors,                 !- Outside Boundary Condition
    ,                         !- Outside Boundary Condition Object
    SunExposed,               !- Sun Exposure
    WindExposed,              !- Wind Exposure
    autocalculate,            !- View Factor to Ground
    autocalculate,            !- Number of Vertices
    705090.968,               !- Vertex 1 Xcoordinate
    5711763.156,              !- Vertex 1 Ycoordinate
    3,                        !- Vertex 1 Zcoordinate
    705090.968,               !- Vertex 2 Xcoordinate
    5711763.156,              !- Vertex 2 Ycoordinate
    0,                        !- Vertex 2 Zcoordinate
    705091.859,               !- Vertex 3 Xcoordinate
    5711761.153,              !- Vertex 3 Ycoordinate
    0,                        !- Vertex 3 Zcoordinate
    705091.859,               !- Vertex 4 Xcoordinate
    5711761.153,              !- Vertex 4 Ycoordinate
    3;                        !- Vertex 4 Zcoordinate

BUILDINGSURFACE:DETAILED,
    Block 58bdcf3b3f3405dc_4 Storey 0 Floor 0001,    !- Name
    floor,                    !- Surface Type
    EU_floor_Construction,    !- Construction Name
    58bdcf3b3f3405dc_F0_dwelling_4,    !- Zone Name
    ,                         !- Space Name
    ground,                   !- Outside Boundary Condition
    ,                         !- Outside Boundary Condition Object
    NoSun,                    !- Sun Exposure
    NoWind,                   !- Wind Exposure
    autocalculate,            !- View Factor to Ground
    autocalculate,            !- Number of Vertices
    705091.859,               !- Vertex 1 Xcoordinate
    5711761.153,              !- Vertex 1 Ycoordinate
    0,                        !- Vertex 1 Zcoordinate
    705090.968,               !- Vertex 2 Xcoordinate
    5711763.156,              !- Vertex 2 Ycoordinate
    0,                        !- Vertex 2 Zcoordinate
    705085.959,               !- Vertex 3 Xcoordinate
    5711765.161,              !- Vertex 3 Ycoordinate
    0,                        !- Vertex 3 Zcoordinate
    705084.463,               !- Vertex 4 Xcoordinate
    5711761.425,              !- Vertex 4 Ycoordinate
    0,                        !- Vertex 4 Zcoordinate
    705088.457,               !- Vertex 5 Xcoordinate
    5711759.826,              !- Vertex 5 Ycoordinate
    0;                        !- Vertex 5 Zcoordinate

BUILDINGSURFACE:DETAILED,
    Block 58bdcf3b3f3405dc_4 Storey 1 Wall 0001,    !- Name
    wall,                     !- Surface Type
    EU_wall_Construction,     !- Construction Name
    58bdcf3b3f3405dc_F1_dwelling_4,    !- Zone Name
    ,                         !- Space Name
    Adiabatic,                !- Outside Boundary Condition
    ,                         !- Outside Boundary Condition Object
    NoSun,                    !- Sun Exposure
    NoWind,                   !- Wind Exposure
    autocalculate,            !- View Factor to Ground
    autocalculate,            !- Number of Vertices
    705091.859,               !- Vertex 1 Xcoordinate
    5711761.153,              !- Vertex 1 Ycoordinate
    6,                        !- Vertex 1 Zcoordinate
    705091.859,               !- Vertex 2 Xcoordinate
    5711761.153,              !- Vertex 2 Ycoordinate
    3,                        !- Vertex 2 Zcoordinate
    705088.457,               !- Vertex 3 Xcoordinate
    5711759.826,              !- Vertex 3 Ycoordinate
    3,                        !- Vertex 3 Zcoordinate
    705088.457,               !- Vertex 4 Xcoordinate
    5711759.826,              !- Vertex 4 Ycoordinate
    6;                        !- Vertex 4 Zcoordinate

BUILDINGSURFACE:DETAILED,
    Block 58bdcf3b3f3405dc_4 Storey 1 Wall 0002,    !- Name
    wall,                     !- Surface Type
    EU_wall_Construction,     !- Construction Name
    58bdcf3b3f3405dc_F1_dwelling_4,    !- Zone Name
    ,                         !- Space Name
    outdoors,                 !- Outside Boundary Condition
    ,                         !- Outside Boundary Condition Object
    SunExposed,               !- Sun Exposure
    WindExposed,              !- Wind Exposure
    autocalculate,            !- View Factor to Ground
    autocalculate,            !- Number of Vertices
    705088.457,               !- Vertex 1 Xcoordinate
    5711759.826,              !- Vertex 1 Ycoordinate
    6,                        !- Vertex 1 Zcoordinate
    705088.457,               !- Vertex 2 Xcoordinate
    5711759.826,              !- Vertex 2 Ycoordinate
    3,                        !- Vertex 2 Zcoordinate
    705084.463,               !- Vertex 3 Xcoordinate
    5711761.425,              !- Vertex 3 Ycoordinate
    3,                        !- Vertex 3 Zcoordinate
    705084.463,               !- Vertex 4 Xcoordinate
    5711761.425,              !- Vertex 4 Ycoordinate
    6;                        !- Vertex 4 Zcoordinate

BUILDINGSURFACE:DETAILED,
    Block 58bdcf3b3f3405dc_4 Storey 1 Wall 0004,    !- Name
    wall,                     !- Surface Type
    EU_wall_Construction,     !- Construction Name
    58bdcf3b3f3405dc_F1_dwelling_4,    !- Zone Name
    ,                         !- Space Name
    outdoors,                 !- Outside Boundary Condition
    ,                         !- Outside Boundary Condition Object
    SunExposed,               !- Sun Exposure
    WindExposed,              !- Wind Exposure
    autocalculate,            !- View Factor to Ground
    autocalculate,            !- Number of Vertices
    705085.959,               !- Vertex 1 Xcoordinate
    5711765.161,              !- Vertex 1 Ycoordinate
    6,                        !- Vertex 1 Zcoordinate
    705085.959,               !- Vertex 2 Xcoordinate
    5711765.161,              !- Vertex 2 Ycoordinate
    3,                        !- Vertex 2 Zcoordinate
    705090.968,               !- Vertex 3 Xcoordinate
    5711763.156,              !- Vertex 3 Ycoordinate
    3,                        !- Vertex 3 Zcoordinate
    705090.968,               !- Vertex 4 Xcoordinate
    5711763.156,              !- Vertex 4 Ycoordinate
    6;                        !- Vertex 4 Zcoordinate

BUILDINGSURFACE:DETAILED,
    Block 58bdcf3b3f3405dc_4 Storey 1 Wall 0005,    !- Name
    wall,                     !- Surface Type
    EU_wall_Construction,     !- Construction Name
    58bdcf3b3f3405dc_F1_dwelling_4,    !- Zone Name
    ,                         !- Space Name
    outdoors,                 !- Outside Boundary Condition
    ,                         !- Outside Boundary Condition Object
    SunExposed,               !- Sun Exposure
    WindExposed,              !- Wind Exposure
    autocalculate,            !- View Factor to Ground
    autocalculate,            !- Number of Vertices
    705090.968,               !- Vertex 1 Xcoordinate
    5711763.156,              !- Vertex 1 Ycoordinate
    6,                        !- Vertex 1 Zcoordinate
    705090.968,               !- Vertex 2 Xcoordinate
    5711763.156,              !- Vertex 2 Ycoordinate
    3,                        !- Vertex 2 Zcoordinate
    705091.859,               !- Vertex 3 Xcoordinate
    5711761.153,              !- Vertex 3 Ycoordinate
    3,                        !- Vertex 3 Zcoordinate
    705091.859,               !- Vertex 4 Xcoordinate
    5711761.153,              !- Vertex 4 Ycoordinate
    6;                        !- Vertex 4 Zcoordinate

BUILDINGSURFACE:DETAILED,
    Block 58bdcf3b3f3405dc_4 Storey 2 Wall 0001,    !- Name
    wall,                     !- Surface Type
    EU_wall_Construction,     !- Construction Name
    58bdcf3b3f3405dc_F2_dwelling_4,    !- Zone Name
    ,                         !- Space Name
    Adiabatic,                !- Outside Boundary Condition
    ,                         !- Outside Boundary Condition Object
    NoSun,                    !- Sun Exposure
    NoWind,                   !- Wind Exposure
    autocalculate,            !- View Factor to Ground
    autocalculate,            !- Number of Vertices
    705091.859,               !- Vertex 1 Xcoordinate
    5711761.153,              !- Vertex 1 Ycoordinate
    9,                        !- Vertex 1 Zcoordinate
    705091.859,               !- Vertex 2 Xcoordinate
    5711761.153,              !- Vertex 2 Ycoordinate
    6,                        !- Vertex 2 Zcoordinate
    705088.457,               !- Vertex 3 Xcoordinate
    5711759.826,              !- Vertex 3 Ycoordinate
    6,                        !- Vertex 3 Zcoordinate
    705088.457,               !- Vertex 4 Xcoordinate
    5711759.826,              !- Vertex 4 Ycoordinate
    9;                        !- Vertex 4 Zcoordinate

BUILDINGSURFACE:DETAILED,
    Block 58bdcf3b3f3405dc_4 Storey 2 Wall 0002,    !- Name
    wall,                     !- Surface Type
    EU_wall_Construction,     !- Construction Name
    58bdcf3b3f3405dc_F2_dwelling_4,    !- Zone Name
    ,                         !- Space Name
    outdoors,                 !- Outside Boundary Condition
    ,                         !- Outside Boundary Condition Object
    SunExposed,               !- Sun Exposure
    WindExposed,              !- Wind Exposure
    autocalculate,            !- View Factor to Ground
    autocalculate,            !- Number of Vertices
    705088.457,               !- Vertex 1 Xcoordinate
    5711759.826,              !- Vertex 1 Ycoordinate
    9,                        !- Vertex 1 Zcoordinate
    705088.457,               !- Vertex 2 Xcoordinate
    5711759.826,              !- Vertex 2 Ycoordinate
    6,                        !- Vertex 2 Zcoordinate
    705084.463,               !- Vertex 3 Xcoordinate
    5711761.425,              !- Vertex 3 Ycoordinate
    6,                        !- Vertex 3 Zcoordinate
    705084.463,               !- Vertex 4 Xcoordinate
    5711761.425,              !- Vertex 4 Ycoordinate
    9;                        !- Vertex 4 Zcoordinate

BUILDINGSURFACE:DETAILED,
    Block 58bdcf3b3f3405dc_4 Storey 2 Wall 0004,    !- Name
    wall,                     !- Surface Type
    EU_wall_Construction,     !- Construction Name
    58bdcf3b3f3405dc_F2_dwelling_4,    !- Zone Name
    ,                         !- Space Name
    outdoors,                 !- Outside Boundary Condition
    ,                         !- Outside Boundary Condition Object
    SunExposed,               !- Sun Exposure
    WindExposed,              !- Wind Exposure
    autocalculate,            !- View Factor to Ground
    autocalculate,            !- Number of Vertices
    705085.959,               !- Vertex 1 Xcoordinate
    5711765.161,              !- Vertex 1 Ycoordinate
    9,                        !- Vertex 1 Zcoordinate
    705085.959,               !- Vertex 2 Xcoordinate
    5711765.161,              !- Vertex 2 Ycoordinate
    6,                        !- Vertex 2 Zcoordinate
    705090.968,               !- Vertex 3 Xcoordinate
    5711763.156,              !- Vertex 3 Ycoordinate
    6,                        !- Vertex 3 Zcoordinate
    705090.968,               !- Vertex 4 Xcoordinate
    5711763.156,              !- Vertex 4 Ycoordinate
    9;                        !- Vertex 4 Zcoordinate

BUILDINGSURFACE:DETAILED,
    Block 58bdcf3b3f3405dc_4 Storey 2 Wall 0005,    !- Name
    wall,                     !- Surface Type
    EU_wall_Construction,     !- Construction Name
    58bdcf3b3f3405dc_F2_dwelling_4,    !- Zone Name
    ,                         !- Space Name
    outdoors,                 !- Outside Boundary Condition
    ,                         !- Outside Boundary Condition Object
    SunExposed,               !- Sun Exposure
    WindExposed,              !- Wind Exposure
    autocalculate,            !- View Factor to Ground
    autocalculate,            !- Number of Vertices
    705090.968,               !- Vertex 1 Xcoordinate
    5711763.156,              !- Vertex 1 Ycoordinate
    9,                        !- Vertex 1 Zcoordinate
    705090.968,               !- Vertex 2 Xcoordinate
    5711763.156,              !- Vertex 2 Ycoordinate
    6,                        !- Vertex 2 Zcoordinate
    705091.859,               !- Vertex 3 Xcoordinate
    5711761.153,              !- Vertex 3 Ycoordinate
    6,                        !- Vertex 3 Zcoordinate
    705091.859,               !- Vertex 4 Xcoordinate
    5711761.153,              !- Vertex 4 Ycoordinate
    9;                        !- Vertex 4 Zcoordinate

BUILDINGSURFACE:DETAILED,
    Block 58bdcf3b3f3405dc_4 Storey 2 Roof 0001,    !- Name
    roof,                     !- Surface Type
    EU_roof_Construction,     !- Construction Name
    58bdcf3b3f3405dc_F2_dwelling_4,    !- Zone Name
    ,                         !- Space Name
    outdoors,                 !- Outside Boundary Condition
    ,                         !- Outside Boundary Condition Object
    NoSun,                    !- Sun Exposure
    WindExposed,              !- Wind Exposure
    autocalculate,            !- View Factor to Ground
    autocalculate,            !- Number of Vertices
    705090.968,               !- Vertex 1 Xcoordinate
    5711763.156,              !- Vertex 1 Ycoordinate
    9,                        !- Vertex 1 Zcoordinate
    705091.859,               !- Vertex 2 Xcoordinate
    5711761.153,              !- Vertex 2 Ycoordinate
    9,                        !- Vertex 2 Zcoordinate
    705088.457,               !- Vertex 3 Xcoordinate
    5711759.826,              !- Vertex 3 Ycoordinate
    9,                        !- Vertex 3 Zcoordinate
    705084.463,               !- Vertex 4 Xcoordinate
    5711761.425,              !- Vertex 4 Ycoordinate
    9,                        !- Vertex 4 Zcoordinate
    705085.959,               !- Vertex 5 Xcoordinate
    5711765.161,              !- Vertex 5 Ycoordinate
    9;                        !- Vertex 5 Zcoordinate

BUILDINGSURFACE:DETAILED,
    Block 58bdcf3b3f3405dc_5 Storey 0 Wall 0001,    !- Name
    wall,                     !- Surface Type
    EU_wall_Construction,     !- Construction Name
    58bdcf3b3f3405dc_F0_dwelling_5,    !- Zone Name
    ,                         !- Space Name
    outdoors,                 !- Outside Boundary Condition
    ,                         !- Outside Boundary Condition Object
    SunExposed,               !- Sun Exposure
    WindExposed,              !- Wind Exposure
    autocalculate,            !- View Factor to Ground
    autocalculate,            !- Number of Vertices
    705090.968,               !- Vertex 1 Xcoordinate
    5711763.156,              !- Vertex 1 Ycoordinate
    3,                        !- Vertex 1 Zcoordinate
    705090.968,               !- Vertex 2 Xcoordinate
    5711763.156,              !- Vertex 2 Ycoordinate
    0,                        !- Vertex 2 Zcoordinate
    705082.178,               !- Vertex 3 Xcoordinate
    5711766.675,              !- Vertex 3 Ycoordinate
    0,                        !- Vertex 3 Zcoordinate
    705082.178,               !- Vertex 4 Xcoordinate
    5711766.675,              !- Vertex 4 Ycoordinate
    3;                        !- Vertex 4 Zcoordinate

BUILDINGSURFACE:DETAILED,
    Block 58bdcf3b3f3405dc_5 Storey 0 Wall 0002,    !- Name
    wall,                     !- Surface Type
    EU_wall_Construction,     !- Construction Name
    58bdcf3b3f3405dc_F0_dwelling_5,    !- Zone Name
    ,                         !- Space Name
    outdoors,                 !- Outside Boundary Condition
    ,                         !- Outside Boundary Condition Object
    SunExposed,               !- Sun Exposure
    WindExposed,              !- Wind Exposure
    autocalculate,            !- View Factor to Ground
    autocalculate,            !- Number of Vertices
    705082.178,               !- Vertex 1 Xcoordinate
    5711766.675,              !- Vertex 1 Ycoordinate
    3,                        !- Vertex 1 Zcoordinate
    705082.178,               !- Vertex 2 Xcoordinate
    5711766.675,              !- Vertex 2 Ycoordinate
    0,                        !- Vertex 2 Zcoordinate
    705085.693,               !- Vertex 3 Xcoordinate
    5711768.454,              !- Vertex 3 Ycoordinate
    0,                        !- Vertex 3 Zcoordinate
    705085.693,               !- Vertex 4 Xcoordinate
    5711768.454,              !- Vertex 4 Ycoordinate
    3;                        !- Vertex 4 Zcoordinate

BUILDINGSURFACE:DETAILED,
    Block 58bdcf3b3f3405dc_5 Storey 0 Wall 0003,    !- Name
    wall,                     !- Surface Type
    EU_wall_Construction,     !- Construction Name
    58bdcf3b3f3405dc_F0_dwelling_5,    !- Zone Name
    ,                         !- Space Name
    outdoors,                 !- Outside Boundary Condition
    ,                         !- Outside Boundary Condition Object
    SunExposed,               !- Sun Exposure
    WindExposed,              !- Wind Exposure
    autocalculate,            !- View Factor to Ground
    autocalculate,            !- Number of Vertices
    705085.693,               !- Vertex 1 Xcoordinate
    5711768.454,              !- Vertex 1 Ycoordinate
    3,                        !- Vertex 1 Zcoordinate
    705085.693,               !- Vertex 2 Xcoordinate
    5711768.454,              !- Vertex 2 Ycoordinate
    0,                        !- Vertex 2 Zcoordinate
    705088.068,               !- Vertex 3 Xcoordinate
    5711769.674,              !- Vertex 3 Ycoordinate
    0,                        !- Vertex 3 Zcoordinate
    705088.068,               !- Vertex 4 Xcoordinate
    5711769.674,              !- Vertex 4 Ycoordinate
    3;                        !- Vertex 4 Zcoordinate

BUILDINGSURFACE:DETAILED,
    Block 58bdcf3b3f3405dc_5 Storey 0 Wall 0004,    !- Name
    wall,                     !- Surface Type
    EU_wall_Construction,     !- Construction Name
    58bdcf3b3f3405dc_F0_dwelling_5,    !- Zone Name
    ,                         !- Space Name
    outdoors,                 !- Outside Boundary Condition
    ,                         !- Outside Boundary Condition Object
    SunExposed,               !- Sun Exposure
    WindExposed,              !- Wind Exposure
    autocalculate,            !- View Factor to Ground
    autocalculate,            !- Number of Vertices
    705088.068,               !- Vertex 1 Xcoordinate
    5711769.674,              !- Vertex 1 Ycoordinate
    3,                        !- Vertex 1 Zcoordinate
    705088.068,               !- Vertex 2 Xcoordinate
    5711769.674,              !- Vertex 2 Ycoordinate
    0,                        !- Vertex 2 Zcoordinate
    705090.968,               !- Vertex 3 Xcoordinate
    5711763.156,              !- Vertex 3 Ycoordinate
    0,                        !- Vertex 3 Zcoordinate
    705090.968,               !- Vertex 4 Xcoordinate
    5711763.156,              !- Vertex 4 Ycoordinate
    3;                        !- Vertex 4 Zcoordinate

BUILDINGSURFACE:DETAILED,
    Block 58bdcf3b3f3405dc_5 Storey 0 Floor 0001,    !- Name
    floor,                    !- Surface Type
    EU_floor_Construction,    !- Construction Name
    58bdcf3b3f3405dc_F0_dwelling_5,    !- Zone Name
    ,                         !- Space Name
    ground,                   !- Outside Boundary Condition
    ,                         !- Outside Boundary Condition Object
    NoSun,                    !- Sun Exposure
    NoWind,                   !- Wind Exposure
    autocalculate,            !- View Factor to Ground
    autocalculate,            !- Number of Vertices
    705090.968,               !- Vertex 1 Xcoordinate
    5711763.156,              !- Vertex 1 Ycoordinate
    0,                        !- Vertex 1 Zcoordinate
    705088.068,               !- Vertex 2 Xcoordinate
    5711769.674,              !- Vertex 2 Ycoordinate
    0,                        !- Vertex 2 Zcoordinate
    705085.693,               !- Vertex 3 Xcoordinate
    5711768.454,              !- Vertex 3 Ycoordinate
    0,                        !- Vertex 3 Zcoordinate
    705082.178,               !- Vertex 4 Xcoordinate
    5711766.675,              !- Vertex 4 Ycoordinate
    0;                        !- Vertex 4 Zcoordinate

BUILDINGSURFACE:DETAILED,
    Block 58bdcf3b3f3405dc_5 Storey 1 Wall 0001,    !- Name
    wall,                     !- Surface Type
    EU_wall_Construction,     !- Construction Name
    58bdcf3b3f3405dc_F1_dwelling_5,    !- Zone Name
    ,                         !- Space Name
    outdoors,                 !- Outside Boundary Condition
    ,                         !- Outside Boundary Condition Object
    SunExposed,               !- Sun Exposure
    WindExposed,              !- Wind Exposure
    autocalculate,            !- View Factor to Ground
    autocalculate,            !- Number of Vertices
    705090.968,               !- Vertex 1 Xcoordinate
    5711763.156,              !- Vertex 1 Ycoordinate
    6,                        !- Vertex 1 Zcoordinate
    705090.968,               !- Vertex 2 Xcoordinate
    5711763.156,              !- Vertex 2 Ycoordinate
    3,                        !- Vertex 2 Zcoordinate
    705082.178,               !- Vertex 3 Xcoordinate
    5711766.675,              !- Vertex 3 Ycoordinate
    3,                        !- Vertex 3 Zcoordinate
    705082.178,               !- Vertex 4 Xcoordinate
    5711766.675,              !- Vertex 4 Ycoordinate
    6;                        !- Vertex 4 Zcoordinate

BUILDINGSURFACE:DETAILED,
    Block 58bdcf3b3f3405dc_5 Storey 1 Wall 0002,    !- Name
    wall,                     !- Surface Type
    EU_wall_Construction,     !- Construction Name
    58bdcf3b3f3405dc_F1_dwelling_5,    !- Zone Name
    ,                         !- Space Name
    outdoors,                 !- Outside Boundary Condition
    ,                         !- Outside Boundary Condition Object
    SunExposed,               !- Sun Exposure
    WindExposed,              !- Wind Exposure
    autocalculate,            !- View Factor to Ground
    autocalculate,            !- Number of Vertices
    705082.178,               !- Vertex 1 Xcoordinate
    5711766.675,              !- Vertex 1 Ycoordinate
    6,                        !- Vertex 1 Zcoordinate
    705082.178,               !- Vertex 2 Xcoordinate
    5711766.675,              !- Vertex 2 Ycoordinate
    3,                        !- Vertex 2 Zcoordinate
    705085.693,               !- Vertex 3 Xcoordinate
    5711768.454,              !- Vertex 3 Ycoordinate
    3,                        !- Vertex 3 Zcoordinate
    705085.693,               !- Vertex 4 Xcoordinate
    5711768.454,              !- Vertex 4 Ycoordinate
    6;                        !- Vertex 4 Zcoordinate

BUILDINGSURFACE:DETAILED,
    Block 58bdcf3b3f3405dc_5 Storey 1 Wall 0003,    !- Name
    wall,                     !- Surface Type
    EU_wall_Construction,     !- Construction Name
    58bdcf3b3f3405dc_F1_dwelling_5,    !- Zone Name
    ,                         !- Space Name
    outdoors,                 !- Outside Boundary Condition
    ,                         !- Outside Boundary Condition Object
    SunExposed,               !- Sun Exposure
    WindExposed,              !- Wind Exposure
    autocalculate,            !- View Factor to Ground
    autocalculate,            !- Number of Vertices
    705085.693,               !- Vertex 1 Xcoordinate
    5711768.454,              !- Vertex 1 Ycoordinate
    6,                        !- Vertex 1 Zcoordinate
    705085.693,               !- Vertex 2 Xcoordinate
    5711768.454,              !- Vertex 2 Ycoordinate
    3,                        !- Vertex 2 Zcoordinate
    705088.068,               !- Vertex 3 Xcoordinate
    5711769.674,              !- Vertex 3 Ycoordinate
    3,                        !- Vertex 3 Zcoordinate
    705088.068,               !- Vertex 4 Xcoordinate
    5711769.674,              !- Vertex 4 Ycoordinate
    6;                        !- Vertex 4 Zcoordinate

BUILDINGSURFACE:DETAILED,
    Block 58bdcf3b3f3405dc_5 Storey 1 Wall 0004,    !- Name
    wall,                     !- Surface Type
    EU_wall_Construction,     !- Construction Name
    58bdcf3b3f3405dc_F1_dwelling_5,    !- Zone Name
    ,                         !- Space Name
    outdoors,                 !- Outside Boundary Condition
    ,                         !- Outside Boundary Condition Object
    SunExposed,               !- Sun Exposure
    WindExposed,              !- Wind Exposure
    autocalculate,            !- View Factor to Ground
    autocalculate,            !- Number of Vertices
    705088.068,               !- Vertex 1 Xcoordinate
    5711769.674,              !- Vertex 1 Ycoordinate
    6,                        !- Vertex 1 Zcoordinate
    705088.068,               !- Vertex 2 Xcoordinate
    5711769.674,              !- Vertex 2 Ycoordinate
    3,                        !- Vertex 2 Zcoordinate
    705090.968,               !- Vertex 3 Xcoordinate
    5711763.156,              !- Vertex 3 Ycoordinate
    3,                        !- Vertex 3 Zcoordinate
    705090.968,               !- Vertex 4 Xcoordinate
    5711763.156,              !- Vertex 4 Ycoordinate
    6;                        !- Vertex 4 Zcoordinate

BUILDINGSURFACE:DETAILED,
    Block 58bdcf3b3f3405dc_5 Storey 1 Roof 0001,    !- Name
    roof,                     !- Surface Type
    EU_roof_Construction,     !- Construction Name
    58bdcf3b3f3405dc_F1_dwelling_5,    !- Zone Name
    ,                         !- Space Name
    outdoors,                 !- Outside Boundary Condition
    ,                         !- Outside Boundary Condition Object
    NoSun,                    !- Sun Exposure
    WindExposed,              !- Wind Exposure
    autocalculate,            !- View Factor to Ground
    autocalculate,            !- Number of Vertices
    705088.068,               !- Vertex 1 Xcoordinate
    5711769.674,              !- Vertex 1 Ycoordinate
    6,                        !- Vertex 1 Zcoordinate
    705090.968,               !- Vertex 2 Xcoordinate
    5711763.156,              !- Vertex 2 Ycoordinate
    6,                        !- Vertex 2 Zcoordinate
    705082.178,               !- Vertex 3 Xcoordinate
    5711766.675,              !- Vertex 3 Ycoordinate
    6,                        !- Vertex 3 Zcoordinate
    705085.693,               !- Vertex 4 Xcoordinate
    5711768.454,              !- Vertex 4 Ycoordinate
    6;                        !- Vertex 4 Zcoordinate

BUILDINGSURFACE:DETAILED,
    Block 58bdcf3b3f3405dc_0 Storey 0 Ceiling 0001_1,    !- Name
    ceiling,                  !- Surface Type
    EU_floor_Construction,    !- Construction Name
    58bdcf3b3f3405dc_F0_dwelling_0,    !- Zone Name
    ,                         !- Space Name
    Surface,                  !- Outside Boundary Condition
    Block 58bdcf3b3f3405dc_0 Storey 1 Floor 0001_1,    !- Outside Boundary Condition Object
    NoSun,                    !- Sun Exposure
    NoWind,                   !- Wind Exposure
    autocalculate,            !- View Factor to Ground
    autocalculate,            !- Number of Vertices
    705081.696,               !- Vertex 1 Xcoordinate
    5711757.189,              !- Vertex 1 Ycoordinate
    3,                        !- Vertex 1 Zcoordinate
    705078.48,                !- Vertex 2 Xcoordinate
    5711755.935,              !- Vertex 2 Ycoordinate
    3,                        !- Vertex 2 Zcoordinate
    705073.8089999999,        !- Vertex 3 Xcoordinate
    5711753.942,              !- Vertex 3 Ycoordinate
    3,                        !- Vertex 3 Zcoordinate
    705072.4749999996,        !- Vertex 4 Xcoordinate
    5711757.217,              !- Vertex 4 Ycoordinate
    3,                        !- Vertex 4 Zcoordinate
    705076.943,               !- Vertex 5 Xcoordinate
    5711759.092,              !- Vertex 5 Ycoordinate
    3;                        !- Vertex 5 Zcoordinate

BUILDINGSURFACE:DETAILED,
    Block 58bdcf3b3f3405dc_0 Storey 1 Floor 0001_1,    !- Name
    floor,                    !- Surface Type
    EU_floor_Construction,    !- Construction Name
    58bdcf3b3f3405dc_F1_dwelling_0,    !- Zone Name
    ,                         !- Space Name
    Surface,                  !- Outside Boundary Condition
    Block 58bdcf3b3f3405dc_0 Storey 0 Ceiling 0001_1,    !- Outside Boundary Condition Object
    NoSun,                    !- Sun Exposure
    NoWind,                   !- Wind Exposure
    autocalculate,            !- View Factor to Ground
    autocalculate,            !- Number of Vertices
    705081.696,               !- Vertex 1 Xcoordinate
    5711757.189,              !- Vertex 1 Ycoordinate
    3,                        !- Vertex 1 Zcoordinate
    705076.943,               !- Vertex 2 Xcoordinate
    5711759.092,              !- Vertex 2 Ycoordinate
    3,                        !- Vertex 2 Zcoordinate
    705072.4749999996,        !- Vertex 3 Xcoordinate
    5711757.217,              !- Vertex 3 Ycoordinate
    3,                        !- Vertex 3 Zcoordinate
    705073.8089999999,        !- Vertex 4 Xcoordinate
    5711753.942,              !- Vertex 4 Ycoordinate
    3,                        !- Vertex 4 Zcoordinate
    705078.48,                !- Vertex 5 Xcoordinate
    5711755.935,              !- Vertex 5 Ycoordinate
    3;                        !- Vertex 5 Zcoordinate

BUILDINGSURFACE:DETAILED,
    Block 58bdcf3b3f3405dc_0 Storey 1 Ceiling 0001_1,    !- Name
    ceiling,                  !- Surface Type
    EU_floor_Construction,    !- Construction Name
    58bdcf3b3f3405dc_F1_dwelling_0,    !- Zone Name
    ,                         !- Space Name
    Surface,                  !- Outside Boundary Condition
    Block 58bdcf3b3f3405dc_0 Storey 2 Floor 0001_1,    !- Outside Boundary Condition Object
    NoSun,                    !- Sun Exposure
    NoWind,                   !- Wind Exposure
    autocalculate,            !- View Factor to Ground
    autocalculate,            !- Number of Vertices
    705081.696,               !- Vertex 1 Xcoordinate
    5711757.189,              !- Vertex 1 Ycoordinate
    6,                        !- Vertex 1 Zcoordinate
    705078.48,                !- Vertex 2 Xcoordinate
    5711755.935,              !- Vertex 2 Ycoordinate
    6,                        !- Vertex 2 Zcoordinate
    705073.8089999999,        !- Vertex 3 Xcoordinate
    5711753.942,              !- Vertex 3 Ycoordinate
    6,                        !- Vertex 3 Zcoordinate
    705072.4749999996,        !- Vertex 4 Xcoordinate
    5711757.217,              !- Vertex 4 Ycoordinate
    6,                        !- Vertex 4 Zcoordinate
    705076.943,               !- Vertex 5 Xcoordinate
    5711759.092,              !- Vertex 5 Ycoordinate
    6;                        !- Vertex 5 Zcoordinate

BUILDINGSURFACE:DETAILED,
    Block 58bdcf3b3f3405dc_0 Storey 2 Floor 0001_1,    !- Name
    floor,                    !- Surface Type
    EU_floor_Construction,    !- Construction Name
    58bdcf3b3f3405dc_F2_dwelling_0,    !- Zone Name
    ,                         !- Space Name
    Surface,                  !- Outside Boundary Condition
    Block 58bdcf3b3f3405dc_0 Storey 1 Ceiling 0001_1,    !- Outside Boundary Condition Object
    NoSun,                    !- Sun Exposure
    NoWind,                   !- Wind Exposure
    autocalculate,            !- View Factor to Ground
    autocalculate,            !- Number of Vertices
    705081.696,               !- Vertex 1 Xcoordinate
    5711757.189,              !- Vertex 1 Ycoordinate
    6,                        !- Vertex 1 Zcoordinate
    705076.943,               !- Vertex 2 Xcoordinate
    5711759.092,              !- Vertex 2 Ycoordinate
    6,                        !- Vertex 2 Zcoordinate
    705072.4749999996,        !- Vertex 3 Xcoordinate
    5711757.217,              !- Vertex 3 Ycoordinate
    6,                        !- Vertex 3 Zcoordinate
    705073.8089999999,        !- Vertex 4 Xcoordinate
    5711753.942,              !- Vertex 4 Ycoordinate
    6,                        !- Vertex 4 Zcoordinate
    705078.48,                !- Vertex 5 Xcoordinate
    5711755.935,              !- Vertex 5 Ycoordinate
    6;                        !- Vertex 5 Zcoordinate

BUILDINGSURFACE:DETAILED,
    Block 58bdcf3b3f3405dc_1 Storey 0 Wall 0001_1,    !- Name
    wall,                     !- Surface Type
    EU_wall_Construction,     !- Construction Name
    58bdcf3b3f3405dc_F0_dwelling_1,    !- Zone Name
    ,                         !- Space Name
    surface,                  !- Outside Boundary Condition
    Block 58bdcf3b3f3405dc_2 Storey 0 Wall 0002_1,    !- Outside Boundary Condition Object
    NoSun,                    !- Sun Exposure
    NoWind,                   !- Wind Exposure
    autocalculate,            !- View Factor to Ground
    autocalculate,            !- Number of Vertices
    705081.597,               !- Vertex 1 Xcoordinate
    5711762.572,              !- Vertex 1 Ycoordinate
    3,                        !- Vertex 1 Zcoordinate
    705081.597,               !- Vertex 2 Xcoordinate
    5711762.572,              !- Vertex 2 Ycoordinate
    0,                        !- Vertex 2 Zcoordinate
    705079.754,               !- Vertex 3 Xcoordinate
    5711757.967,              !- Vertex 3 Ycoordinate
    0,                        !- Vertex 3 Zcoordinate
    705079.754,               !- Vertex 4 Xcoordinate
    5711757.967,              !- Vertex 4 Ycoordinate
    3;                        !- Vertex 4 Zcoordinate

BUILDINGSURFACE:DETAILED,
    Block 58bdcf3b3f3405dc_2 Storey 0 Wall 0002_1,    !- Name
    wall,                     !- Surface Type
    EU_wall_Construction,     !- Construction Name
    58bdcf3b3f3405dc_F0_dwelling_2,    !- Zone Name
    ,                         !- Space Name
    surface,                  !- Outside Boundary Condition
    Block 58bdcf3b3f3405dc_1 Storey 0 Wall 0001_1,    !- Outside Boundary Condition Object
    NoSun,                    !- Sun Exposure
    NoWind,                   !- Wind Exposure
    autocalculate,            !- View Factor to Ground
    autocalculate,            !- Number of Vertices
    705079.754,               !- Vertex 1 Xcoordinate
    5711757.967,              !- Vertex 1 Ycoordinate
    3,                        !- Vertex 1 Zcoordinate
    705079.754,               !- Vertex 2 Xcoordinate
    5711757.967,              !- Vertex 2 Ycoordinate
    0,                        !- Vertex 2 Zcoordinate
    705081.597,               !- Vertex 3 Xcoordinate
    5711762.572,              !- Vertex 3 Ycoordinate
    0,                        !- Vertex 3 Zcoordinate
    705081.597,               !- Vertex 4 Xcoordinate
    5711762.572,              !- Vertex 4 Ycoordinate
    3;                        !- Vertex 4 Zcoordinate

BUILDINGSURFACE:DETAILED,
    Block 58bdcf3b3f3405dc_1 Storey 0 Ceiling 0001_1,    !- Name
    ceiling,                  !- Surface Type
    EU_floor_Construction,    !- Construction Name
    58bdcf3b3f3405dc_F0_dwelling_1,    !- Zone Name
    ,                         !- Space Name
    Surface,                  !- Outside Boundary Condition
    Block 58bdcf3b3f3405dc_1 Storey 1 Floor 0001_1,    !- Outside Boundary Condition Object
    NoSun,                    !- Sun Exposure
    NoWind,                   !- Wind Exposure
    autocalculate,            !- View Factor to Ground
    autocalculate,            !- Number of Vertices
    705081.5969999996,        !- Vertex 1 Xcoordinate
    5711762.572,              !- Vertex 1 Ycoordinate
    3,                        !- Vertex 1 Zcoordinate
    705079.7539999997,        !- Vertex 2 Xcoordinate
    5711757.967,              !- Vertex 2 Ycoordinate
    3,                        !- Vertex 2 Zcoordinate
    705076.943,               !- Vertex 3 Xcoordinate
    5711759.092,              !- Vertex 3 Ycoordinate
    3,                        !- Vertex 3 Zcoordinate
    705077.0859999997,        !- Vertex 4 Xcoordinate
    5711759.152,              !- Vertex 4 Ycoordinate
    3,                        !- Vertex 4 Zcoordinate
    705075.3169999998,        !- Vertex 5 Xcoordinate
    5711763.201,              !- Vertex 5 Ycoordinate
    3,                        !- Vertex 5 Zcoordinate
    705077.3959999997,        !- Vertex 6 Xcoordinate
    5711764.254,              !- Vertex 6 Ycoordinate
    3;                        !- Vertex 6 Zcoordinate

BUILDINGSURFACE:DETAILED,
    Block 58bdcf3b3f3405dc_1 Storey 1 Floor 0001_1,    !- Name
    floor,                    !- Surface Type
    EU_floor_Construction,    !- Construction Name
    58bdcf3b3f3405dc_F1_dwelling_1,    !- Zone Name
    ,                         !- Space Name
    Surface,                  !- Outside Boundary Condition
    Block 58bdcf3b3f3405dc_1 Storey 0 Ceiling 0001_1,    !- Outside Boundary Condition Object
    NoSun,                    !- Sun Exposure
    NoWind,                   !- Wind Exposure
    autocalculate,            !- View Factor to Ground
    autocalculate,            !- Number of Vertices
    705079.7539999997,        !- Vertex 1 Xcoordinate
    5711757.967,              !- Vertex 1 Ycoordinate
    3,                        !- Vertex 1 Zcoordinate
    705081.5969999996,        !- Vertex 2 Xcoordinate
    5711762.572,              !- Vertex 2 Ycoordinate
    3,                        !- Vertex 2 Zcoordinate
    705077.3959999997,        !- Vertex 3 Xcoordinate
    5711764.254,              !- Vertex 3 Ycoordinate
    3,                        !- Vertex 3 Zcoordinate
    705075.3169999998,        !- Vertex 4 Xcoordinate
    5711763.201,              !- Vertex 4 Ycoordinate
    3,                        !- Vertex 4 Zcoordinate
    705077.0859999997,        !- Vertex 5 Xcoordinate
    5711759.152,              !- Vertex 5 Ycoordinate
    3,                        !- Vertex 5 Zcoordinate
    705076.943,               !- Vertex 6 Xcoordinate
    5711759.092,              !- Vertex 6 Ycoordinate
    3;                        !- Vertex 6 Zcoordinate

BUILDINGSURFACE:DETAILED,
    Block 58bdcf3b3f3405dc_1 Storey 1 Wall 0001_1,    !- Name
    wall,                     !- Surface Type
    EU_wall_Construction,     !- Construction Name
    58bdcf3b3f3405dc_F1_dwelling_1,    !- Zone Name
    ,                         !- Space Name
    surface,                  !- Outside Boundary Condition
    Block 58bdcf3b3f3405dc_2 Storey 1 Wall 0002_1,    !- Outside Boundary Condition Object
    NoSun,                    !- Sun Exposure
    NoWind,                   !- Wind Exposure
    autocalculate,            !- View Factor to Ground
    autocalculate,            !- Number of Vertices
    705081.597,               !- Vertex 1 Xcoordinate
    5711762.572,              !- Vertex 1 Ycoordinate
    6,                        !- Vertex 1 Zcoordinate
    705081.597,               !- Vertex 2 Xcoordinate
    5711762.572,              !- Vertex 2 Ycoordinate
    3,                        !- Vertex 2 Zcoordinate
    705079.754,               !- Vertex 3 Xcoordinate
    5711757.967,              !- Vertex 3 Ycoordinate
    3,                        !- Vertex 3 Zcoordinate
    705079.754,               !- Vertex 4 Xcoordinate
    5711757.967,              !- Vertex 4 Ycoordinate
    6;                        !- Vertex 4 Zcoordinate

BUILDINGSURFACE:DETAILED,
    Block 58bdcf3b3f3405dc_2 Storey 1 Wall 0002_1,    !- Name
    wall,                     !- Surface Type
    EU_wall_Construction,     !- Construction Name
    58bdcf3b3f3405dc_F1_dwelling_2,    !- Zone Name
    ,                         !- Space Name
    surface,                  !- Outside Boundary Condition
    Block 58bdcf3b3f3405dc_1 Storey 1 Wall 0001_1,    !- Outside Boundary Condition Object
    NoSun,                    !- Sun Exposure
    NoWind,                   !- Wind Exposure
    autocalculate,            !- View Factor to Ground
    autocalculate,            !- Number of Vertices
    705079.754,               !- Vertex 1 Xcoordinate
    5711757.967,              !- Vertex 1 Ycoordinate
    6,                        !- Vertex 1 Zcoordinate
    705079.754,               !- Vertex 2 Xcoordinate
    5711757.967,              !- Vertex 2 Ycoordinate
    3,                        !- Vertex 2 Zcoordinate
    705081.597,               !- Vertex 3 Xcoordinate
    5711762.572,              !- Vertex 3 Ycoordinate
    3,                        !- Vertex 3 Zcoordinate
    705081.597,               !- Vertex 4 Xcoordinate
    5711762.572,              !- Vertex 4 Ycoordinate
    6;                        !- Vertex 4 Zcoordinate

BUILDINGSURFACE:DETAILED,
    Block 58bdcf3b3f3405dc_1 Storey 1 Ceiling 0001_1,    !- Name
    ceiling,                  !- Surface Type
    EU_floor_Construction,    !- Construction Name
    58bdcf3b3f3405dc_F1_dwelling_1,    !- Zone Name
    ,                         !- Space Name
    Surface,                  !- Outside Boundary Condition
    Block 58bdcf3b3f3405dc_1 Storey 2 Floor 0001_1,    !- Outside Boundary Condition Object
    NoSun,                    !- Sun Exposure
    NoWind,                   !- Wind Exposure
    autocalculate,            !- View Factor to Ground
    autocalculate,            !- Number of Vertices
    705081.5969999996,        !- Vertex 1 Xcoordinate
    5711762.572,              !- Vertex 1 Ycoordinate
    6,                        !- Vertex 1 Zcoordinate
    705079.7539999997,        !- Vertex 2 Xcoordinate
    5711757.967,              !- Vertex 2 Ycoordinate
    6,                        !- Vertex 2 Zcoordinate
    705076.943,               !- Vertex 3 Xcoordinate
    5711759.092,              !- Vertex 3 Ycoordinate
    6,                        !- Vertex 3 Zcoordinate
    705077.0859999997,        !- Vertex 4 Xcoordinate
    5711759.152,              !- Vertex 4 Ycoordinate
    6,                        !- Vertex 4 Zcoordinate
    705075.3169999998,        !- Vertex 5 Xcoordinate
    5711763.201,              !- Vertex 5 Ycoordinate
    6,                        !- Vertex 5 Zcoordinate
    705077.3959999997,        !- Vertex 6 Xcoordinate
    5711764.254,              !- Vertex 6 Ycoordinate
    6;                        !- Vertex 6 Zcoordinate

BUILDINGSURFACE:DETAILED,
    Block 58bdcf3b3f3405dc_1 Storey 2 Floor 0001_1,    !- Name
    floor,                    !- Surface Type
    EU_floor_Construction,    !- Construction Name
    58bdcf3b3f3405dc_F2_dwelling_1,    !- Zone Name
    ,                         !- Space Name
    Surface,                  !- Outside Boundary Condition
    Block 58bdcf3b3f3405dc_1 Storey 1 Ceiling 0001_1,    !- Outside Boundary Condition Object
    NoSun,                    !- Sun Exposure
    NoWind,                   !- Wind Exposure
    autocalculate,            !- View Factor to Ground
    autocalculate,            !- Number of Vertices
    705079.7539999997,        !- Vertex 1 Xcoordinate
    5711757.967,              !- Vertex 1 Ycoordinate
    6,                        !- Vertex 1 Zcoordinate
    705081.5969999996,        !- Vertex 2 Xcoordinate
    5711762.572,              !- Vertex 2 Ycoordinate
    6,                        !- Vertex 2 Zcoordinate
    705077.3959999997,        !- Vertex 3 Xcoordinate
    5711764.254,              !- Vertex 3 Ycoordinate
    6,                        !- Vertex 3 Zcoordinate
    705075.3169999998,        !- Vertex 4 Xcoordinate
    5711763.201,              !- Vertex 4 Ycoordinate
    6,                        !- Vertex 4 Zcoordinate
    705077.0859999997,        !- Vertex 5 Xcoordinate
    5711759.152,              !- Vertex 5 Ycoordinate
    6,                        !- Vertex 5 Zcoordinate
    705076.943,               !- Vertex 6 Xcoordinate
    5711759.092,              !- Vertex 6 Ycoordinate
    6;                        !- Vertex 6 Zcoordinate

BUILDINGSURFACE:DETAILED,
    Block 58bdcf3b3f3405dc_1 Storey 2 Wall 0001_1,    !- Name
    wall,                     !- Surface Type
    EU_wall_Construction,     !- Construction Name
    58bdcf3b3f3405dc_F2_dwelling_1,    !- Zone Name
    ,                         !- Space Name
    surface,                  !- Outside Boundary Condition
    Block 58bdcf3b3f3405dc_2 Storey 2 Wall 0002_1,    !- Outside Boundary Condition Object
    NoSun,                    !- Sun Exposure
    NoWind,                   !- Wind Exposure
    autocalculate,            !- View Factor to Ground
    autocalculate,            !- Number of Vertices
    705081.597,               !- Vertex 1 Xcoordinate
    5711762.572,              !- Vertex 1 Ycoordinate
    9,                        !- Vertex 1 Zcoordinate
    705081.597,               !- Vertex 2 Xcoordinate
    5711762.572,              !- Vertex 2 Ycoordinate
    6,                        !- Vertex 2 Zcoordinate
    705079.754,               !- Vertex 3 Xcoordinate
    5711757.967,              !- Vertex 3 Ycoordinate
    6,                        !- Vertex 3 Zcoordinate
    705079.754,               !- Vertex 4 Xcoordinate
    5711757.967,              !- Vertex 4 Ycoordinate
    9;                        !- Vertex 4 Zcoordinate

BUILDINGSURFACE:DETAILED,
    Block 58bdcf3b3f3405dc_2 Storey 2 Wall 0002_1,    !- Name
    wall,                     !- Surface Type
    EU_wall_Construction,     !- Construction Name
    58bdcf3b3f3405dc_F2_dwelling_2,    !- Zone Name
    ,                         !- Space Name
    surface,                  !- Outside Boundary Condition
    Block 58bdcf3b3f3405dc_1 Storey 2 Wall 0001_1,    !- Outside Boundary Condition Object
    NoSun,                    !- Sun Exposure
    NoWind,                   !- Wind Exposure
    autocalculate,            !- View Factor to Ground
    autocalculate,            !- Number of Vertices
    705079.754,               !- Vertex 1 Xcoordinate
    5711757.967,              !- Vertex 1 Ycoordinate
    9,                        !- Vertex 1 Zcoordinate
    705079.754,               !- Vertex 2 Xcoordinate
    5711757.967,              !- Vertex 2 Ycoordinate
    6,                        !- Vertex 2 Zcoordinate
    705081.597,               !- Vertex 3 Xcoordinate
    5711762.572,              !- Vertex 3 Ycoordinate
    6,                        !- Vertex 3 Zcoordinate
    705081.597,               !- Vertex 4 Xcoordinate
    5711762.572,              !- Vertex 4 Ycoordinate
    9;                        !- Vertex 4 Zcoordinate

BUILDINGSURFACE:DETAILED,
    Block 58bdcf3b3f3405dc_2 Storey 0 Ceiling 0001_1,    !- Name
    ceiling,                  !- Surface Type
    EU_floor_Construction,    !- Construction Name
    58bdcf3b3f3405dc_F0_dwelling_2,    !- Zone Name
    ,                         !- Space Name
    Surface,                  !- Outside Boundary Condition
    Block 58bdcf3b3f3405dc_2 Storey 1 Floor 0001_1,    !- Outside Boundary Condition Object
    NoSun,                    !- Sun Exposure
    NoWind,                   !- Wind Exposure
    autocalculate,            !- View Factor to Ground
    autocalculate,            !- Number of Vertices
    705088.4569999999,        !- Vertex 1 Xcoordinate
    5711759.826,              !- Vertex 1 Ycoordinate
    3,                        !- Vertex 1 Zcoordinate
    705081.696,               !- Vertex 2 Xcoordinate
    5711757.189,              !- Vertex 2 Ycoordinate
    3,                        !- Vertex 2 Zcoordinate
    705079.7539999997,        !- Vertex 3 Xcoordinate
    5711757.967,              !- Vertex 3 Ycoordinate
    3,                        !- Vertex 3 Zcoordinate
    705081.5969999996,        !- Vertex 4 Xcoordinate
    5711762.572,              !- Vertex 4 Ycoordinate
    3;                        !- Vertex 4 Zcoordinate

BUILDINGSURFACE:DETAILED,
    Block 58bdcf3b3f3405dc_2 Storey 1 Floor 0001_1,    !- Name
    floor,                    !- Surface Type
    EU_floor_Construction,    !- Construction Name
    58bdcf3b3f3405dc_F1_dwelling_2,    !- Zone Name
    ,                         !- Space Name
    Surface,                  !- Outside Boundary Condition
    Block 58bdcf3b3f3405dc_2 Storey 0 Ceiling 0001_1,    !- Outside Boundary Condition Object
    NoSun,                    !- Sun Exposure
    NoWind,                   !- Wind Exposure
    autocalculate,            !- View Factor to Ground
    autocalculate,            !- Number of Vertices
    705088.4569999999,        !- Vertex 1 Xcoordinate
    5711759.826,              !- Vertex 1 Ycoordinate
    3,                        !- Vertex 1 Zcoordinate
    705081.5969999996,        !- Vertex 2 Xcoordinate
    5711762.572,              !- Vertex 2 Ycoordinate
    3,                        !- Vertex 2 Zcoordinate
    705079.7539999997,        !- Vertex 3 Xcoordinate
    5711757.967,              !- Vertex 3 Ycoordinate
    3,                        !- Vertex 3 Zcoordinate
    705081.696,               !- Vertex 4 Xcoordinate
    5711757.189,              !- Vertex 4 Ycoordinate
    3;                        !- Vertex 4 Zcoordinate

BUILDINGSURFACE:DETAILED,
    Block 58bdcf3b3f3405dc_2 Storey 1 Ceiling 0001_1,    !- Name
    ceiling,                  !- Surface Type
    EU_floor_Construction,    !- Construction Name
    58bdcf3b3f3405dc_F1_dwelling_2,    !- Zone Name
    ,                         !- Space Name
    Surface,                  !- Outside Boundary Condition
    Block 58bdcf3b3f3405dc_2 Storey 2 Floor 0001_1,    !- Outside Boundary Condition Object
    NoSun,                    !- Sun Exposure
    NoWind,                   !- Wind Exposure
    autocalculate,            !- View Factor to Ground
    autocalculate,            !- Number of Vertices
    705088.4569999999,        !- Vertex 1 Xcoordinate
    5711759.826,              !- Vertex 1 Ycoordinate
    6,                        !- Vertex 1 Zcoordinate
    705081.696,               !- Vertex 2 Xcoordinate
    5711757.189,              !- Vertex 2 Ycoordinate
    6,                        !- Vertex 2 Zcoordinate
    705079.7539999997,        !- Vertex 3 Xcoordinate
    5711757.967,              !- Vertex 3 Ycoordinate
    6,                        !- Vertex 3 Zcoordinate
    705081.5969999996,        !- Vertex 4 Xcoordinate
    5711762.572,              !- Vertex 4 Ycoordinate
    6;                        !- Vertex 4 Zcoordinate

BUILDINGSURFACE:DETAILED,
    Block 58bdcf3b3f3405dc_2 Storey 2 Floor 0001_1,    !- Name
    floor,                    !- Surface Type
    EU_floor_Construction,    !- Construction Name
    58bdcf3b3f3405dc_F2_dwelling_2,    !- Zone Name
    ,                         !- Space Name
    Surface,                  !- Outside Boundary Condition
    Block 58bdcf3b3f3405dc_2 Storey 1 Ceiling 0001_1,    !- Outside Boundary Condition Object
    NoSun,                    !- Sun Exposure
    NoWind,                   !- Wind Exposure
    autocalculate,            !- View Factor to Ground
    autocalculate,            !- Number of Vertices
    705088.4569999999,        !- Vertex 1 Xcoordinate
    5711759.826,              !- Vertex 1 Ycoordinate
    6,                        !- Vertex 1 Zcoordinate
    705081.5969999996,        !- Vertex 2 Xcoordinate
    5711762.572,              !- Vertex 2 Ycoordinate
    6,                        !- Vertex 2 Zcoordinate
    705079.7539999997,        !- Vertex 3 Xcoordinate
    5711757.967,              !- Vertex 3 Ycoordinate
    6,                        !- Vertex 3 Zcoordinate
    705081.696,               !- Vertex 4 Xcoordinate
    5711757.189,              !- Vertex 4 Ycoordinate
    6;                        !- Vertex 4 Zcoordinate

BUILDINGSURFACE:DETAILED,
    Block 58bdcf3b3f3405dc_3 Storey 0 Wall 0004_1,    !- Name
    wall,                     !- Surface Type
    EU_wall_Construction,     !- Construction Name
    58bdcf3b3f3405dc_F0_dwelling_3,    !- Zone Name
    ,                         !- Space Name
    surface,                  !- Outside Boundary Condition
    Block 58bdcf3b3f3405dc_4 Storey 0 Wall 0003_1,    !- Outside Boundary Condition Object
    NoSun,                    !- Sun Exposure
    NoWind,                   !- Wind Exposure
    autocalculate,            !- View Factor to Ground
    autocalculate,            !- Number of Vertices
    705085.959,               !- Vertex 1 Xcoordinate
    5711765.161,              !- Vertex 1 Ycoordinate
    3,                        !- Vertex 1 Zcoordinate
    705085.959,               !- Vertex 2 Xcoordinate
    5711765.161,              !- Vertex 2 Ycoordinate
    0,                        !- Vertex 2 Zcoordinate
    705084.463,               !- Vertex 3 Xcoordinate
    5711761.425,              !- Vertex 3 Ycoordinate
    0,                        !- Vertex 3 Zcoordinate
    705084.463,               !- Vertex 4 Xcoordinate
    5711761.425,              !- Vertex 4 Ycoordinate
    3;                        !- Vertex 4 Zcoordinate

BUILDINGSURFACE:DETAILED,
    Block 58bdcf3b3f3405dc_4 Storey 0 Wall 0003_1,    !- Name
    wall,                     !- Surface Type
    EU_wall_Construction,     !- Construction Name
    58bdcf3b3f3405dc_F0_dwelling_4,    !- Zone Name
    ,                         !- Space Name
    surface,                  !- Outside Boundary Condition
    Block 58bdcf3b3f3405dc_3 Storey 0 Wall 0004_1,    !- Outside Boundary Condition Object
    NoSun,                    !- Sun Exposure
    NoWind,                   !- Wind Exposure
    autocalculate,            !- View Factor to Ground
    autocalculate,            !- Number of Vertices
    705084.463,               !- Vertex 1 Xcoordinate
    5711761.425,              !- Vertex 1 Ycoordinate
    3,                        !- Vertex 1 Zcoordinate
    705084.463,               !- Vertex 2 Xcoordinate
    5711761.425,              !- Vertex 2 Ycoordinate
    0,                        !- Vertex 2 Zcoordinate
    705085.959,               !- Vertex 3 Xcoordinate
    5711765.161,              !- Vertex 3 Ycoordinate
    0,                        !- Vertex 3 Zcoordinate
    705085.959,               !- Vertex 4 Xcoordinate
    5711765.161,              !- Vertex 4 Ycoordinate
    3;                        !- Vertex 4 Zcoordinate

BUILDINGSURFACE:DETAILED,
    Block 58bdcf3b3f3405dc_3 Storey 0 Ceiling 0001_1,    !- Name
    ceiling,                  !- Surface Type
    EU_floor_Construction,    !- Construction Name
    58bdcf3b3f3405dc_F0_dwelling_3,    !- Zone Name
    ,                         !- Space Name
    Surface,                  !- Outside Boundary Condition
    Block 58bdcf3b3f3405dc_3 Storey 1 Floor 0001_1,    !- Outside Boundary Condition Object
    NoSun,                    !- Sun Exposure
    NoWind,                   !- Wind Exposure
    autocalculate,            !- View Factor to Ground
    autocalculate,            !- Number of Vertices
    705085.9589999998,        !- Vertex 1 Xcoordinate
    5711765.161,              !- Vertex 1 Ycoordinate
    3,                        !- Vertex 1 Zcoordinate
    705084.463,               !- Vertex 2 Xcoordinate
    5711761.425,              !- Vertex 2 Ycoordinate
    3,                        !- Vertex 2 Zcoordinate
    705077.3959999997,        !- Vertex 3 Xcoordinate
    5711764.254,              !- Vertex 3 Ycoordinate
    3,                        !- Vertex 3 Zcoordinate
    705082.1779999998,        !- Vertex 4 Xcoordinate
    5711766.675,              !- Vertex 4 Ycoordinate
    3;                        !- Vertex 4 Zcoordinate

BUILDINGSURFACE:DETAILED,
    Block 58bdcf3b3f3405dc_3 Storey 1 Floor 0001_1,    !- Name
    floor,                    !- Surface Type
    EU_floor_Construction,    !- Construction Name
    58bdcf3b3f3405dc_F1_dwelling_3,    !- Zone Name
    ,                         !- Space Name
    Surface,                  !- Outside Boundary Condition
    Block 58bdcf3b3f3405dc_3 Storey 0 Ceiling 0001_1,    !- Outside Boundary Condition Object
    NoSun,                    !- Sun Exposure
    NoWind,                   !- Wind Exposure
    autocalculate,            !- View Factor to Ground
    autocalculate,            !- Number of Vertices
    705084.463,               !- Vertex 1 Xcoordinate
    5711761.425,              !- Vertex 1 Ycoordinate
    3,                        !- Vertex 1 Zcoordinate
    705085.9589999998,        !- Vertex 2 Xcoordinate
    5711765.161,              !- Vertex 2 Ycoordinate
    3,                        !- Vertex 2 Zcoordinate
    705082.1779999998,        !- Vertex 3 Xcoordinate
    5711766.675,              !- Vertex 3 Ycoordinate
    3,                        !- Vertex 3 Zcoordinate
    705077.3959999997,        !- Vertex 4 Xcoordinate
    5711764.254,              !- Vertex 4 Ycoordinate
    3;                        !- Vertex 4 Zcoordinate

BUILDINGSURFACE:DETAILED,
    Block 58bdcf3b3f3405dc_3 Storey 1 Wall 0004_1,    !- Name
    wall,                     !- Surface Type
    EU_wall_Construction,     !- Construction Name
    58bdcf3b3f3405dc_F1_dwelling_3,    !- Zone Name
    ,                         !- Space Name
    surface,                  !- Outside Boundary Condition
    Block 58bdcf3b3f3405dc_4 Storey 1 Wall 0003_1,    !- Outside Boundary Condition Object
    NoSun,                    !- Sun Exposure
    NoWind,                   !- Wind Exposure
    autocalculate,            !- View Factor to Ground
    autocalculate,            !- Number of Vertices
    705085.959,               !- Vertex 1 Xcoordinate
    5711765.161,              !- Vertex 1 Ycoordinate
    6,                        !- Vertex 1 Zcoordinate
    705085.959,               !- Vertex 2 Xcoordinate
    5711765.161,              !- Vertex 2 Ycoordinate
    3,                        !- Vertex 2 Zcoordinate
    705084.463,               !- Vertex 3 Xcoordinate
    5711761.425,              !- Vertex 3 Ycoordinate
    3,                        !- Vertex 3 Zcoordinate
    705084.463,               !- Vertex 4 Xcoordinate
    5711761.425,              !- Vertex 4 Ycoordinate
    6;                        !- Vertex 4 Zcoordinate

BUILDINGSURFACE:DETAILED,
    Block 58bdcf3b3f3405dc_4 Storey 1 Wall 0003_1,    !- Name
    wall,                     !- Surface Type
    EU_wall_Construction,     !- Construction Name
    58bdcf3b3f3405dc_F1_dwelling_4,    !- Zone Name
    ,                         !- Space Name
    surface,                  !- Outside Boundary Condition
    Block 58bdcf3b3f3405dc_3 Storey 1 Wall 0004_1,    !- Outside Boundary Condition Object
    NoSun,                    !- Sun Exposure
    NoWind,                   !- Wind Exposure
    autocalculate,            !- View Factor to Ground
    autocalculate,            !- Number of Vertices
    705084.463,               !- Vertex 1 Xcoordinate
    5711761.425,              !- Vertex 1 Ycoordinate
    6,                        !- Vertex 1 Zcoordinate
    705084.463,               !- Vertex 2 Xcoordinate
    5711761.425,              !- Vertex 2 Ycoordinate
    3,                        !- Vertex 2 Zcoordinate
    705085.959,               !- Vertex 3 Xcoordinate
    5711765.161,              !- Vertex 3 Ycoordinate
    3,                        !- Vertex 3 Zcoordinate
    705085.959,               !- Vertex 4 Xcoordinate
    5711765.161,              !- Vertex 4 Ycoordinate
    6;                        !- Vertex 4 Zcoordinate

BUILDINGSURFACE:DETAILED,
    Block 58bdcf3b3f3405dc_3 Storey 1 Ceiling 0001_1,    !- Name
    ceiling,                  !- Surface Type
    EU_floor_Construction,    !- Construction Name
    58bdcf3b3f3405dc_F1_dwelling_3,    !- Zone Name
    ,                         !- Space Name
    Surface,                  !- Outside Boundary Condition
    Block 58bdcf3b3f3405dc_3 Storey 2 Floor 0001_1,    !- Outside Boundary Condition Object
    NoSun,                    !- Sun Exposure
    NoWind,                   !- Wind Exposure
    autocalculate,            !- View Factor to Ground
    autocalculate,            !- Number of Vertices
    705085.9589999998,        !- Vertex 1 Xcoordinate
    5711765.161,              !- Vertex 1 Ycoordinate
    6,                        !- Vertex 1 Zcoordinate
    705084.463,               !- Vertex 2 Xcoordinate
    5711761.425,              !- Vertex 2 Ycoordinate
    6,                        !- Vertex 2 Zcoordinate
    705077.3959999997,        !- Vertex 3 Xcoordinate
    5711764.254,              !- Vertex 3 Ycoordinate
    6,                        !- Vertex 3 Zcoordinate
    705082.1779999998,        !- Vertex 4 Xcoordinate
    5711766.675,              !- Vertex 4 Ycoordinate
    6;                        !- Vertex 4 Zcoordinate

BUILDINGSURFACE:DETAILED,
    Block 58bdcf3b3f3405dc_3 Storey 2 Floor 0001_1,    !- Name
    floor,                    !- Surface Type
    EU_floor_Construction,    !- Construction Name
    58bdcf3b3f3405dc_F2_dwelling_3,    !- Zone Name
    ,                         !- Space Name
    Surface,                  !- Outside Boundary Condition
    Block 58bdcf3b3f3405dc_3 Storey 1 Ceiling 0001_1,    !- Outside Boundary Condition Object
    NoSun,                    !- Sun Exposure
    NoWind,                   !- Wind Exposure
    autocalculate,            !- View Factor to Ground
    autocalculate,            !- Number of Vertices
    705084.463,               !- Vertex 1 Xcoordinate
    5711761.425,              !- Vertex 1 Ycoordinate
    6,                        !- Vertex 1 Zcoordinate
    705085.9589999998,        !- Vertex 2 Xcoordinate
    5711765.161,              !- Vertex 2 Ycoordinate
    6,                        !- Vertex 2 Zcoordinate
    705082.1779999998,        !- Vertex 3 Xcoordinate
    5711766.675,              !- Vertex 3 Ycoordinate
    6,                        !- Vertex 3 Zcoordinate
    705077.3959999997,        !- Vertex 4 Xcoordinate
    5711764.254,              !- Vertex 4 Ycoordinate
    6;                        !- Vertex 4 Zcoordinate

BUILDINGSURFACE:DETAILED,
    Block 58bdcf3b3f3405dc_3 Storey 2 Wall 0004_1,    !- Name
    wall,                     !- Surface Type
    EU_wall_Construction,     !- Construction Name
    58bdcf3b3f3405dc_F2_dwelling_3,    !- Zone Name
    ,                         !- Space Name
    surface,                  !- Outside Boundary Condition
    Block 58bdcf3b3f3405dc_4 Storey 2 Wall 0003_1,    !- Outside Boundary Condition Object
    NoSun,                    !- Sun Exposure
    NoWind,                   !- Wind Exposure
    autocalculate,            !- View Factor to Ground
    autocalculate,            !- Number of Vertices
    705085.959,               !- Vertex 1 Xcoordinate
    5711765.161,              !- Vertex 1 Ycoordinate
    9,                        !- Vertex 1 Zcoordinate
    705085.959,               !- Vertex 2 Xcoordinate
    5711765.161,              !- Vertex 2 Ycoordinate
    6,                        !- Vertex 2 Zcoordinate
    705084.463,               !- Vertex 3 Xcoordinate
    5711761.425,              !- Vertex 3 Ycoordinate
    6,                        !- Vertex 3 Zcoordinate
    705084.463,               !- Vertex 4 Xcoordinate
    5711761.425,              !- Vertex 4 Ycoordinate
    9;                        !- Vertex 4 Zcoordinate

BUILDINGSURFACE:DETAILED,
    Block 58bdcf3b3f3405dc_4 Storey 2 Wall 0003_1,    !- Name
    wall,                     !- Surface Type
    EU_wall_Construction,     !- Construction Name
    58bdcf3b3f3405dc_F2_dwelling_4,    !- Zone Name
    ,                         !- Space Name
    surface,                  !- Outside Boundary Condition
    Block 58bdcf3b3f3405dc_3 Storey 2 Wall 0004_1,    !- Outside Boundary Condition Object
    NoSun,                    !- Sun Exposure
    NoWind,                   !- Wind Exposure
    autocalculate,            !- View Factor to Ground
    autocalculate,            !- Number of Vertices
    705084.463,               !- Vertex 1 Xcoordinate
    5711761.425,              !- Vertex 1 Ycoordinate
    9,                        !- Vertex 1 Zcoordinate
    705084.463,               !- Vertex 2 Xcoordinate
    5711761.425,              !- Vertex 2 Ycoordinate
    6,                        !- Vertex 2 Zcoordinate
    705085.959,               !- Vertex 3 Xcoordinate
    5711765.161,              !- Vertex 3 Ycoordinate
    6,                        !- Vertex 3 Zcoordinate
    705085.959,               !- Vertex 4 Xcoordinate
    5711765.161,              !- Vertex 4 Ycoordinate
    9;                        !- Vertex 4 Zcoordinate

BUILDINGSURFACE:DETAILED,
    Block 58bdcf3b3f3405dc_4 Storey 0 Ceiling 0001_1,    !- Name
    ceiling,                  !- Surface Type
    EU_floor_Construction,    !- Construction Name
    58bdcf3b3f3405dc_F0_dwelling_4,    !- Zone Name
    ,                         !- Space Name
    Surface,                  !- Outside Boundary Condition
    Block 58bdcf3b3f3405dc_4 Storey 1 Floor 0001_1,    !- Outside Boundary Condition Object
    NoSun,                    !- Sun Exposure
    NoWind,                   !- Wind Exposure
    autocalculate,            !- View Factor to Ground
    autocalculate,            !- Number of Vertices
    705090.9679999999,        !- Vertex 1 Xcoordinate
    5711763.156,              !- Vertex 1 Ycoordinate
    3,                        !- Vertex 1 Zcoordinate
    705091.8589999997,        !- Vertex 2 Xcoordinate
    5711761.153,              !- Vertex 2 Ycoordinate
    3,                        !- Vertex 2 Zcoordinate
    705088.4569999999,        !- Vertex 3 Xcoordinate
    5711759.826,              !- Vertex 3 Ycoordinate
    3,                        !- Vertex 3 Zcoordinate
    705084.463,               !- Vertex 4 Xcoordinate
    5711761.425,              !- Vertex 4 Ycoordinate
    3,                        !- Vertex 4 Zcoordinate
    705085.9589999998,        !- Vertex 5 Xcoordinate
    5711765.161,              !- Vertex 5 Ycoordinate
    3;                        !- Vertex 5 Zcoordinate

BUILDINGSURFACE:DETAILED,
    Block 58bdcf3b3f3405dc_4 Storey 1 Floor 0001_1,    !- Name
    floor,                    !- Surface Type
    EU_floor_Construction,    !- Construction Name
    58bdcf3b3f3405dc_F1_dwelling_4,    !- Zone Name
    ,                         !- Space Name
    Surface,                  !- Outside Boundary Condition
    Block 58bdcf3b3f3405dc_4 Storey 0 Ceiling 0001_1,    !- Outside Boundary Condition Object
    NoSun,                    !- Sun Exposure
    NoWind,                   !- Wind Exposure
    autocalculate,            !- View Factor to Ground
    autocalculate,            !- Number of Vertices
    705091.8589999997,        !- Vertex 1 Xcoordinate
    5711761.153,              !- Vertex 1 Ycoordinate
    3,                        !- Vertex 1 Zcoordinate
    705090.9679999999,        !- Vertex 2 Xcoordinate
    5711763.156,              !- Vertex 2 Ycoordinate
    3,                        !- Vertex 2 Zcoordinate
    705085.9589999998,        !- Vertex 3 Xcoordinate
    5711765.161,              !- Vertex 3 Ycoordinate
    3,                        !- Vertex 3 Zcoordinate
    705084.463,               !- Vertex 4 Xcoordinate
    5711761.425,              !- Vertex 4 Ycoordinate
    3,                        !- Vertex 4 Zcoordinate
    705088.4569999999,        !- Vertex 5 Xcoordinate
    5711759.826,              !- Vertex 5 Ycoordinate
    3;                        !- Vertex 5 Zcoordinate

BUILDINGSURFACE:DETAILED,
    Block 58bdcf3b3f3405dc_4 Storey 1 Ceiling 0001_1,    !- Name
    ceiling,                  !- Surface Type
    EU_floor_Construction,    !- Construction Name
    58bdcf3b3f3405dc_F1_dwelling_4,    !- Zone Name
    ,                         !- Space Name
    Surface,                  !- Outside Boundary Condition
    Block 58bdcf3b3f3405dc_4 Storey 2 Floor 0001_1,    !- Outside Boundary Condition Object
    NoSun,                    !- Sun Exposure
    NoWind,                   !- Wind Exposure
    autocalculate,            !- View Factor to Ground
    autocalculate,            !- Number of Vertices
    705090.9679999999,        !- Vertex 1 Xcoordinate
    5711763.156,              !- Vertex 1 Ycoordinate
    6,                        !- Vertex 1 Zcoordinate
    705091.8589999997,        !- Vertex 2 Xcoordinate
    5711761.153,              !- Vertex 2 Ycoordinate
    6,                        !- Vertex 2 Zcoordinate
    705088.4569999999,        !- Vertex 3 Xcoordinate
    5711759.826,              !- Vertex 3 Ycoordinate
    6,                        !- Vertex 3 Zcoordinate
    705084.463,               !- Vertex 4 Xcoordinate
    5711761.425,              !- Vertex 4 Ycoordinate
    6,                        !- Vertex 4 Zcoordinate
    705085.9589999998,        !- Vertex 5 Xcoordinate
    5711765.161,              !- Vertex 5 Ycoordinate
    6;                        !- Vertex 5 Zcoordinate

BUILDINGSURFACE:DETAILED,
    Block 58bdcf3b3f3405dc_4 Storey 2 Floor 0001_1,    !- Name
    floor,                    !- Surface Type
    EU_floor_Construction,    !- Construction Name
    58bdcf3b3f3405dc_F2_dwelling_4,    !- Zone Name
    ,                         !- Space Name
    Surface,                  !- Outside Boundary Condition
    Block 58bdcf3b3f3405dc_4 Storey 1 Ceiling 0001_1,    !- Outside Boundary Condition Object
    NoSun,                    !- Sun Exposure
    NoWind,                   !- Wind Exposure
    autocalculate,            !- View Factor to Ground
    autocalculate,            !- Number of Vertices
    705091.8589999997,        !- Vertex 1 Xcoordinate
    5711761.153,              !- Vertex 1 Ycoordinate
    6,                        !- Vertex 1 Zcoordinate
    705090.9679999999,        !- Vertex 2 Xcoordinate
    5711763.156,              !- Vertex 2 Ycoordinate
    6,                        !- Vertex 2 Zcoordinate
    705085.9589999998,        !- Vertex 3 Xcoordinate
    5711765.161,              !- Vertex 3 Ycoordinate
    6,                        !- Vertex 3 Zcoordinate
    705084.463,               !- Vertex 4 Xcoordinate
    5711761.425,              !- Vertex 4 Ycoordinate
    6,                        !- Vertex 4 Zcoordinate
    705088.4569999999,        !- Vertex 5 Xcoordinate
    5711759.826,              !- Vertex 5 Ycoordinate
    6;                        !- Vertex 5 Zcoordinate

BUILDINGSURFACE:DETAILED,
    Block 58bdcf3b3f3405dc_5 Storey 0 Ceiling 0001_1,    !- Name
    ceiling,                  !- Surface Type
    EU_floor_Construction,    !- Construction Name
    58bdcf3b3f3405dc_F0_dwelling_5,    !- Zone Name
    ,                         !- Space Name
    Surface,                  !- Outside Boundary Condition
    Block 58bdcf3b3f3405dc_5 Storey 1 Floor 0001_1,    !- Outside Boundary Condition Object
    NoSun,                    !- Sun Exposure
    NoWind,                   !- Wind Exposure
    autocalculate,            !- View Factor to Ground
    autocalculate,            !- Number of Vertices
    705088.068,               !- Vertex 1 Xcoordinate
    5711769.674,              !- Vertex 1 Ycoordinate
    3,                        !- Vertex 1 Zcoordinate
    705090.9679999999,        !- Vertex 2 Xcoordinate
    5711763.156,              !- Vertex 2 Ycoordinate
    3,                        !- Vertex 2 Zcoordinate
    705082.1779999998,        !- Vertex 3 Xcoordinate
    5711766.675,              !- Vertex 3 Ycoordinate
    3,                        !- Vertex 3 Zcoordinate
    705085.693,               !- Vertex 4 Xcoordinate
    5711768.454,              !- Vertex 4 Ycoordinate
    3;                        !- Vertex 4 Zcoordinate

BUILDINGSURFACE:DETAILED,
    Block 58bdcf3b3f3405dc_5 Storey 1 Floor 0001_1,    !- Name
    floor,                    !- Surface Type
    EU_floor_Construction,    !- Construction Name
    58bdcf3b3f3405dc_F1_dwelling_5,    !- Zone Name
    ,                         !- Space Name
    Surface,                  !- Outside Boundary Condition
    Block 58bdcf3b3f3405dc_5 Storey 0 Ceiling 0001_1,    !- Outside Boundary Condition Object
    NoSun,                    !- Sun Exposure
    NoWind,                   !- Wind Exposure
    autocalculate,            !- View Factor to Ground
    autocalculate,            !- Number of Vertices
    705090.9679999999,        !- Vertex 1 Xcoordinate
    5711763.156,              !- Vertex 1 Ycoordinate
    3,                        !- Vertex 1 Zcoordinate
    705088.068,               !- Vertex 2 Xcoordinate
    5711769.674,              !- Vertex 2 Ycoordinate
    3,                        !- Vertex 2 Zcoordinate
    705085.693,               !- Vertex 3 Xcoordinate
    5711768.454,              !- Vertex 3 Ycoordinate
    3,                        !- Vertex 3 Zcoordinate
    705082.1779999998,        !- Vertex 4 Xcoordinate
    5711766.675,              !- Vertex 4 Ycoordinate
    3;                        !- Vertex 4 Zcoordinate

INTERNALMASS,
    58bdcf3b3f3405dc_F0_dwelling_0_EU_InternalMass,    !- Name
    EU_InternalMass_Construction,    !- Construction Name
    58bdcf3b3f3405dc_F0_dwelling_0,    !- Zone or ZoneList Name
    ,                         !- Space or SpaceList Name
    23.51192399983655;        !- Surface Area

INTERNALMASS,
    58bdcf3b3f3405dc_F0_dwelling_1_EU_InternalMass,    !- Name
    EU_InternalMass_Construction,    !- Construction Name
    58bdcf3b3f3405dc_F0_dwelling_1,    !- Zone or ZoneList Name
    ,                         !- Space or SpaceList Name
    23.517554002451888;       !- Surface Area

INTERNALMASS,
    58bdcf3b3f3405dc_F0_dwelling_2_EU_InternalMass,    !- Name
    EU_InternalMass_Construction,    !- Construction Name
    58bdcf3b3f3405dc_F0_dwelling_2,    !- Zone or ZoneList Name
    ,                         !- Space or SpaceList Name
    23.515891002144784;       !- Surface Area

INTERNALMASS,
    58bdcf3b3f3405dc_F0_dwelling_3_EU_InternalMass,    !- Name
    EU_InternalMass_Construction,    !- Construction Name
    58bdcf3b3f3405dc_F0_dwelling_3,    !- Zone or ZoneList Name
    ,                         !- Space or SpaceList Name
    23.512946499944164;       !- Surface Area

INTERNALMASS,
    58bdcf3b3f3405dc_F0_dwelling_4_EU_InternalMass,    !- Name
    EU_InternalMass_Construction,    !- Construction Name
    58bdcf3b3f3405dc_F0_dwelling_4,    !- Zone or ZoneList Name
    ,                         !- Space or SpaceList Name
    23.5128665011006;         !- Surface Area

INTERNALMASS,
    58bdcf3b3f3405dc_F0_dwelling_5_EU_InternalMass,    !- Name
    EU_InternalMass_Construction,    !- Construction Name
    58bdcf3b3f3405dc_F0_dwelling_5,    !- Zone or ZoneList Name
    ,                         !- Space or SpaceList Name
    23.512472500581968;       !- Surface Area

INTERNALMASS,
    58bdcf3b3f3405dc_F1_dwelling_0_EU_InternalMass,    !- Name
    EU_InternalMass_Construction,    !- Construction Name
    58bdcf3b3f3405dc_F1_dwelling_0,    !- Zone or ZoneList Name
    ,                         !- Space or SpaceList Name
    23.51192399983655;        !- Surface Area

INTERNALMASS,
    58bdcf3b3f3405dc_F1_dwelling_1_EU_InternalMass,    !- Name
    EU_InternalMass_Construction,    !- Construction Name
    58bdcf3b3f3405dc_F1_dwelling_1,    !- Zone or ZoneList Name
    ,                         !- Space or SpaceList Name
    23.517554002451888;       !- Surface Area

INTERNALMASS,
    58bdcf3b3f3405dc_F1_dwelling_2_EU_InternalMass,    !- Name
    EU_InternalMass_Construction,    !- Construction Name
    58bdcf3b3f3405dc_F1_dwelling_2,    !- Zone or ZoneList Name
    ,                         !- Space or SpaceList Name
    23.515891002144784;       !- Surface Area

INTERNALMASS,
    58bdcf3b3f3405dc_F1_dwelling_3_EU_InternalMass,    !- Name
    EU_InternalMass_Construction,    !- Construction Name
    58bdcf3b3f3405dc_F1_dwelling_3,    !- Zone or ZoneList Name
    ,                         !- Space or SpaceList Name
    23.512946499944164;       !- Surface Area

INTERNALMASS,
    58bdcf3b3f3405dc_F1_dwelling_4_EU_InternalMass,    !- Name
    EU_InternalMass_Construction,    !- Construction Name
    58bdcf3b3f3405dc_F1_dwelling_4,    !- Zone or ZoneList Name
    ,                         !- Space or SpaceList Name
    23.5128665011006;         !- Surface Area

INTERNALMASS,
    58bdcf3b3f3405dc_F1_dwelling_5_EU_InternalMass,    !- Name
    EU_InternalMass_Construction,    !- Construction Name
    58bdcf3b3f3405dc_F1_dwelling_5,    !- Zone or ZoneList Name
    ,                         !- Space or SpaceList Name
    23.512472500581968;       !- Surface Area

INTERNALMASS,
    58bdcf3b3f3405dc_F2_dwelling_0_EU_InternalMass,    !- Name
    EU_InternalMass_Construction,    !- Construction Name
    58bdcf3b3f3405dc_F2_dwelling_0,    !- Zone or ZoneList Name
    ,                         !- Space or SpaceList Name
    35.27258399968015;        !- Surface Area

INTERNALMASS,
    58bdcf3b3f3405dc_F2_dwelling_1_EU_InternalMass,    !- Name
    EU_InternalMass_Construction,    !- Construction Name
    58bdcf3b3f3405dc_F2_dwelling_1,    !- Zone or ZoneList Name
    ,                         !- Space or SpaceList Name
    35.266643498148255;       !- Surface Area

INTERNALMASS,
    58bdcf3b3f3405dc_F2_dwelling_2_EU_InternalMass,    !- Name
    EU_InternalMass_Construction,    !- Construction Name
    58bdcf3b3f3405dc_F2_dwelling_2,    !- Zone or ZoneList Name
    ,                         !- Space or SpaceList Name
    23.516075000276857;       !- Surface Area

INTERNALMASS,
    58bdcf3b3f3405dc_F2_dwelling_3_EU_InternalMass,    !- Name
    EU_InternalMass_Construction,    !- Construction Name
    58bdcf3b3f3405dc_F2_dwelling_3,    !- Zone or ZoneList Name
    ,                         !- Space or SpaceList Name
    23.514161998762006;       !- Surface Area

INTERNALMASS,
    58bdcf3b3f3405dc_F2_dwelling_4_EU_InternalMass,    !- Name
    EU_InternalMass_Construction,    !- Construction Name
    58bdcf3b3f3405dc_F2_dwelling_4,    !- Zone or ZoneList Name
    ,                         !- Space or SpaceList Name
    23.51238899867885;        !- Surface Area

SHADING:SITE:DETAILED,
    shade_way/1330242235_1,    !- Name
    ,                         !- Transmittance Schedule Name
    autocalculate,            !- Number of Vertices
    705086.8125715753,        !- Vertex 1 Xcoordinate
    5711745.235688793,        !- Vertex 1 Ycoordinate
    6,                        !- Vertex 1 Zcoordinate
    705086.8125715753,        !- Vertex 2 Xcoordinate
    5711745.235688793,        !- Vertex 2 Ycoordinate
    0,                        !- Vertex 2 Zcoordinate
    705097.8316575238,        !- Vertex 3 Xcoordinate
    5711749.162039795,        !- Vertex 3 Ycoordinate
    0,                        !- Vertex 3 Zcoordinate
    705097.8316575238,        !- Vertex 4 Xcoordinate
    5711749.162039795,        !- Vertex 4 Ycoordinate
    6;                        !- Vertex 4 Zcoordinate

SHADING:SITE:DETAILED,
    shade_way/1330242235_2,    !- Name
    ,                         !- Transmittance Schedule Name
    autocalculate,            !- Number of Vertices
    705097.8316575238,        !- Vertex 1 Xcoordinate
    5711749.162039795,        !- Vertex 1 Ycoordinate
    6,                        !- Vertex 1 Zcoordinate
    705097.8316575238,        !- Vertex 2 Xcoordinate
    5711749.162039795,        !- Vertex 2 Ycoordinate
    0,                        !- Vertex 2 Zcoordinate
    705101.5470482891,        !- Vertex 3 Xcoordinate
    5711738.737593328,        !- Vertex 3 Ycoordinate
    0,                        !- Vertex 3 Zcoordinate
    705101.5470482891,        !- Vertex 4 Xcoordinate
    5711738.737593328,        !- Vertex 4 Ycoordinate
    6;                        !- Vertex 4 Zcoordinate

SHADING:SITE:DETAILED,
    shade_way/1330242235_3,    !- Name
    ,                         !- Transmittance Schedule Name
    autocalculate,            !- Number of Vertices
    705101.5470482891,        !- Vertex 1 Xcoordinate
    5711738.737593328,        !- Vertex 1 Ycoordinate
    6,                        !- Vertex 1 Zcoordinate
    705101.5470482891,        !- Vertex 2 Xcoordinate
    5711738.737593328,        !- Vertex 2 Ycoordinate
    0,                        !- Vertex 2 Zcoordinate
    705090.5268846782,        !- Vertex 3 Xcoordinate
    5711734.810372913,        !- Vertex 3 Ycoordinate
    0,                        !- Vertex 3 Zcoordinate
    705090.5268846782,        !- Vertex 4 Xcoordinate
    5711734.810372913,        !- Vertex 4 Ycoordinate
    6;                        !- Vertex 4 Zcoordinate

SHADING:SITE:DETAILED,
    shade_way/1330242235_4,    !- Name
    ,                         !- Transmittance Schedule Name
    autocalculate,            !- Number of Vertices
    705090.5268846782,        !- Vertex 1 Xcoordinate
    5711734.810372913,        !- Vertex 1 Ycoordinate
    6,                        !- Vertex 1 Zcoordinate
    705090.5268846782,        !- Vertex 2 Xcoordinate
    5711734.810372913,        !- Vertex 2 Ycoordinate
    0,                        !- Vertex 2 Zcoordinate
    705086.8125715753,        !- Vertex 3 Xcoordinate
    5711745.235688793,        !- Vertex 3 Ycoordinate
    0,                        !- Vertex 3 Zcoordinate
    705086.8125715753,        !- Vertex 4 Xcoordinate
    5711745.235688793,        !- Vertex 4 Ycoordinate
    6;                        !- Vertex 4 Zcoordinate

SHADING:SITE:DETAILED,
    shade_way/396619819_1,    !- Name
    ,                         !- Transmittance Schedule Name
    autocalculate,            !- Number of Vertices
    705067.4470927138,        !- Vertex 1 Xcoordinate
    5711758.707207488,        !- Vertex 1 Ycoordinate
    6,                        !- Vertex 1 Zcoordinate
    705067.4470927138,        !- Vertex 2 Xcoordinate
    5711758.707207488,        !- Vertex 2 Ycoordinate
    0,                        !- Vertex 2 Zcoordinate
    705077.3573559413,        !- Vertex 3 Xcoordinate
    5711735.944504815,        !- Vertex 3 Ycoordinate
    0,                        !- Vertex 3 Zcoordinate
    705077.3573559413,        !- Vertex 4 Xcoordinate
    5711735.944504815,        !- Vertex 4 Ycoordinate
    6;                        !- Vertex 4 Zcoordinate

SHADING:SITE:DETAILED,
    shade_way/396619819_2,    !- Name
    ,                         !- Transmittance Schedule Name
    autocalculate,            !- Number of Vertices
    705077.3573559413,        !- Vertex 1 Xcoordinate
    5711735.944504815,        !- Vertex 1 Ycoordinate
    6,                        !- Vertex 1 Zcoordinate
    705077.3573559413,        !- Vertex 2 Xcoordinate
    5711735.944504815,        !- Vertex 2 Ycoordinate
    0,                        !- Vertex 2 Zcoordinate
    705067.9010524665,        !- Vertex 3 Xcoordinate
    5711731.827323053,        !- Vertex 3 Ycoordinate
    0,                        !- Vertex 3 Zcoordinate
    705067.9010524665,        !- Vertex 4 Xcoordinate
    5711731.827323053,        !- Vertex 4 Ycoordinate
    6;                        !- Vertex 4 Zcoordinate

SHADING:SITE:DETAILED,
    shade_way/396619819_3,    !- Name
    ,                         !- Transmittance Schedule Name
    autocalculate,            !- Number of Vertices
    705067.9010524665,        !- Vertex 1 Xcoordinate
    5711731.827323053,        !- Vertex 1 Ycoordinate
    6,                        !- Vertex 1 Zcoordinate
    705067.9010524665,        !- Vertex 2 Xcoordinate
    5711731.827323053,        !- Vertex 2 Ycoordinate
    0,                        !- Vertex 2 Zcoordinate
    705057.9907892426,        !- Vertex 3 Xcoordinate
    5711754.5900257295,       !- Vertex 3 Ycoordinate
    0,                        !- Vertex 3 Zcoordinate
    705057.9907892426,        !- Vertex 4 Xcoordinate
    5711754.5900257295,       !- Vertex 4 Ycoordinate
    6;                        !- Vertex 4 Zcoordinate

SHADING:SITE:DETAILED,
    shade_way/396619819_4,    !- Name
    ,                         !- Transmittance Schedule Name
    autocalculate,            !- Number of Vertices
    705057.9907892426,        !- Vertex 1 Xcoordinate
    5711754.5900257295,       !- Vertex 1 Ycoordinate
    6,                        !- Vertex 1 Zcoordinate
    705057.9907892426,        !- Vertex 2 Xcoordinate
    5711754.5900257295,       !- Vertex 2 Ycoordinate
    0,                        !- Vertex 2 Zcoordinate
    705067.4470927138,        !- Vertex 3 Xcoordinate
    5711758.707207488,        !- Vertex 3 Ycoordinate
    0,                        !- Vertex 3 Zcoordinate
    705067.4470927138,        !- Vertex 4 Xcoordinate
    5711758.707207488,        !- Vertex 4 Ycoordinate
    6;                        !- Vertex 4 Zcoordinate

SHADING:SITE:DETAILED,
    shade_way/396595551_1,    !- Name
    ,                         !- Transmittance Schedule Name
    autocalculate,            !- Number of Vertices
    705084.3640613962,        !- Vertex 1 Xcoordinate
    5711744.239073591,        !- Vertex 1 Ycoordinate
    9,                        !- Vertex 1 Zcoordinate
    705084.3640613962,        !- Vertex 2 Xcoordinate
    5711744.239073591,        !- Vertex 2 Ycoordinate
    0,                        !- Vertex 2 Zcoordinate
    705081.4568894426,        !- Vertex 3 Xcoordinate
    5711752.177078753,        !- Vertex 3 Ycoordinate
    0,                        !- Vertex 3 Zcoordinate
    705081.4568894426,        !- Vertex 4 Xcoordinate
    5711752.177078753,        !- Vertex 4 Ycoordinate
    9;                        !- Vertex 4 Zcoordinate

SHADING:SITE:DETAILED,
    shade_way/396595551_2,    !- Name
    ,                         !- Transmittance Schedule Name
    autocalculate,            !- Number of Vertices
    705081.4568894426,        !- Vertex 1 Xcoordinate
    5711752.177078753,        !- Vertex 1 Ycoordinate
    9,                        !- Vertex 1 Zcoordinate
    705081.4568894426,        !- Vertex 2 Xcoordinate
    5711752.177078753,        !- Vertex 2 Ycoordinate
    0,                        !- Vertex 2 Zcoordinate
    705093.9859822948,        !- Vertex 3 Xcoordinate
    5711756.765665754,        !- Vertex 3 Ycoordinate
    0,                        !- Vertex 3 Zcoordinate
    705093.9859822948,        !- Vertex 4 Xcoordinate
    5711756.765665754,        !- Vertex 4 Ycoordinate
    9;                        !- Vertex 4 Zcoordinate

SHADING:SITE:DETAILED,
    shade_way/396595551_3,    !- Name
    ,                         !- Transmittance Schedule Name
    autocalculate,            !- Number of Vertices
    705093.9859822948,        !- Vertex 1 Xcoordinate
    5711756.765665754,        !- Vertex 1 Ycoordinate
    9,                        !- Vertex 1 Zcoordinate
    705093.9859822948,        !- Vertex 2 Xcoordinate
    5711756.765665754,        !- Vertex 2 Ycoordinate
    0,                        !- Vertex 2 Zcoordinate
    705096.8941454884,        !- Vertex 3 Xcoordinate
    5711748.828204977,        !- Vertex 3 Ycoordinate
    0,                        !- Vertex 3 Zcoordinate
    705096.8941454884,        !- Vertex 4 Xcoordinate
    5711748.828204977,        !- Vertex 4 Ycoordinate
    9;                        !- Vertex 4 Zcoordinate

SHADING:SITE:DETAILED,
    shade_way/396595551_4,    !- Name
    ,                         !- Transmittance Schedule Name
    autocalculate,            !- Number of Vertices
    705096.8941454884,        !- Vertex 1 Xcoordinate
    5711748.828204977,        !- Vertex 1 Ycoordinate
    9,                        !- Vertex 1 Zcoordinate
    705096.8941454884,        !- Vertex 2 Xcoordinate
    5711748.828204977,        !- Vertex 2 Ycoordinate
    0,                        !- Vertex 2 Zcoordinate
    705084.3640613962,        !- Vertex 3 Xcoordinate
    5711744.239073591,        !- Vertex 3 Ycoordinate
    0,                        !- Vertex 3 Zcoordinate
    705084.3640613962,        !- Vertex 4 Xcoordinate
    5711744.239073591,        !- Vertex 4 Ycoordinate
    9;                        !- Vertex 4 Zcoordinate

SHADING:SITE:DETAILED,
    shade_way/396595550_1,    !- Name
    ,                         !- Transmittance Schedule Name
    autocalculate,            !- Number of Vertices
    705078.4806948238,        !- Vertex 1 Xcoordinate
    5711755.934853932,        !- Vertex 1 Ycoordinate
    9,                        !- Vertex 1 Zcoordinate
    705078.4806948238,        !- Vertex 2 Xcoordinate
    5711755.934853932,        !- Vertex 2 Ycoordinate
    0,                        !- Vertex 2 Zcoordinate
    705091.8685189477,        !- Vertex 3 Xcoordinate
    5711761.156686039,        !- Vertex 3 Ycoordinate
    0,                        !- Vertex 3 Zcoordinate
    705091.8685189477,        !- Vertex 4 Xcoordinate
    5711761.156686039,        !- Vertex 4 Ycoordinate
    9;                        !- Vertex 4 Zcoordinate

SHADING:SITE:DETAILED,
    shade_way/396595550_2,    !- Name
    ,                         !- Transmittance Schedule Name
    autocalculate,            !- Number of Vertices
    705091.8685189477,        !- Vertex 1 Xcoordinate
    5711761.156686039,        !- Vertex 1 Ycoordinate
    9,                        !- Vertex 1 Zcoordinate
    705091.8685189477,        !- Vertex 2 Xcoordinate
    5711761.156686039,        !- Vertex 2 Ycoordinate
    0,                        !- Vertex 2 Zcoordinate
    705093.6327180199,        !- Vertex 3 Xcoordinate
    5711756.636469521,        !- Vertex 3 Ycoordinate
    0,                        !- Vertex 3 Zcoordinate
    705093.6327180199,        !- Vertex 4 Xcoordinate
    5711756.636469521,        !- Vertex 4 Ycoordinate
    9;                        !- Vertex 4 Zcoordinate

SHADING:SITE:DETAILED,
    shade_way/396595550_3,    !- Name
    ,                         !- Transmittance Schedule Name
    autocalculate,            !- Number of Vertices
    705093.6327180199,        !- Vertex 1 Xcoordinate
    5711756.636469521,        !- Vertex 1 Ycoordinate
    9,                        !- Vertex 1 Zcoordinate
    705093.6327180199,        !- Vertex 2 Xcoordinate
    5711756.636469521,        !- Vertex 2 Ycoordinate
    0,                        !- Vertex 2 Zcoordinate
    705080.2427701482,        !- Vertex 3 Xcoordinate
    5711751.414097255,        !- Vertex 3 Ycoordinate
    0,                        !- Vertex 3 Zcoordinate
    705080.2427701482,        !- Vertex 4 Xcoordinate
    5711751.414097255,        !- Vertex 4 Ycoordinate
    9;                        !- Vertex 4 Zcoordinate

SHADING:SITE:DETAILED,
    shade_way/396595550_4,    !- Name
    ,                         !- Transmittance Schedule Name
    autocalculate,            !- Number of Vertices
    705080.2427701482,        !- Vertex 1 Xcoordinate
    5711751.414097255,        !- Vertex 1 Ycoordinate
    9,                        !- Vertex 1 Zcoordinate
    705080.2427701482,        !- Vertex 2 Xcoordinate
    5711751.414097255,        !- Vertex 2 Ycoordinate
    0,                        !- Vertex 2 Zcoordinate
    705078.4806948238,        !- Vertex 3 Xcoordinate
    5711755.934853932,        !- Vertex 3 Ycoordinate
    0,                        !- Vertex 3 Zcoordinate
    705078.4806948238,        !- Vertex 4 Xcoordinate
    5711755.934853932,        !- Vertex 4 Ycoordinate
    9;                        !- Vertex 4 Zcoordinate

SHADING:SITE:DETAILED,
    shade_way/1433576702_1,    !- Name
    ,                         !- Transmittance Schedule Name
    autocalculate,            !- Number of Vertices
    705049.118649694,         !- Vertex 1 Xcoordinate
    5711751.820033664,        !- Vertex 1 Ycoordinate
    6,                        !- Vertex 1 Zcoordinate
    705049.118649694,         !- Vertex 2 Xcoordinate
    5711751.820033664,        !- Vertex 2 Ycoordinate
    0,                        !- Vertex 2 Zcoordinate
    705044.7895016167,        !- Vertex 3 Xcoordinate
    5711759.951821838,        !- Vertex 3 Ycoordinate
    0,                        !- Vertex 3 Zcoordinate
    705044.7895016167,        !- Vertex 4 Xcoordinate
    5711759.951821838,        !- Vertex 4 Ycoordinate
    6;                        !- Vertex 4 Zcoordinate

SHADING:SITE:DETAILED,
    shade_way/1433576702_2,    !- Name
    ,                         !- Transmittance Schedule Name
    autocalculate,            !- Number of Vertices
    705044.7895016167,        !- Vertex 1 Xcoordinate
    5711759.951821838,        !- Vertex 1 Ycoordinate
    6,                        !- Vertex 1 Zcoordinate
    705044.7895016167,        !- Vertex 2 Xcoordinate
    5711759.951821838,        !- Vertex 2 Ycoordinate
    0,                        !- Vertex 2 Zcoordinate
    705049.226335484,         !- Vertex 3 Xcoordinate
    5711762.313404845,        !- Vertex 3 Ycoordinate
    0,                        !- Vertex 3 Zcoordinate
    705049.226335484,         !- Vertex 4 Xcoordinate
    5711762.313404845,        !- Vertex 4 Ycoordinate
    6;                        !- Vertex 4 Zcoordinate

SHADING:SITE:DETAILED,
    shade_way/1433576702_3,    !- Name
    ,                         !- Transmittance Schedule Name
    autocalculate,            !- Number of Vertices
    705049.226335484,         !- Vertex 1 Xcoordinate
    5711762.313404845,        !- Vertex 1 Ycoordinate
    6,                        !- Vertex 1 Zcoordinate
    705049.226335484,         !- Vertex 2 Xcoordinate
    5711762.313404845,        !- Vertex 2 Ycoordinate
    0,                        !- Vertex 2 Zcoordinate
    705053.5543180387,        !- Vertex 3 Xcoordinate
    5711754.181169528,        !- Vertex 3 Ycoordinate
    0,                        !- Vertex 3 Zcoordinate
    705053.5543180387,        !- Vertex 4 Xcoordinate
    5711754.181169528,        !- Vertex 4 Ycoordinate
    6;                        !- Vertex 4 Zcoordinate

SHADING:SITE:DETAILED,
    shade_way/1433576702_4,    !- Name
    ,                         !- Transmittance Schedule Name
    autocalculate,            !- Number of Vertices
    705053.5543180387,        !- Vertex 1 Xcoordinate
    5711754.181169528,        !- Vertex 1 Ycoordinate
    6,                        !- Vertex 1 Zcoordinate
    705053.5543180387,        !- Vertex 2 Xcoordinate
    5711754.181169528,        !- Vertex 2 Ycoordinate
    0,                        !- Vertex 2 Zcoordinate
    705049.118649694,         !- Vertex 3 Xcoordinate
    5711751.820033664,        !- Vertex 3 Ycoordinate
    0,                        !- Vertex 3 Zcoordinate
    705049.118649694,         !- Vertex 4 Xcoordinate
    5711751.820033664,        !- Vertex 4 Ycoordinate
    6;                        !- Vertex 4 Zcoordinate

SHADING:SITE:DETAILED,
    shade_way/1432555168_1,    !- Name
    ,                         !- Transmittance Schedule Name
    autocalculate,            !- Number of Vertices
    705060.4295461321,        !- Vertex 1 Xcoordinate
    5711760.439203382,        !- Vertex 1 Ycoordinate
    6,                        !- Vertex 1 Zcoordinate
    705060.4295461321,        !- Vertex 2 Xcoordinate
    5711760.439203382,        !- Vertex 2 Ycoordinate
    0,                        !- Vertex 2 Zcoordinate
    705066.2965114252,        !- Vertex 3 Xcoordinate
    5711763.456041107,        !- Vertex 3 Ycoordinate
    0,                        !- Vertex 3 Zcoordinate
    705066.2965114252,        !- Vertex 4 Xcoordinate
    5711763.456041107,        !- Vertex 4 Ycoordinate
    6;                        !- Vertex 4 Zcoordinate

SHADING:SITE:DETAILED,
    shade_way/1432555168_2,    !- Name
    ,                         !- Transmittance Schedule Name
    autocalculate,            !- Number of Vertices
    705066.2965114252,        !- Vertex 1 Xcoordinate
    5711763.456041107,        !- Vertex 1 Ycoordinate
    6,                        !- Vertex 1 Zcoordinate
    705066.2965114252,        !- Vertex 2 Xcoordinate
    5711763.456041107,        !- Vertex 2 Ycoordinate
    0,                        !- Vertex 2 Zcoordinate
    705068.2795137332,        !- Vertex 3 Xcoordinate
    5711759.598343,           !- Vertex 3 Ycoordinate
    0,                        !- Vertex 3 Zcoordinate
    705068.2795137332,        !- Vertex 4 Xcoordinate
    5711759.598343,           !- Vertex 4 Ycoordinate
    6;                        !- Vertex 4 Zcoordinate

SHADING:SITE:DETAILED,
    shade_way/1432555168_3,    !- Name
    ,                         !- Transmittance Schedule Name
    autocalculate,            !- Number of Vertices
    705068.2795137332,        !- Vertex 1 Xcoordinate
    5711759.598343,           !- Vertex 1 Ycoordinate
    6,                        !- Vertex 1 Zcoordinate
    705068.2795137332,        !- Vertex 2 Xcoordinate
    5711759.598343,           !- Vertex 2 Ycoordinate
    0,                        !- Vertex 2 Zcoordinate
    705062.4130855502,        !- Vertex 3 Xcoordinate
    5711756.582320062,        !- Vertex 3 Ycoordinate
    0,                        !- Vertex 3 Zcoordinate
    705062.4130855502,        !- Vertex 4 Xcoordinate
    5711756.582320062,        !- Vertex 4 Ycoordinate
    6;                        !- Vertex 4 Zcoordinate

SHADING:SITE:DETAILED,
    shade_way/1432555168_4,    !- Name
    ,                         !- Transmittance Schedule Name
    autocalculate,            !- Number of Vertices
    705062.4130855502,        !- Vertex 1 Xcoordinate
    5711756.582320062,        !- Vertex 1 Ycoordinate
    6,                        !- Vertex 1 Zcoordinate
    705062.4130855502,        !- Vertex 2 Xcoordinate
    5711756.582320062,        !- Vertex 2 Ycoordinate
    0,                        !- Vertex 2 Zcoordinate
    705060.4295461321,        !- Vertex 3 Xcoordinate
    5711760.439203382,        !- Vertex 3 Ycoordinate
    0,                        !- Vertex 3 Zcoordinate
    705060.4295461321,        !- Vertex 4 Xcoordinate
    5711760.439203382,        !- Vertex 4 Ycoordinate
    6;                        !- Vertex 4 Zcoordinate

SHADING:SITE:DETAILED,
    shade_way/288548503_1,    !- Name
    ,                         !- Transmittance Schedule Name
    autocalculate,            !- Number of Vertices
    705076.1338616186,        !- Vertex 1 Xcoordinate
    5711766.227208421,        !- Vertex 1 Ycoordinate
    15,                       !- Vertex 1 Zcoordinate
    705076.1338616186,        !- Vertex 2 Xcoordinate
    5711766.227208421,        !- Vertex 2 Ycoordinate
    0,                        !- Vertex 2 Zcoordinate
    705055.2836832046,        !- Vertex 3 Xcoordinate
    5711797.682250859,        !- Vertex 3 Ycoordinate
    0,                        !- Vertex 3 Zcoordinate
    705055.2836832046,        !- Vertex 4 Xcoordinate
    5711797.682250859,        !- Vertex 4 Ycoordinate
    15;                       !- Vertex 4 Zcoordinate

SHADING:SITE:DETAILED,
    shade_way/288548503_2,    !- Name
    ,                         !- Transmittance Schedule Name
    autocalculate,            !- Number of Vertices
    705055.2836832046,        !- Vertex 1 Xcoordinate
    5711797.682250859,        !- Vertex 1 Ycoordinate
    15,                       !- Vertex 1 Zcoordinate
    705055.2836832046,        !- Vertex 2 Xcoordinate
    5711797.682250859,        !- Vertex 2 Ycoordinate
    0,                        !- Vertex 2 Zcoordinate
    705063.3199475262,        !- Vertex 3 Xcoordinate
    5711803.009489221,        !- Vertex 3 Ycoordinate
    0,                        !- Vertex 3 Zcoordinate
    705063.3199475262,        !- Vertex 4 Xcoordinate
    5711803.009489221,        !- Vertex 4 Ycoordinate
    15;                       !- Vertex 4 Zcoordinate

SHADING:SITE:DETAILED,
    shade_way/288548503_3,    !- Name
    ,                         !- Transmittance Schedule Name
    autocalculate,            !- Number of Vertices
    705063.3199475262,        !- Vertex 1 Xcoordinate
    5711803.009489221,        !- Vertex 1 Ycoordinate
    15,                       !- Vertex 1 Zcoordinate
    705063.3199475262,        !- Vertex 2 Xcoordinate
    5711803.009489221,        !- Vertex 2 Ycoordinate
    0,                        !- Vertex 2 Zcoordinate
    705084.1715086236,        !- Vertex 3 Xcoordinate
    5711771.555136246,        !- Vertex 3 Ycoordinate
    0,                        !- Vertex 3 Zcoordinate
    705084.1715086236,        !- Vertex 4 Xcoordinate
    5711771.555136246,        !- Vertex 4 Ycoordinate
    15;                       !- Vertex 4 Zcoordinate

SHADING:SITE:DETAILED,
    shade_way/288548503_4,    !- Name
    ,                         !- Transmittance Schedule Name
    autocalculate,            !- Number of Vertices
    705084.1715086236,        !- Vertex 1 Xcoordinate
    5711771.555136246,        !- Vertex 1 Ycoordinate
    15,                       !- Vertex 1 Zcoordinate
    705084.1715086236,        !- Vertex 2 Xcoordinate
    5711771.555136246,        !- Vertex 2 Ycoordinate
    0,                        !- Vertex 2 Zcoordinate
    705076.1338616186,        !- Vertex 3 Xcoordinate
    5711766.227208421,        !- Vertex 3 Ycoordinate
    0,                        !- Vertex 3 Zcoordinate
    705076.1338616186,        !- Vertex 4 Xcoordinate
    5711766.227208421,        !- Vertex 4 Ycoordinate
    15;                       !- Vertex 4 Zcoordinate

OTHEREQUIPMENT,
    EU_Step8_InternalGain_58bdcf3b3f3405dc_F0_dwelling_0_f000,    !- Name
    Electricity,              !- Fuel Type
    58bdcf3b3f3405dc_F0_dwelling_0,    !- Zone or ZoneList or Space or SpaceList Name
    EU_Step8_GainSchedule_58bdcf3b3f3405dc_F0_dwelling_0_f000,    !- Schedule Name
    Watts/Area,               !- Design Level Calculation Method
    ,                         !- Design Level
    1,                        !- Power per Zone Floor Area
    ,                         !- Power per Person
    0,                        !- Fraction Latent
    0,                        !- Fraction Radiant
    0,                        !- Fraction Lost
    0,                        !- Carbon Dioxide Generation Rate
    EU_Step8_InternalGains;    !- EndUse Subcategory

OTHEREQUIPMENT,
    EU_Step8_InternalGain_58bdcf3b3f3405dc_F0_dwelling_1_f000,    !- Name
    Electricity,              !- Fuel Type
    58bdcf3b3f3405dc_F0_dwelling_1,    !- Zone or ZoneList or Space or SpaceList Name
    EU_Step8_GainSchedule_58bdcf3b3f3405dc_F0_dwelling_1_f000,    !- Schedule Name
    Watts/Area,               !- Design Level Calculation Method
    ,                         !- Design Level
    1,                        !- Power per Zone Floor Area
    ,                         !- Power per Person
    0,                        !- Fraction Latent
    0,                        !- Fraction Radiant
    0,                        !- Fraction Lost
    0,                        !- Carbon Dioxide Generation Rate
    EU_Step8_InternalGains;    !- EndUse Subcategory

OTHEREQUIPMENT,
    EU_Step8_InternalGain_58bdcf3b3f3405dc_F0_dwelling_2_f000,    !- Name
    Electricity,              !- Fuel Type
    58bdcf3b3f3405dc_F0_dwelling_2,    !- Zone or ZoneList or Space or SpaceList Name
    EU_Step8_GainSchedule_58bdcf3b3f3405dc_F0_dwelling_2_f000,    !- Schedule Name
    Watts/Area,               !- Design Level Calculation Method
    ,                         !- Design Level
    1,                        !- Power per Zone Floor Area
    ,                         !- Power per Person
    0,                        !- Fraction Latent
    0,                        !- Fraction Radiant
    0,                        !- Fraction Lost
    0,                        !- Carbon Dioxide Generation Rate
    EU_Step8_InternalGains;    !- EndUse Subcategory

OTHEREQUIPMENT,
    EU_Step8_InternalGain_58bdcf3b3f3405dc_F0_dwelling_3_f000,    !- Name
    Electricity,              !- Fuel Type
    58bdcf3b3f3405dc_F0_dwelling_3,    !- Zone or ZoneList or Space or SpaceList Name
    EU_Step8_GainSchedule_58bdcf3b3f3405dc_F0_dwelling_3_f000,    !- Schedule Name
    Watts/Area,               !- Design Level Calculation Method
    ,                         !- Design Level
    1,                        !- Power per Zone Floor Area
    ,                         !- Power per Person
    0,                        !- Fraction Latent
    0,                        !- Fraction Radiant
    0,                        !- Fraction Lost
    0,                        !- Carbon Dioxide Generation Rate
    EU_Step8_InternalGains;    !- EndUse Subcategory

OTHEREQUIPMENT,
    EU_Step8_InternalGain_58bdcf3b3f3405dc_F0_dwelling_4_f000,    !- Name
    Electricity,              !- Fuel Type
    58bdcf3b3f3405dc_F0_dwelling_4,    !- Zone or ZoneList or Space or SpaceList Name
    EU_Step8_GainSchedule_58bdcf3b3f3405dc_F0_dwelling_4_f000,    !- Schedule Name
    Watts/Area,               !- Design Level Calculation Method
    ,                         !- Design Level
    1,                        !- Power per Zone Floor Area
    ,                         !- Power per Person
    0,                        !- Fraction Latent
    0,                        !- Fraction Radiant
    0,                        !- Fraction Lost
    0,                        !- Carbon Dioxide Generation Rate
    EU_Step8_InternalGains;    !- EndUse Subcategory

OTHEREQUIPMENT,
    EU_Step8_InternalGain_58bdcf3b3f3405dc_F0_dwelling_5_f000,    !- Name
    Electricity,              !- Fuel Type
    58bdcf3b3f3405dc_F0_dwelling_5,    !- Zone or ZoneList or Space or SpaceList Name
    EU_Step8_GainSchedule_58bdcf3b3f3405dc_F0_dwelling_5_f000,    !- Schedule Name
    Watts/Area,               !- Design Level Calculation Method
    ,                         !- Design Level
    1,                        !- Power per Zone Floor Area
    ,                         !- Power per Person
    0,                        !- Fraction Latent
    0,                        !- Fraction Radiant
    0,                        !- Fraction Lost
    0,                        !- Carbon Dioxide Generation Rate
    EU_Step8_InternalGains;    !- EndUse Subcategory

OTHEREQUIPMENT,
    EU_Step8_InternalGain_58bdcf3b3f3405dc_F1_dwelling_0_f000,    !- Name
    Electricity,              !- Fuel Type
    58bdcf3b3f3405dc_F1_dwelling_0,    !- Zone or ZoneList or Space or SpaceList Name
    EU_Step8_GainSchedule_58bdcf3b3f3405dc_F1_dwelling_0_f000,    !- Schedule Name
    Watts/Area,               !- Design Level Calculation Method
    ,                         !- Design Level
    1,                        !- Power per Zone Floor Area
    ,                         !- Power per Person
    0,                        !- Fraction Latent
    0,                        !- Fraction Radiant
    0,                        !- Fraction Lost
    0,                        !- Carbon Dioxide Generation Rate
    EU_Step8_InternalGains;    !- EndUse Subcategory

OTHEREQUIPMENT,
    EU_Step8_InternalGain_58bdcf3b3f3405dc_F1_dwelling_1_f000,    !- Name
    Electricity,              !- Fuel Type
    58bdcf3b3f3405dc_F1_dwelling_1,    !- Zone or ZoneList or Space or SpaceList Name
    EU_Step8_GainSchedule_58bdcf3b3f3405dc_F1_dwelling_1_f000,    !- Schedule Name
    Watts/Area,               !- Design Level Calculation Method
    ,                         !- Design Level
    1,                        !- Power per Zone Floor Area
    ,                         !- Power per Person
    0,                        !- Fraction Latent
    0,                        !- Fraction Radiant
    0,                        !- Fraction Lost
    0,                        !- Carbon Dioxide Generation Rate
    EU_Step8_InternalGains;    !- EndUse Subcategory

OTHEREQUIPMENT,
    EU_Step8_InternalGain_58bdcf3b3f3405dc_F1_dwelling_2_f000,    !- Name
    Electricity,              !- Fuel Type
    58bdcf3b3f3405dc_F1_dwelling_2,    !- Zone or ZoneList or Space or SpaceList Name
    EU_Step8_GainSchedule_58bdcf3b3f3405dc_F1_dwelling_2_f000,    !- Schedule Name
    Watts/Area,               !- Design Level Calculation Method
    ,                         !- Design Level
    1,                        !- Power per Zone Floor Area
    ,                         !- Power per Person
    0,                        !- Fraction Latent
    0,                        !- Fraction Radiant
    0,                        !- Fraction Lost
    0,                        !- Carbon Dioxide Generation Rate
    EU_Step8_InternalGains;    !- EndUse Subcategory

OTHEREQUIPMENT,
    EU_Step8_InternalGain_58bdcf3b3f3405dc_F1_dwelling_3_f000,    !- Name
    Electricity,              !- Fuel Type
    58bdcf3b3f3405dc_F1_dwelling_3,    !- Zone or ZoneList or Space or SpaceList Name
    EU_Step8_GainSchedule_58bdcf3b3f3405dc_F1_dwelling_3_f000,    !- Schedule Name
    Watts/Area,               !- Design Level Calculation Method
    ,                         !- Design Level
    1,                        !- Power per Zone Floor Area
    ,                         !- Power per Person
    0,                        !- Fraction Latent
    0,                        !- Fraction Radiant
    0,                        !- Fraction Lost
    0,                        !- Carbon Dioxide Generation Rate
    EU_Step8_InternalGains;    !- EndUse Subcategory

OTHEREQUIPMENT,
    EU_Step8_InternalGain_58bdcf3b3f3405dc_F1_dwelling_4_f000,    !- Name
    Electricity,              !- Fuel Type
    58bdcf3b3f3405dc_F1_dwelling_4,    !- Zone or ZoneList or Space or SpaceList Name
    EU_Step8_GainSchedule_58bdcf3b3f3405dc_F1_dwelling_4_f000,    !- Schedule Name
    Watts/Area,               !- Design Level Calculation Method
    ,                         !- Design Level
    1,                        !- Power per Zone Floor Area
    ,                         !- Power per Person
    0,                        !- Fraction Latent
    0,                        !- Fraction Radiant
    0,                        !- Fraction Lost
    0,                        !- Carbon Dioxide Generation Rate
    EU_Step8_InternalGains;    !- EndUse Subcategory

OTHEREQUIPMENT,
    EU_Step8_InternalGain_58bdcf3b3f3405dc_F1_dwelling_5_f000,    !- Name
    Electricity,              !- Fuel Type
    58bdcf3b3f3405dc_F1_dwelling_5,    !- Zone or ZoneList or Space or SpaceList Name
    EU_Step8_GainSchedule_58bdcf3b3f3405dc_F1_dwelling_5_f000,    !- Schedule Name
    Watts/Area,               !- Design Level Calculation Method
    ,                         !- Design Level
    1,                        !- Power per Zone Floor Area
    ,                         !- Power per Person
    0,                        !- Fraction Latent
    0,                        !- Fraction Radiant
    0,                        !- Fraction Lost
    0,                        !- Carbon Dioxide Generation Rate
    EU_Step8_InternalGains;    !- EndUse Subcategory

OTHEREQUIPMENT,
    EU_Step8_InternalGain_58bdcf3b3f3405dc_F2_dwelling_0_f000,    !- Name
    Electricity,              !- Fuel Type
    58bdcf3b3f3405dc_F2_dwelling_0,    !- Zone or ZoneList or Space or SpaceList Name
    EU_Step8_GainSchedule_58bdcf3b3f3405dc_F2_dwelling_0_f000,    !- Schedule Name
    Watts/Area,               !- Design Level Calculation Method
    ,                         !- Design Level
    1,                        !- Power per Zone Floor Area
    ,                         !- Power per Person
    0,                        !- Fraction Latent
    0,                        !- Fraction Radiant
    0,                        !- Fraction Lost
    0,                        !- Carbon Dioxide Generation Rate
    EU_Step8_InternalGains;    !- EndUse Subcategory

OTHEREQUIPMENT,
    EU_Step8_InternalGain_58bdcf3b3f3405dc_F2_dwelling_1_f000,    !- Name
    Electricity,              !- Fuel Type
    58bdcf3b3f3405dc_F2_dwelling_1,    !- Zone or ZoneList or Space or SpaceList Name
    EU_Step8_GainSchedule_58bdcf3b3f3405dc_F2_dwelling_1_f000,    !- Schedule Name
    Watts/Area,               !- Design Level Calculation Method
    ,                         !- Design Level
    1,                        !- Power per Zone Floor Area
    ,                         !- Power per Person
    0,                        !- Fraction Latent
    0,                        !- Fraction Radiant
    0,                        !- Fraction Lost
    0,                        !- Carbon Dioxide Generation Rate
    EU_Step8_InternalGains;    !- EndUse Subcategory

OTHEREQUIPMENT,
    EU_Step8_InternalGain_58bdcf3b3f3405dc_F2_dwelling_2_f000,    !- Name
    Electricity,              !- Fuel Type
    58bdcf3b3f3405dc_F2_dwelling_2,    !- Zone or ZoneList or Space or SpaceList Name
    EU_Step8_GainSchedule_58bdcf3b3f3405dc_F2_dwelling_2_f000,    !- Schedule Name
    Watts/Area,               !- Design Level Calculation Method
    ,                         !- Design Level
    1,                        !- Power per Zone Floor Area
    ,                         !- Power per Person
    0,                        !- Fraction Latent
    0,                        !- Fraction Radiant
    0,                        !- Fraction Lost
    0,                        !- Carbon Dioxide Generation Rate
    EU_Step8_InternalGains;    !- EndUse Subcategory

OTHEREQUIPMENT,
    EU_Step8_InternalGain_58bdcf3b3f3405dc_F2_dwelling_3_f000,    !- Name
    Electricity,              !- Fuel Type
    58bdcf3b3f3405dc_F2_dwelling_3,    !- Zone or ZoneList or Space or SpaceList Name
    EU_Step8_GainSchedule_58bdcf3b3f3405dc_F2_dwelling_3_f000,    !- Schedule Name
    Watts/Area,               !- Design Level Calculation Method
    ,                         !- Design Level
    1,                        !- Power per Zone Floor Area
    ,                         !- Power per Person
    0,                        !- Fraction Latent
    0,                        !- Fraction Radiant
    0,                        !- Fraction Lost
    0,                        !- Carbon Dioxide Generation Rate
    EU_Step8_InternalGains;    !- EndUse Subcategory

OTHEREQUIPMENT,
    EU_Step8_InternalGain_58bdcf3b3f3405dc_F2_dwelling_4_f000,    !- Name
    Electricity,              !- Fuel Type
    58bdcf3b3f3405dc_F2_dwelling_4,    !- Zone or ZoneList or Space or SpaceList Name
    EU_Step8_GainSchedule_58bdcf3b3f3405dc_F2_dwelling_4_f000,    !- Schedule Name
    Watts/Area,               !- Design Level Calculation Method
    ,                         !- Design Level
    1,                        !- Power per Zone Floor Area
    ,                         !- Power per Person
    0,                        !- Fraction Latent
    0,                        !- Fraction Radiant
    0,                        !- Fraction Lost
    0,                        !- Carbon Dioxide Generation Rate
    EU_Step8_InternalGains;    !- EndUse Subcategory

ZONEVENTILATION:DESIGNFLOWRATE,
    EU_ConstantAir_58bdcf3b3f3405dc_F0_dwelling_0,    !- Name
    58bdcf3b3f3405dc_F0_dwelling_0,    !- Zone or ZoneList or Space or SpaceList Name
    EU_AlwaysOn,              !- Schedule Name
    AirChanges/Hour,          !- Design Flow Rate Calculation Method
    ,                         !- Design Flow Rate
    ,                         !- Flow Rate per Floor Area
    ,                         !- Flow Rate per Person
    4.887194e-01,             !- Air Changes per Hour
    Natural,                  !- Ventilation Type
    0,                        !- Fan Pressure Rise
    1,                        !- Fan Total Efficiency
    1,                        !- Constant Term Coefficient
    0,                        !- Temperature Term Coefficient
    0,                        !- Velocity Term Coefficient
    0,                        !- Velocity Squared Term Coefficient
    -100,                     !- Minimum Indoor Temperature
    ,                         !- Minimum Indoor Temperature Schedule Name
    100,                      !- Maximum Indoor Temperature
    ,                         !- Maximum Indoor Temperature Schedule Name
    -100,                     !- Delta Temperature
    ,                         !- Delta Temperature Schedule Name
    -100,                     !- Minimum Outdoor Temperature
    ,                         !- Minimum Outdoor Temperature Schedule Name
    100,                      !- Maximum Outdoor Temperature
    ,                         !- Maximum Outdoor Temperature Schedule Name
    40;                       !- Maximum Wind Speed

ZONEVENTILATION:DESIGNFLOWRATE,
    EU_ConstantAir_58bdcf3b3f3405dc_F0_dwelling_1,    !- Name
    58bdcf3b3f3405dc_F0_dwelling_1,    !- Zone or ZoneList or Space or SpaceList Name
    EU_AlwaysOn,              !- Schedule Name
    AirChanges/Hour,          !- Design Flow Rate Calculation Method
    ,                         !- Design Flow Rate
    ,                         !- Flow Rate per Floor Area
    ,                         !- Flow Rate per Person
    4.887194e-01,             !- Air Changes per Hour
    Natural,                  !- Ventilation Type
    0,                        !- Fan Pressure Rise
    1,                        !- Fan Total Efficiency
    1,                        !- Constant Term Coefficient
    0,                        !- Temperature Term Coefficient
    0,                        !- Velocity Term Coefficient
    0,                        !- Velocity Squared Term Coefficient
    -100,                     !- Minimum Indoor Temperature
    ,                         !- Minimum Indoor Temperature Schedule Name
    100,                      !- Maximum Indoor Temperature
    ,                         !- Maximum Indoor Temperature Schedule Name
    -100,                     !- Delta Temperature
    ,                         !- Delta Temperature Schedule Name
    -100,                     !- Minimum Outdoor Temperature
    ,                         !- Minimum Outdoor Temperature Schedule Name
    100,                      !- Maximum Outdoor Temperature
    ,                         !- Maximum Outdoor Temperature Schedule Name
    40;                       !- Maximum Wind Speed

ZONEVENTILATION:DESIGNFLOWRATE,
    EU_ConstantAir_58bdcf3b3f3405dc_F0_dwelling_2,    !- Name
    58bdcf3b3f3405dc_F0_dwelling_2,    !- Zone or ZoneList or Space or SpaceList Name
    EU_AlwaysOn,              !- Schedule Name
    AirChanges/Hour,          !- Design Flow Rate Calculation Method
    ,                         !- Design Flow Rate
    ,                         !- Flow Rate per Floor Area
    ,                         !- Flow Rate per Person
    4.887194e-01,             !- Air Changes per Hour
    Natural,                  !- Ventilation Type
    0,                        !- Fan Pressure Rise
    1,                        !- Fan Total Efficiency
    1,                        !- Constant Term Coefficient
    0,                        !- Temperature Term Coefficient
    0,                        !- Velocity Term Coefficient
    0,                        !- Velocity Squared Term Coefficient
    -100,                     !- Minimum Indoor Temperature
    ,                         !- Minimum Indoor Temperature Schedule Name
    100,                      !- Maximum Indoor Temperature
    ,                         !- Maximum Indoor Temperature Schedule Name
    -100,                     !- Delta Temperature
    ,                         !- Delta Temperature Schedule Name
    -100,                     !- Minimum Outdoor Temperature
    ,                         !- Minimum Outdoor Temperature Schedule Name
    100,                      !- Maximum Outdoor Temperature
    ,                         !- Maximum Outdoor Temperature Schedule Name
    40;                       !- Maximum Wind Speed

ZONEVENTILATION:DESIGNFLOWRATE,
    EU_ConstantAir_58bdcf3b3f3405dc_F0_dwelling_3,    !- Name
    58bdcf3b3f3405dc_F0_dwelling_3,    !- Zone or ZoneList or Space or SpaceList Name
    EU_AlwaysOn,              !- Schedule Name
    AirChanges/Hour,          !- Design Flow Rate Calculation Method
    ,                         !- Design Flow Rate
    ,                         !- Flow Rate per Floor Area
    ,                         !- Flow Rate per Person
    4.887194e-01,             !- Air Changes per Hour
    Natural,                  !- Ventilation Type
    0,                        !- Fan Pressure Rise
    1,                        !- Fan Total Efficiency
    1,                        !- Constant Term Coefficient
    0,                        !- Temperature Term Coefficient
    0,                        !- Velocity Term Coefficient
    0,                        !- Velocity Squared Term Coefficient
    -100,                     !- Minimum Indoor Temperature
    ,                         !- Minimum Indoor Temperature Schedule Name
    100,                      !- Maximum Indoor Temperature
    ,                         !- Maximum Indoor Temperature Schedule Name
    -100,                     !- Delta Temperature
    ,                         !- Delta Temperature Schedule Name
    -100,                     !- Minimum Outdoor Temperature
    ,                         !- Minimum Outdoor Temperature Schedule Name
    100,                      !- Maximum Outdoor Temperature
    ,                         !- Maximum Outdoor Temperature Schedule Name
    40;                       !- Maximum Wind Speed

ZONEVENTILATION:DESIGNFLOWRATE,
    EU_ConstantAir_58bdcf3b3f3405dc_F0_dwelling_4,    !- Name
    58bdcf3b3f3405dc_F0_dwelling_4,    !- Zone or ZoneList or Space or SpaceList Name
    EU_AlwaysOn,              !- Schedule Name
    AirChanges/Hour,          !- Design Flow Rate Calculation Method
    ,                         !- Design Flow Rate
    ,                         !- Flow Rate per Floor Area
    ,                         !- Flow Rate per Person
    4.887194e-01,             !- Air Changes per Hour
    Natural,                  !- Ventilation Type
    0,                        !- Fan Pressure Rise
    1,                        !- Fan Total Efficiency
    1,                        !- Constant Term Coefficient
    0,                        !- Temperature Term Coefficient
    0,                        !- Velocity Term Coefficient
    0,                        !- Velocity Squared Term Coefficient
    -100,                     !- Minimum Indoor Temperature
    ,                         !- Minimum Indoor Temperature Schedule Name
    100,                      !- Maximum Indoor Temperature
    ,                         !- Maximum Indoor Temperature Schedule Name
    -100,                     !- Delta Temperature
    ,                         !- Delta Temperature Schedule Name
    -100,                     !- Minimum Outdoor Temperature
    ,                         !- Minimum Outdoor Temperature Schedule Name
    100,                      !- Maximum Outdoor Temperature
    ,                         !- Maximum Outdoor Temperature Schedule Name
    40;                       !- Maximum Wind Speed

ZONEVENTILATION:DESIGNFLOWRATE,
    EU_ConstantAir_58bdcf3b3f3405dc_F0_dwelling_5,    !- Name
    58bdcf3b3f3405dc_F0_dwelling_5,    !- Zone or ZoneList or Space or SpaceList Name
    EU_AlwaysOn,              !- Schedule Name
    AirChanges/Hour,          !- Design Flow Rate Calculation Method
    ,                         !- Design Flow Rate
    ,                         !- Flow Rate per Floor Area
    ,                         !- Flow Rate per Person
    4.887194e-01,             !- Air Changes per Hour
    Natural,                  !- Ventilation Type
    0,                        !- Fan Pressure Rise
    1,                        !- Fan Total Efficiency
    1,                        !- Constant Term Coefficient
    0,                        !- Temperature Term Coefficient
    0,                        !- Velocity Term Coefficient
    0,                        !- Velocity Squared Term Coefficient
    -100,                     !- Minimum Indoor Temperature
    ,                         !- Minimum Indoor Temperature Schedule Name
    100,                      !- Maximum Indoor Temperature
    ,                         !- Maximum Indoor Temperature Schedule Name
    -100,                     !- Delta Temperature
    ,                         !- Delta Temperature Schedule Name
    -100,                     !- Minimum Outdoor Temperature
    ,                         !- Minimum Outdoor Temperature Schedule Name
    100,                      !- Maximum Outdoor Temperature
    ,                         !- Maximum Outdoor Temperature Schedule Name
    40;                       !- Maximum Wind Speed

ZONEVENTILATION:DESIGNFLOWRATE,
    EU_ConstantAir_58bdcf3b3f3405dc_F1_dwelling_0,    !- Name
    58bdcf3b3f3405dc_F1_dwelling_0,    !- Zone or ZoneList or Space or SpaceList Name
    EU_AlwaysOn,              !- Schedule Name
    AirChanges/Hour,          !- Design Flow Rate Calculation Method
    ,                         !- Design Flow Rate
    ,                         !- Flow Rate per Floor Area
    ,                         !- Flow Rate per Person
    4.887194e-01,             !- Air Changes per Hour
    Natural,                  !- Ventilation Type
    0,                        !- Fan Pressure Rise
    1,                        !- Fan Total Efficiency
    1,                        !- Constant Term Coefficient
    0,                        !- Temperature Term Coefficient
    0,                        !- Velocity Term Coefficient
    0,                        !- Velocity Squared Term Coefficient
    -100,                     !- Minimum Indoor Temperature
    ,                         !- Minimum Indoor Temperature Schedule Name
    100,                      !- Maximum Indoor Temperature
    ,                         !- Maximum Indoor Temperature Schedule Name
    -100,                     !- Delta Temperature
    ,                         !- Delta Temperature Schedule Name
    -100,                     !- Minimum Outdoor Temperature
    ,                         !- Minimum Outdoor Temperature Schedule Name
    100,                      !- Maximum Outdoor Temperature
    ,                         !- Maximum Outdoor Temperature Schedule Name
    40;                       !- Maximum Wind Speed

ZONEVENTILATION:DESIGNFLOWRATE,
    EU_ConstantAir_58bdcf3b3f3405dc_F1_dwelling_1,    !- Name
    58bdcf3b3f3405dc_F1_dwelling_1,    !- Zone or ZoneList or Space or SpaceList Name
    EU_AlwaysOn,              !- Schedule Name
    AirChanges/Hour,          !- Design Flow Rate Calculation Method
    ,                         !- Design Flow Rate
    ,                         !- Flow Rate per Floor Area
    ,                         !- Flow Rate per Person
    4.887194e-01,             !- Air Changes per Hour
    Natural,                  !- Ventilation Type
    0,                        !- Fan Pressure Rise
    1,                        !- Fan Total Efficiency
    1,                        !- Constant Term Coefficient
    0,                        !- Temperature Term Coefficient
    0,                        !- Velocity Term Coefficient
    0,                        !- Velocity Squared Term Coefficient
    -100,                     !- Minimum Indoor Temperature
    ,                         !- Minimum Indoor Temperature Schedule Name
    100,                      !- Maximum Indoor Temperature
    ,                         !- Maximum Indoor Temperature Schedule Name
    -100,                     !- Delta Temperature
    ,                         !- Delta Temperature Schedule Name
    -100,                     !- Minimum Outdoor Temperature
    ,                         !- Minimum Outdoor Temperature Schedule Name
    100,                      !- Maximum Outdoor Temperature
    ,                         !- Maximum Outdoor Temperature Schedule Name
    40;                       !- Maximum Wind Speed

ZONEVENTILATION:DESIGNFLOWRATE,
    EU_ConstantAir_58bdcf3b3f3405dc_F1_dwelling_2,    !- Name
    58bdcf3b3f3405dc_F1_dwelling_2,    !- Zone or ZoneList or Space or SpaceList Name
    EU_AlwaysOn,              !- Schedule Name
    AirChanges/Hour,          !- Design Flow Rate Calculation Method
    ,                         !- Design Flow Rate
    ,                         !- Flow Rate per Floor Area
    ,                         !- Flow Rate per Person
    4.887194e-01,             !- Air Changes per Hour
    Natural,                  !- Ventilation Type
    0,                        !- Fan Pressure Rise
    1,                        !- Fan Total Efficiency
    1,                        !- Constant Term Coefficient
    0,                        !- Temperature Term Coefficient
    0,                        !- Velocity Term Coefficient
    0,                        !- Velocity Squared Term Coefficient
    -100,                     !- Minimum Indoor Temperature
    ,                         !- Minimum Indoor Temperature Schedule Name
    100,                      !- Maximum Indoor Temperature
    ,                         !- Maximum Indoor Temperature Schedule Name
    -100,                     !- Delta Temperature
    ,                         !- Delta Temperature Schedule Name
    -100,                     !- Minimum Outdoor Temperature
    ,                         !- Minimum Outdoor Temperature Schedule Name
    100,                      !- Maximum Outdoor Temperature
    ,                         !- Maximum Outdoor Temperature Schedule Name
    40;                       !- Maximum Wind Speed

ZONEVENTILATION:DESIGNFLOWRATE,
    EU_ConstantAir_58bdcf3b3f3405dc_F1_dwelling_3,    !- Name
    58bdcf3b3f3405dc_F1_dwelling_3,    !- Zone or ZoneList or Space or SpaceList Name
    EU_AlwaysOn,              !- Schedule Name
    AirChanges/Hour,          !- Design Flow Rate Calculation Method
    ,                         !- Design Flow Rate
    ,                         !- Flow Rate per Floor Area
    ,                         !- Flow Rate per Person
    4.887194e-01,             !- Air Changes per Hour
    Natural,                  !- Ventilation Type
    0,                        !- Fan Pressure Rise
    1,                        !- Fan Total Efficiency
    1,                        !- Constant Term Coefficient
    0,                        !- Temperature Term Coefficient
    0,                        !- Velocity Term Coefficient
    0,                        !- Velocity Squared Term Coefficient
    -100,                     !- Minimum Indoor Temperature
    ,                         !- Minimum Indoor Temperature Schedule Name
    100,                      !- Maximum Indoor Temperature
    ,                         !- Maximum Indoor Temperature Schedule Name
    -100,                     !- Delta Temperature
    ,                         !- Delta Temperature Schedule Name
    -100,                     !- Minimum Outdoor Temperature
    ,                         !- Minimum Outdoor Temperature Schedule Name
    100,                      !- Maximum Outdoor Temperature
    ,                         !- Maximum Outdoor Temperature Schedule Name
    40;                       !- Maximum Wind Speed

ZONEVENTILATION:DESIGNFLOWRATE,
    EU_ConstantAir_58bdcf3b3f3405dc_F1_dwelling_4,    !- Name
    58bdcf3b3f3405dc_F1_dwelling_4,    !- Zone or ZoneList or Space or SpaceList Name
    EU_AlwaysOn,              !- Schedule Name
    AirChanges/Hour,          !- Design Flow Rate Calculation Method
    ,                         !- Design Flow Rate
    ,                         !- Flow Rate per Floor Area
    ,                         !- Flow Rate per Person
    4.887194e-01,             !- Air Changes per Hour
    Natural,                  !- Ventilation Type
    0,                        !- Fan Pressure Rise
    1,                        !- Fan Total Efficiency
    1,                        !- Constant Term Coefficient
    0,                        !- Temperature Term Coefficient
    0,                        !- Velocity Term Coefficient
    0,                        !- Velocity Squared Term Coefficient
    -100,                     !- Minimum Indoor Temperature
    ,                         !- Minimum Indoor Temperature Schedule Name
    100,                      !- Maximum Indoor Temperature
    ,                         !- Maximum Indoor Temperature Schedule Name
    -100,                     !- Delta Temperature
    ,                         !- Delta Temperature Schedule Name
    -100,                     !- Minimum Outdoor Temperature
    ,                         !- Minimum Outdoor Temperature Schedule Name
    100,                      !- Maximum Outdoor Temperature
    ,                         !- Maximum Outdoor Temperature Schedule Name
    40;                       !- Maximum Wind Speed

ZONEVENTILATION:DESIGNFLOWRATE,
    EU_ConstantAir_58bdcf3b3f3405dc_F1_dwelling_5,    !- Name
    58bdcf3b3f3405dc_F1_dwelling_5,    !- Zone or ZoneList or Space or SpaceList Name
    EU_AlwaysOn,              !- Schedule Name
    AirChanges/Hour,          !- Design Flow Rate Calculation Method
    ,                         !- Design Flow Rate
    ,                         !- Flow Rate per Floor Area
    ,                         !- Flow Rate per Person
    4.887194e-01,             !- Air Changes per Hour
    Natural,                  !- Ventilation Type
    0,                        !- Fan Pressure Rise
    1,                        !- Fan Total Efficiency
    1,                        !- Constant Term Coefficient
    0,                        !- Temperature Term Coefficient
    0,                        !- Velocity Term Coefficient
    0,                        !- Velocity Squared Term Coefficient
    -100,                     !- Minimum Indoor Temperature
    ,                         !- Minimum Indoor Temperature Schedule Name
    100,                      !- Maximum Indoor Temperature
    ,                         !- Maximum Indoor Temperature Schedule Name
    -100,                     !- Delta Temperature
    ,                         !- Delta Temperature Schedule Name
    -100,                     !- Minimum Outdoor Temperature
    ,                         !- Minimum Outdoor Temperature Schedule Name
    100,                      !- Maximum Outdoor Temperature
    ,                         !- Maximum Outdoor Temperature Schedule Name
    40;                       !- Maximum Wind Speed

ZONEVENTILATION:DESIGNFLOWRATE,
    EU_ConstantAir_58bdcf3b3f3405dc_F2_dwelling_0,    !- Name
    58bdcf3b3f3405dc_F2_dwelling_0,    !- Zone or ZoneList or Space or SpaceList Name
    EU_AlwaysOn,              !- Schedule Name
    AirChanges/Hour,          !- Design Flow Rate Calculation Method
    ,                         !- Design Flow Rate
    ,                         !- Flow Rate per Floor Area
    ,                         !- Flow Rate per Person
    4.887194e-01,             !- Air Changes per Hour
    Natural,                  !- Ventilation Type
    0,                        !- Fan Pressure Rise
    1,                        !- Fan Total Efficiency
    1,                        !- Constant Term Coefficient
    0,                        !- Temperature Term Coefficient
    0,                        !- Velocity Term Coefficient
    0,                        !- Velocity Squared Term Coefficient
    -100,                     !- Minimum Indoor Temperature
    ,                         !- Minimum Indoor Temperature Schedule Name
    100,                      !- Maximum Indoor Temperature
    ,                         !- Maximum Indoor Temperature Schedule Name
    -100,                     !- Delta Temperature
    ,                         !- Delta Temperature Schedule Name
    -100,                     !- Minimum Outdoor Temperature
    ,                         !- Minimum Outdoor Temperature Schedule Name
    100,                      !- Maximum Outdoor Temperature
    ,                         !- Maximum Outdoor Temperature Schedule Name
    40;                       !- Maximum Wind Speed

ZONEVENTILATION:DESIGNFLOWRATE,
    EU_ConstantAir_58bdcf3b3f3405dc_F2_dwelling_1,    !- Name
    58bdcf3b3f3405dc_F2_dwelling_1,    !- Zone or ZoneList or Space or SpaceList Name
    EU_AlwaysOn,              !- Schedule Name
    AirChanges/Hour,          !- Design Flow Rate Calculation Method
    ,                         !- Design Flow Rate
    ,                         !- Flow Rate per Floor Area
    ,                         !- Flow Rate per Person
    4.887194e-01,             !- Air Changes per Hour
    Natural,                  !- Ventilation Type
    0,                        !- Fan Pressure Rise
    1,                        !- Fan Total Efficiency
    1,                        !- Constant Term Coefficient
    0,                        !- Temperature Term Coefficient
    0,                        !- Velocity Term Coefficient
    0,                        !- Velocity Squared Term Coefficient
    -100,                     !- Minimum Indoor Temperature
    ,                         !- Minimum Indoor Temperature Schedule Name
    100,                      !- Maximum Indoor Temperature
    ,                         !- Maximum Indoor Temperature Schedule Name
    -100,                     !- Delta Temperature
    ,                         !- Delta Temperature Schedule Name
    -100,                     !- Minimum Outdoor Temperature
    ,                         !- Minimum Outdoor Temperature Schedule Name
    100,                      !- Maximum Outdoor Temperature
    ,                         !- Maximum Outdoor Temperature Schedule Name
    40;                       !- Maximum Wind Speed

ZONEVENTILATION:DESIGNFLOWRATE,
    EU_ConstantAir_58bdcf3b3f3405dc_F2_dwelling_2,    !- Name
    58bdcf3b3f3405dc_F2_dwelling_2,    !- Zone or ZoneList or Space or SpaceList Name
    EU_AlwaysOn,              !- Schedule Name
    AirChanges/Hour,          !- Design Flow Rate Calculation Method
    ,                         !- Design Flow Rate
    ,                         !- Flow Rate per Floor Area
    ,                         !- Flow Rate per Person
    4.887194e-01,             !- Air Changes per Hour
    Natural,                  !- Ventilation Type
    0,                        !- Fan Pressure Rise
    1,                        !- Fan Total Efficiency
    1,                        !- Constant Term Coefficient
    0,                        !- Temperature Term Coefficient
    0,                        !- Velocity Term Coefficient
    0,                        !- Velocity Squared Term Coefficient
    -100,                     !- Minimum Indoor Temperature
    ,                         !- Minimum Indoor Temperature Schedule Name
    100,                      !- Maximum Indoor Temperature
    ,                         !- Maximum Indoor Temperature Schedule Name
    -100,                     !- Delta Temperature
    ,                         !- Delta Temperature Schedule Name
    -100,                     !- Minimum Outdoor Temperature
    ,                         !- Minimum Outdoor Temperature Schedule Name
    100,                      !- Maximum Outdoor Temperature
    ,                         !- Maximum Outdoor Temperature Schedule Name
    40;                       !- Maximum Wind Speed

ZONEVENTILATION:DESIGNFLOWRATE,
    EU_ConstantAir_58bdcf3b3f3405dc_F2_dwelling_3,    !- Name
    58bdcf3b3f3405dc_F2_dwelling_3,    !- Zone or ZoneList or Space or SpaceList Name
    EU_AlwaysOn,              !- Schedule Name
    AirChanges/Hour,          !- Design Flow Rate Calculation Method
    ,                         !- Design Flow Rate
    ,                         !- Flow Rate per Floor Area
    ,                         !- Flow Rate per Person
    4.887194e-01,             !- Air Changes per Hour
    Natural,                  !- Ventilation Type
    0,                        !- Fan Pressure Rise
    1,                        !- Fan Total Efficiency
    1,                        !- Constant Term Coefficient
    0,                        !- Temperature Term Coefficient
    0,                        !- Velocity Term Coefficient
    0,                        !- Velocity Squared Term Coefficient
    -100,                     !- Minimum Indoor Temperature
    ,                         !- Minimum Indoor Temperature Schedule Name
    100,                      !- Maximum Indoor Temperature
    ,                         !- Maximum Indoor Temperature Schedule Name
    -100,                     !- Delta Temperature
    ,                         !- Delta Temperature Schedule Name
    -100,                     !- Minimum Outdoor Temperature
    ,                         !- Minimum Outdoor Temperature Schedule Name
    100,                      !- Maximum Outdoor Temperature
    ,                         !- Maximum Outdoor Temperature Schedule Name
    40;                       !- Maximum Wind Speed

ZONEVENTILATION:DESIGNFLOWRATE,
    EU_ConstantAir_58bdcf3b3f3405dc_F2_dwelling_4,    !- Name
    58bdcf3b3f3405dc_F2_dwelling_4,    !- Zone or ZoneList or Space or SpaceList Name
    EU_AlwaysOn,              !- Schedule Name
    AirChanges/Hour,          !- Design Flow Rate Calculation Method
    ,                         !- Design Flow Rate
    ,                         !- Flow Rate per Floor Area
    ,                         !- Flow Rate per Person
    4.887194e-01,             !- Air Changes per Hour
    Natural,                  !- Ventilation Type
    0,                        !- Fan Pressure Rise
    1,                        !- Fan Total Efficiency
    1,                        !- Constant Term Coefficient
    0,                        !- Temperature Term Coefficient
    0,                        !- Velocity Term Coefficient
    0,                        !- Velocity Squared Term Coefficient
    -100,                     !- Minimum Indoor Temperature
    ,                         !- Minimum Indoor Temperature Schedule Name
    100,                      !- Maximum Indoor Temperature
    ,                         !- Maximum Indoor Temperature Schedule Name
    -100,                     !- Delta Temperature
    ,                         !- Delta Temperature Schedule Name
    -100,                     !- Minimum Outdoor Temperature
    ,                         !- Minimum Outdoor Temperature Schedule Name
    100,                      !- Maximum Outdoor Temperature
    ,                         !- Maximum Outdoor Temperature Schedule Name
    40;                       !- Maximum Wind Speed

HVACTEMPLATE:THERMOSTAT,
    EU_HeatOnly_58bdcf3b3f3405dc_F0_dwelling_0,    !- Name
    ,                         !- Heating Setpoint Schedule Name
    20,                       !- Constant Heating Setpoint
    ,                         !- Cooling Setpoint Schedule Name
    50;                       !- Constant Cooling Setpoint

HVACTEMPLATE:THERMOSTAT,
    EU_HeatOnly_58bdcf3b3f3405dc_F0_dwelling_1,    !- Name
    ,                         !- Heating Setpoint Schedule Name
    20,                       !- Constant Heating Setpoint
    ,                         !- Cooling Setpoint Schedule Name
    50;                       !- Constant Cooling Setpoint

HVACTEMPLATE:THERMOSTAT,
    EU_HeatOnly_58bdcf3b3f3405dc_F0_dwelling_2,    !- Name
    ,                         !- Heating Setpoint Schedule Name
    20,                       !- Constant Heating Setpoint
    ,                         !- Cooling Setpoint Schedule Name
    50;                       !- Constant Cooling Setpoint

HVACTEMPLATE:THERMOSTAT,
    EU_HeatOnly_58bdcf3b3f3405dc_F0_dwelling_3,    !- Name
    ,                         !- Heating Setpoint Schedule Name
    20,                       !- Constant Heating Setpoint
    ,                         !- Cooling Setpoint Schedule Name
    50;                       !- Constant Cooling Setpoint

HVACTEMPLATE:THERMOSTAT,
    EU_HeatOnly_58bdcf3b3f3405dc_F0_dwelling_4,    !- Name
    ,                         !- Heating Setpoint Schedule Name
    20,                       !- Constant Heating Setpoint
    ,                         !- Cooling Setpoint Schedule Name
    50;                       !- Constant Cooling Setpoint

HVACTEMPLATE:THERMOSTAT,
    EU_HeatOnly_58bdcf3b3f3405dc_F0_dwelling_5,    !- Name
    ,                         !- Heating Setpoint Schedule Name
    20,                       !- Constant Heating Setpoint
    ,                         !- Cooling Setpoint Schedule Name
    50;                       !- Constant Cooling Setpoint

HVACTEMPLATE:THERMOSTAT,
    EU_HeatOnly_58bdcf3b3f3405dc_F1_dwelling_0,    !- Name
    ,                         !- Heating Setpoint Schedule Name
    20,                       !- Constant Heating Setpoint
    ,                         !- Cooling Setpoint Schedule Name
    50;                       !- Constant Cooling Setpoint

HVACTEMPLATE:THERMOSTAT,
    EU_HeatOnly_58bdcf3b3f3405dc_F1_dwelling_1,    !- Name
    ,                         !- Heating Setpoint Schedule Name
    20,                       !- Constant Heating Setpoint
    ,                         !- Cooling Setpoint Schedule Name
    50;                       !- Constant Cooling Setpoint

HVACTEMPLATE:THERMOSTAT,
    EU_HeatOnly_58bdcf3b3f3405dc_F1_dwelling_2,    !- Name
    ,                         !- Heating Setpoint Schedule Name
    20,                       !- Constant Heating Setpoint
    ,                         !- Cooling Setpoint Schedule Name
    50;                       !- Constant Cooling Setpoint

HVACTEMPLATE:THERMOSTAT,
    EU_HeatOnly_58bdcf3b3f3405dc_F1_dwelling_3,    !- Name
    ,                         !- Heating Setpoint Schedule Name
    20,                       !- Constant Heating Setpoint
    ,                         !- Cooling Setpoint Schedule Name
    50;                       !- Constant Cooling Setpoint

HVACTEMPLATE:THERMOSTAT,
    EU_HeatOnly_58bdcf3b3f3405dc_F1_dwelling_4,    !- Name
    ,                         !- Heating Setpoint Schedule Name
    20,                       !- Constant Heating Setpoint
    ,                         !- Cooling Setpoint Schedule Name
    50;                       !- Constant Cooling Setpoint

HVACTEMPLATE:THERMOSTAT,
    EU_HeatOnly_58bdcf3b3f3405dc_F1_dwelling_5,    !- Name
    ,                         !- Heating Setpoint Schedule Name
    20,                       !- Constant Heating Setpoint
    ,                         !- Cooling Setpoint Schedule Name
    50;                       !- Constant Cooling Setpoint

HVACTEMPLATE:THERMOSTAT,
    EU_HeatOnly_58bdcf3b3f3405dc_F2_dwelling_0,    !- Name
    ,                         !- Heating Setpoint Schedule Name
    20,                       !- Constant Heating Setpoint
    ,                         !- Cooling Setpoint Schedule Name
    50;                       !- Constant Cooling Setpoint

HVACTEMPLATE:THERMOSTAT,
    EU_HeatOnly_58bdcf3b3f3405dc_F2_dwelling_1,    !- Name
    ,                         !- Heating Setpoint Schedule Name
    20,                       !- Constant Heating Setpoint
    ,                         !- Cooling Setpoint Schedule Name
    50;                       !- Constant Cooling Setpoint

HVACTEMPLATE:THERMOSTAT,
    EU_HeatOnly_58bdcf3b3f3405dc_F2_dwelling_2,    !- Name
    ,                         !- Heating Setpoint Schedule Name
    20,                       !- Constant Heating Setpoint
    ,                         !- Cooling Setpoint Schedule Name
    50;                       !- Constant Cooling Setpoint

HVACTEMPLATE:THERMOSTAT,
    EU_HeatOnly_58bdcf3b3f3405dc_F2_dwelling_3,    !- Name
    ,                         !- Heating Setpoint Schedule Name
    20,                       !- Constant Heating Setpoint
    ,                         !- Cooling Setpoint Schedule Name
    50;                       !- Constant Cooling Setpoint

HVACTEMPLATE:THERMOSTAT,
    EU_HeatOnly_58bdcf3b3f3405dc_F2_dwelling_4,    !- Name
    ,                         !- Heating Setpoint Schedule Name
    20,                       !- Constant Heating Setpoint
    ,                         !- Cooling Setpoint Schedule Name
    50;                       !- Constant Cooling Setpoint

HVACTEMPLATE:ZONE:IDEALLOADSAIRSYSTEM,
    58bdcf3b3f3405dc_F0_dwelling_0,    !- Zone Name
    EU_HeatOnly_58bdcf3b3f3405dc_F0_dwelling_0,    !- Template Thermostat Name
    EU_AlwaysOn,              !- System Availability Schedule Name
    50,                       !- Maximum Heating Supply Air Temperature
    13,                       !- Minimum Cooling Supply Air Temperature
    0.0156,                   !- Maximum Heating Supply Air Humidity Ratio
    0.0077,                   !- Minimum Cooling Supply Air Humidity Ratio
    NoLimit,                  !- Heating Limit
    ,                         !- Maximum Heating Air Flow Rate
    ,                         !- Maximum Sensible Heating Capacity
    NoLimit,                  !- Cooling Limit
    ,                         !- Maximum Cooling Air Flow Rate
    ,                         !- Maximum Total Cooling Capacity
    EU_AlwaysOn,              !- Heating Availability Schedule Name
    EU_CoolingOff,            !- Cooling Availability Schedule Name
    ConstantSensibleHeatRatio,    !- Dehumidification Control Type
    0.7,                      !- Cooling Sensible Heat Ratio
    60,                       !- Dehumidification Setpoint
    None,                     !- Humidification Control Type
    30,                       !- Humidification Setpoint
    None,                     !- Outdoor Air Method
    0.00944,                  !- Outdoor Air Flow Rate per Person
    0.0,                      !- Outdoor Air Flow Rate per Zone Floor Area
    0,                        !- Outdoor Air Flow Rate per Zone
    ,                         !- Design Specification Outdoor Air Object Name
    None,                     !- Demand Controlled Ventilation Type
    NoEconomizer,             !- Outdoor Air Economizer Type
    None,                     !- Heat Recovery Type
    0.70,                     !- Sensible Heat Recovery Effectiveness
    0.65;                     !- Latent Heat Recovery Effectiveness

HVACTEMPLATE:ZONE:IDEALLOADSAIRSYSTEM,
    58bdcf3b3f3405dc_F0_dwelling_1,    !- Zone Name
    EU_HeatOnly_58bdcf3b3f3405dc_F0_dwelling_1,    !- Template Thermostat Name
    EU_AlwaysOn,              !- System Availability Schedule Name
    50,                       !- Maximum Heating Supply Air Temperature
    13,                       !- Minimum Cooling Supply Air Temperature
    0.0156,                   !- Maximum Heating Supply Air Humidity Ratio
    0.0077,                   !- Minimum Cooling Supply Air Humidity Ratio
    NoLimit,                  !- Heating Limit
    ,                         !- Maximum Heating Air Flow Rate
    ,                         !- Maximum Sensible Heating Capacity
    NoLimit,                  !- Cooling Limit
    ,                         !- Maximum Cooling Air Flow Rate
    ,                         !- Maximum Total Cooling Capacity
    EU_AlwaysOn,              !- Heating Availability Schedule Name
    EU_CoolingOff,            !- Cooling Availability Schedule Name
    ConstantSensibleHeatRatio,    !- Dehumidification Control Type
    0.7,                      !- Cooling Sensible Heat Ratio
    60,                       !- Dehumidification Setpoint
    None,                     !- Humidification Control Type
    30,                       !- Humidification Setpoint
    None,                     !- Outdoor Air Method
    0.00944,                  !- Outdoor Air Flow Rate per Person
    0.0,                      !- Outdoor Air Flow Rate per Zone Floor Area
    0,                        !- Outdoor Air Flow Rate per Zone
    ,                         !- Design Specification Outdoor Air Object Name
    None,                     !- Demand Controlled Ventilation Type
    NoEconomizer,             !- Outdoor Air Economizer Type
    None,                     !- Heat Recovery Type
    0.70,                     !- Sensible Heat Recovery Effectiveness
    0.65;                     !- Latent Heat Recovery Effectiveness

HVACTEMPLATE:ZONE:IDEALLOADSAIRSYSTEM,
    58bdcf3b3f3405dc_F0_dwelling_2,    !- Zone Name
    EU_HeatOnly_58bdcf3b3f3405dc_F0_dwelling_2,    !- Template Thermostat Name
    EU_AlwaysOn,              !- System Availability Schedule Name
    50,                       !- Maximum Heating Supply Air Temperature
    13,                       !- Minimum Cooling Supply Air Temperature
    0.0156,                   !- Maximum Heating Supply Air Humidity Ratio
    0.0077,                   !- Minimum Cooling Supply Air Humidity Ratio
    NoLimit,                  !- Heating Limit
    ,                         !- Maximum Heating Air Flow Rate
    ,                         !- Maximum Sensible Heating Capacity
    NoLimit,                  !- Cooling Limit
    ,                         !- Maximum Cooling Air Flow Rate
    ,                         !- Maximum Total Cooling Capacity
    EU_AlwaysOn,              !- Heating Availability Schedule Name
    EU_CoolingOff,            !- Cooling Availability Schedule Name
    ConstantSensibleHeatRatio,    !- Dehumidification Control Type
    0.7,                      !- Cooling Sensible Heat Ratio
    60,                       !- Dehumidification Setpoint
    None,                     !- Humidification Control Type
    30,                       !- Humidification Setpoint
    None,                     !- Outdoor Air Method
    0.00944,                  !- Outdoor Air Flow Rate per Person
    0.0,                      !- Outdoor Air Flow Rate per Zone Floor Area
    0,                        !- Outdoor Air Flow Rate per Zone
    ,                         !- Design Specification Outdoor Air Object Name
    None,                     !- Demand Controlled Ventilation Type
    NoEconomizer,             !- Outdoor Air Economizer Type
    None,                     !- Heat Recovery Type
    0.70,                     !- Sensible Heat Recovery Effectiveness
    0.65;                     !- Latent Heat Recovery Effectiveness

HVACTEMPLATE:ZONE:IDEALLOADSAIRSYSTEM,
    58bdcf3b3f3405dc_F0_dwelling_3,    !- Zone Name
    EU_HeatOnly_58bdcf3b3f3405dc_F0_dwelling_3,    !- Template Thermostat Name
    EU_AlwaysOn,              !- System Availability Schedule Name
    50,                       !- Maximum Heating Supply Air Temperature
    13,                       !- Minimum Cooling Supply Air Temperature
    0.0156,                   !- Maximum Heating Supply Air Humidity Ratio
    0.0077,                   !- Minimum Cooling Supply Air Humidity Ratio
    NoLimit,                  !- Heating Limit
    ,                         !- Maximum Heating Air Flow Rate
    ,                         !- Maximum Sensible Heating Capacity
    NoLimit,                  !- Cooling Limit
    ,                         !- Maximum Cooling Air Flow Rate
    ,                         !- Maximum Total Cooling Capacity
    EU_AlwaysOn,              !- Heating Availability Schedule Name
    EU_CoolingOff,            !- Cooling Availability Schedule Name
    ConstantSensibleHeatRatio,    !- Dehumidification Control Type
    0.7,                      !- Cooling Sensible Heat Ratio
    60,                       !- Dehumidification Setpoint
    None,                     !- Humidification Control Type
    30,                       !- Humidification Setpoint
    None,                     !- Outdoor Air Method
    0.00944,                  !- Outdoor Air Flow Rate per Person
    0.0,                      !- Outdoor Air Flow Rate per Zone Floor Area
    0,                        !- Outdoor Air Flow Rate per Zone
    ,                         !- Design Specification Outdoor Air Object Name
    None,                     !- Demand Controlled Ventilation Type
    NoEconomizer,             !- Outdoor Air Economizer Type
    None,                     !- Heat Recovery Type
    0.70,                     !- Sensible Heat Recovery Effectiveness
    0.65;                     !- Latent Heat Recovery Effectiveness

HVACTEMPLATE:ZONE:IDEALLOADSAIRSYSTEM,
    58bdcf3b3f3405dc_F0_dwelling_4,    !- Zone Name
    EU_HeatOnly_58bdcf3b3f3405dc_F0_dwelling_4,    !- Template Thermostat Name
    EU_AlwaysOn,              !- System Availability Schedule Name
    50,                       !- Maximum Heating Supply Air Temperature
    13,                       !- Minimum Cooling Supply Air Temperature
    0.0156,                   !- Maximum Heating Supply Air Humidity Ratio
    0.0077,                   !- Minimum Cooling Supply Air Humidity Ratio
    NoLimit,                  !- Heating Limit
    ,                         !- Maximum Heating Air Flow Rate
    ,                         !- Maximum Sensible Heating Capacity
    NoLimit,                  !- Cooling Limit
    ,                         !- Maximum Cooling Air Flow Rate
    ,                         !- Maximum Total Cooling Capacity
    EU_AlwaysOn,              !- Heating Availability Schedule Name
    EU_CoolingOff,            !- Cooling Availability Schedule Name
    ConstantSensibleHeatRatio,    !- Dehumidification Control Type
    0.7,                      !- Cooling Sensible Heat Ratio
    60,                       !- Dehumidification Setpoint
    None,                     !- Humidification Control Type
    30,                       !- Humidification Setpoint
    None,                     !- Outdoor Air Method
    0.00944,                  !- Outdoor Air Flow Rate per Person
    0.0,                      !- Outdoor Air Flow Rate per Zone Floor Area
    0,                        !- Outdoor Air Flow Rate per Zone
    ,                         !- Design Specification Outdoor Air Object Name
    None,                     !- Demand Controlled Ventilation Type
    NoEconomizer,             !- Outdoor Air Economizer Type
    None,                     !- Heat Recovery Type
    0.70,                     !- Sensible Heat Recovery Effectiveness
    0.65;                     !- Latent Heat Recovery Effectiveness

HVACTEMPLATE:ZONE:IDEALLOADSAIRSYSTEM,
    58bdcf3b3f3405dc_F0_dwelling_5,    !- Zone Name
    EU_HeatOnly_58bdcf3b3f3405dc_F0_dwelling_5,    !- Template Thermostat Name
    EU_AlwaysOn,              !- System Availability Schedule Name
    50,                       !- Maximum Heating Supply Air Temperature
    13,                       !- Minimum Cooling Supply Air Temperature
    0.0156,                   !- Maximum Heating Supply Air Humidity Ratio
    0.0077,                   !- Minimum Cooling Supply Air Humidity Ratio
    NoLimit,                  !- Heating Limit
    ,                         !- Maximum Heating Air Flow Rate
    ,                         !- Maximum Sensible Heating Capacity
    NoLimit,                  !- Cooling Limit
    ,                         !- Maximum Cooling Air Flow Rate
    ,                         !- Maximum Total Cooling Capacity
    EU_AlwaysOn,              !- Heating Availability Schedule Name
    EU_CoolingOff,            !- Cooling Availability Schedule Name
    ConstantSensibleHeatRatio,    !- Dehumidification Control Type
    0.7,                      !- Cooling Sensible Heat Ratio
    60,                       !- Dehumidification Setpoint
    None,                     !- Humidification Control Type
    30,                       !- Humidification Setpoint
    None,                     !- Outdoor Air Method
    0.00944,                  !- Outdoor Air Flow Rate per Person
    0.0,                      !- Outdoor Air Flow Rate per Zone Floor Area
    0,                        !- Outdoor Air Flow Rate per Zone
    ,                         !- Design Specification Outdoor Air Object Name
    None,                     !- Demand Controlled Ventilation Type
    NoEconomizer,             !- Outdoor Air Economizer Type
    None,                     !- Heat Recovery Type
    0.70,                     !- Sensible Heat Recovery Effectiveness
    0.65;                     !- Latent Heat Recovery Effectiveness

HVACTEMPLATE:ZONE:IDEALLOADSAIRSYSTEM,
    58bdcf3b3f3405dc_F1_dwelling_0,    !- Zone Name
    EU_HeatOnly_58bdcf3b3f3405dc_F1_dwelling_0,    !- Template Thermostat Name
    EU_AlwaysOn,              !- System Availability Schedule Name
    50,                       !- Maximum Heating Supply Air Temperature
    13,                       !- Minimum Cooling Supply Air Temperature
    0.0156,                   !- Maximum Heating Supply Air Humidity Ratio
    0.0077,                   !- Minimum Cooling Supply Air Humidity Ratio
    NoLimit,                  !- Heating Limit
    ,                         !- Maximum Heating Air Flow Rate
    ,                         !- Maximum Sensible Heating Capacity
    NoLimit,                  !- Cooling Limit
    ,                         !- Maximum Cooling Air Flow Rate
    ,                         !- Maximum Total Cooling Capacity
    EU_AlwaysOn,              !- Heating Availability Schedule Name
    EU_CoolingOff,            !- Cooling Availability Schedule Name
    ConstantSensibleHeatRatio,    !- Dehumidification Control Type
    0.7,                      !- Cooling Sensible Heat Ratio
    60,                       !- Dehumidification Setpoint
    None,                     !- Humidification Control Type
    30,                       !- Humidification Setpoint
    None,                     !- Outdoor Air Method
    0.00944,                  !- Outdoor Air Flow Rate per Person
    0.0,                      !- Outdoor Air Flow Rate per Zone Floor Area
    0,                        !- Outdoor Air Flow Rate per Zone
    ,                         !- Design Specification Outdoor Air Object Name
    None,                     !- Demand Controlled Ventilation Type
    NoEconomizer,             !- Outdoor Air Economizer Type
    None,                     !- Heat Recovery Type
    0.70,                     !- Sensible Heat Recovery Effectiveness
    0.65;                     !- Latent Heat Recovery Effectiveness

HVACTEMPLATE:ZONE:IDEALLOADSAIRSYSTEM,
    58bdcf3b3f3405dc_F1_dwelling_1,    !- Zone Name
    EU_HeatOnly_58bdcf3b3f3405dc_F1_dwelling_1,    !- Template Thermostat Name
    EU_AlwaysOn,              !- System Availability Schedule Name
    50,                       !- Maximum Heating Supply Air Temperature
    13,                       !- Minimum Cooling Supply Air Temperature
    0.0156,                   !- Maximum Heating Supply Air Humidity Ratio
    0.0077,                   !- Minimum Cooling Supply Air Humidity Ratio
    NoLimit,                  !- Heating Limit
    ,                         !- Maximum Heating Air Flow Rate
    ,                         !- Maximum Sensible Heating Capacity
    NoLimit,                  !- Cooling Limit
    ,                         !- Maximum Cooling Air Flow Rate
    ,                         !- Maximum Total Cooling Capacity
    EU_AlwaysOn,              !- Heating Availability Schedule Name
    EU_CoolingOff,            !- Cooling Availability Schedule Name
    ConstantSensibleHeatRatio,    !- Dehumidification Control Type
    0.7,                      !- Cooling Sensible Heat Ratio
    60,                       !- Dehumidification Setpoint
    None,                     !- Humidification Control Type
    30,                       !- Humidification Setpoint
    None,                     !- Outdoor Air Method
    0.00944,                  !- Outdoor Air Flow Rate per Person
    0.0,                      !- Outdoor Air Flow Rate per Zone Floor Area
    0,                        !- Outdoor Air Flow Rate per Zone
    ,                         !- Design Specification Outdoor Air Object Name
    None,                     !- Demand Controlled Ventilation Type
    NoEconomizer,             !- Outdoor Air Economizer Type
    None,                     !- Heat Recovery Type
    0.70,                     !- Sensible Heat Recovery Effectiveness
    0.65;                     !- Latent Heat Recovery Effectiveness

HVACTEMPLATE:ZONE:IDEALLOADSAIRSYSTEM,
    58bdcf3b3f3405dc_F1_dwelling_2,    !- Zone Name
    EU_HeatOnly_58bdcf3b3f3405dc_F1_dwelling_2,    !- Template Thermostat Name
    EU_AlwaysOn,              !- System Availability Schedule Name
    50,                       !- Maximum Heating Supply Air Temperature
    13,                       !- Minimum Cooling Supply Air Temperature
    0.0156,                   !- Maximum Heating Supply Air Humidity Ratio
    0.0077,                   !- Minimum Cooling Supply Air Humidity Ratio
    NoLimit,                  !- Heating Limit
    ,                         !- Maximum Heating Air Flow Rate
    ,                         !- Maximum Sensible Heating Capacity
    NoLimit,                  !- Cooling Limit
    ,                         !- Maximum Cooling Air Flow Rate
    ,                         !- Maximum Total Cooling Capacity
    EU_AlwaysOn,              !- Heating Availability Schedule Name
    EU_CoolingOff,            !- Cooling Availability Schedule Name
    ConstantSensibleHeatRatio,    !- Dehumidification Control Type
    0.7,                      !- Cooling Sensible Heat Ratio
    60,                       !- Dehumidification Setpoint
    None,                     !- Humidification Control Type
    30,                       !- Humidification Setpoint
    None,                     !- Outdoor Air Method
    0.00944,                  !- Outdoor Air Flow Rate per Person
    0.0,                      !- Outdoor Air Flow Rate per Zone Floor Area
    0,                        !- Outdoor Air Flow Rate per Zone
    ,                         !- Design Specification Outdoor Air Object Name
    None,                     !- Demand Controlled Ventilation Type
    NoEconomizer,             !- Outdoor Air Economizer Type
    None,                     !- Heat Recovery Type
    0.70,                     !- Sensible Heat Recovery Effectiveness
    0.65;                     !- Latent Heat Recovery Effectiveness

HVACTEMPLATE:ZONE:IDEALLOADSAIRSYSTEM,
    58bdcf3b3f3405dc_F1_dwelling_3,    !- Zone Name
    EU_HeatOnly_58bdcf3b3f3405dc_F1_dwelling_3,    !- Template Thermostat Name
    EU_AlwaysOn,              !- System Availability Schedule Name
    50,                       !- Maximum Heating Supply Air Temperature
    13,                       !- Minimum Cooling Supply Air Temperature
    0.0156,                   !- Maximum Heating Supply Air Humidity Ratio
    0.0077,                   !- Minimum Cooling Supply Air Humidity Ratio
    NoLimit,                  !- Heating Limit
    ,                         !- Maximum Heating Air Flow Rate
    ,                         !- Maximum Sensible Heating Capacity
    NoLimit,                  !- Cooling Limit
    ,                         !- Maximum Cooling Air Flow Rate
    ,                         !- Maximum Total Cooling Capacity
    EU_AlwaysOn,              !- Heating Availability Schedule Name
    EU_CoolingOff,            !- Cooling Availability Schedule Name
    ConstantSensibleHeatRatio,    !- Dehumidification Control Type
    0.7,                      !- Cooling Sensible Heat Ratio
    60,                       !- Dehumidification Setpoint
    None,                     !- Humidification Control Type
    30,                       !- Humidification Setpoint
    None,                     !- Outdoor Air Method
    0.00944,                  !- Outdoor Air Flow Rate per Person
    0.0,                      !- Outdoor Air Flow Rate per Zone Floor Area
    0,                        !- Outdoor Air Flow Rate per Zone
    ,                         !- Design Specification Outdoor Air Object Name
    None,                     !- Demand Controlled Ventilation Type
    NoEconomizer,             !- Outdoor Air Economizer Type
    None,                     !- Heat Recovery Type
    0.70,                     !- Sensible Heat Recovery Effectiveness
    0.65;                     !- Latent Heat Recovery Effectiveness

HVACTEMPLATE:ZONE:IDEALLOADSAIRSYSTEM,
    58bdcf3b3f3405dc_F1_dwelling_4,    !- Zone Name
    EU_HeatOnly_58bdcf3b3f3405dc_F1_dwelling_4,    !- Template Thermostat Name
    EU_AlwaysOn,              !- System Availability Schedule Name
    50,                       !- Maximum Heating Supply Air Temperature
    13,                       !- Minimum Cooling Supply Air Temperature
    0.0156,                   !- Maximum Heating Supply Air Humidity Ratio
    0.0077,                   !- Minimum Cooling Supply Air Humidity Ratio
    NoLimit,                  !- Heating Limit
    ,                         !- Maximum Heating Air Flow Rate
    ,                         !- Maximum Sensible Heating Capacity
    NoLimit,                  !- Cooling Limit
    ,                         !- Maximum Cooling Air Flow Rate
    ,                         !- Maximum Total Cooling Capacity
    EU_AlwaysOn,              !- Heating Availability Schedule Name
    EU_CoolingOff,            !- Cooling Availability Schedule Name
    ConstantSensibleHeatRatio,    !- Dehumidification Control Type
    0.7,                      !- Cooling Sensible Heat Ratio
    60,                       !- Dehumidification Setpoint
    None,                     !- Humidification Control Type
    30,                       !- Humidification Setpoint
    None,                     !- Outdoor Air Method
    0.00944,                  !- Outdoor Air Flow Rate per Person
    0.0,                      !- Outdoor Air Flow Rate per Zone Floor Area
    0,                        !- Outdoor Air Flow Rate per Zone
    ,                         !- Design Specification Outdoor Air Object Name
    None,                     !- Demand Controlled Ventilation Type
    NoEconomizer,             !- Outdoor Air Economizer Type
    None,                     !- Heat Recovery Type
    0.70,                     !- Sensible Heat Recovery Effectiveness
    0.65;                     !- Latent Heat Recovery Effectiveness

HVACTEMPLATE:ZONE:IDEALLOADSAIRSYSTEM,
    58bdcf3b3f3405dc_F1_dwelling_5,    !- Zone Name
    EU_HeatOnly_58bdcf3b3f3405dc_F1_dwelling_5,    !- Template Thermostat Name
    EU_AlwaysOn,              !- System Availability Schedule Name
    50,                       !- Maximum Heating Supply Air Temperature
    13,                       !- Minimum Cooling Supply Air Temperature
    0.0156,                   !- Maximum Heating Supply Air Humidity Ratio
    0.0077,                   !- Minimum Cooling Supply Air Humidity Ratio
    NoLimit,                  !- Heating Limit
    ,                         !- Maximum Heating Air Flow Rate
    ,                         !- Maximum Sensible Heating Capacity
    NoLimit,                  !- Cooling Limit
    ,                         !- Maximum Cooling Air Flow Rate
    ,                         !- Maximum Total Cooling Capacity
    EU_AlwaysOn,              !- Heating Availability Schedule Name
    EU_CoolingOff,            !- Cooling Availability Schedule Name
    ConstantSensibleHeatRatio,    !- Dehumidification Control Type
    0.7,                      !- Cooling Sensible Heat Ratio
    60,                       !- Dehumidification Setpoint
    None,                     !- Humidification Control Type
    30,                       !- Humidification Setpoint
    None,                     !- Outdoor Air Method
    0.00944,                  !- Outdoor Air Flow Rate per Person
    0.0,                      !- Outdoor Air Flow Rate per Zone Floor Area
    0,                        !- Outdoor Air Flow Rate per Zone
    ,                         !- Design Specification Outdoor Air Object Name
    None,                     !- Demand Controlled Ventilation Type
    NoEconomizer,             !- Outdoor Air Economizer Type
    None,                     !- Heat Recovery Type
    0.70,                     !- Sensible Heat Recovery Effectiveness
    0.65;                     !- Latent Heat Recovery Effectiveness

HVACTEMPLATE:ZONE:IDEALLOADSAIRSYSTEM,
    58bdcf3b3f3405dc_F2_dwelling_0,    !- Zone Name
    EU_HeatOnly_58bdcf3b3f3405dc_F2_dwelling_0,    !- Template Thermostat Name
    EU_AlwaysOn,              !- System Availability Schedule Name
    50,                       !- Maximum Heating Supply Air Temperature
    13,                       !- Minimum Cooling Supply Air Temperature
    0.0156,                   !- Maximum Heating Supply Air Humidity Ratio
    0.0077,                   !- Minimum Cooling Supply Air Humidity Ratio
    NoLimit,                  !- Heating Limit
    ,                         !- Maximum Heating Air Flow Rate
    ,                         !- Maximum Sensible Heating Capacity
    NoLimit,                  !- Cooling Limit
    ,                         !- Maximum Cooling Air Flow Rate
    ,                         !- Maximum Total Cooling Capacity
    EU_AlwaysOn,              !- Heating Availability Schedule Name
    EU_CoolingOff,            !- Cooling Availability Schedule Name
    ConstantSensibleHeatRatio,    !- Dehumidification Control Type
    0.7,                      !- Cooling Sensible Heat Ratio
    60,                       !- Dehumidification Setpoint
    None,                     !- Humidification Control Type
    30,                       !- Humidification Setpoint
    None,                     !- Outdoor Air Method
    0.00944,                  !- Outdoor Air Flow Rate per Person
    0.0,                      !- Outdoor Air Flow Rate per Zone Floor Area
    0,                        !- Outdoor Air Flow Rate per Zone
    ,                         !- Design Specification Outdoor Air Object Name
    None,                     !- Demand Controlled Ventilation Type
    NoEconomizer,             !- Outdoor Air Economizer Type
    None,                     !- Heat Recovery Type
    0.70,                     !- Sensible Heat Recovery Effectiveness
    0.65;                     !- Latent Heat Recovery Effectiveness

HVACTEMPLATE:ZONE:IDEALLOADSAIRSYSTEM,
    58bdcf3b3f3405dc_F2_dwelling_1,    !- Zone Name
    EU_HeatOnly_58bdcf3b3f3405dc_F2_dwelling_1,    !- Template Thermostat Name
    EU_AlwaysOn,              !- System Availability Schedule Name
    50,                       !- Maximum Heating Supply Air Temperature
    13,                       !- Minimum Cooling Supply Air Temperature
    0.0156,                   !- Maximum Heating Supply Air Humidity Ratio
    0.0077,                   !- Minimum Cooling Supply Air Humidity Ratio
    NoLimit,                  !- Heating Limit
    ,                         !- Maximum Heating Air Flow Rate
    ,                         !- Maximum Sensible Heating Capacity
    NoLimit,                  !- Cooling Limit
    ,                         !- Maximum Cooling Air Flow Rate
    ,                         !- Maximum Total Cooling Capacity
    EU_AlwaysOn,              !- Heating Availability Schedule Name
    EU_CoolingOff,            !- Cooling Availability Schedule Name
    ConstantSensibleHeatRatio,    !- Dehumidification Control Type
    0.7,                      !- Cooling Sensible Heat Ratio
    60,                       !- Dehumidification Setpoint
    None,                     !- Humidification Control Type
    30,                       !- Humidification Setpoint
    None,                     !- Outdoor Air Method
    0.00944,                  !- Outdoor Air Flow Rate per Person
    0.0,                      !- Outdoor Air Flow Rate per Zone Floor Area
    0,                        !- Outdoor Air Flow Rate per Zone
    ,                         !- Design Specification Outdoor Air Object Name
    None,                     !- Demand Controlled Ventilation Type
    NoEconomizer,             !- Outdoor Air Economizer Type
    None,                     !- Heat Recovery Type
    0.70,                     !- Sensible Heat Recovery Effectiveness
    0.65;                     !- Latent Heat Recovery Effectiveness

HVACTEMPLATE:ZONE:IDEALLOADSAIRSYSTEM,
    58bdcf3b3f3405dc_F2_dwelling_2,    !- Zone Name
    EU_HeatOnly_58bdcf3b3f3405dc_F2_dwelling_2,    !- Template Thermostat Name
    EU_AlwaysOn,              !- System Availability Schedule Name
    50,                       !- Maximum Heating Supply Air Temperature
    13,                       !- Minimum Cooling Supply Air Temperature
    0.0156,                   !- Maximum Heating Supply Air Humidity Ratio
    0.0077,                   !- Minimum Cooling Supply Air Humidity Ratio
    NoLimit,                  !- Heating Limit
    ,                         !- Maximum Heating Air Flow Rate
    ,                         !- Maximum Sensible Heating Capacity
    NoLimit,                  !- Cooling Limit
    ,                         !- Maximum Cooling Air Flow Rate
    ,                         !- Maximum Total Cooling Capacity
    EU_AlwaysOn,              !- Heating Availability Schedule Name
    EU_CoolingOff,            !- Cooling Availability Schedule Name
    ConstantSensibleHeatRatio,    !- Dehumidification Control Type
    0.7,                      !- Cooling Sensible Heat Ratio
    60,                       !- Dehumidification Setpoint
    None,                     !- Humidification Control Type
    30,                       !- Humidification Setpoint
    None,                     !- Outdoor Air Method
    0.00944,                  !- Outdoor Air Flow Rate per Person
    0.0,                      !- Outdoor Air Flow Rate per Zone Floor Area
    0,                        !- Outdoor Air Flow Rate per Zone
    ,                         !- Design Specification Outdoor Air Object Name
    None,                     !- Demand Controlled Ventilation Type
    NoEconomizer,             !- Outdoor Air Economizer Type
    None,                     !- Heat Recovery Type
    0.70,                     !- Sensible Heat Recovery Effectiveness
    0.65;                     !- Latent Heat Recovery Effectiveness

HVACTEMPLATE:ZONE:IDEALLOADSAIRSYSTEM,
    58bdcf3b3f3405dc_F2_dwelling_3,    !- Zone Name
    EU_HeatOnly_58bdcf3b3f3405dc_F2_dwelling_3,    !- Template Thermostat Name
    EU_AlwaysOn,              !- System Availability Schedule Name
    50,                       !- Maximum Heating Supply Air Temperature
    13,                       !- Minimum Cooling Supply Air Temperature
    0.0156,                   !- Maximum Heating Supply Air Humidity Ratio
    0.0077,                   !- Minimum Cooling Supply Air Humidity Ratio
    NoLimit,                  !- Heating Limit
    ,                         !- Maximum Heating Air Flow Rate
    ,                         !- Maximum Sensible Heating Capacity
    NoLimit,                  !- Cooling Limit
    ,                         !- Maximum Cooling Air Flow Rate
    ,                         !- Maximum Total Cooling Capacity
    EU_AlwaysOn,              !- Heating Availability Schedule Name
    EU_CoolingOff,            !- Cooling Availability Schedule Name
    ConstantSensibleHeatRatio,    !- Dehumidification Control Type
    0.7,                      !- Cooling Sensible Heat Ratio
    60,                       !- Dehumidification Setpoint
    None,                     !- Humidification Control Type
    30,                       !- Humidification Setpoint
    None,                     !- Outdoor Air Method
    0.00944,                  !- Outdoor Air Flow Rate per Person
    0.0,                      !- Outdoor Air Flow Rate per Zone Floor Area
    0,                        !- Outdoor Air Flow Rate per Zone
    ,                         !- Design Specification Outdoor Air Object Name
    None,                     !- Demand Controlled Ventilation Type
    NoEconomizer,             !- Outdoor Air Economizer Type
    None,                     !- Heat Recovery Type
    0.70,                     !- Sensible Heat Recovery Effectiveness
    0.65;                     !- Latent Heat Recovery Effectiveness

HVACTEMPLATE:ZONE:IDEALLOADSAIRSYSTEM,
    58bdcf3b3f3405dc_F2_dwelling_4,    !- Zone Name
    EU_HeatOnly_58bdcf3b3f3405dc_F2_dwelling_4,    !- Template Thermostat Name
    EU_AlwaysOn,              !- System Availability Schedule Name
    50,                       !- Maximum Heating Supply Air Temperature
    13,                       !- Minimum Cooling Supply Air Temperature
    0.0156,                   !- Maximum Heating Supply Air Humidity Ratio
    0.0077,                   !- Minimum Cooling Supply Air Humidity Ratio
    NoLimit,                  !- Heating Limit
    ,                         !- Maximum Heating Air Flow Rate
    ,                         !- Maximum Sensible Heating Capacity
    NoLimit,                  !- Cooling Limit
    ,                         !- Maximum Cooling Air Flow Rate
    ,                         !- Maximum Total Cooling Capacity
    EU_AlwaysOn,              !- Heating Availability Schedule Name
    EU_CoolingOff,            !- Cooling Availability Schedule Name
    ConstantSensibleHeatRatio,    !- Dehumidification Control Type
    0.7,                      !- Cooling Sensible Heat Ratio
    60,                       !- Dehumidification Setpoint
    None,                     !- Humidification Control Type
    30,                       !- Humidification Setpoint
    None,                     !- Outdoor Air Method
    0.00944,                  !- Outdoor Air Flow Rate per Person
    0.0,                      !- Outdoor Air Flow Rate per Zone Floor Area
    0,                        !- Outdoor Air Flow Rate per Zone
    ,                         !- Design Specification Outdoor Air Object Name
    None,                     !- Demand Controlled Ventilation Type
    NoEconomizer,             !- Outdoor Air Economizer Type
    None,                     !- Heat Recovery Type
    0.70,                     !- Sensible Heat Recovery Effectiveness
    0.65;                     !- Latent Heat Recovery Effectiveness

SIZING:ZONE,
    58bdcf3b3f3405dc_F0_dwelling_0,    !- Zone or ZoneList Name
    SupplyAirTemperature,     !- Zone Cooling Design Supply Air Temperature Input Method
    13,                       !- Zone Cooling Design Supply Air Temperature
    ,                         !- Zone Cooling Design Supply Air Temperature Difference
    SupplyAirTemperature,     !- Zone Heating Design Supply Air Temperature Input Method
    50,                       !- Zone Heating Design Supply Air Temperature
    ,                         !- Zone Heating Design Supply Air Temperature Difference
    0.008,                    !- Zone Cooling Design Supply Air Humidity Ratio
    0.008,                    !- Zone Heating Design Supply Air Humidity Ratio
    ,                         !- Design Specification Outdoor Air Object Name
    ,                         !- Zone Heating Sizing Factor
    ,                         !- Zone Cooling Sizing Factor
    DesignDay,                !- Cooling Design Air Flow Method
    0,                        !- Cooling Design Air Flow Rate
    0.000762,                 !- Cooling Minimum Air Flow per Zone Floor Area
    0,                        !- Cooling Minimum Air Flow
    0.2,                      !- Cooling Minimum Air Flow Fraction
    DesignDay,                !- Heating Design Air Flow Method
    0,                        !- Heating Design Air Flow Rate
    0.002032,                 !- Heating Maximum Air Flow per Zone Floor Area
    0.1415762,                !- Heating Maximum Air Flow
    0.3,                      !- Heating Maximum Air Flow Fraction
    ,                         !- Design Specification Zone Air Distribution Object Name
    No,                       !- Account for Dedicated Outdoor Air System
    NeutralSupplyAir,         !- Dedicated Outdoor Air System Control Strategy
    autosize,                 !- Dedicated Outdoor Air Low Setpoint Temperature for Design
    autosize,                 !- Dedicated Outdoor Air High Setpoint Temperature for Design
    Sensible Load Only No Latent Load,    !- Zone Load Sizing Method
    HumidityRatioDifference,    !- Zone Latent Cooling Design Supply Air Humidity Ratio Input Method
    ,                         !- Zone Dehumidification Design Supply Air Humidity Ratio
    0.005,                    !- Zone Cooling Design Supply Air Humidity Ratio Difference
    HumidityRatioDifference,    !- Zone Latent Heating Design Supply Air Humidity Ratio Input Method
    ,                         !- Zone Humidification Design Supply Air Humidity Ratio
    0.005;                    !- Zone Humidification Design Supply Air Humidity Ratio Difference

SIZING:ZONE,
    58bdcf3b3f3405dc_F0_dwelling_1,    !- Zone or ZoneList Name
    SupplyAirTemperature,     !- Zone Cooling Design Supply Air Temperature Input Method
    13,                       !- Zone Cooling Design Supply Air Temperature
    ,                         !- Zone Cooling Design Supply Air Temperature Difference
    SupplyAirTemperature,     !- Zone Heating Design Supply Air Temperature Input Method
    50,                       !- Zone Heating Design Supply Air Temperature
    ,                         !- Zone Heating Design Supply Air Temperature Difference
    0.008,                    !- Zone Cooling Design Supply Air Humidity Ratio
    0.008,                    !- Zone Heating Design Supply Air Humidity Ratio
    ,                         !- Design Specification Outdoor Air Object Name
    ,                         !- Zone Heating Sizing Factor
    ,                         !- Zone Cooling Sizing Factor
    DesignDay,                !- Cooling Design Air Flow Method
    0,                        !- Cooling Design Air Flow Rate
    0.000762,                 !- Cooling Minimum Air Flow per Zone Floor Area
    0,                        !- Cooling Minimum Air Flow
    0.2,                      !- Cooling Minimum Air Flow Fraction
    DesignDay,                !- Heating Design Air Flow Method
    0,                        !- Heating Design Air Flow Rate
    0.002032,                 !- Heating Maximum Air Flow per Zone Floor Area
    0.1415762,                !- Heating Maximum Air Flow
    0.3,                      !- Heating Maximum Air Flow Fraction
    ,                         !- Design Specification Zone Air Distribution Object Name
    No,                       !- Account for Dedicated Outdoor Air System
    NeutralSupplyAir,         !- Dedicated Outdoor Air System Control Strategy
    autosize,                 !- Dedicated Outdoor Air Low Setpoint Temperature for Design
    autosize,                 !- Dedicated Outdoor Air High Setpoint Temperature for Design
    Sensible Load Only No Latent Load,    !- Zone Load Sizing Method
    HumidityRatioDifference,    !- Zone Latent Cooling Design Supply Air Humidity Ratio Input Method
    ,                         !- Zone Dehumidification Design Supply Air Humidity Ratio
    0.005,                    !- Zone Cooling Design Supply Air Humidity Ratio Difference
    HumidityRatioDifference,    !- Zone Latent Heating Design Supply Air Humidity Ratio Input Method
    ,                         !- Zone Humidification Design Supply Air Humidity Ratio
    0.005;                    !- Zone Humidification Design Supply Air Humidity Ratio Difference

SIZING:ZONE,
    58bdcf3b3f3405dc_F0_dwelling_2,    !- Zone or ZoneList Name
    SupplyAirTemperature,     !- Zone Cooling Design Supply Air Temperature Input Method
    13,                       !- Zone Cooling Design Supply Air Temperature
    ,                         !- Zone Cooling Design Supply Air Temperature Difference
    SupplyAirTemperature,     !- Zone Heating Design Supply Air Temperature Input Method
    50,                       !- Zone Heating Design Supply Air Temperature
    ,                         !- Zone Heating Design Supply Air Temperature Difference
    0.008,                    !- Zone Cooling Design Supply Air Humidity Ratio
    0.008,                    !- Zone Heating Design Supply Air Humidity Ratio
    ,                         !- Design Specification Outdoor Air Object Name
    ,                         !- Zone Heating Sizing Factor
    ,                         !- Zone Cooling Sizing Factor
    DesignDay,                !- Cooling Design Air Flow Method
    0,                        !- Cooling Design Air Flow Rate
    0.000762,                 !- Cooling Minimum Air Flow per Zone Floor Area
    0,                        !- Cooling Minimum Air Flow
    0.2,                      !- Cooling Minimum Air Flow Fraction
    DesignDay,                !- Heating Design Air Flow Method
    0,                        !- Heating Design Air Flow Rate
    0.002032,                 !- Heating Maximum Air Flow per Zone Floor Area
    0.1415762,                !- Heating Maximum Air Flow
    0.3,                      !- Heating Maximum Air Flow Fraction
    ,                         !- Design Specification Zone Air Distribution Object Name
    No,                       !- Account for Dedicated Outdoor Air System
    NeutralSupplyAir,         !- Dedicated Outdoor Air System Control Strategy
    autosize,                 !- Dedicated Outdoor Air Low Setpoint Temperature for Design
    autosize,                 !- Dedicated Outdoor Air High Setpoint Temperature for Design
    Sensible Load Only No Latent Load,    !- Zone Load Sizing Method
    HumidityRatioDifference,    !- Zone Latent Cooling Design Supply Air Humidity Ratio Input Method
    ,                         !- Zone Dehumidification Design Supply Air Humidity Ratio
    0.005,                    !- Zone Cooling Design Supply Air Humidity Ratio Difference
    HumidityRatioDifference,    !- Zone Latent Heating Design Supply Air Humidity Ratio Input Method
    ,                         !- Zone Humidification Design Supply Air Humidity Ratio
    0.005;                    !- Zone Humidification Design Supply Air Humidity Ratio Difference

SIZING:ZONE,
    58bdcf3b3f3405dc_F0_dwelling_3,    !- Zone or ZoneList Name
    SupplyAirTemperature,     !- Zone Cooling Design Supply Air Temperature Input Method
    13,                       !- Zone Cooling Design Supply Air Temperature
    ,                         !- Zone Cooling Design Supply Air Temperature Difference
    SupplyAirTemperature,     !- Zone Heating Design Supply Air Temperature Input Method
    50,                       !- Zone Heating Design Supply Air Temperature
    ,                         !- Zone Heating Design Supply Air Temperature Difference
    0.008,                    !- Zone Cooling Design Supply Air Humidity Ratio
    0.008,                    !- Zone Heating Design Supply Air Humidity Ratio
    ,                         !- Design Specification Outdoor Air Object Name
    ,                         !- Zone Heating Sizing Factor
    ,                         !- Zone Cooling Sizing Factor
    DesignDay,                !- Cooling Design Air Flow Method
    0,                        !- Cooling Design Air Flow Rate
    0.000762,                 !- Cooling Minimum Air Flow per Zone Floor Area
    0,                        !- Cooling Minimum Air Flow
    0.2,                      !- Cooling Minimum Air Flow Fraction
    DesignDay,                !- Heating Design Air Flow Method
    0,                        !- Heating Design Air Flow Rate
    0.002032,                 !- Heating Maximum Air Flow per Zone Floor Area
    0.1415762,                !- Heating Maximum Air Flow
    0.3,                      !- Heating Maximum Air Flow Fraction
    ,                         !- Design Specification Zone Air Distribution Object Name
    No,                       !- Account for Dedicated Outdoor Air System
    NeutralSupplyAir,         !- Dedicated Outdoor Air System Control Strategy
    autosize,                 !- Dedicated Outdoor Air Low Setpoint Temperature for Design
    autosize,                 !- Dedicated Outdoor Air High Setpoint Temperature for Design
    Sensible Load Only No Latent Load,    !- Zone Load Sizing Method
    HumidityRatioDifference,    !- Zone Latent Cooling Design Supply Air Humidity Ratio Input Method
    ,                         !- Zone Dehumidification Design Supply Air Humidity Ratio
    0.005,                    !- Zone Cooling Design Supply Air Humidity Ratio Difference
    HumidityRatioDifference,    !- Zone Latent Heating Design Supply Air Humidity Ratio Input Method
    ,                         !- Zone Humidification Design Supply Air Humidity Ratio
    0.005;                    !- Zone Humidification Design Supply Air Humidity Ratio Difference

SIZING:ZONE,
    58bdcf3b3f3405dc_F0_dwelling_4,    !- Zone or ZoneList Name
    SupplyAirTemperature,     !- Zone Cooling Design Supply Air Temperature Input Method
    13,                       !- Zone Cooling Design Supply Air Temperature
    ,                         !- Zone Cooling Design Supply Air Temperature Difference
    SupplyAirTemperature,     !- Zone Heating Design Supply Air Temperature Input Method
    50,                       !- Zone Heating Design Supply Air Temperature
    ,                         !- Zone Heating Design Supply Air Temperature Difference
    0.008,                    !- Zone Cooling Design Supply Air Humidity Ratio
    0.008,                    !- Zone Heating Design Supply Air Humidity Ratio
    ,                         !- Design Specification Outdoor Air Object Name
    ,                         !- Zone Heating Sizing Factor
    ,                         !- Zone Cooling Sizing Factor
    DesignDay,                !- Cooling Design Air Flow Method
    0,                        !- Cooling Design Air Flow Rate
    0.000762,                 !- Cooling Minimum Air Flow per Zone Floor Area
    0,                        !- Cooling Minimum Air Flow
    0.2,                      !- Cooling Minimum Air Flow Fraction
    DesignDay,                !- Heating Design Air Flow Method
    0,                        !- Heating Design Air Flow Rate
    0.002032,                 !- Heating Maximum Air Flow per Zone Floor Area
    0.1415762,                !- Heating Maximum Air Flow
    0.3,                      !- Heating Maximum Air Flow Fraction
    ,                         !- Design Specification Zone Air Distribution Object Name
    No,                       !- Account for Dedicated Outdoor Air System
    NeutralSupplyAir,         !- Dedicated Outdoor Air System Control Strategy
    autosize,                 !- Dedicated Outdoor Air Low Setpoint Temperature for Design
    autosize,                 !- Dedicated Outdoor Air High Setpoint Temperature for Design
    Sensible Load Only No Latent Load,    !- Zone Load Sizing Method
    HumidityRatioDifference,    !- Zone Latent Cooling Design Supply Air Humidity Ratio Input Method
    ,                         !- Zone Dehumidification Design Supply Air Humidity Ratio
    0.005,                    !- Zone Cooling Design Supply Air Humidity Ratio Difference
    HumidityRatioDifference,    !- Zone Latent Heating Design Supply Air Humidity Ratio Input Method
    ,                         !- Zone Humidification Design Supply Air Humidity Ratio
    0.005;                    !- Zone Humidification Design Supply Air Humidity Ratio Difference

SIZING:ZONE,
    58bdcf3b3f3405dc_F0_dwelling_5,    !- Zone or ZoneList Name
    SupplyAirTemperature,     !- Zone Cooling Design Supply Air Temperature Input Method
    13,                       !- Zone Cooling Design Supply Air Temperature
    ,                         !- Zone Cooling Design Supply Air Temperature Difference
    SupplyAirTemperature,     !- Zone Heating Design Supply Air Temperature Input Method
    50,                       !- Zone Heating Design Supply Air Temperature
    ,                         !- Zone Heating Design Supply Air Temperature Difference
    0.008,                    !- Zone Cooling Design Supply Air Humidity Ratio
    0.008,                    !- Zone Heating Design Supply Air Humidity Ratio
    ,                         !- Design Specification Outdoor Air Object Name
    ,                         !- Zone Heating Sizing Factor
    ,                         !- Zone Cooling Sizing Factor
    DesignDay,                !- Cooling Design Air Flow Method
    0,                        !- Cooling Design Air Flow Rate
    0.000762,                 !- Cooling Minimum Air Flow per Zone Floor Area
    0,                        !- Cooling Minimum Air Flow
    0.2,                      !- Cooling Minimum Air Flow Fraction
    DesignDay,                !- Heating Design Air Flow Method
    0,                        !- Heating Design Air Flow Rate
    0.002032,                 !- Heating Maximum Air Flow per Zone Floor Area
    0.1415762,                !- Heating Maximum Air Flow
    0.3,                      !- Heating Maximum Air Flow Fraction
    ,                         !- Design Specification Zone Air Distribution Object Name
    No,                       !- Account for Dedicated Outdoor Air System
    NeutralSupplyAir,         !- Dedicated Outdoor Air System Control Strategy
    autosize,                 !- Dedicated Outdoor Air Low Setpoint Temperature for Design
    autosize,                 !- Dedicated Outdoor Air High Setpoint Temperature for Design
    Sensible Load Only No Latent Load,    !- Zone Load Sizing Method
    HumidityRatioDifference,    !- Zone Latent Cooling Design Supply Air Humidity Ratio Input Method
    ,                         !- Zone Dehumidification Design Supply Air Humidity Ratio
    0.005,                    !- Zone Cooling Design Supply Air Humidity Ratio Difference
    HumidityRatioDifference,    !- Zone Latent Heating Design Supply Air Humidity Ratio Input Method
    ,                         !- Zone Humidification Design Supply Air Humidity Ratio
    0.005;                    !- Zone Humidification Design Supply Air Humidity Ratio Difference

SIZING:ZONE,
    58bdcf3b3f3405dc_F1_dwelling_0,    !- Zone or ZoneList Name
    SupplyAirTemperature,     !- Zone Cooling Design Supply Air Temperature Input Method
    13,                       !- Zone Cooling Design Supply Air Temperature
    ,                         !- Zone Cooling Design Supply Air Temperature Difference
    SupplyAirTemperature,     !- Zone Heating Design Supply Air Temperature Input Method
    50,                       !- Zone Heating Design Supply Air Temperature
    ,                         !- Zone Heating Design Supply Air Temperature Difference
    0.008,                    !- Zone Cooling Design Supply Air Humidity Ratio
    0.008,                    !- Zone Heating Design Supply Air Humidity Ratio
    ,                         !- Design Specification Outdoor Air Object Name
    ,                         !- Zone Heating Sizing Factor
    ,                         !- Zone Cooling Sizing Factor
    DesignDay,                !- Cooling Design Air Flow Method
    0,                        !- Cooling Design Air Flow Rate
    0.000762,                 !- Cooling Minimum Air Flow per Zone Floor Area
    0,                        !- Cooling Minimum Air Flow
    0.2,                      !- Cooling Minimum Air Flow Fraction
    DesignDay,                !- Heating Design Air Flow Method
    0,                        !- Heating Design Air Flow Rate
    0.002032,                 !- Heating Maximum Air Flow per Zone Floor Area
    0.1415762,                !- Heating Maximum Air Flow
    0.3,                      !- Heating Maximum Air Flow Fraction
    ,                         !- Design Specification Zone Air Distribution Object Name
    No,                       !- Account for Dedicated Outdoor Air System
    NeutralSupplyAir,         !- Dedicated Outdoor Air System Control Strategy
    autosize,                 !- Dedicated Outdoor Air Low Setpoint Temperature for Design
    autosize,                 !- Dedicated Outdoor Air High Setpoint Temperature for Design
    Sensible Load Only No Latent Load,    !- Zone Load Sizing Method
    HumidityRatioDifference,    !- Zone Latent Cooling Design Supply Air Humidity Ratio Input Method
    ,                         !- Zone Dehumidification Design Supply Air Humidity Ratio
    0.005,                    !- Zone Cooling Design Supply Air Humidity Ratio Difference
    HumidityRatioDifference,    !- Zone Latent Heating Design Supply Air Humidity Ratio Input Method
    ,                         !- Zone Humidification Design Supply Air Humidity Ratio
    0.005;                    !- Zone Humidification Design Supply Air Humidity Ratio Difference

SIZING:ZONE,
    58bdcf3b3f3405dc_F1_dwelling_1,    !- Zone or ZoneList Name
    SupplyAirTemperature,     !- Zone Cooling Design Supply Air Temperature Input Method
    13,                       !- Zone Cooling Design Supply Air Temperature
    ,                         !- Zone Cooling Design Supply Air Temperature Difference
    SupplyAirTemperature,     !- Zone Heating Design Supply Air Temperature Input Method
    50,                       !- Zone Heating Design Supply Air Temperature
    ,                         !- Zone Heating Design Supply Air Temperature Difference
    0.008,                    !- Zone Cooling Design Supply Air Humidity Ratio
    0.008,                    !- Zone Heating Design Supply Air Humidity Ratio
    ,                         !- Design Specification Outdoor Air Object Name
    ,                         !- Zone Heating Sizing Factor
    ,                         !- Zone Cooling Sizing Factor
    DesignDay,                !- Cooling Design Air Flow Method
    0,                        !- Cooling Design Air Flow Rate
    0.000762,                 !- Cooling Minimum Air Flow per Zone Floor Area
    0,                        !- Cooling Minimum Air Flow
    0.2,                      !- Cooling Minimum Air Flow Fraction
    DesignDay,                !- Heating Design Air Flow Method
    0,                        !- Heating Design Air Flow Rate
    0.002032,                 !- Heating Maximum Air Flow per Zone Floor Area
    0.1415762,                !- Heating Maximum Air Flow
    0.3,                      !- Heating Maximum Air Flow Fraction
    ,                         !- Design Specification Zone Air Distribution Object Name
    No,                       !- Account for Dedicated Outdoor Air System
    NeutralSupplyAir,         !- Dedicated Outdoor Air System Control Strategy
    autosize,                 !- Dedicated Outdoor Air Low Setpoint Temperature for Design
    autosize,                 !- Dedicated Outdoor Air High Setpoint Temperature for Design
    Sensible Load Only No Latent Load,    !- Zone Load Sizing Method
    HumidityRatioDifference,    !- Zone Latent Cooling Design Supply Air Humidity Ratio Input Method
    ,                         !- Zone Dehumidification Design Supply Air Humidity Ratio
    0.005,                    !- Zone Cooling Design Supply Air Humidity Ratio Difference
    HumidityRatioDifference,    !- Zone Latent Heating Design Supply Air Humidity Ratio Input Method
    ,                         !- Zone Humidification Design Supply Air Humidity Ratio
    0.005;                    !- Zone Humidification Design Supply Air Humidity Ratio Difference

SIZING:ZONE,
    58bdcf3b3f3405dc_F1_dwelling_2,    !- Zone or ZoneList Name
    SupplyAirTemperature,     !- Zone Cooling Design Supply Air Temperature Input Method
    13,                       !- Zone Cooling Design Supply Air Temperature
    ,                         !- Zone Cooling Design Supply Air Temperature Difference
    SupplyAirTemperature,     !- Zone Heating Design Supply Air Temperature Input Method
    50,                       !- Zone Heating Design Supply Air Temperature
    ,                         !- Zone Heating Design Supply Air Temperature Difference
    0.008,                    !- Zone Cooling Design Supply Air Humidity Ratio
    0.008,                    !- Zone Heating Design Supply Air Humidity Ratio
    ,                         !- Design Specification Outdoor Air Object Name
    ,                         !- Zone Heating Sizing Factor
    ,                         !- Zone Cooling Sizing Factor
    DesignDay,                !- Cooling Design Air Flow Method
    0,                        !- Cooling Design Air Flow Rate
    0.000762,                 !- Cooling Minimum Air Flow per Zone Floor Area
    0,                        !- Cooling Minimum Air Flow
    0.2,                      !- Cooling Minimum Air Flow Fraction
    DesignDay,                !- Heating Design Air Flow Method
    0,                        !- Heating Design Air Flow Rate
    0.002032,                 !- Heating Maximum Air Flow per Zone Floor Area
    0.1415762,                !- Heating Maximum Air Flow
    0.3,                      !- Heating Maximum Air Flow Fraction
    ,                         !- Design Specification Zone Air Distribution Object Name
    No,                       !- Account for Dedicated Outdoor Air System
    NeutralSupplyAir,         !- Dedicated Outdoor Air System Control Strategy
    autosize,                 !- Dedicated Outdoor Air Low Setpoint Temperature for Design
    autosize,                 !- Dedicated Outdoor Air High Setpoint Temperature for Design
    Sensible Load Only No Latent Load,    !- Zone Load Sizing Method
    HumidityRatioDifference,    !- Zone Latent Cooling Design Supply Air Humidity Ratio Input Method
    ,                         !- Zone Dehumidification Design Supply Air Humidity Ratio
    0.005,                    !- Zone Cooling Design Supply Air Humidity Ratio Difference
    HumidityRatioDifference,    !- Zone Latent Heating Design Supply Air Humidity Ratio Input Method
    ,                         !- Zone Humidification Design Supply Air Humidity Ratio
    0.005;                    !- Zone Humidification Design Supply Air Humidity Ratio Difference

SIZING:ZONE,
    58bdcf3b3f3405dc_F1_dwelling_3,    !- Zone or ZoneList Name
    SupplyAirTemperature,     !- Zone Cooling Design Supply Air Temperature Input Method
    13,                       !- Zone Cooling Design Supply Air Temperature
    ,                         !- Zone Cooling Design Supply Air Temperature Difference
    SupplyAirTemperature,     !- Zone Heating Design Supply Air Temperature Input Method
    50,                       !- Zone Heating Design Supply Air Temperature
    ,                         !- Zone Heating Design Supply Air Temperature Difference
    0.008,                    !- Zone Cooling Design Supply Air Humidity Ratio
    0.008,                    !- Zone Heating Design Supply Air Humidity Ratio
    ,                         !- Design Specification Outdoor Air Object Name
    ,                         !- Zone Heating Sizing Factor
    ,                         !- Zone Cooling Sizing Factor
    DesignDay,                !- Cooling Design Air Flow Method
    0,                        !- Cooling Design Air Flow Rate
    0.000762,                 !- Cooling Minimum Air Flow per Zone Floor Area
    0,                        !- Cooling Minimum Air Flow
    0.2,                      !- Cooling Minimum Air Flow Fraction
    DesignDay,                !- Heating Design Air Flow Method
    0,                        !- Heating Design Air Flow Rate
    0.002032,                 !- Heating Maximum Air Flow per Zone Floor Area
    0.1415762,                !- Heating Maximum Air Flow
    0.3,                      !- Heating Maximum Air Flow Fraction
    ,                         !- Design Specification Zone Air Distribution Object Name
    No,                       !- Account for Dedicated Outdoor Air System
    NeutralSupplyAir,         !- Dedicated Outdoor Air System Control Strategy
    autosize,                 !- Dedicated Outdoor Air Low Setpoint Temperature for Design
    autosize,                 !- Dedicated Outdoor Air High Setpoint Temperature for Design
    Sensible Load Only No Latent Load,    !- Zone Load Sizing Method
    HumidityRatioDifference,    !- Zone Latent Cooling Design Supply Air Humidity Ratio Input Method
    ,                         !- Zone Dehumidification Design Supply Air Humidity Ratio
    0.005,                    !- Zone Cooling Design Supply Air Humidity Ratio Difference
    HumidityRatioDifference,    !- Zone Latent Heating Design Supply Air Humidity Ratio Input Method
    ,                         !- Zone Humidification Design Supply Air Humidity Ratio
    0.005;                    !- Zone Humidification Design Supply Air Humidity Ratio Difference

SIZING:ZONE,
    58bdcf3b3f3405dc_F1_dwelling_4,    !- Zone or ZoneList Name
    SupplyAirTemperature,     !- Zone Cooling Design Supply Air Temperature Input Method
    13,                       !- Zone Cooling Design Supply Air Temperature
    ,                         !- Zone Cooling Design Supply Air Temperature Difference
    SupplyAirTemperature,     !- Zone Heating Design Supply Air Temperature Input Method
    50,                       !- Zone Heating Design Supply Air Temperature
    ,                         !- Zone Heating Design Supply Air Temperature Difference
    0.008,                    !- Zone Cooling Design Supply Air Humidity Ratio
    0.008,                    !- Zone Heating Design Supply Air Humidity Ratio
    ,                         !- Design Specification Outdoor Air Object Name
    ,                         !- Zone Heating Sizing Factor
    ,                         !- Zone Cooling Sizing Factor
    DesignDay,                !- Cooling Design Air Flow Method
    0,                        !- Cooling Design Air Flow Rate
    0.000762,                 !- Cooling Minimum Air Flow per Zone Floor Area
    0,                        !- Cooling Minimum Air Flow
    0.2,                      !- Cooling Minimum Air Flow Fraction
    DesignDay,                !- Heating Design Air Flow Method
    0,                        !- Heating Design Air Flow Rate
    0.002032,                 !- Heating Maximum Air Flow per Zone Floor Area
    0.1415762,                !- Heating Maximum Air Flow
    0.3,                      !- Heating Maximum Air Flow Fraction
    ,                         !- Design Specification Zone Air Distribution Object Name
    No,                       !- Account for Dedicated Outdoor Air System
    NeutralSupplyAir,         !- Dedicated Outdoor Air System Control Strategy
    autosize,                 !- Dedicated Outdoor Air Low Setpoint Temperature for Design
    autosize,                 !- Dedicated Outdoor Air High Setpoint Temperature for Design
    Sensible Load Only No Latent Load,    !- Zone Load Sizing Method
    HumidityRatioDifference,    !- Zone Latent Cooling Design Supply Air Humidity Ratio Input Method
    ,                         !- Zone Dehumidification Design Supply Air Humidity Ratio
    0.005,                    !- Zone Cooling Design Supply Air Humidity Ratio Difference
    HumidityRatioDifference,    !- Zone Latent Heating Design Supply Air Humidity Ratio Input Method
    ,                         !- Zone Humidification Design Supply Air Humidity Ratio
    0.005;                    !- Zone Humidification Design Supply Air Humidity Ratio Difference

SIZING:ZONE,
    58bdcf3b3f3405dc_F1_dwelling_5,    !- Zone or ZoneList Name
    SupplyAirTemperature,     !- Zone Cooling Design Supply Air Temperature Input Method
    13,                       !- Zone Cooling Design Supply Air Temperature
    ,                         !- Zone Cooling Design Supply Air Temperature Difference
    SupplyAirTemperature,     !- Zone Heating Design Supply Air Temperature Input Method
    50,                       !- Zone Heating Design Supply Air Temperature
    ,                         !- Zone Heating Design Supply Air Temperature Difference
    0.008,                    !- Zone Cooling Design Supply Air Humidity Ratio
    0.008,                    !- Zone Heating Design Supply Air Humidity Ratio
    ,                         !- Design Specification Outdoor Air Object Name
    ,                         !- Zone Heating Sizing Factor
    ,                         !- Zone Cooling Sizing Factor
    DesignDay,                !- Cooling Design Air Flow Method
    0,                        !- Cooling Design Air Flow Rate
    0.000762,                 !- Cooling Minimum Air Flow per Zone Floor Area
    0,                        !- Cooling Minimum Air Flow
    0.2,                      !- Cooling Minimum Air Flow Fraction
    DesignDay,                !- Heating Design Air Flow Method
    0,                        !- Heating Design Air Flow Rate
    0.002032,                 !- Heating Maximum Air Flow per Zone Floor Area
    0.1415762,                !- Heating Maximum Air Flow
    0.3,                      !- Heating Maximum Air Flow Fraction
    ,                         !- Design Specification Zone Air Distribution Object Name
    No,                       !- Account for Dedicated Outdoor Air System
    NeutralSupplyAir,         !- Dedicated Outdoor Air System Control Strategy
    autosize,                 !- Dedicated Outdoor Air Low Setpoint Temperature for Design
    autosize,                 !- Dedicated Outdoor Air High Setpoint Temperature for Design
    Sensible Load Only No Latent Load,    !- Zone Load Sizing Method
    HumidityRatioDifference,    !- Zone Latent Cooling Design Supply Air Humidity Ratio Input Method
    ,                         !- Zone Dehumidification Design Supply Air Humidity Ratio
    0.005,                    !- Zone Cooling Design Supply Air Humidity Ratio Difference
    HumidityRatioDifference,    !- Zone Latent Heating Design Supply Air Humidity Ratio Input Method
    ,                         !- Zone Humidification Design Supply Air Humidity Ratio
    0.005;                    !- Zone Humidification Design Supply Air Humidity Ratio Difference

SIZING:ZONE,
    58bdcf3b3f3405dc_F2_dwelling_0,    !- Zone or ZoneList Name
    SupplyAirTemperature,     !- Zone Cooling Design Supply Air Temperature Input Method
    13,                       !- Zone Cooling Design Supply Air Temperature
    ,                         !- Zone Cooling Design Supply Air Temperature Difference
    SupplyAirTemperature,     !- Zone Heating Design Supply Air Temperature Input Method
    50,                       !- Zone Heating Design Supply Air Temperature
    ,                         !- Zone Heating Design Supply Air Temperature Difference
    0.008,                    !- Zone Cooling Design Supply Air Humidity Ratio
    0.008,                    !- Zone Heating Design Supply Air Humidity Ratio
    ,                         !- Design Specification Outdoor Air Object Name
    ,                         !- Zone Heating Sizing Factor
    ,                         !- Zone Cooling Sizing Factor
    DesignDay,                !- Cooling Design Air Flow Method
    0,                        !- Cooling Design Air Flow Rate
    0.000762,                 !- Cooling Minimum Air Flow per Zone Floor Area
    0,                        !- Cooling Minimum Air Flow
    0.2,                      !- Cooling Minimum Air Flow Fraction
    DesignDay,                !- Heating Design Air Flow Method
    0,                        !- Heating Design Air Flow Rate
    0.002032,                 !- Heating Maximum Air Flow per Zone Floor Area
    0.1415762,                !- Heating Maximum Air Flow
    0.3,                      !- Heating Maximum Air Flow Fraction
    ,                         !- Design Specification Zone Air Distribution Object Name
    No,                       !- Account for Dedicated Outdoor Air System
    NeutralSupplyAir,         !- Dedicated Outdoor Air System Control Strategy
    autosize,                 !- Dedicated Outdoor Air Low Setpoint Temperature for Design
    autosize,                 !- Dedicated Outdoor Air High Setpoint Temperature for Design
    Sensible Load Only No Latent Load,    !- Zone Load Sizing Method
    HumidityRatioDifference,    !- Zone Latent Cooling Design Supply Air Humidity Ratio Input Method
    ,                         !- Zone Dehumidification Design Supply Air Humidity Ratio
    0.005,                    !- Zone Cooling Design Supply Air Humidity Ratio Difference
    HumidityRatioDifference,    !- Zone Latent Heating Design Supply Air Humidity Ratio Input Method
    ,                         !- Zone Humidification Design Supply Air Humidity Ratio
    0.005;                    !- Zone Humidification Design Supply Air Humidity Ratio Difference

SIZING:ZONE,
    58bdcf3b3f3405dc_F2_dwelling_1,    !- Zone or ZoneList Name
    SupplyAirTemperature,     !- Zone Cooling Design Supply Air Temperature Input Method
    13,                       !- Zone Cooling Design Supply Air Temperature
    ,                         !- Zone Cooling Design Supply Air Temperature Difference
    SupplyAirTemperature,     !- Zone Heating Design Supply Air Temperature Input Method
    50,                       !- Zone Heating Design Supply Air Temperature
    ,                         !- Zone Heating Design Supply Air Temperature Difference
    0.008,                    !- Zone Cooling Design Supply Air Humidity Ratio
    0.008,                    !- Zone Heating Design Supply Air Humidity Ratio
    ,                         !- Design Specification Outdoor Air Object Name
    ,                         !- Zone Heating Sizing Factor
    ,                         !- Zone Cooling Sizing Factor
    DesignDay,                !- Cooling Design Air Flow Method
    0,                        !- Cooling Design Air Flow Rate
    0.000762,                 !- Cooling Minimum Air Flow per Zone Floor Area
    0,                        !- Cooling Minimum Air Flow
    0.2,                      !- Cooling Minimum Air Flow Fraction
    DesignDay,                !- Heating Design Air Flow Method
    0,                        !- Heating Design Air Flow Rate
    0.002032,                 !- Heating Maximum Air Flow per Zone Floor Area
    0.1415762,                !- Heating Maximum Air Flow
    0.3,                      !- Heating Maximum Air Flow Fraction
    ,                         !- Design Specification Zone Air Distribution Object Name
    No,                       !- Account for Dedicated Outdoor Air System
    NeutralSupplyAir,         !- Dedicated Outdoor Air System Control Strategy
    autosize,                 !- Dedicated Outdoor Air Low Setpoint Temperature for Design
    autosize,                 !- Dedicated Outdoor Air High Setpoint Temperature for Design
    Sensible Load Only No Latent Load,    !- Zone Load Sizing Method
    HumidityRatioDifference,    !- Zone Latent Cooling Design Supply Air Humidity Ratio Input Method
    ,                         !- Zone Dehumidification Design Supply Air Humidity Ratio
    0.005,                    !- Zone Cooling Design Supply Air Humidity Ratio Difference
    HumidityRatioDifference,    !- Zone Latent Heating Design Supply Air Humidity Ratio Input Method
    ,                         !- Zone Humidification Design Supply Air Humidity Ratio
    0.005;                    !- Zone Humidification Design Supply Air Humidity Ratio Difference

SIZING:ZONE,
    58bdcf3b3f3405dc_F2_dwelling_2,    !- Zone or ZoneList Name
    SupplyAirTemperature,     !- Zone Cooling Design Supply Air Temperature Input Method
    13,                       !- Zone Cooling Design Supply Air Temperature
    ,                         !- Zone Cooling Design Supply Air Temperature Difference
    SupplyAirTemperature,     !- Zone Heating Design Supply Air Temperature Input Method
    50,                       !- Zone Heating Design Supply Air Temperature
    ,                         !- Zone Heating Design Supply Air Temperature Difference
    0.008,                    !- Zone Cooling Design Supply Air Humidity Ratio
    0.008,                    !- Zone Heating Design Supply Air Humidity Ratio
    ,                         !- Design Specification Outdoor Air Object Name
    ,                         !- Zone Heating Sizing Factor
    ,                         !- Zone Cooling Sizing Factor
    DesignDay,                !- Cooling Design Air Flow Method
    0,                        !- Cooling Design Air Flow Rate
    0.000762,                 !- Cooling Minimum Air Flow per Zone Floor Area
    0,                        !- Cooling Minimum Air Flow
    0.2,                      !- Cooling Minimum Air Flow Fraction
    DesignDay,                !- Heating Design Air Flow Method
    0,                        !- Heating Design Air Flow Rate
    0.002032,                 !- Heating Maximum Air Flow per Zone Floor Area
    0.1415762,                !- Heating Maximum Air Flow
    0.3,                      !- Heating Maximum Air Flow Fraction
    ,                         !- Design Specification Zone Air Distribution Object Name
    No,                       !- Account for Dedicated Outdoor Air System
    NeutralSupplyAir,         !- Dedicated Outdoor Air System Control Strategy
    autosize,                 !- Dedicated Outdoor Air Low Setpoint Temperature for Design
    autosize,                 !- Dedicated Outdoor Air High Setpoint Temperature for Design
    Sensible Load Only No Latent Load,    !- Zone Load Sizing Method
    HumidityRatioDifference,    !- Zone Latent Cooling Design Supply Air Humidity Ratio Input Method
    ,                         !- Zone Dehumidification Design Supply Air Humidity Ratio
    0.005,                    !- Zone Cooling Design Supply Air Humidity Ratio Difference
    HumidityRatioDifference,    !- Zone Latent Heating Design Supply Air Humidity Ratio Input Method
    ,                         !- Zone Humidification Design Supply Air Humidity Ratio
    0.005;                    !- Zone Humidification Design Supply Air Humidity Ratio Difference

SIZING:ZONE,
    58bdcf3b3f3405dc_F2_dwelling_3,    !- Zone or ZoneList Name
    SupplyAirTemperature,     !- Zone Cooling Design Supply Air Temperature Input Method
    13,                       !- Zone Cooling Design Supply Air Temperature
    ,                         !- Zone Cooling Design Supply Air Temperature Difference
    SupplyAirTemperature,     !- Zone Heating Design Supply Air Temperature Input Method
    50,                       !- Zone Heating Design Supply Air Temperature
    ,                         !- Zone Heating Design Supply Air Temperature Difference
    0.008,                    !- Zone Cooling Design Supply Air Humidity Ratio
    0.008,                    !- Zone Heating Design Supply Air Humidity Ratio
    ,                         !- Design Specification Outdoor Air Object Name
    ,                         !- Zone Heating Sizing Factor
    ,                         !- Zone Cooling Sizing Factor
    DesignDay,                !- Cooling Design Air Flow Method
    0,                        !- Cooling Design Air Flow Rate
    0.000762,                 !- Cooling Minimum Air Flow per Zone Floor Area
    0,                        !- Cooling Minimum Air Flow
    0.2,                      !- Cooling Minimum Air Flow Fraction
    DesignDay,                !- Heating Design Air Flow Method
    0,                        !- Heating Design Air Flow Rate
    0.002032,                 !- Heating Maximum Air Flow per Zone Floor Area
    0.1415762,                !- Heating Maximum Air Flow
    0.3,                      !- Heating Maximum Air Flow Fraction
    ,                         !- Design Specification Zone Air Distribution Object Name
    No,                       !- Account for Dedicated Outdoor Air System
    NeutralSupplyAir,         !- Dedicated Outdoor Air System Control Strategy
    autosize,                 !- Dedicated Outdoor Air Low Setpoint Temperature for Design
    autosize,                 !- Dedicated Outdoor Air High Setpoint Temperature for Design
    Sensible Load Only No Latent Load,    !- Zone Load Sizing Method
    HumidityRatioDifference,    !- Zone Latent Cooling Design Supply Air Humidity Ratio Input Method
    ,                         !- Zone Dehumidification Design Supply Air Humidity Ratio
    0.005,                    !- Zone Cooling Design Supply Air Humidity Ratio Difference
    HumidityRatioDifference,    !- Zone Latent Heating Design Supply Air Humidity Ratio Input Method
    ,                         !- Zone Humidification Design Supply Air Humidity Ratio
    0.005;                    !- Zone Humidification Design Supply Air Humidity Ratio Difference

SIZING:ZONE,
    58bdcf3b3f3405dc_F2_dwelling_4,    !- Zone or ZoneList Name
    SupplyAirTemperature,     !- Zone Cooling Design Supply Air Temperature Input Method
    13,                       !- Zone Cooling Design Supply Air Temperature
    ,                         !- Zone Cooling Design Supply Air Temperature Difference
    SupplyAirTemperature,     !- Zone Heating Design Supply Air Temperature Input Method
    50,                       !- Zone Heating Design Supply Air Temperature
    ,                         !- Zone Heating Design Supply Air Temperature Difference
    0.008,                    !- Zone Cooling Design Supply Air Humidity Ratio
    0.008,                    !- Zone Heating Design Supply Air Humidity Ratio
    ,                         !- Design Specification Outdoor Air Object Name
    ,                         !- Zone Heating Sizing Factor
    ,                         !- Zone Cooling Sizing Factor
    DesignDay,                !- Cooling Design Air Flow Method
    0,                        !- Cooling Design Air Flow Rate
    0.000762,                 !- Cooling Minimum Air Flow per Zone Floor Area
    0,                        !- Cooling Minimum Air Flow
    0.2,                      !- Cooling Minimum Air Flow Fraction
    DesignDay,                !- Heating Design Air Flow Method
    0,                        !- Heating Design Air Flow Rate
    0.002032,                 !- Heating Maximum Air Flow per Zone Floor Area
    0.1415762,                !- Heating Maximum Air Flow
    0.3,                      !- Heating Maximum Air Flow Fraction
    ,                         !- Design Specification Zone Air Distribution Object Name
    No,                       !- Account for Dedicated Outdoor Air System
    NeutralSupplyAir,         !- Dedicated Outdoor Air System Control Strategy
    autosize,                 !- Dedicated Outdoor Air Low Setpoint Temperature for Design
    autosize,                 !- Dedicated Outdoor Air High Setpoint Temperature for Design
    Sensible Load Only No Latent Load,    !- Zone Load Sizing Method
    HumidityRatioDifference,    !- Zone Latent Cooling Design Supply Air Humidity Ratio Input Method
    ,                         !- Zone Dehumidification Design Supply Air Humidity Ratio
    0.005,                    !- Zone Cooling Design Supply Air Humidity Ratio Difference
    HumidityRatioDifference,    !- Zone Latent Heating Design Supply Air Humidity Ratio Input Method
    ,                         !- Zone Humidification Design Supply Air Humidity Ratio
    0.005;                    !- Zone Humidification Design Supply Air Humidity Ratio Difference

OUTPUT:VARIABLE,
    *,                        !- Key Value
    Zone Ideal Loads Zone Total Heating Energy,    !- Variable Name
    Hourly;                   !- Reporting Frequency

OUTPUT:SQLITE,
    SimpleAndTabular,         !- Option Type
    UseOutputControlTableStyle;    !- Unit Conversion for Tabular Data