!- Windows Line endings 

Version,
    23.1;                     !- Version Identifier

SimulationControl,
    Yes,                      !- Do Zone Sizing Calculation
    Yes,                      !- Do System Sizing Calculation
    Yes,                      !- Do Plant Sizing Calculation
    No,                       !- Run Simulation for Sizing Periods
    Yes,                      !- Run Simulation for Weather File Run Periods
    No,                       !- Do HVAC Sizing Simulation for Sizing Periods
    1;                        !- Maximum Number of HVAC Sizing Simulation Passes

Building,
    EU S2 Campaign,           !- Name
    0,                        !- North Axis
    City,                     !- Terrain
    ,                         !- Loads Convergence Tolerance Value
    ,                         !- Temperature Convergence Tolerance Value
    FullExterior,             !- Solar Distribution
    ,                         !- Maximum Number of Warmup Days
    ;                         !- Minimum Number of Warmup Days

ShadowCalculation,
    PolygonClipping,          !- Shading Calculation Method
    Periodic,                 !- Shading Calculation Update Frequency Method
    1;                        !- Shading Calculation Update Frequency

HeatBalanceAlgorithm,
    ConductionTransferFunction,    !- Algorithm
    200,                      !- Surface Temperature Upper Limit
    0.1,                      !- Minimum Surface Convection Heat Transfer Coefficient Value
    10000000;                 !- Maximum Surface Convection Heat Transfer Coefficient Value

Timestep,
    12;                       !- Number of Timesteps per Hour

Site:Location,
    London,                   !- Name
    51.5,                     !- Latitude
    -0.5,                     !- Longitude
    0,                        !- Time Zone
    25;                       !- Elevation

SizingPeriod:WeatherFileDays,
    AnnualSizingPeriod,       !- Name
    1,                        !- Begin Month
    1,                        !- Begin Day of Month
    12,                       !- End Month
    31,                       !- End Day of Month
    Monday,                   !- Day of Week for Start Day
    No,                       !- Use Weather File Daylight Saving Period
    No;                       !- Use Weather File Rain and Snow Indicators

RunPeriod,
    RunPeriod1,               !- Name
    1,                        !- Begin Month
    1,                        !- Begin Day of Month
    ,                         !- Begin Year
    12,                       !- End Month
    31,                       !- End Day of Month
    ,                         !- End Year
    Sunday,                   !- Day of Week for Start Day
    No,                       !- Use Weather File Holidays and Special Days
    No,                       !- Use Weather File Daylight Saving Period
    No,                       !- Apply Weekend Holiday Rule
    Yes,                      !- Use Weather File Rain Indicators
    Yes;                      !- Use Weather File Snow Indicators

ScheduleTypeLimits,
    Any Number;               !- Name

SCHEDULETYPELIMITS,
    EU_Step8_AnyNumber_Wm2,    !- Name
    ,                         !- Lower Limit Value
    ,                         !- Upper Limit Value
    Continuous,               !- Numeric Type
    Dimensionless;            !- Unit Type

SCHEDULE:CONSTANT,
    EU_AlwaysOn,              !- Name
    ,                         !- Schedule Type Limits Name
    1;                        !- Hourly Value

SCHEDULE:CONSTANT,
    EU_CoolingOff,            !- Name
    ,                         !- Schedule Type Limits Name
    0;                        !- Hourly Value

SCHEDULE:FILE,
    EU_Step8_GainSchedule_5b7c45412b07d091_F0_dwelling_0_f000,    !- Name
    EU_Step8_AnyNumber_Wm2,    !- Schedule Type Limits Name
    ../../schedules/5b7c45412b07d091/5b7c45412b07d091_F0_dwelling_0_f000_gain.csv,    !- File Name
    1,                        !- Column Number
    0,                        !- Rows to Skip at Top
    8760,                     !- Number of Hours of Data
    Comma,                    !- Column Separator
    No,                       !- Interpolate to Timestep
    60,                       !- Minutes per Item
    Yes;                      !- Adjust Schedule for Daylight Savings

MATERIAL,
    EU_InternalMass_Material,    !- Name
    MediumRough,              !- Roughness
    0.1,                      !- Thickness
    1,                        !- Conductivity
    1800,                     !- Density
    900,                      !- Specific Heat
    0.9,                      !- Thermal Absorptance
    0.7,                      !- Solar Absorptance
    0.7;                      !- Visible Absorptance

MATERIAL:NOMASS,
    EU_wall_NoMass,           !- Name
    MediumRough,              !- Roughness
    0.5555555555555555,       !- Thermal Resistance
    0.9,                      !- Thermal Absorptance
    0.7,                      !- Solar Absorptance
    0.7;                      !- Visible Absorptance

MATERIAL:NOMASS,
    EU_roof_NoMass,           !- Name
    MediumRough,              !- Roughness
    0.5102040816326531,       !- Thermal Resistance
    0.9,                      !- Thermal Absorptance
    0.7,                      !- Solar Absorptance
    0.7;                      !- Visible Absorptance

MATERIAL:NOMASS,
    EU_floor_NoMass,          !- Name
    MediumRough,              !- Roughness
    1.6891891891891893,       !- Thermal Resistance
    0.9,                      !- Thermal Absorptance
    0.7,                      !- Solar Absorptance
    0.7;                      !- Visible Absorptance

CONSTRUCTION,
    EU_wall_Construction,     !- Name
    EU_wall_NoMass;           !- Outside Layer

CONSTRUCTION,
    EU_roof_Construction,     !- Name
    EU_roof_NoMass;           !- Outside Layer

CONSTRUCTION,
    EU_floor_Construction,    !- Name
    EU_floor_NoMass;          !- Outside Layer

CONSTRUCTION,
    EU_InternalMass_Construction,    !- Name
    EU_InternalMass_Material;    !- Outside Layer

GlobalGeometryRules,
    UpperLeftCorner,          !- Starting Vertex Position
    CounterClockWise,         !- Vertex Entry Direction
    World;                    !- Coordinate System

ZONE,
    5b7c45412b07d091_F0_dwelling_0,    !- Name
    0,                        !- Direction of Relative North
    0,                        !- X Origin
    0,                        !- Y Origin
    0,                        !- Z Origin
    1,                        !- Type
    1,                        !- Multiplier
    autocalculate,            !- Ceiling Height
    549.199951171875,         !- Volume
    autocalculate,            !- Floor Area
    ,                         !- Zone Inside Convection Algorithm
    ,                         !- Zone Outside Convection Algorithm
    Yes;                      !- Part of Total Floor Area

BUILDINGSURFACE:DETAILED,
    Block 5b7c45412b07d091_0 Storey 0 Wall 0001,    !- Name
    wall,                     !- Surface Type
    EU_wall_Construction,     !- Construction Name
    5b7c45412b07d091_F0_dwelling_0,    !- Zone Name
    ,                         !- Space Name
    outdoors,                 !- Outside Boundary Condition
    ,                         !- Outside Boundary Condition Object
    SunExposed,               !- Sun Exposure
    WindExposed,              !- Wind Exposure
    autocalculate,            !- View Factor to Ground
    autocalculate,            !- Number of Vertices
    705581.866,               !- Vertex 1 Xcoordinate
    5711386.294,              !- Vertex 1 Ycoordinate
    9,                        !- Vertex 1 Zcoordinate
    705581.866,               !- Vertex 2 Xcoordinate
    5711386.294,              !- Vertex 2 Ycoordinate
    0,                        !- Vertex 2 Zcoordinate
    705581.91,                !- Vertex 3 Xcoordinate
    5711388.813,              !- Vertex 3 Ycoordinate
    0,                        !- Vertex 3 Zcoordinate
    705581.91,                !- Vertex 4 Xcoordinate
    5711388.813,              !- Vertex 4 Ycoordinate
    9;                        !- Vertex 4 Zcoordinate

BUILDINGSURFACE:DETAILED,
    Block 5b7c45412b07d091_0 Storey 0 Wall 0002,    !- Name
    wall,                     !- Surface Type
    EU_wall_Construction,     !- Construction Name
    5b7c45412b07d091_F0_dwelling_0,    !- Zone Name
    ,                         !- Space Name
    outdoors,                 !- Outside Boundary Condition
    ,                         !- Outside Boundary Condition Object
    SunExposed,               !- Sun Exposure
    WindExposed,              !- Wind Exposure
    autocalculate,            !- View Factor to Ground
    autocalculate,            !- Number of Vertices
    705581.91,                !- Vertex 1 Xcoordinate
    5711388.813,              !- Vertex 1 Ycoordinate
    9,                        !- Vertex 1 Zcoordinate
    705581.91,                !- Vertex 2 Xcoordinate
    5711388.813,              !- Vertex 2 Ycoordinate
    0,                        !- Vertex 2 Zcoordinate
    705587.738,               !- Vertex 3 Xcoordinate
    5711388.682,              !- Vertex 3 Ycoordinate
    0,                        !- Vertex 3 Zcoordinate
    705587.738,               !- Vertex 4 Xcoordinate
    5711388.682,              !- Vertex 4 Ycoordinate
    9;                        !- Vertex 4 Zcoordinate

BUILDINGSURFACE:DETAILED,
    Block 5b7c45412b07d091_0 Storey 0 Wall 0003,    !- Name
    wall,                     !- Surface Type
    EU_wall_Construction,     !- Construction Name
    5b7c45412b07d091_F0_dwelling_0,    !- Zone Name
    ,                         !- Space Name
    outdoors,                 !- Outside Boundary Condition
    ,                         !- Outside Boundary Condition Object
    SunExposed,               !- Sun Exposure
    WindExposed,              !- Wind Exposure
    autocalculate,            !- View Factor to Ground
    autocalculate,            !- Number of Vertices
    705587.738,               !- Vertex 1 Xcoordinate
    5711388.682,              !- Vertex 1 Ycoordinate
    9,                        !- Vertex 1 Zcoordinate
    705587.738,               !- Vertex 2 Xcoordinate
    5711388.682,              !- Vertex 2 Ycoordinate
    0,                        !- Vertex 2 Zcoordinate
    705587.469,               !- Vertex 3 Xcoordinate
    5711378.681,              !- Vertex 3 Ycoordinate
    0,                        !- Vertex 3 Zcoordinate
    705587.469,               !- Vertex 4 Xcoordinate
    5711378.681,              !- Vertex 4 Ycoordinate
    9;                        !- Vertex 4 Zcoordinate

BUILDINGSURFACE:DETAILED,
    Block 5b7c45412b07d091_0 Storey 0 Wall 0004,    !- Name
    wall,                     !- Surface Type
    EU_wall_Construction,     !- Construction Name
    5b7c45412b07d091_F0_dwelling_0,    !- Zone Name
    ,                         !- Space Name
    outdoors,                 !- Outside Boundary Condition
    ,                         !- Outside Boundary Condition Object
    SunExposed,               !- Sun Exposure
    WindExposed,              !- Wind Exposure
    autocalculate,            !- View Factor to Ground
    autocalculate,            !- Number of Vertices
    705587.469,               !- Vertex 1 Xcoordinate
    5711378.681,              !- Vertex 1 Ycoordinate
    9,                        !- Vertex 1 Zcoordinate
    705587.469,               !- Vertex 2 Xcoordinate
    5711378.681,              !- Vertex 2 Ycoordinate
    0,                        !- Vertex 2 Zcoordinate
    705581.255,               !- Vertex 3 Xcoordinate
    5711378.909,              !- Vertex 3 Ycoordinate
    0,                        !- Vertex 3 Zcoordinate
    705581.255,               !- Vertex 4 Xcoordinate
    5711378.909,              !- Vertex 4 Ycoordinate
    9;                        !- Vertex 4 Zcoordinate

BUILDINGSURFACE:DETAILED,
    Block 5b7c45412b07d091_0 Storey 0 Wall 0005,    !- Name
    wall,                     !- Surface Type
    EU_wall_Construction,     !- Construction Name
    5b7c45412b07d091_F0_dwelling_0,    !- Zone Name
    ,                         !- Space Name
    Adiabatic,                !- Outside Boundary Condition
    ,                         !- Outside Boundary Condition Object
    NoSun,                    !- Sun Exposure
    NoWind,                   !- Wind Exposure
    autocalculate,            !- View Factor to Ground
    autocalculate,            !- Number of Vertices
    705581.255,               !- Vertex 1 Xcoordinate
    5711378.909,              !- Vertex 1 Ycoordinate
    9,                        !- Vertex 1 Zcoordinate
    705581.255,               !- Vertex 2 Xcoordinate
    5711378.909,              !- Vertex 2 Ycoordinate
    0,                        !- Vertex 2 Zcoordinate
    705581.428,               !- Vertex 3 Xcoordinate
    5711386.31,               !- Vertex 3 Ycoordinate
    0,                        !- Vertex 3 Zcoordinate
    705581.428,               !- Vertex 4 Xcoordinate
    5711386.31,               !- Vertex 4 Ycoordinate
    9;                        !- Vertex 4 Zcoordinate

BUILDINGSURFACE:DETAILED,
    Block 5b7c45412b07d091_0 Storey 0 Wall 0006,    !- Name
    wall,                     !- Surface Type
    EU_wall_Construction,     !- Construction Name
    5b7c45412b07d091_F0_dwelling_0,    !- Zone Name
    ,                         !- Space Name
    outdoors,                 !- Outside Boundary Condition
    ,                         !- Outside Boundary Condition Object
    SunExposed,               !- Sun Exposure
    WindExposed,              !- Wind Exposure
    autocalculate,            !- View Factor to Ground
    autocalculate,            !- Number of Vertices
    705581.428,               !- Vertex 1 Xcoordinate
    5711386.31,               !- Vertex 1 Ycoordinate
    9,                        !- Vertex 1 Zcoordinate
    705581.428,               !- Vertex 2 Xcoordinate
    5711386.31,               !- Vertex 2 Ycoordinate
    0,                        !- Vertex 2 Zcoordinate
    705581.866,               !- Vertex 3 Xcoordinate
    5711386.294,              !- Vertex 3 Ycoordinate
    0,                        !- Vertex 3 Zcoordinate
    705581.866,               !- Vertex 4 Xcoordinate
    5711386.294,              !- Vertex 4 Ycoordinate
    9;                        !- Vertex 4 Zcoordinate

BUILDINGSURFACE:DETAILED,
    Block 5b7c45412b07d091_0 Storey 0 Floor 0001,    !- Name
    floor,                    !- Surface Type
    EU_floor_Construction,    !- Construction Name
    5b7c45412b07d091_F0_dwelling_0,    !- Zone Name
    ,                         !- Space Name
    ground,                   !- Outside Boundary Condition
    ,                         !- Outside Boundary Condition Object
    NoSun,                    !- Sun Exposure
    NoWind,                   !- Wind Exposure
    autocalculate,            !- View Factor to Ground
    autocalculate,            !- Number of Vertices
    705587.469,               !- Vertex 1 Xcoordinate
    5711378.681,              !- Vertex 1 Ycoordinate
    0,                        !- Vertex 1 Zcoordinate
    705587.738,               !- Vertex 2 Xcoordinate
    5711388.682,              !- Vertex 2 Ycoordinate
    0,                        !- Vertex 2 Zcoordinate
    705581.91,                !- Vertex 3 Xcoordinate
    5711388.813,              !- Vertex 3 Ycoordinate
    0,                        !- Vertex 3 Zcoordinate
    705581.866,               !- Vertex 4 Xcoordinate
    5711386.294,              !- Vertex 4 Ycoordinate
    0,                        !- Vertex 4 Zcoordinate
    705581.428,               !- Vertex 5 Xcoordinate
    5711386.31,               !- Vertex 5 Ycoordinate
    0,                        !- Vertex 5 Zcoordinate
    705581.255,               !- Vertex 6 Xcoordinate
    5711378.909,              !- Vertex 6 Ycoordinate
    0;                        !- Vertex 6 Zcoordinate

BUILDINGSURFACE:DETAILED,
    Block 5b7c45412b07d091_0 Storey 0 Roof 0001,    !- Name
    roof,                     !- Surface Type
    EU_roof_Construction,     !- Construction Name
    5b7c45412b07d091_F0_dwelling_0,    !- Zone Name
    ,                         !- Space Name
    outdoors,                 !- Outside Boundary Condition
    ,                         !- Outside Boundary Condition Object
    NoSun,                    !- Sun Exposure
    WindExposed,              !- Wind Exposure
    autocalculate,            !- View Factor to Ground
    autocalculate,            !- Number of Vertices
    705587.738,               !- Vertex 1 Xcoordinate
    5711388.682,              !- Vertex 1 Ycoordinate
    9,                        !- Vertex 1 Zcoordinate
    705587.469,               !- Vertex 2 Xcoordinate
    5711378.681,              !- Vertex 2 Ycoordinate
    9,                        !- Vertex 2 Zcoordinate
    705581.255,               !- Vertex 3 Xcoordinate
    5711378.909,              !- Vertex 3 Ycoordinate
    9,                        !- Vertex 3 Zcoordinate
    705581.428,               !- Vertex 4 Xcoordinate
    5711386.31,               !- Vertex 4 Ycoordinate
    9,                        !- Vertex 4 Zcoordinate
    705581.866,               !- Vertex 5 Xcoordinate
    5711386.294,              !- Vertex 5 Ycoordinate
    9,                        !- Vertex 5 Zcoordinate
    705581.91,                !- Vertex 6 Xcoordinate
    5711388.813,              !- Vertex 6 Ycoordinate
    9;                        !- Vertex 6 Zcoordinate

INTERNALMASS,
    5b7c45412b07d091_F0_dwelling_0_EU_InternalMass,    !- Name
    EU_InternalMass_Construction,    !- Construction Name
    5b7c45412b07d091_F0_dwelling_0,    !- Zone or ZoneList Name
    ,                         !- Space or SpaceList Name
    61.02205000079392;        !- Surface Area

SHADING:SITE:DETAILED,
    shade_way/1056456202_1,    !- Name
    ,                         !- Transmittance Schedule Name
    autocalculate,            !- Number of Vertices
    705562.5904088942,        !- Vertex 1 Xcoordinate
    5711386.849516891,        !- Vertex 1 Ycoordinate
    9,                        !- Vertex 1 Zcoordinate
    705562.5904088942,        !- Vertex 2 Xcoordinate
    5711386.849516891,        !- Vertex 2 Ycoordinate
    0,                        !- Vertex 2 Zcoordinate
    705562.2214017605,        !- Vertex 3 Xcoordinate
    5711379.208931929,        !- Vertex 3 Ycoordinate
    0,                        !- Vertex 3 Zcoordinate
    705562.2214017605,        !- Vertex 4 Xcoordinate
    5711379.208931929,        !- Vertex 4 Ycoordinate
    9;                        !- Vertex 4 Zcoordinate

SHADING:SITE:DETAILED,
    shade_way/1056456202_2,    !- Name
    ,                         !- Transmittance Schedule Name
    autocalculate,            !- Number of Vertices
    705562.2214017605,        !- Vertex 1 Xcoordinate
    5711379.208931929,        !- Vertex 1 Ycoordinate
    9,                        !- Vertex 1 Zcoordinate
    705562.2214017605,        !- Vertex 2 Xcoordinate
    5711379.208931929,        !- Vertex 2 Ycoordinate
    0,                        !- Vertex 2 Zcoordinate
    705555.7306933022,        !- Vertex 3 Xcoordinate
    5711379.522349385,        !- Vertex 3 Ycoordinate
    0,                        !- Vertex 3 Zcoordinate
    705555.7306933022,        !- Vertex 4 Xcoordinate
    5711379.522349385,        !- Vertex 4 Ycoordinate
    9;                        !- Vertex 4 Zcoordinate

SHADING:SITE:DETAILED,
    shade_way/1056456202_3,    !- Name
    ,                         !- Transmittance Schedule Name
    autocalculate,            !- Number of Vertices
    705555.7306933022,        !- Vertex 1 Xcoordinate
    5711379.522349385,        !- Vertex 1 Ycoordinate
    9,                        !- Vertex 1 Zcoordinate
    705555.7306933022,        !- Vertex 2 Xcoordinate
    5711379.522349385,        !- Vertex 2 Ycoordinate
    0,                        !- Vertex 2 Zcoordinate
    705556.0999377387,        !- Vertex 3 Xcoordinate
    5711387.163223845,        !- Vertex 3 Ycoordinate
    0,                        !- Vertex 3 Zcoordinate
    705556.0999377387,        !- Vertex 4 Xcoordinate
    5711387.163223845,        !- Vertex 4 Ycoordinate
    9;                        !- Vertex 4 Zcoordinate

SHADING:SITE:DETAILED,
    shade_way/1056456202_4,    !- Name
    ,                         !- Transmittance Schedule Name
    autocalculate,            !- Number of Vertices
    705556.0999377387,        !- Vertex 1 Xcoordinate
    5711387.163223845,        !- Vertex 1 Ycoordinate
    9,                        !- Vertex 1 Zcoordinate
    705556.0999377387,        !- Vertex 2 Xcoordinate
    5711387.163223845,        !- Vertex 2 Ycoordinate
    0,                        !- Vertex 2 Zcoordinate
    705562.5904088942,        !- Vertex 3 Xcoordinate
    5711386.849516891,        !- Vertex 3 Ycoordinate
    0,                        !- Vertex 3 Zcoordinate
    705562.5904088942,        !- Vertex 4 Xcoordinate
    5711386.849516891,        !- Vertex 4 Ycoordinate
    9;                        !- Vertex 4 Zcoordinate

SHADING:SITE:DETAILED,
    shade_way/1056456204_1,    !- Name
    ,                         !- Transmittance Schedule Name
    autocalculate,            !- Number of Vertices
    705569.5883970417,        !- Vertex 1 Xcoordinate
    5711389.048478772,        !- Vertex 1 Ycoordinate
    6,                        !- Vertex 1 Zcoordinate
    705569.5883970417,        !- Vertex 2 Xcoordinate
    5711389.048478772,        !- Vertex 2 Ycoordinate
    0,                        !- Vertex 2 Zcoordinate
    705575.4652490431,        !- Vertex 3 Xcoordinate
    5711388.907954569,        !- Vertex 3 Ycoordinate
    0,                        !- Vertex 3 Zcoordinate
    705575.4652490431,        !- Vertex 4 Xcoordinate
    5711388.907954569,        !- Vertex 4 Ycoordinate
    6;                        !- Vertex 4 Zcoordinate

SHADING:SITE:DETAILED,
    shade_way/1056456204_2,    !- Name
    ,                         !- Transmittance Schedule Name
    autocalculate,            !- Number of Vertices
    705575.4652490431,        !- Vertex 1 Xcoordinate
    5711388.907954569,        !- Vertex 1 Ycoordinate
    6,                        !- Vertex 1 Zcoordinate
    705575.4652490431,        !- Vertex 2 Xcoordinate
    5711388.907954569,        !- Vertex 2 Ycoordinate
    0,                        !- Vertex 2 Zcoordinate
    705575.2291611839,        !- Vertex 3 Xcoordinate
    5711379.034392881,        !- Vertex 3 Ycoordinate
    0,                        !- Vertex 3 Zcoordinate
    705575.2291611839,        !- Vertex 4 Xcoordinate
    5711379.034392881,        !- Vertex 4 Ycoordinate
    6;                        !- Vertex 4 Zcoordinate

SHADING:SITE:DETAILED,
    shade_way/1056456204_3,    !- Name
    ,                         !- Transmittance Schedule Name
    autocalculate,            !- Number of Vertices
    705575.2291611839,        !- Vertex 1 Xcoordinate
    5711379.034392881,        !- Vertex 1 Ycoordinate
    6,                        !- Vertex 1 Zcoordinate
    705575.2291611839,        !- Vertex 2 Xcoordinate
    5711379.034392881,        !- Vertex 2 Ycoordinate
    0,                        !- Vertex 2 Zcoordinate
    705569.3523091825,        !- Vertex 3 Xcoordinate
    5711379.174917081,        !- Vertex 3 Ycoordinate
    0,                        !- Vertex 3 Zcoordinate
    705569.3523091825,        !- Vertex 4 Xcoordinate
    5711379.174917081,        !- Vertex 4 Ycoordinate
    6;                        !- Vertex 4 Zcoordinate

SHADING:SITE:DETAILED,
    shade_way/1056456204_4,    !- Name
    ,                         !- Transmittance Schedule Name
    autocalculate,            !- Number of Vertices
    705569.3523091825,        !- Vertex 1 Xcoordinate
    5711379.174917081,        !- Vertex 1 Ycoordinate
    6,                        !- Vertex 1 Zcoordinate
    705569.3523091825,        !- Vertex 2 Xcoordinate
    5711379.174917081,        !- Vertex 2 Ycoordinate
    0,                        !- Vertex 2 Zcoordinate
    705569.5883970417,        !- Vertex 3 Xcoordinate
    5711389.048478772,        !- Vertex 3 Ycoordinate
    0,                        !- Vertex 3 Zcoordinate
    705569.5883970417,        !- Vertex 4 Xcoordinate
    5711389.048478772,        !- Vertex 4 Ycoordinate
    6;                        !- Vertex 4 Zcoordinate

SHADING:SITE:DETAILED,
    shade_way/1056456203_1,    !- Name
    ,                         !- Transmittance Schedule Name
    autocalculate,            !- Number of Vertices
    705569.3909404519,        !- Vertex 1 Xcoordinate
    5711379.173747376,        !- Vertex 1 Ycoordinate
    6,                        !- Vertex 1 Zcoordinate
    705569.3909404519,        !- Vertex 2 Xcoordinate
    5711379.173747376,        !- Vertex 2 Ycoordinate
    0,                        !- Vertex 2 Zcoordinate
    705562.2276274972,        !- Vertex 3 Xcoordinate
    5711379.3401130205,       !- Vertex 3 Ycoordinate
    0,                        !- Vertex 3 Zcoordinate
    705562.2276274972,        !- Vertex 4 Xcoordinate
    5711379.3401130205,       !- Vertex 4 Ycoordinate
    6;                        !- Vertex 4 Zcoordinate

SHADING:SITE:DETAILED,
    shade_way/1056456203_2,    !- Name
    ,                         !- Transmittance Schedule Name
    autocalculate,            !- Number of Vertices
    705562.2276274972,        !- Vertex 1 Xcoordinate
    5711379.3401130205,       !- Vertex 1 Ycoordinate
    6,                        !- Vertex 1 Zcoordinate
    705562.2276274972,        !- Vertex 2 Xcoordinate
    5711379.3401130205,       !- Vertex 2 Ycoordinate
    0,                        !- Vertex 2 Zcoordinate
    705562.4810805456,        !- Vertex 3 Xcoordinate
    5711390.243561835,        !- Vertex 3 Ycoordinate
    0,                        !- Vertex 3 Zcoordinate
    705562.4810805456,        !- Vertex 4 Xcoordinate
    5711390.243561835,        !- Vertex 4 Ycoordinate
    6;                        !- Vertex 4 Zcoordinate

SHADING:SITE:DETAILED,
    shade_way/1056456203_3,    !- Name
    ,                         !- Transmittance Schedule Name
    autocalculate,            !- Number of Vertices
    705562.4810805456,        !- Vertex 1 Xcoordinate
    5711390.243561835,        !- Vertex 1 Ycoordinate
    6,                        !- Vertex 1 Zcoordinate
    705562.4810805456,        !- Vertex 2 Xcoordinate
    5711390.243561835,        !- Vertex 2 Ycoordinate
    0,                        !- Vertex 2 Zcoordinate
    705569.6443935002,        !- Vertex 3 Xcoordinate
    5711390.077196192,        !- Vertex 3 Ycoordinate
    0,                        !- Vertex 3 Zcoordinate
    705569.6443935002,        !- Vertex 4 Xcoordinate
    5711390.077196192,        !- Vertex 4 Ycoordinate
    6;                        !- Vertex 4 Zcoordinate

SHADING:SITE:DETAILED,
    shade_way/1056456203_4,    !- Name
    ,                         !- Transmittance Schedule Name
    autocalculate,            !- Number of Vertices
    705569.6443935002,        !- Vertex 1 Xcoordinate
    5711390.077196192,        !- Vertex 1 Ycoordinate
    6,                        !- Vertex 1 Zcoordinate
    705569.6443935002,        !- Vertex 2 Xcoordinate
    5711390.077196192,        !- Vertex 2 Ycoordinate
    0,                        !- Vertex 2 Zcoordinate
    705569.3909404519,        !- Vertex 3 Xcoordinate
    5711379.173747376,        !- Vertex 3 Ycoordinate
    0,                        !- Vertex 3 Zcoordinate
    705569.3909404519,        !- Vertex 4 Xcoordinate
    5711379.173747376,        !- Vertex 4 Ycoordinate
    6;                        !- Vertex 4 Zcoordinate

SHADING:SITE:DETAILED,
    shade_way/192335485_1,    !- Name
    ,                         !- Transmittance Schedule Name
    autocalculate,            !- Number of Vertices
    705607.2498860939,        !- Vertex 1 Xcoordinate
    5711389.839510856,        !- Vertex 1 Ycoordinate
    6,                        !- Vertex 1 Zcoordinate
    705607.2498860939,        !- Vertex 2 Xcoordinate
    5711389.839510856,        !- Vertex 2 Ycoordinate
    0,                        !- Vertex 2 Zcoordinate
    705607.0810194382,        !- Vertex 3 Xcoordinate
    5711384.576347892,        !- Vertex 3 Ycoordinate
    0,                        !- Vertex 3 Zcoordinate
    705607.0810194382,        !- Vertex 4 Xcoordinate
    5711384.576347892,        !- Vertex 4 Ycoordinate
    6;                        !- Vertex 4 Zcoordinate

SHADING:SITE:DETAILED,
    shade_way/192335485_2,    !- Name
    ,                         !- Transmittance Schedule Name
    autocalculate,            !- Number of Vertices
    705607.0810194382,        !- Vertex 1 Xcoordinate
    5711384.576347892,        !- Vertex 1 Ycoordinate
    6,                        !- Vertex 1 Zcoordinate
    705607.0810194382,        !- Vertex 2 Xcoordinate
    5711384.576347892,        !- Vertex 2 Ycoordinate
    0,                        !- Vertex 2 Zcoordinate
    705599.0656401011,        !- Vertex 3 Xcoordinate
    5711384.833574024,        !- Vertex 3 Ycoordinate
    0,                        !- Vertex 3 Zcoordinate
    705599.0656401011,        !- Vertex 4 Xcoordinate
    5711384.833574024,        !- Vertex 4 Ycoordinate
    6;                        !- Vertex 4 Zcoordinate

SHADING:SITE:DETAILED,
    shade_way/192335485_3,    !- Name
    ,                         !- Transmittance Schedule Name
    autocalculate,            !- Number of Vertices
    705599.0656401011,        !- Vertex 1 Xcoordinate
    5711384.833574024,        !- Vertex 1 Ycoordinate
    6,                        !- Vertex 1 Zcoordinate
    705599.0656401011,        !- Vertex 2 Xcoordinate
    5711384.833574024,        !- Vertex 2 Ycoordinate
    0,                        !- Vertex 2 Zcoordinate
    705599.2345067566,        !- Vertex 3 Xcoordinate
    5711390.096736988,        !- Vertex 3 Ycoordinate
    0,                        !- Vertex 3 Zcoordinate
    705599.2345067566,        !- Vertex 4 Xcoordinate
    5711390.096736988,        !- Vertex 4 Ycoordinate
    6;                        !- Vertex 4 Zcoordinate

SHADING:SITE:DETAILED,
    shade_way/192335485_4,    !- Name
    ,                         !- Transmittance Schedule Name
    autocalculate,            !- Number of Vertices
    705599.2345067566,        !- Vertex 1 Xcoordinate
    5711390.096736988,        !- Vertex 1 Ycoordinate
    6,                        !- Vertex 1 Zcoordinate
    705599.2345067566,        !- Vertex 2 Xcoordinate
    5711390.096736988,        !- Vertex 2 Ycoordinate
    0,                        !- Vertex 2 Zcoordinate
    705607.2498860939,        !- Vertex 3 Xcoordinate
    5711389.839510856,        !- Vertex 3 Ycoordinate
    0,                        !- Vertex 3 Zcoordinate
    705607.2498860939,        !- Vertex 4 Xcoordinate
    5711389.839510856,        !- Vertex 4 Ycoordinate
    6;                        !- Vertex 4 Zcoordinate

SHADING:SITE:DETAILED,
    shade_way/192335482_1,    !- Name
    ,                         !- Transmittance Schedule Name
    autocalculate,            !- Number of Vertices
    705607.2498860939,        !- Vertex 1 Xcoordinate
    5711389.839510856,        !- Vertex 1 Ycoordinate
    6,                        !- Vertex 1 Zcoordinate
    705607.2498860939,        !- Vertex 2 Xcoordinate
    5711389.839510856,        !- Vertex 2 Ycoordinate
    0,                        !- Vertex 2 Zcoordinate
    705599.1883629686,        !- Vertex 3 Xcoordinate
    5711390.095222318,        !- Vertex 3 Ycoordinate
    0,                        !- Vertex 3 Zcoordinate
    705599.1883629686,        !- Vertex 4 Xcoordinate
    5711390.095222318,        !- Vertex 4 Ycoordinate
    6;                        !- Vertex 4 Zcoordinate

SHADING:SITE:DETAILED,
    shade_way/192335482_2,    !- Name
    ,                         !- Transmittance Schedule Name
    autocalculate,            !- Number of Vertices
    705599.1883629686,        !- Vertex 1 Xcoordinate
    5711390.095222318,        !- Vertex 1 Ycoordinate
    6,                        !- Vertex 1 Zcoordinate
    705599.1883629686,        !- Vertex 2 Xcoordinate
    5711390.095222318,        !- Vertex 2 Ycoordinate
    0,                        !- Vertex 2 Zcoordinate
    705599.4011465774,        !- Vertex 3 Xcoordinate
    5711396.804581203,        !- Vertex 3 Ycoordinate
    0,                        !- Vertex 3 Zcoordinate
    705599.4011465774,        !- Vertex 4 Xcoordinate
    5711396.804581203,        !- Vertex 4 Ycoordinate
    6;                        !- Vertex 4 Zcoordinate

SHADING:SITE:DETAILED,
    shade_way/192335482_3,    !- Name
    ,                         !- Transmittance Schedule Name
    autocalculate,            !- Number of Vertices
    705599.4011465774,        !- Vertex 1 Xcoordinate
    5711396.804581203,        !- Vertex 1 Ycoordinate
    6,                        !- Vertex 1 Zcoordinate
    705599.4011465774,        !- Vertex 2 Xcoordinate
    5711396.804581203,        !- Vertex 2 Ycoordinate
    0,                        !- Vertex 2 Zcoordinate
    705607.4628986873,        !- Vertex 3 Xcoordinate
    5711396.548669114,        !- Vertex 3 Ycoordinate
    0,                        !- Vertex 3 Zcoordinate
    705607.4628986873,        !- Vertex 4 Xcoordinate
    5711396.548669114,        !- Vertex 4 Ycoordinate
    6;                        !- Vertex 4 Zcoordinate

SHADING:SITE:DETAILED,
    shade_way/192335482_4,    !- Name
    ,                         !- Transmittance Schedule Name
    autocalculate,            !- Number of Vertices
    705607.4628986873,        !- Vertex 1 Xcoordinate
    5711396.548669114,        !- Vertex 1 Ycoordinate
    6,                        !- Vertex 1 Zcoordinate
    705607.4628986873,        !- Vertex 2 Xcoordinate
    5711396.548669114,        !- Vertex 2 Ycoordinate
    0,                        !- Vertex 2 Zcoordinate
    705607.2498860939,        !- Vertex 3 Xcoordinate
    5711389.839510856,        !- Vertex 3 Ycoordinate
    0,                        !- Vertex 3 Zcoordinate
    705607.2498860939,        !- Vertex 4 Xcoordinate
    5711389.839510856,        !- Vertex 4 Ycoordinate
    6;                        !- Vertex 4 Zcoordinate

SHADING:SITE:DETAILED,
    shade_way/192335478_1,    !- Name
    ,                         !- Transmittance Schedule Name
    autocalculate,            !- Number of Vertices
    705599.6210939325,        !- Vertex 1 Xcoordinate
    5711402.693444575,        !- Vertex 1 Ycoordinate
    6,                        !- Vertex 1 Zcoordinate
    705599.6210939325,        !- Vertex 2 Xcoordinate
    5711402.693444575,        !- Vertex 2 Ycoordinate
    0,                        !- Vertex 2 Zcoordinate
    705607.661706432,         !- Vertex 3 Xcoordinate
    5711402.384230542,        !- Vertex 3 Ycoordinate
    0,                        !- Vertex 3 Zcoordinate
    705607.661706432,         !- Vertex 4 Xcoordinate
    5711402.384230542,        !- Vertex 4 Ycoordinate
    6;                        !- Vertex 4 Zcoordinate

SHADING:SITE:DETAILED,
    shade_way/192335478_2,    !- Name
    ,                         !- Transmittance Schedule Name
    autocalculate,            !- Number of Vertices
    705607.661706432,         !- Vertex 1 Xcoordinate
    5711402.384230542,        !- Vertex 1 Ycoordinate
    6,                        !- Vertex 1 Zcoordinate
    705607.661706432,         !- Vertex 2 Xcoordinate
    5711402.384230542,        !- Vertex 2 Ycoordinate
    0,                        !- Vertex 2 Zcoordinate
    705607.4336037843,        !- Vertex 3 Xcoordinate
    5711396.45076455,         !- Vertex 3 Ycoordinate
    0,                        !- Vertex 3 Zcoordinate
    705607.4336037843,        !- Vertex 4 Xcoordinate
    5711396.45076455,         !- Vertex 4 Ycoordinate
    6;                        !- Vertex 4 Zcoordinate

SHADING:SITE:DETAILED,
    shade_way/192335478_3,    !- Name
    ,                         !- Transmittance Schedule Name
    autocalculate,            !- Number of Vertices
    705607.4336037843,        !- Vertex 1 Xcoordinate
    5711396.45076455,         !- Vertex 1 Ycoordinate
    6,                        !- Vertex 1 Zcoordinate
    705607.4336037843,        !- Vertex 2 Xcoordinate
    5711396.45076455,         !- Vertex 2 Ycoordinate
    0,                        !- Vertex 2 Zcoordinate
    705599.3928841633,        !- Vertex 3 Xcoordinate
    5711396.759913484,        !- Vertex 3 Ycoordinate
    0,                        !- Vertex 3 Zcoordinate
    705599.3928841633,        !- Vertex 4 Xcoordinate
    5711396.759913484,        !- Vertex 4 Ycoordinate
    6;                        !- Vertex 4 Zcoordinate

SHADING:SITE:DETAILED,
    shade_way/192335478_4,    !- Name
    ,                         !- Transmittance Schedule Name
    autocalculate,            !- Number of Vertices
    705599.3928841633,        !- Vertex 1 Xcoordinate
    5711396.759913484,        !- Vertex 1 Ycoordinate
    6,                        !- Vertex 1 Zcoordinate
    705599.3928841633,        !- Vertex 2 Xcoordinate
    5711396.759913484,        !- Vertex 2 Ycoordinate
    0,                        !- Vertex 2 Zcoordinate
    705599.6210939325,        !- Vertex 3 Xcoordinate
    5711402.693444575,        !- Vertex 3 Ycoordinate
    0,                        !- Vertex 3 Zcoordinate
    705599.6210939325,        !- Vertex 4 Xcoordinate
    5711402.693444575,        !- Vertex 4 Ycoordinate
    6;                        !- Vertex 4 Zcoordinate

SHADING:SITE:DETAILED,
    shade_way/192335468_1,    !- Name
    ,                         !- Transmittance Schedule Name
    autocalculate,            !- Number of Vertices
    705594.3978404712,        !- Vertex 1 Xcoordinate
    5711409.42027121,         !- Vertex 1 Ycoordinate
    6,                        !- Vertex 1 Zcoordinate
    705594.3978404712,        !- Vertex 2 Xcoordinate
    5711409.42027121,         !- Vertex 2 Ycoordinate
    0,                        !- Vertex 2 Zcoordinate
    705607.9309262139,        !- Vertex 3 Xcoordinate
    5711408.850520937,        !- Vertex 3 Ycoordinate
    0,                        !- Vertex 3 Zcoordinate
    705607.9309262139,        !- Vertex 4 Xcoordinate
    5711408.850520937,        !- Vertex 4 Ycoordinate
    6;                        !- Vertex 4 Zcoordinate

SHADING:SITE:DETAILED,
    shade_way/192335468_2,    !- Name
    ,                         !- Transmittance Schedule Name
    autocalculate,            !- Number of Vertices
    705607.9309262139,        !- Vertex 1 Xcoordinate
    5711408.850520937,        !- Vertex 1 Ycoordinate
    6,                        !- Vertex 1 Zcoordinate
    705607.9309262139,        !- Vertex 2 Xcoordinate
    5711408.850520937,        !- Vertex 2 Ycoordinate
    0,                        !- Vertex 2 Zcoordinate
    705607.6566170973,        !- Vertex 3 Xcoordinate
    5711402.334949104,        !- Vertex 3 Ycoordinate
    0,                        !- Vertex 3 Zcoordinate
    705607.6566170973,        !- Vertex 4 Xcoordinate
    5711402.334949104,        !- Vertex 4 Ycoordinate
    6;                        !- Vertex 4 Zcoordinate

SHADING:SITE:DETAILED,
    shade_way/192335468_3,    !- Name
    ,                         !- Transmittance Schedule Name
    autocalculate,            !- Number of Vertices
    705607.6566170973,        !- Vertex 1 Xcoordinate
    5711402.334949104,        !- Vertex 1 Ycoordinate
    6,                        !- Vertex 1 Zcoordinate
    705607.6566170973,        !- Vertex 2 Xcoordinate
    5711402.334949104,        !- Vertex 2 Ycoordinate
    0,                        !- Vertex 2 Zcoordinate
    705594.123521839,         !- Vertex 3 Xcoordinate
    5711402.904989961,        !- Vertex 3 Ycoordinate
    0,                        !- Vertex 3 Zcoordinate
    705594.123521839,         !- Vertex 4 Xcoordinate
    5711402.904989961,        !- Vertex 4 Ycoordinate
    6;                        !- Vertex 4 Zcoordinate

SHADING:SITE:DETAILED,
    shade_way/192335468_4,    !- Name
    ,                         !- Transmittance Schedule Name
    autocalculate,            !- Number of Vertices
    705594.123521839,         !- Vertex 1 Xcoordinate
    5711402.904989961,        !- Vertex 1 Ycoordinate
    6,                        !- Vertex 1 Zcoordinate
    705594.123521839,         !- Vertex 2 Xcoordinate
    5711402.904989961,        !- Vertex 2 Ycoordinate
    0,                        !- Vertex 2 Zcoordinate
    705594.3978404712,        !- Vertex 3 Xcoordinate
    5711409.42027121,         !- Vertex 3 Ycoordinate
    0,                        !- Vertex 3 Zcoordinate
    705594.3978404712,        !- Vertex 4 Xcoordinate
    5711409.42027121,         !- Vertex 4 Ycoordinate
    6;                        !- Vertex 4 Zcoordinate

SHADING:SITE:DETAILED,
    shade_way/288548523_1,    !- Name
    ,                         !- Transmittance Schedule Name
    autocalculate,            !- Number of Vertices
    705588.0950643388,        !- Vertex 1 Xcoordinate
    5711404.264198023,        !- Vertex 1 Ycoordinate
    9,                        !- Vertex 1 Zcoordinate
    705588.0950643388,        !- Vertex 2 Xcoordinate
    5711404.264198023,        !- Vertex 2 Ycoordinate
    0,                        !- Vertex 2 Zcoordinate
    705581.9821409463,        !- Vertex 3 Xcoordinate
    5711404.440058703,        !- Vertex 3 Ycoordinate
    0,                        !- Vertex 3 Zcoordinate
    705581.9821409463,        !- Vertex 4 Xcoordinate
    5711404.440058703,        !- Vertex 4 Ycoordinate
    9;                        !- Vertex 4 Zcoordinate

SHADING:SITE:DETAILED,
    shade_way/288548523_2,    !- Name
    ,                         !- Transmittance Schedule Name
    autocalculate,            !- Number of Vertices
    705581.9821409463,        !- Vertex 1 Xcoordinate
    5711404.440058703,        !- Vertex 1 Ycoordinate
    9,                        !- Vertex 1 Zcoordinate
    705581.9821409463,        !- Vertex 2 Xcoordinate
    5711404.440058703,        !- Vertex 2 Ycoordinate
    0,                        !- Vertex 2 Zcoordinate
    705582.200575311,         !- Vertex 3 Xcoordinate
    5711412.03284485,         !- Vertex 3 Ycoordinate
    0,                        !- Vertex 3 Zcoordinate
    705582.200575311,         !- Vertex 4 Xcoordinate
    5711412.03284485,         !- Vertex 4 Ycoordinate
    9;                        !- Vertex 4 Zcoordinate

SHADING:SITE:DETAILED,
    shade_way/288548523_3,    !- Name
    ,                         !- Transmittance Schedule Name
    autocalculate,            !- Number of Vertices
    705582.200575311,         !- Vertex 1 Xcoordinate
    5711412.03284485,         !- Vertex 1 Ycoordinate
    9,                        !- Vertex 1 Zcoordinate
    705582.200575311,         !- Vertex 2 Xcoordinate
    5711412.03284485,         !- Vertex 2 Ycoordinate
    0,                        !- Vertex 2 Zcoordinate
    705588.3134782566,        !- Vertex 3 Xcoordinate
    5711411.856987295,        !- Vertex 3 Ycoordinate
    0,                        !- Vertex 3 Zcoordinate
    705588.3134782566,        !- Vertex 4 Xcoordinate
    5711411.856987295,        !- Vertex 4 Ycoordinate
    9;                        !- Vertex 4 Zcoordinate

SHADING:SITE:DETAILED,
    shade_way/288548523_4,    !- Name
    ,                         !- Transmittance Schedule Name
    autocalculate,            !- Number of Vertices
    705588.3134782566,        !- Vertex 1 Xcoordinate
    5711411.856987295,        !- Vertex 1 Ycoordinate
    9,                        !- Vertex 1 Zcoordinate
    705588.3134782566,        !- Vertex 2 Xcoordinate
    5711411.856987295,        !- Vertex 2 Ycoordinate
    0,                        !- Vertex 2 Zcoordinate
    705588.0950643388,        !- Vertex 3 Xcoordinate
    5711404.264198023,        !- Vertex 3 Ycoordinate
    0,                        !- Vertex 3 Zcoordinate
    705588.0950643388,        !- Vertex 4 Xcoordinate
    5711404.264198023,        !- Vertex 4 Ycoordinate
    9;                        !- Vertex 4 Zcoordinate

SHADING:SITE:DETAILED,
    shade_way/288548520_1,    !- Name
    ,                         !- Transmittance Schedule Name
    autocalculate,            !- Number of Vertices
    705582.1999026148,        !- Vertex 1 Xcoordinate
    5711412.010175769,        !- Vertex 1 Ycoordinate
    9,                        !- Vertex 1 Zcoordinate
    705582.1999026148,        !- Vertex 2 Xcoordinate
    5711412.010175769,        !- Vertex 2 Ycoordinate
    0,                        !- Vertex 2 Zcoordinate
    705581.9855295842,        !- Vertex 3 Xcoordinate
    5711404.439963753,        !- Vertex 3 Ycoordinate
    0,                        !- Vertex 3 Zcoordinate
    705581.9855295842,        !- Vertex 4 Xcoordinate
    5711404.439963753,        !- Vertex 4 Ycoordinate
    9;                        !- Vertex 4 Zcoordinate

SHADING:SITE:DETAILED,
    shade_way/288548520_2,    !- Name
    ,                         !- Transmittance Schedule Name
    autocalculate,            !- Number of Vertices
    705581.9855295842,        !- Vertex 1 Xcoordinate
    5711404.439963753,        !- Vertex 1 Ycoordinate
    9,                        !- Vertex 1 Zcoordinate
    705581.9855295842,        !- Vertex 2 Xcoordinate
    5711404.439963753,        !- Vertex 2 Ycoordinate
    0,                        !- Vertex 2 Zcoordinate
    705575.7486171487,        !- Vertex 3 Xcoordinate
    5711404.6165040815,       !- Vertex 3 Ycoordinate
    0,                        !- Vertex 3 Zcoordinate
    705575.7486171487,        !- Vertex 4 Xcoordinate
    5711404.6165040815,       !- Vertex 4 Ycoordinate
    9;                        !- Vertex 4 Zcoordinate

SHADING:SITE:DETAILED,
    shade_way/288548520_3,    !- Name
    ,                         !- Transmittance Schedule Name
    autocalculate,            !- Number of Vertices
    705575.7486171487,        !- Vertex 1 Xcoordinate
    5711404.6165040815,       !- Vertex 1 Ycoordinate
    9,                        !- Vertex 1 Zcoordinate
    705575.7486171487,        !- Vertex 2 Xcoordinate
    5711404.6165040815,       !- Vertex 2 Ycoordinate
    0,                        !- Vertex 2 Zcoordinate
    705575.9629901793,        !- Vertex 3 Xcoordinate
    5711412.1867160965,       !- Vertex 3 Ycoordinate
    0,                        !- Vertex 3 Zcoordinate
    705575.9629901793,        !- Vertex 4 Xcoordinate
    5711412.1867160965,       !- Vertex 4 Ycoordinate
    9;                        !- Vertex 4 Zcoordinate

SHADING:SITE:DETAILED,
    shade_way/288548520_4,    !- Name
    ,                         !- Transmittance Schedule Name
    autocalculate,            !- Number of Vertices
    705575.9629901793,        !- Vertex 1 Xcoordinate
    5711412.1867160965,       !- Vertex 1 Ycoordinate
    9,                        !- Vertex 1 Zcoordinate
    705575.9629901793,        !- Vertex 2 Xcoordinate
    5711412.1867160965,       !- Vertex 2 Ycoordinate
    0,                        !- Vertex 2 Zcoordinate
    705582.1999026148,        !- Vertex 3 Xcoordinate
    5711412.010175769,        !- Vertex 3 Ycoordinate
    0,                        !- Vertex 3 Zcoordinate
    705582.1999026148,        !- Vertex 4 Xcoordinate
    5711412.010175769,        !- Vertex 4 Ycoordinate
    9;                        !- Vertex 4 Zcoordinate

SHADING:SITE:DETAILED,
    shade_way/192335493_1,    !- Name
    ,                         !- Transmittance Schedule Name
    autocalculate,            !- Number of Vertices
    705598.3594342761,        !- Vertex 1 Xcoordinate
    5711364.316432517,        !- Vertex 1 Ycoordinate
    6,                        !- Vertex 1 Zcoordinate
    705598.3594342761,        !- Vertex 2 Xcoordinate
    5711364.316432517,        !- Vertex 2 Ycoordinate
    0,                        !- Vertex 2 Zcoordinate
    705606.4288710448,        !- Vertex 3 Xcoordinate
    5711364.148272953,        !- Vertex 3 Ycoordinate
    0,                        !- Vertex 3 Zcoordinate
    705606.4288710448,        !- Vertex 4 Xcoordinate
    5711364.148272953,        !- Vertex 4 Ycoordinate
    6;                        !- Vertex 4 Zcoordinate

SHADING:SITE:DETAILED,
    shade_way/192335493_2,    !- Name
    ,                         !- Transmittance Schedule Name
    autocalculate,            !- Number of Vertices
    705606.4288710448,        !- Vertex 1 Xcoordinate
    5711364.148272953,        !- Vertex 1 Ycoordinate
    6,                        !- Vertex 1 Zcoordinate
    705606.4288710448,        !- Vertex 2 Xcoordinate
    5711364.148272953,        !- Vertex 2 Ycoordinate
    0,                        !- Vertex 2 Zcoordinate
    705606.3029401866,        !- Vertex 3 Xcoordinate
    5711358.080432897,        !- Vertex 3 Ycoordinate
    0,                        !- Vertex 3 Zcoordinate
    705606.3029401866,        !- Vertex 4 Xcoordinate
    5711358.080432897,        !- Vertex 4 Ycoordinate
    6;                        !- Vertex 4 Zcoordinate

SHADING:SITE:DETAILED,
    shade_way/192335493_3,    !- Name
    ,                         !- Transmittance Schedule Name
    autocalculate,            !- Number of Vertices
    705606.3029401866,        !- Vertex 1 Xcoordinate
    5711358.080432897,        !- Vertex 1 Ycoordinate
    6,                        !- Vertex 1 Zcoordinate
    705606.3029401866,        !- Vertex 2 Xcoordinate
    5711358.080432897,        !- Vertex 2 Ycoordinate
    0,                        !- Vertex 2 Zcoordinate
    705598.2328957521,        !- Vertex 3 Xcoordinate
    5711358.248021564,        !- Vertex 3 Ycoordinate
    0,                        !- Vertex 3 Zcoordinate
    705598.2328957521,        !- Vertex 4 Xcoordinate
    5711358.248021564,        !- Vertex 4 Ycoordinate
    6;                        !- Vertex 4 Zcoordinate

SHADING:SITE:DETAILED,
    shade_way/192335493_4,    !- Name
    ,                         !- Transmittance Schedule Name
    autocalculate,            !- Number of Vertices
    705598.2328957521,        !- Vertex 1 Xcoordinate
    5711358.248021564,        !- Vertex 1 Ycoordinate
    6,                        !- Vertex 1 Zcoordinate
    705598.2328957521,        !- Vertex 2 Xcoordinate
    5711358.248021564,        !- Vertex 2 Ycoordinate
    0,                        !- Vertex 2 Zcoordinate
    705598.3594342761,        !- Vertex 3 Xcoordinate
    5711364.316432517,        !- Vertex 3 Ycoordinate
    0,                        !- Vertex 3 Zcoordinate
    705598.3594342761,        !- Vertex 4 Xcoordinate
    5711364.316432517,        !- Vertex 4 Ycoordinate
    6;                        !- Vertex 4 Zcoordinate

SHADING:SITE:DETAILED,
    shade_way/192335492_1,    !- Name
    ,                         !- Transmittance Schedule Name
    autocalculate,            !- Number of Vertices
    705606.4718301536,        !- Vertex 1 Xcoordinate
    5711364.1476710485,       !- Vertex 1 Ycoordinate
    6,                        !- Vertex 1 Zcoordinate
    705606.4718301536,        !- Vertex 2 Xcoordinate
    5711364.1476710485,       !- Vertex 2 Ycoordinate
    0,                        !- Vertex 2 Zcoordinate
    705598.438705891,         !- Vertex 3 Xcoordinate
    5711364.314491669,        !- Vertex 3 Ycoordinate
    0,                        !- Vertex 3 Zcoordinate
    705598.438705891,         !- Vertex 4 Xcoordinate
    5711364.314491669,        !- Vertex 4 Ycoordinate
    6;                        !- Vertex 4 Zcoordinate

SHADING:SITE:DETAILED,
    shade_way/192335492_2,    !- Name
    ,                         !- Transmittance Schedule Name
    autocalculate,            !- Number of Vertices
    705598.438705891,         !- Vertex 1 Xcoordinate
    5711364.314491669,        !- Vertex 1 Ycoordinate
    6,                        !- Vertex 1 Zcoordinate
    705598.438705891,         !- Vertex 2 Xcoordinate
    5711364.314491669,        !- Vertex 2 Ycoordinate
    0,                        !- Vertex 2 Zcoordinate
    705598.5612556371,        !- Vertex 3 Xcoordinate
    5711370.191161291,        !- Vertex 3 Ycoordinate
    0,                        !- Vertex 3 Zcoordinate
    705598.5612556371,        !- Vertex 4 Xcoordinate
    5711370.191161291,        !- Vertex 4 Ycoordinate
    6;                        !- Vertex 4 Zcoordinate

SHADING:SITE:DETAILED,
    shade_way/192335492_3,    !- Name
    ,                         !- Transmittance Schedule Name
    autocalculate,            !- Number of Vertices
    705598.5612556371,        !- Vertex 1 Xcoordinate
    5711370.191161291,        !- Vertex 1 Ycoordinate
    6,                        !- Vertex 1 Zcoordinate
    705598.5612556371,        !- Vertex 2 Xcoordinate
    5711370.191161291,        !- Vertex 2 Ycoordinate
    0,                        !- Vertex 2 Zcoordinate
    705606.5937722329,        !- Vertex 3 Xcoordinate
    5711370.023769775,        !- Vertex 3 Ycoordinate
    0,                        !- Vertex 3 Zcoordinate
    705606.5937722329,        !- Vertex 4 Xcoordinate
    5711370.023769775,        !- Vertex 4 Ycoordinate
    6;                        !- Vertex 4 Zcoordinate

SHADING:SITE:DETAILED,
    shade_way/192335492_4,    !- Name
    ,                         !- Transmittance Schedule Name
    autocalculate,            !- Number of Vertices
    705606.5937722329,        !- Vertex 1 Xcoordinate
    5711370.023769775,        !- Vertex 1 Ycoordinate
    6,                        !- Vertex 1 Zcoordinate
    705606.5937722329,        !- Vertex 2 Xcoordinate
    5711370.023769775,        !- Vertex 2 Ycoordinate
    0,                        !- Vertex 2 Zcoordinate
    705606.4718301536,        !- Vertex 3 Xcoordinate
    5711364.1476710485,       !- Vertex 3 Ycoordinate
    0,                        !- Vertex 3 Zcoordinate
    705606.4718301536,        !- Vertex 4 Xcoordinate
    5711364.1476710485,       !- Vertex 4 Ycoordinate
    6;                        !- Vertex 4 Zcoordinate

SHADING:SITE:DETAILED,
    shade_way/192335491_1,    !- Name
    ,                         !- Transmittance Schedule Name
    autocalculate,            !- Number of Vertices
    705598.7640455602,        !- Vertex 1 Xcoordinate
    5711376.331303213,        !- Vertex 1 Ycoordinate
    9,                        !- Vertex 1 Zcoordinate
    705598.7640455602,        !- Vertex 2 Xcoordinate
    5711376.331303213,        !- Vertex 2 Ycoordinate
    0,                        !- Vertex 2 Zcoordinate
    705606.7982188541,        !- Vertex 3 Xcoordinate
    5711376.123594614,        !- Vertex 3 Ycoordinate
    0,                        !- Vertex 3 Zcoordinate
    705606.7982188541,        !- Vertex 4 Xcoordinate
    5711376.123594614,        !- Vertex 4 Ycoordinate
    9;                        !- Vertex 4 Zcoordinate

SHADING:SITE:DETAILED,
    shade_way/192335491_2,    !- Name
    ,                         !- Transmittance Schedule Name
    autocalculate,            !- Number of Vertices
    705606.7982188541,        !- Vertex 1 Xcoordinate
    5711376.123594614,        !- Vertex 1 Ycoordinate
    9,                        !- Vertex 1 Zcoordinate
    705606.7982188541,        !- Vertex 2 Xcoordinate
    5711376.123594614,        !- Vertex 2 Ycoordinate
    0,                        !- Vertex 2 Zcoordinate
    705606.639258037,         !- Vertex 3 Xcoordinate
    5711369.9602879565,       !- Vertex 3 Ycoordinate
    0,                        !- Vertex 3 Zcoordinate
    705606.639258037,         !- Vertex 4 Xcoordinate
    5711369.9602879565,       !- Vertex 4 Ycoordinate
    9;                        !- Vertex 4 Zcoordinate

SHADING:SITE:DETAILED,
    shade_way/192335491_3,    !- Name
    ,                         !- Transmittance Schedule Name
    autocalculate,            !- Number of Vertices
    705606.639258037,         !- Vertex 1 Xcoordinate
    5711369.9602879565,       !- Vertex 1 Ycoordinate
    9,                        !- Vertex 1 Zcoordinate
    705606.639258037,         !- Vertex 2 Xcoordinate
    5711369.9602879565,       !- Vertex 2 Ycoordinate
    0,                        !- Vertex 2 Zcoordinate
    705598.6045172843,        !- Vertex 3 Xcoordinate
    5711370.167751972,        !- Vertex 3 Ycoordinate
    0,                        !- Vertex 3 Zcoordinate
    705598.6045172843,        !- Vertex 4 Xcoordinate
    5711370.167751972,        !- Vertex 4 Ycoordinate
    9;                        !- Vertex 4 Zcoordinate

SHADING:SITE:DETAILED,
    shade_way/192335491_4,    !- Name
    ,                         !- Transmittance Schedule Name
    autocalculate,            !- Number of Vertices
    705598.6045172843,        !- Vertex 1 Xcoordinate
    5711370.167751972,        !- Vertex 1 Ycoordinate
    9,                        !- Vertex 1 Zcoordinate
    705598.6045172843,        !- Vertex 2 Xcoordinate
    5711370.167751972,        !- Vertex 2 Ycoordinate
    0,                        !- Vertex 2 Zcoordinate
    705598.7640455602,        !- Vertex 3 Xcoordinate
    5711376.331303213,        !- Vertex 3 Ycoordinate
    0,                        !- Vertex 3 Zcoordinate
    705598.7640455602,        !- Vertex 4 Xcoordinate
    5711376.331303213,        !- Vertex 4 Ycoordinate
    9;                        !- Vertex 4 Zcoordinate

SHADING:SITE:DETAILED,
    shade_way/192335488_1,    !- Name
    ,                         !- Transmittance Schedule Name
    autocalculate,            !- Number of Vertices
    705606.8026822034,        !- Vertex 1 Xcoordinate
    5711376.123608918,        !- Vertex 1 Ycoordinate
    9,                        !- Vertex 1 Zcoordinate
    705606.8026822034,        !- Vertex 2 Xcoordinate
    5711376.123608918,        !- Vertex 2 Ycoordinate
    0,                        !- Vertex 2 Zcoordinate
    705598.9107720525,        !- Vertex 3 Xcoordinate
    5711376.327382619,        !- Vertex 3 Ycoordinate
    0,                        !- Vertex 3 Zcoordinate
    705598.9107720525,        !- Vertex 4 Xcoordinate
    5711376.327382619,        !- Vertex 4 Ycoordinate
    9;                        !- Vertex 4 Zcoordinate

SHADING:SITE:DETAILED,
    shade_way/192335488_2,    !- Name
    ,                         !- Transmittance Schedule Name
    autocalculate,            !- Number of Vertices
    705598.9107720525,        !- Vertex 1 Xcoordinate
    5711376.327382619,        !- Vertex 1 Ycoordinate
    9,                        !- Vertex 1 Zcoordinate
    705598.9107720525,        !- Vertex 2 Xcoordinate
    5711376.327382619,        !- Vertex 2 Ycoordinate
    0,                        !- Vertex 2 Zcoordinate
    705599.0933856006,        !- Vertex 3 Xcoordinate
    5711383.3844302865,       !- Vertex 3 Ycoordinate
    0,                        !- Vertex 3 Zcoordinate
    705599.0933856006,        !- Vertex 4 Xcoordinate
    5711383.3844302865,       !- Vertex 4 Ycoordinate
    9;                        !- Vertex 4 Zcoordinate

SHADING:SITE:DETAILED,
    shade_way/192335488_3,    !- Name
    ,                         !- Transmittance Schedule Name
    autocalculate,            !- Number of Vertices
    705599.0933856006,        !- Vertex 1 Xcoordinate
    5711383.3844302865,       !- Vertex 1 Ycoordinate
    9,                        !- Vertex 1 Zcoordinate
    705599.0933856006,        !- Vertex 2 Xcoordinate
    5711383.3844302865,       !- Vertex 2 Ycoordinate
    0,                        !- Vertex 2 Zcoordinate
    705606.9847282922,        !- Vertex 3 Xcoordinate
    5711383.180412001,        !- Vertex 3 Ycoordinate
    0,                        !- Vertex 3 Zcoordinate
    705606.9847282922,        !- Vertex 4 Xcoordinate
    5711383.180412001,        !- Vertex 4 Ycoordinate
    9;                        !- Vertex 4 Zcoordinate

SHADING:SITE:DETAILED,
    shade_way/192335488_4,    !- Name
    ,                         !- Transmittance Schedule Name
    autocalculate,            !- Number of Vertices
    705606.9847282922,        !- Vertex 1 Xcoordinate
    5711383.180412001,        !- Vertex 1 Ycoordinate
    9,                        !- Vertex 1 Zcoordinate
    705606.9847282922,        !- Vertex 2 Xcoordinate
    5711383.180412001,        !- Vertex 2 Ycoordinate
    0,                        !- Vertex 2 Zcoordinate
    705606.8026822034,        !- Vertex 3 Xcoordinate
    5711376.123608918,        !- Vertex 3 Ycoordinate
    0,                        !- Vertex 3 Zcoordinate
    705606.8026822034,        !- Vertex 4 Xcoordinate
    5711376.123608918,        !- Vertex 4 Ycoordinate
    9;                        !- Vertex 4 Zcoordinate

SHADING:SITE:DETAILED,
    shade_way/1056456205_1,    !- Name
    ,                         !- Transmittance Schedule Name
    autocalculate,            !- Number of Vertices
    705581.4277846642,        !- Vertex 1 Xcoordinate
    5711386.30979378,         !- Vertex 1 Ycoordinate
    9,                        !- Vertex 1 Zcoordinate
    705581.4277846642,        !- Vertex 2 Xcoordinate
    5711386.30979378,         !- Vertex 2 Ycoordinate
    0,                        !- Vertex 2 Zcoordinate
    705581.2548898683,        !- Vertex 3 Xcoordinate
    5711378.901732509,        !- Vertex 3 Ycoordinate
    0,                        !- Vertex 3 Zcoordinate
    705581.2548898683,        !- Vertex 4 Xcoordinate
    5711378.901732509,        !- Vertex 4 Ycoordinate
    9;                        !- Vertex 4 Zcoordinate

SHADING:SITE:DETAILED,
    shade_way/1056456205_2,    !- Name
    ,                         !- Transmittance Schedule Name
    autocalculate,            !- Number of Vertices
    705581.2548898683,        !- Vertex 1 Xcoordinate
    5711378.901732509,        !- Vertex 1 Ycoordinate
    9,                        !- Vertex 1 Zcoordinate
    705581.2548898683,        !- Vertex 2 Xcoordinate
    5711378.901732509,        !- Vertex 2 Ycoordinate
    0,                        !- Vertex 2 Zcoordinate
    705575.2187961282,        !- Vertex 3 Xcoordinate
    5711379.042373289,        !- Vertex 3 Ycoordinate
    0,                        !- Vertex 3 Zcoordinate
    705575.2187961282,        !- Vertex 4 Xcoordinate
    5711379.042373289,        !- Vertex 4 Ycoordinate
    9;                        !- Vertex 4 Zcoordinate

SHADING:SITE:DETAILED,
    shade_way/1056456205_3,    !- Name
    ,                         !- Transmittance Schedule Name
    autocalculate,            !- Number of Vertices
    705575.2187961282,        !- Vertex 1 Xcoordinate
    5711379.042373289,        !- Vertex 1 Ycoordinate
    9,                        !- Vertex 1 Zcoordinate
    705575.2187961282,        !- Vertex 2 Xcoordinate
    5711379.042373289,        !- Vertex 2 Ycoordinate
    0,                        !- Vertex 2 Zcoordinate
    705575.3913721287,        !- Vertex 3 Xcoordinate
    5711386.450646267,        !- Vertex 3 Ycoordinate
    0,                        !- Vertex 3 Zcoordinate
    705575.3913721287,        !- Vertex 4 Xcoordinate
    5711386.450646267,        !- Vertex 4 Ycoordinate
    9;                        !- Vertex 4 Zcoordinate

SHADING:SITE:DETAILED,
    shade_way/1056456205_4,    !- Name
    ,                         !- Transmittance Schedule Name
    autocalculate,            !- Number of Vertices
    705575.3913721287,        !- Vertex 1 Xcoordinate
    5711386.450646267,        !- Vertex 1 Ycoordinate
    9,                        !- Vertex 1 Zcoordinate
    705575.3913721287,        !- Vertex 2 Xcoordinate
    5711386.450646267,        !- Vertex 2 Ycoordinate
    0,                        !- Vertex 2 Zcoordinate
    705581.4277846642,        !- Vertex 3 Xcoordinate
    5711386.30979378,         !- Vertex 3 Ycoordinate
    0,                        !- Vertex 3 Zcoordinate
    705581.4277846642,        !- Vertex 4 Xcoordinate
    5711386.30979378,         !- Vertex 4 Ycoordinate
    9;                        !- Vertex 4 Zcoordinate

SHADING:SITE:DETAILED,
    shade_way/288548517_1,    !- Name
    ,                         !- Transmittance Schedule Name
    autocalculate,            !- Number of Vertices
    705575.9619177392,        !- Vertex 1 Xcoordinate
    5711412.147194558,        !- Vertex 1 Ycoordinate
    6,                        !- Vertex 1 Zcoordinate
    705575.9619177392,        !- Vertex 2 Xcoordinate
    5711412.147194558,        !- Vertex 2 Ycoordinate
    0,                        !- Vertex 2 Zcoordinate
    705575.7594159547,        !- Vertex 3 Xcoordinate
    5711404.616858894,        !- Vertex 3 Ycoordinate
    0,                        !- Vertex 3 Zcoordinate
    705575.7594159547,        !- Vertex 4 Xcoordinate
    5711404.616858894,        !- Vertex 4 Ycoordinate
    6;                        !- Vertex 4 Zcoordinate

SHADING:SITE:DETAILED,
    shade_way/288548517_2,    !- Name
    ,                         !- Transmittance Schedule Name
    autocalculate,            !- Number of Vertices
    705575.7594159547,        !- Vertex 1 Xcoordinate
    5711404.616858894,        !- Vertex 1 Ycoordinate
    6,                        !- Vertex 1 Zcoordinate
    705575.7594159547,        !- Vertex 2 Xcoordinate
    5711404.616858894,        !- Vertex 2 Ycoordinate
    0,                        !- Vertex 2 Zcoordinate
    705569.4092751141,        !- Vertex 3 Xcoordinate
    5711404.787901424,        !- Vertex 3 Ycoordinate
    0,                        !- Vertex 3 Zcoordinate
    705569.4092751141,        !- Vertex 4 Xcoordinate
    5711404.787901424,        !- Vertex 4 Ycoordinate
    6;                        !- Vertex 4 Zcoordinate

SHADING:SITE:DETAILED,
    shade_way/288548517_3,    !- Name
    ,                         !- Transmittance Schedule Name
    autocalculate,            !- Number of Vertices
    705569.4092751141,        !- Vertex 1 Xcoordinate
    5711404.787901424,        !- Vertex 1 Ycoordinate
    6,                        !- Vertex 1 Zcoordinate
    705569.4092751141,        !- Vertex 2 Xcoordinate
    5711404.787901424,        !- Vertex 2 Ycoordinate
    0,                        !- Vertex 2 Zcoordinate
    705569.6116549063,        !- Vertex 3 Xcoordinate
    5711412.3175961925,       !- Vertex 3 Ycoordinate
    0,                        !- Vertex 3 Zcoordinate
    705569.6116549063,        !- Vertex 4 Xcoordinate
    5711412.3175961925,       !- Vertex 4 Ycoordinate
    6;                        !- Vertex 4 Zcoordinate

SHADING:SITE:DETAILED,
    shade_way/288548517_4,    !- Name
    ,                         !- Transmittance Schedule Name
    autocalculate,            !- Number of Vertices
    705569.6116549063,        !- Vertex 1 Xcoordinate
    5711412.3175961925,       !- Vertex 1 Ycoordinate
    6,                        !- Vertex 1 Zcoordinate
    705569.6116549063,        !- Vertex 2 Xcoordinate
    5711412.3175961925,       !- Vertex 2 Ycoordinate
    0,                        !- Vertex 2 Zcoordinate
    705575.9619177392,        !- Vertex 3 Xcoordinate
    5711412.147194558,        !- Vertex 3 Ycoordinate
    0,                        !- Vertex 3 Zcoordinate
    705575.9619177392,        !- Vertex 4 Xcoordinate
    5711412.147194558,        !- Vertex 4 Ycoordinate
    6;                        !- Vertex 4 Zcoordinate

OTHEREQUIPMENT,
    EU_Step8_InternalGain_5b7c45412b07d091_F0_dwelling_0_f000,    !- Name
    Electricity,              !- Fuel Type
    5b7c45412b07d091_F0_dwelling_0,    !- Zone or ZoneList or Space or SpaceList Name
    EU_Step8_GainSchedule_5b7c45412b07d091_F0_dwelling_0_f000,    !- Schedule Name
    Watts/Area,               !- Design Level Calculation Method
    ,                         !- Design Level
    1,                        !- Power per Zone Floor Area
    ,                         !- Power per Person
    0,                        !- Fraction Latent
    0,                        !- Fraction Radiant
    0,                        !- Fraction Lost
    0,                        !- Carbon Dioxide Generation Rate
    EU_Step8_InternalGains;    !- EndUse Subcategory

ZONEVENTILATION:DESIGNFLOWRATE,
    EU_ConstantAir_5b7c45412b07d091_F0_dwelling_0,    !- Name
    5b7c45412b07d091_F0_dwelling_0,    !- Zone or ZoneList or Space or SpaceList Name
    EU_AlwaysOn,              !- Schedule Name
    AirChanges/Hour,          !- Design Flow Rate Calculation Method
    ,                         !- Design Flow Rate
    ,                         !- Flow Rate per Floor Area
    ,                         !- Flow Rate per Person
    0.4800000000000001,       !- Air Changes per Hour
    Natural,                  !- Ventilation Type
    0,                        !- Fan Pressure Rise
    1,                        !- Fan Total Efficiency
    1,                        !- Constant Term Coefficient
    0,                        !- Temperature Term Coefficient
    0,                        !- Velocity Term Coefficient
    0,                        !- Velocity Squared Term Coefficient
    -100,                     !- Minimum Indoor Temperature
    ,                         !- Minimum Indoor Temperature Schedule Name
    100,                      !- Maximum Indoor Temperature
    ,                         !- Maximum Indoor Temperature Schedule Name
    -100,                     !- Delta Temperature
    ,                         !- Delta Temperature Schedule Name
    -100,                     !- Minimum Outdoor Temperature
    ,                         !- Minimum Outdoor Temperature Schedule Name
    100,                      !- Maximum Outdoor Temperature
    ,                         !- Maximum Outdoor Temperature Schedule Name
    40;                       !- Maximum Wind Speed

HVACTEMPLATE:THERMOSTAT,
    EU_HeatOnly_5b7c45412b07d091_F0_dwelling_0,    !- Name
    ,                         !- Heating Setpoint Schedule Name
    20,                       !- Constant Heating Setpoint
    ,                         !- Cooling Setpoint Schedule Name
    50;                       !- Constant Cooling Setpoint

HVACTEMPLATE:ZONE:IDEALLOADSAIRSYSTEM,
    5b7c45412b07d091_F0_dwelling_0,    !- Zone Name
    EU_HeatOnly_5b7c45412b07d091_F0_dwelling_0,    !- Template Thermostat Name
    EU_AlwaysOn,              !- System Availability Schedule Name
    50,                       !- Maximum Heating Supply Air Temperature
    13,                       !- Minimum Cooling Supply Air Temperature
    0.0156,                   !- Maximum Heating Supply Air Humidity Ratio
    0.0077,                   !- Minimum Cooling Supply Air Humidity Ratio
    NoLimit,                  !- Heating Limit
    ,                         !- Maximum Heating Air Flow Rate
    ,                         !- Maximum Sensible Heating Capacity
    NoLimit,                  !- Cooling Limit
    ,                         !- Maximum Cooling Air Flow Rate
    ,                         !- Maximum Total Cooling Capacity
    EU_AlwaysOn,              !- Heating Availability Schedule Name
    EU_CoolingOff,            !- Cooling Availability Schedule Name
    ConstantSensibleHeatRatio,    !- Dehumidification Control Type
    0.7,                      !- Cooling Sensible Heat Ratio
    60,                       !- Dehumidification Setpoint
    None,                     !- Humidification Control Type
    30,                       !- Humidification Setpoint
    None,                     !- Outdoor Air Method
    0.00944,                  !- Outdoor Air Flow Rate per Person
    0.0,                      !- Outdoor Air Flow Rate per Zone Floor Area
    0,                        !- Outdoor Air Flow Rate per Zone
    ,                         !- Design Specification Outdoor Air Object Name
    None,                     !- Demand Controlled Ventilation Type
    NoEconomizer,             !- Outdoor Air Economizer Type
    None,                     !- Heat Recovery Type
    0.70,                     !- Sensible Heat Recovery Effectiveness
    0.65;                     !- Latent Heat Recovery Effectiveness

SIZING:ZONE,
    5b7c45412b07d091_F0_dwelling_0,    !- Zone or ZoneList Name
    SupplyAirTemperature,     !- Zone Cooling Design Supply Air Temperature Input Method
    13,                       !- Zone Cooling Design Supply Air Temperature
    ,                         !- Zone Cooling Design Supply Air Temperature Difference
    SupplyAirTemperature,     !- Zone Heating Design Supply Air Temperature Input Method
    50,                       !- Zone Heating Design Supply Air Temperature
    ,                         !- Zone Heating Design Supply Air Temperature Difference
    0.008,                    !- Zone Cooling Design Supply Air Humidity Ratio
    0.008,                    !- Zone Heating Design Supply Air Humidity Ratio
    ,                         !- Design Specification Outdoor Air Object Name
    ,                         !- Zone Heating Sizing Factor
    ,                         !- Zone Cooling Sizing Factor
    DesignDay,                !- Cooling Design Air Flow Method
    0,                        !- Cooling Design Air Flow Rate
    0.000762,                 !- Cooling Minimum Air Flow per Zone Floor Area
    0,                        !- Cooling Minimum Air Flow
    0.2,                      !- Cooling Minimum Air Flow Fraction
    DesignDay,                !- Heating Design Air Flow Method
    0,                        !- Heating Design Air Flow Rate
    0.002032,                 !- Heating Maximum Air Flow per Zone Floor Area
    0.1415762,                !- Heating Maximum Air Flow
    0.3,                      !- Heating Maximum Air Flow Fraction
    ,                         !- Design Specification Zone Air Distribution Object Name
    No,                       !- Account for Dedicated Outdoor Air System
    NeutralSupplyAir,         !- Dedicated Outdoor Air System Control Strategy
    autosize,                 !- Dedicated Outdoor Air Low Setpoint Temperature for Design
    autosize,                 !- Dedicated Outdoor Air High Setpoint Temperature for Design
    Sensible Load Only No Latent Load,    !- Zone Load Sizing Method
    HumidityRatioDifference,    !- Zone Latent Cooling Design Supply Air Humidity Ratio Input Method
    ,                         !- Zone Dehumidification Design Supply Air Humidity Ratio
    0.005,                    !- Zone Cooling Design Supply Air Humidity Ratio Difference
    HumidityRatioDifference,    !- Zone Latent Heating Design Supply Air Humidity Ratio Input Method
    ,                         !- Zone Humidification Design Supply Air Humidity Ratio
    0.005;                    !- Zone Humidification Design Supply Air Humidity Ratio Difference

OUTPUT:VARIABLE,
    *,                        !- Key Value
    Zone Ideal Loads Zone Total Heating Energy,    !- Variable Name
    Hourly;                   !- Reporting Frequency

OUTPUT:SQLITE,
    SimpleAndTabular,         !- Option Type
    UseOutputControlTableStyle;    !- Unit Conversion for Tabular Data