!- Windows Line endings 

Version,
    23.1;                     !- Version Identifier

SimulationControl,
    Yes,                      !- Do Zone Sizing Calculation
    Yes,                      !- Do System Sizing Calculation
    Yes,                      !- Do Plant Sizing Calculation
    No,                       !- Run Simulation for Sizing Periods
    Yes,                      !- Run Simulation for Weather File Run Periods
    No,                       !- Do HVAC Sizing Simulation for Sizing Periods
    1;                        !- Maximum Number of HVAC Sizing Simulation Passes

Building,
    EU S2 Campaign,           !- Name
    0,                        !- North Axis
    City,                     !- Terrain
    ,                         !- Loads Convergence Tolerance Value
    ,                         !- Temperature Convergence Tolerance Value
    FullExterior,             !- Solar Distribution
    ,                         !- Maximum Number of Warmup Days
    ;                         !- Minimum Number of Warmup Days

ShadowCalculation,
    PolygonClipping,          !- Shading Calculation Method
    Periodic,                 !- Shading Calculation Update Frequency Method
    1;                        !- Shading Calculation Update Frequency

HeatBalanceAlgorithm,
    ConductionTransferFunction,    !- Algorithm
    200,                      !- Surface Temperature Upper Limit
    0.1,                      !- Minimum Surface Convection Heat Transfer Coefficient Value
    10000000;                 !- Maximum Surface Convection Heat Transfer Coefficient Value

Timestep,
    12;                       !- Number of Timesteps per Hour

Site:Location,
    London,                   !- Name
    51.5,                     !- Latitude
    -0.5,                     !- Longitude
    0,                        !- Time Zone
    25;                       !- Elevation

SizingPeriod:WeatherFileDays,
    AnnualSizingPeriod,       !- Name
    1,                        !- Begin Month
    1,                        !- Begin Day of Month
    12,                       !- End Month
    31,                       !- End Day of Month
    Monday,                   !- Day of Week for Start Day
    No,                       !- Use Weather File Daylight Saving Period
    No;                       !- Use Weather File Rain and Snow Indicators

RunPeriod,
    RunPeriod1,               !- Name
    1,                        !- Begin Month
    1,                        !- Begin Day of Month
    ,                         !- Begin Year
    12,                       !- End Month
    31,                       !- End Day of Month
    ,                         !- End Year
    Sunday,                   !- Day of Week for Start Day
    No,                       !- Use Weather File Holidays and Special Days
    No,                       !- Use Weather File Daylight Saving Period
    No,                       !- Apply Weekend Holiday Rule
    Yes,                      !- Use Weather File Rain Indicators
    Yes;                      !- Use Weather File Snow Indicators

ScheduleTypeLimits,
    Any Number;               !- Name

SCHEDULETYPELIMITS,
    EU_Step8_AnyNumber_Wm2,    !- Name
    ,                         !- Lower Limit Value
    ,                         !- Upper Limit Value
    Continuous,               !- Numeric Type
    Dimensionless;            !- Unit Type

SCHEDULE:CONSTANT,
    EU_AlwaysOn,              !- Name
    ,                         !- Schedule Type Limits Name
    1;                        !- Hourly Value

SCHEDULE:CONSTANT,
    EU_CoolingOff,            !- Name
    ,                         !- Schedule Type Limits Name
    0;                        !- Hourly Value

SCHEDULE:FILE,
    EU_Step8_GainSchedule_6c9ca6572f8a6e57_F0_dwelling_0_f000,    !- Name
    EU_Step8_AnyNumber_Wm2,    !- Schedule Type Limits Name
    ../../schedules/6c9ca6572f8a6e57/6c9ca6572f8a6e57_F0_dwelling_0_f000_gain.csv,    !- File Name
    1,                        !- Column Number
    0,                        !- Rows to Skip at Top
    8760,                     !- Number of Hours of Data
    Comma,                    !- Column Separator
    No,                       !- Interpolate to Timestep
    60,                       !- Minutes per Item
    Yes;                      !- Adjust Schedule for Daylight Savings

MATERIAL,
    EU_InternalMass_Material,    !- Name
    MediumRough,              !- Roughness
    0.1,                      !- Thickness
    1,                        !- Conductivity
    1800,                     !- Density
    900,                      !- Specific Heat
    0.9,                      !- Thermal Absorptance
    0.7,                      !- Solar Absorptance
    0.7;                      !- Visible Absorptance

MATERIAL:NOMASS,
    EU_wall_NoMass,           !- Name
    MediumRough,              !- Roughness
    0.5555555555555555,       !- Thermal Resistance
    0.9,                      !- Thermal Absorptance
    0.7,                      !- Solar Absorptance
    0.7;                      !- Visible Absorptance

MATERIAL:NOMASS,
    EU_roof_NoMass,           !- Name
    MediumRough,              !- Roughness
    0.5102040816326531,       !- Thermal Resistance
    0.9,                      !- Thermal Absorptance
    0.7,                      !- Solar Absorptance
    0.7;                      !- Visible Absorptance

MATERIAL:NOMASS,
    EU_floor_NoMass,          !- Name
    MediumRough,              !- Roughness
    1.6891891891891893,       !- Thermal Resistance
    0.9,                      !- Thermal Absorptance
    0.7,                      !- Solar Absorptance
    0.7;                      !- Visible Absorptance

CONSTRUCTION,
    EU_wall_Construction,     !- Name
    EU_wall_NoMass;           !- Outside Layer

CONSTRUCTION,
    EU_roof_Construction,     !- Name
    EU_roof_NoMass;           !- Outside Layer

CONSTRUCTION,
    EU_floor_Construction,    !- Name
    EU_floor_NoMass;          !- Outside Layer

CONSTRUCTION,
    EU_InternalMass_Construction,    !- Name
    EU_InternalMass_Material;    !- Outside Layer

GlobalGeometryRules,
    UpperLeftCorner,          !- Starting Vertex Position
    CounterClockWise,         !- Vertex Entry Direction
    World;                    !- Coordinate System

ZONE,
    6c9ca6572f8a6e57_F0_dwelling_0,    !- Name
    0,                        !- Direction of Relative North
    0,                        !- X Origin
    0,                        !- Y Origin
    0,                        !- Z Origin
    1,                        !- Type
    1,                        !- Multiplier
    autocalculate,            !- Ceiling Height
    334.01220703125,          !- Volume
    autocalculate,            !- Floor Area
    ,                         !- Zone Inside Convection Algorithm
    ,                         !- Zone Outside Convection Algorithm
    Yes;                      !- Part of Total Floor Area

BUILDINGSURFACE:DETAILED,
    Block 6c9ca6572f8a6e57_0 Storey 0 Wall 0001,    !- Name
    wall,                     !- Surface Type
    EU_wall_Construction,     !- Construction Name
    6c9ca6572f8a6e57_F0_dwelling_0,    !- Zone Name
    ,                         !- Space Name
    Adiabatic,                !- Outside Boundary Condition
    ,                         !- Outside Boundary Condition Object
    NoSun,                    !- Sun Exposure
    NoWind,                   !- Wind Exposure
    autocalculate,            !- View Factor to Ground
    autocalculate,            !- Number of Vertices
    705480.284,               !- Vertex 1 Xcoordinate
    5711283.378,              !- Vertex 1 Ycoordinate
    6,                        !- Vertex 1 Zcoordinate
    705480.284,               !- Vertex 2 Xcoordinate
    5711283.378,              !- Vertex 2 Ycoordinate
    0,                        !- Vertex 2 Zcoordinate
    705472.811,               !- Vertex 3 Xcoordinate
    5711282.942,              !- Vertex 3 Ycoordinate
    0,                        !- Vertex 3 Zcoordinate
    705472.811,               !- Vertex 4 Xcoordinate
    5711282.942,              !- Vertex 4 Ycoordinate
    6;                        !- Vertex 4 Zcoordinate

BUILDINGSURFACE:DETAILED,
    Block 6c9ca6572f8a6e57_0 Storey 0 Wall 0002,    !- Name
    wall,                     !- Surface Type
    EU_wall_Construction,     !- Construction Name
    6c9ca6572f8a6e57_F0_dwelling_0,    !- Zone Name
    ,                         !- Space Name
    outdoors,                 !- Outside Boundary Condition
    ,                         !- Outside Boundary Condition Object
    SunExposed,               !- Sun Exposure
    WindExposed,              !- Wind Exposure
    autocalculate,            !- View Factor to Ground
    autocalculate,            !- Number of Vertices
    705472.811,               !- Vertex 1 Xcoordinate
    5711282.942,              !- Vertex 1 Ycoordinate
    6,                        !- Vertex 1 Zcoordinate
    705472.811,               !- Vertex 2 Xcoordinate
    5711282.942,              !- Vertex 2 Ycoordinate
    0,                        !- Vertex 2 Zcoordinate
    705472.515,               !- Vertex 3 Xcoordinate
    5711287.863,              !- Vertex 3 Ycoordinate
    0,                        !- Vertex 3 Zcoordinate
    705472.515,               !- Vertex 4 Xcoordinate
    5711287.863,              !- Vertex 4 Ycoordinate
    6;                        !- Vertex 4 Zcoordinate

BUILDINGSURFACE:DETAILED,
    Block 6c9ca6572f8a6e57_0 Storey 0 Wall 0003,    !- Name
    wall,                     !- Surface Type
    EU_wall_Construction,     !- Construction Name
    6c9ca6572f8a6e57_F0_dwelling_0,    !- Zone Name
    ,                         !- Space Name
    Adiabatic,                !- Outside Boundary Condition
    ,                         !- Outside Boundary Condition Object
    NoSun,                    !- Sun Exposure
    NoWind,                   !- Wind Exposure
    autocalculate,            !- View Factor to Ground
    autocalculate,            !- Number of Vertices
    705472.515,               !- Vertex 1 Xcoordinate
    5711287.863,              !- Vertex 1 Ycoordinate
    6,                        !- Vertex 1 Zcoordinate
    705472.515,               !- Vertex 2 Xcoordinate
    5711287.863,              !- Vertex 2 Ycoordinate
    0,                        !- Vertex 2 Zcoordinate
    705486.246,               !- Vertex 3 Xcoordinate
    5711288.687,              !- Vertex 3 Ycoordinate
    0,                        !- Vertex 3 Zcoordinate
    705486.246,               !- Vertex 4 Xcoordinate
    5711288.687,              !- Vertex 4 Ycoordinate
    6;                        !- Vertex 4 Zcoordinate

BUILDINGSURFACE:DETAILED,
    Block 6c9ca6572f8a6e57_0 Storey 0 Wall 0004,    !- Name
    wall,                     !- Surface Type
    EU_wall_Construction,     !- Construction Name
    6c9ca6572f8a6e57_F0_dwelling_0,    !- Zone Name
    ,                         !- Space Name
    outdoors,                 !- Outside Boundary Condition
    ,                         !- Outside Boundary Condition Object
    SunExposed,               !- Sun Exposure
    WindExposed,              !- Wind Exposure
    autocalculate,            !- View Factor to Ground
    autocalculate,            !- Number of Vertices
    705486.246,               !- Vertex 1 Xcoordinate
    5711288.687,              !- Vertex 1 Ycoordinate
    6,                        !- Vertex 1 Zcoordinate
    705486.246,               !- Vertex 2 Xcoordinate
    5711288.687,              !- Vertex 2 Ycoordinate
    0,                        !- Vertex 2 Zcoordinate
    705486.436,               !- Vertex 3 Xcoordinate
    5711285.71,               !- Vertex 3 Ycoordinate
    0,                        !- Vertex 3 Zcoordinate
    705486.436,               !- Vertex 4 Xcoordinate
    5711285.71,               !- Vertex 4 Ycoordinate
    6;                        !- Vertex 4 Zcoordinate

BUILDINGSURFACE:DETAILED,
    Block 6c9ca6572f8a6e57_0 Storey 0 Wall 0005,    !- Name
    wall,                     !- Surface Type
    EU_wall_Construction,     !- Construction Name
    6c9ca6572f8a6e57_F0_dwelling_0,    !- Zone Name
    ,                         !- Space Name
    outdoors,                 !- Outside Boundary Condition
    ,                         !- Outside Boundary Condition Object
    SunExposed,               !- Sun Exposure
    WindExposed,              !- Wind Exposure
    autocalculate,            !- View Factor to Ground
    autocalculate,            !- Number of Vertices
    705486.436,               !- Vertex 1 Xcoordinate
    5711285.71,               !- Vertex 1 Ycoordinate
    6,                        !- Vertex 1 Zcoordinate
    705486.436,               !- Vertex 2 Xcoordinate
    5711285.71,               !- Vertex 2 Ycoordinate
    0,                        !- Vertex 2 Zcoordinate
    705480.163,               !- Vertex 3 Xcoordinate
    5711285.333,              !- Vertex 3 Ycoordinate
    0,                        !- Vertex 3 Zcoordinate
    705480.163,               !- Vertex 4 Xcoordinate
    5711285.333,              !- Vertex 4 Ycoordinate
    6;                        !- Vertex 4 Zcoordinate

BUILDINGSURFACE:DETAILED,
    Block 6c9ca6572f8a6e57_0 Storey 0 Wall 0006,    !- Name
    wall,                     !- Surface Type
    EU_wall_Construction,     !- Construction Name
    6c9ca6572f8a6e57_F0_dwelling_0,    !- Zone Name
    ,                         !- Space Name
    outdoors,                 !- Outside Boundary Condition
    ,                         !- Outside Boundary Condition Object
    SunExposed,               !- Sun Exposure
    WindExposed,              !- Wind Exposure
    autocalculate,            !- View Factor to Ground
    autocalculate,            !- Number of Vertices
    705480.163,               !- Vertex 1 Xcoordinate
    5711285.333,              !- Vertex 1 Ycoordinate
    6,                        !- Vertex 1 Zcoordinate
    705480.163,               !- Vertex 2 Xcoordinate
    5711285.333,              !- Vertex 2 Ycoordinate
    0,                        !- Vertex 2 Zcoordinate
    705480.284,               !- Vertex 3 Xcoordinate
    5711283.378,              !- Vertex 3 Ycoordinate
    0,                        !- Vertex 3 Zcoordinate
    705480.284,               !- Vertex 4 Xcoordinate
    5711283.378,              !- Vertex 4 Ycoordinate
    6;                        !- Vertex 4 Zcoordinate

BUILDINGSURFACE:DETAILED,
    Block 6c9ca6572f8a6e57_0 Storey 0 Floor 0001,    !- Name
    floor,                    !- Surface Type
    EU_floor_Construction,    !- Construction Name
    6c9ca6572f8a6e57_F0_dwelling_0,    !- Zone Name
    ,                         !- Space Name
    ground,                   !- Outside Boundary Condition
    ,                         !- Outside Boundary Condition Object
    NoSun,                    !- Sun Exposure
    NoWind,                   !- Wind Exposure
    autocalculate,            !- View Factor to Ground
    autocalculate,            !- Number of Vertices
    705486.436,               !- Vertex 1 Xcoordinate
    5711285.71,               !- Vertex 1 Ycoordinate
    0,                        !- Vertex 1 Zcoordinate
    705486.246,               !- Vertex 2 Xcoordinate
    5711288.687,              !- Vertex 2 Ycoordinate
    0,                        !- Vertex 2 Zcoordinate
    705472.515,               !- Vertex 3 Xcoordinate
    5711287.863,              !- Vertex 3 Ycoordinate
    0,                        !- Vertex 3 Zcoordinate
    705472.811,               !- Vertex 4 Xcoordinate
    5711282.942,              !- Vertex 4 Ycoordinate
    0,                        !- Vertex 4 Zcoordinate
    705480.284,               !- Vertex 5 Xcoordinate
    5711283.378,              !- Vertex 5 Ycoordinate
    0,                        !- Vertex 5 Zcoordinate
    705480.163,               !- Vertex 6 Xcoordinate
    5711285.333,              !- Vertex 6 Ycoordinate
    0;                        !- Vertex 6 Zcoordinate

BUILDINGSURFACE:DETAILED,
    Block 6c9ca6572f8a6e57_0 Storey 0 Roof 0001,    !- Name
    roof,                     !- Surface Type
    EU_roof_Construction,     !- Construction Name
    6c9ca6572f8a6e57_F0_dwelling_0,    !- Zone Name
    ,                         !- Space Name
    outdoors,                 !- Outside Boundary Condition
    ,                         !- Outside Boundary Condition Object
    NoSun,                    !- Sun Exposure
    WindExposed,              !- Wind Exposure
    autocalculate,            !- View Factor to Ground
    autocalculate,            !- Number of Vertices
    705486.246,               !- Vertex 1 Xcoordinate
    5711288.687,              !- Vertex 1 Ycoordinate
    6,                        !- Vertex 1 Zcoordinate
    705486.436,               !- Vertex 2 Xcoordinate
    5711285.71,               !- Vertex 2 Ycoordinate
    6,                        !- Vertex 2 Zcoordinate
    705480.163,               !- Vertex 3 Xcoordinate
    5711285.333,              !- Vertex 3 Ycoordinate
    6,                        !- Vertex 3 Zcoordinate
    705480.284,               !- Vertex 4 Xcoordinate
    5711283.378,              !- Vertex 4 Ycoordinate
    6,                        !- Vertex 4 Zcoordinate
    705472.811,               !- Vertex 5 Xcoordinate
    5711282.942,              !- Vertex 5 Ycoordinate
    6,                        !- Vertex 5 Zcoordinate
    705472.515,               !- Vertex 6 Xcoordinate
    5711287.863,              !- Vertex 6 Ycoordinate
    6;                        !- Vertex 6 Zcoordinate

INTERNALMASS,
    6c9ca6572f8a6e57_F0_dwelling_0_EU_InternalMass,    !- Name
    EU_InternalMass_Construction,    !- Construction Name
    6c9ca6572f8a6e57_F0_dwelling_0,    !- Zone or ZoneList Name
    ,                         !- Space or SpaceList Name
    55.66856600247083;        !- Surface Area

SHADING:SITE:DETAILED,
    shade_way/1055854780_1,    !- Name
    ,                         !- Transmittance Schedule Name
    autocalculate,            !- Number of Vertices
    705474.2758659178,        !- Vertex 1 Xcoordinate
    5711259.982847344,        !- Vertex 1 Ycoordinate
    6,                        !- Vertex 1 Zcoordinate
    705474.2758659178,        !- Vertex 2 Xcoordinate
    5711259.982847344,        !- Vertex 2 Ycoordinate
    0,                        !- Vertex 2 Zcoordinate
    705473.9634400888,        !- Vertex 3 Xcoordinate
    5711264.781055124,        !- Vertex 3 Ycoordinate
    0,                        !- Vertex 3 Zcoordinate
    705473.9634400888,        !- Vertex 4 Xcoordinate
    5711264.781055124,        !- Vertex 4 Ycoordinate
    6;                        !- Vertex 4 Zcoordinate

SHADING:SITE:DETAILED,
    shade_way/1055854780_2,    !- Name
    ,                         !- Transmittance Schedule Name
    autocalculate,            !- Number of Vertices
    705473.9634400888,        !- Vertex 1 Xcoordinate
    5711264.781055124,        !- Vertex 1 Ycoordinate
    6,                        !- Vertex 1 Zcoordinate
    705473.9634400888,        !- Vertex 2 Xcoordinate
    5711264.781055124,        !- Vertex 2 Ycoordinate
    0,                        !- Vertex 2 Zcoordinate
    705481.3714887215,        !- Vertex 3 Xcoordinate
    5711265.263710066,        !- Vertex 3 Ycoordinate
    0,                        !- Vertex 3 Zcoordinate
    705481.3714887215,        !- Vertex 4 Xcoordinate
    5711265.263710066,        !- Vertex 4 Ycoordinate
    6;                        !- Vertex 4 Zcoordinate

SHADING:SITE:DETAILED,
    shade_way/1055854780_3,    !- Name
    ,                         !- Transmittance Schedule Name
    autocalculate,            !- Number of Vertices
    705481.3714887215,        !- Vertex 1 Xcoordinate
    5711265.263710066,        !- Vertex 1 Ycoordinate
    6,                        !- Vertex 1 Zcoordinate
    705481.3714887215,        !- Vertex 2 Xcoordinate
    5711265.263710066,        !- Vertex 2 Ycoordinate
    0,                        !- Vertex 2 Zcoordinate
    705481.6839145502,        !- Vertex 3 Xcoordinate
    5711260.465502286,        !- Vertex 3 Ycoordinate
    0,                        !- Vertex 3 Zcoordinate
    705481.6839145502,        !- Vertex 4 Xcoordinate
    5711260.465502286,        !- Vertex 4 Ycoordinate
    6;                        !- Vertex 4 Zcoordinate

SHADING:SITE:DETAILED,
    shade_way/1055854780_4,    !- Name
    ,                         !- Transmittance Schedule Name
    autocalculate,            !- Number of Vertices
    705481.6839145502,        !- Vertex 1 Xcoordinate
    5711260.465502286,        !- Vertex 1 Ycoordinate
    6,                        !- Vertex 1 Zcoordinate
    705481.6839145502,        !- Vertex 2 Xcoordinate
    5711260.465502286,        !- Vertex 2 Ycoordinate
    0,                        !- Vertex 2 Zcoordinate
    705474.2758659178,        !- Vertex 3 Xcoordinate
    5711259.982847344,        !- Vertex 3 Ycoordinate
    0,                        !- Vertex 3 Zcoordinate
    705474.2758659178,        !- Vertex 4 Xcoordinate
    5711259.982847344,        !- Vertex 4 Ycoordinate
    6;                        !- Vertex 4 Zcoordinate

SHADING:SITE:DETAILED,
    shade_way/1055854781_1,    !- Name
    ,                         !- Transmittance Schedule Name
    autocalculate,            !- Number of Vertices
    705473.6725420228,        !- Vertex 1 Xcoordinate
    5711269.390818471,        !- Vertex 1 Ycoordinate
    6,                        !- Vertex 1 Zcoordinate
    705473.6725420228,        !- Vertex 2 Xcoordinate
    5711269.390818471,        !- Vertex 2 Ycoordinate
    0,                        !- Vertex 2 Zcoordinate
    705481.0821469014,        !- Vertex 3 Xcoordinate
    5711269.858038317,        !- Vertex 3 Ycoordinate
    0,                        !- Vertex 3 Zcoordinate
    705481.0821469014,        !- Vertex 4 Xcoordinate
    5711269.858038317,        !- Vertex 4 Ycoordinate
    6;                        !- Vertex 4 Zcoordinate

SHADING:SITE:DETAILED,
    shade_way/1055854781_2,    !- Name
    ,                         !- Transmittance Schedule Name
    autocalculate,            !- Number of Vertices
    705481.0821469014,        !- Vertex 1 Xcoordinate
    5711269.858038317,        !- Vertex 1 Ycoordinate
    6,                        !- Vertex 1 Zcoordinate
    705481.0821469014,        !- Vertex 2 Xcoordinate
    5711269.858038317,        !- Vertex 2 Ycoordinate
    0,                        !- Vertex 2 Zcoordinate
    705481.3722279009,        !- Vertex 3 Xcoordinate
    5711265.248125843,        !- Vertex 3 Ycoordinate
    0,                        !- Vertex 3 Zcoordinate
    705481.3722279009,        !- Vertex 4 Xcoordinate
    5711265.248125843,        !- Vertex 4 Ycoordinate
    6;                        !- Vertex 4 Zcoordinate

SHADING:SITE:DETAILED,
    shade_way/1055854781_3,    !- Name
    ,                         !- Transmittance Schedule Name
    autocalculate,            !- Number of Vertices
    705481.3722279009,        !- Vertex 1 Xcoordinate
    5711265.248125843,        !- Vertex 1 Ycoordinate
    6,                        !- Vertex 1 Zcoordinate
    705481.3722279009,        !- Vertex 2 Xcoordinate
    5711265.248125843,        !- Vertex 2 Ycoordinate
    0,                        !- Vertex 2 Zcoordinate
    705473.9636882873,        !- Vertex 3 Xcoordinate
    5711264.78116804,         !- Vertex 3 Ycoordinate
    0,                        !- Vertex 3 Zcoordinate
    705473.9636882873,        !- Vertex 4 Xcoordinate
    5711264.78116804,         !- Vertex 4 Ycoordinate
    6;                        !- Vertex 4 Zcoordinate

SHADING:SITE:DETAILED,
    shade_way/1055854781_4,    !- Name
    ,                         !- Transmittance Schedule Name
    autocalculate,            !- Number of Vertices
    705473.9636882873,        !- Vertex 1 Xcoordinate
    5711264.78116804,         !- Vertex 1 Ycoordinate
    6,                        !- Vertex 1 Zcoordinate
    705473.9636882873,        !- Vertex 2 Xcoordinate
    5711264.78116804,         !- Vertex 2 Ycoordinate
    0,                        !- Vertex 2 Zcoordinate
    705473.6725420228,        !- Vertex 3 Xcoordinate
    5711269.390818471,        !- Vertex 3 Ycoordinate
    0,                        !- Vertex 3 Zcoordinate
    705473.6725420228,        !- Vertex 4 Xcoordinate
    5711269.390818471,        !- Vertex 4 Ycoordinate
    6;                        !- Vertex 4 Zcoordinate

SHADING:SITE:DETAILED,
    shade_way/635993731_1,    !- Name
    ,                         !- Transmittance Schedule Name
    autocalculate,            !- Number of Vertices
    705457.1095827671,        !- Vertex 1 Xcoordinate
    5711268.319217597,        !- Vertex 1 Ycoordinate
    6,                        !- Vertex 1 Zcoordinate
    705457.1095827671,        !- Vertex 2 Xcoordinate
    5711268.319217597,        !- Vertex 2 Ycoordinate
    0,                        !- Vertex 2 Zcoordinate
    705450.0004363914,        !- Vertex 3 Xcoordinate
    5711267.830905979,        !- Vertex 3 Ycoordinate
    0,                        !- Vertex 3 Zcoordinate
    705450.0004363914,        !- Vertex 4 Xcoordinate
    5711267.830905979,        !- Vertex 4 Ycoordinate
    6;                        !- Vertex 4 Zcoordinate

SHADING:SITE:DETAILED,
    shade_way/635993731_2,    !- Name
    ,                         !- Transmittance Schedule Name
    autocalculate,            !- Number of Vertices
    705450.0004363914,        !- Vertex 1 Xcoordinate
    5711267.830905979,        !- Vertex 1 Ycoordinate
    6,                        !- Vertex 1 Zcoordinate
    705450.0004363914,        !- Vertex 2 Xcoordinate
    5711267.830905979,        !- Vertex 2 Ycoordinate
    0,                        !- Vertex 2 Zcoordinate
    705449.67853041,          !- Vertex 3 Xcoordinate
    5711272.519272754,        !- Vertex 3 Ycoordinate
    0,                        !- Vertex 3 Zcoordinate
    705449.67853041,          !- Vertex 4 Xcoordinate
    5711272.519272754,        !- Vertex 4 Ycoordinate
    6;                        !- Vertex 4 Zcoordinate

SHADING:SITE:DETAILED,
    shade_way/635993731_3,    !- Name
    ,                         !- Transmittance Schedule Name
    autocalculate,            !- Number of Vertices
    705449.67853041,          !- Vertex 1 Xcoordinate
    5711272.519272754,        !- Vertex 1 Ycoordinate
    6,                        !- Vertex 1 Zcoordinate
    705449.67853041,          !- Vertex 2 Xcoordinate
    5711272.519272754,        !- Vertex 2 Ycoordinate
    0,                        !- Vertex 2 Zcoordinate
    705456.7876767855,        !- Vertex 3 Xcoordinate
    5711273.007584374,        !- Vertex 3 Ycoordinate
    0,                        !- Vertex 3 Zcoordinate
    705456.7876767855,        !- Vertex 4 Xcoordinate
    5711273.007584374,        !- Vertex 4 Ycoordinate
    6;                        !- Vertex 4 Zcoordinate

SHADING:SITE:DETAILED,
    shade_way/635993731_4,    !- Name
    ,                         !- Transmittance Schedule Name
    autocalculate,            !- Number of Vertices
    705456.7876767855,        !- Vertex 1 Xcoordinate
    5711273.007584374,        !- Vertex 1 Ycoordinate
    6,                        !- Vertex 1 Zcoordinate
    705456.7876767855,        !- Vertex 2 Xcoordinate
    5711273.007584374,        !- Vertex 2 Ycoordinate
    0,                        !- Vertex 2 Zcoordinate
    705457.1095827671,        !- Vertex 3 Xcoordinate
    5711268.319217597,        !- Vertex 3 Ycoordinate
    0,                        !- Vertex 3 Zcoordinate
    705457.1095827671,        !- Vertex 4 Xcoordinate
    5711268.319217597,        !- Vertex 4 Ycoordinate
    6;                        !- Vertex 4 Zcoordinate

SHADING:SITE:DETAILED,
    shade_way/1055854782_1,    !- Name
    ,                         !- Transmittance Schedule Name
    autocalculate,            !- Number of Vertices
    705481.0944200411,        !- Vertex 1 Xcoordinate
    5711269.858812051,        !- Vertex 1 Ycoordinate
    6,                        !- Vertex 1 Zcoordinate
    705481.0944200411,        !- Vertex 2 Xcoordinate
    5711269.858812051,        !- Vertex 2 Ycoordinate
    0,                        !- Vertex 2 Zcoordinate
    705473.6725406025,        !- Vertex 3 Xcoordinate
    5711269.390915824,        !- Vertex 3 Ycoordinate
    0,                        !- Vertex 3 Zcoordinate
    705473.6725406025,        !- Vertex 4 Xcoordinate
    5711269.390915824,        !- Vertex 4 Ycoordinate
    6;                        !- Vertex 4 Zcoordinate

SHADING:SITE:DETAILED,
    shade_way/1055854782_2,    !- Name
    ,                         !- Transmittance Schedule Name
    autocalculate,            !- Number of Vertices
    705473.6725406025,        !- Vertex 1 Xcoordinate
    5711269.390915824,        !- Vertex 1 Ycoordinate
    6,                        !- Vertex 1 Zcoordinate
    705473.6725406025,        !- Vertex 2 Xcoordinate
    5711269.390915824,        !- Vertex 2 Ycoordinate
    0,                        !- Vertex 2 Zcoordinate
    705473.3820942659,        !- Vertex 3 Xcoordinate
    5711273.98946383,         !- Vertex 3 Ycoordinate
    0,                        !- Vertex 3 Zcoordinate
    705473.3820942659,        !- Vertex 4 Xcoordinate
    5711273.98946383,         !- Vertex 4 Ycoordinate
    6;                        !- Vertex 4 Zcoordinate

SHADING:SITE:DETAILED,
    shade_way/1055854782_3,    !- Name
    ,                         !- Transmittance Schedule Name
    autocalculate,            !- Number of Vertices
    705473.3820942659,        !- Vertex 1 Xcoordinate
    5711273.98946383,         !- Vertex 1 Ycoordinate
    6,                        !- Vertex 1 Zcoordinate
    705473.3820942659,        !- Vertex 2 Xcoordinate
    5711273.98946383,         !- Vertex 2 Ycoordinate
    0,                        !- Vertex 2 Zcoordinate
    705480.8045063375,        !- Vertex 3 Xcoordinate
    5711274.457491078,        !- Vertex 3 Ycoordinate
    0,                        !- Vertex 3 Zcoordinate
    705480.8045063375,        !- Vertex 4 Xcoordinate
    5711274.457491078,        !- Vertex 4 Ycoordinate
    6;                        !- Vertex 4 Zcoordinate

SHADING:SITE:DETAILED,
    shade_way/1055854782_4,    !- Name
    ,                         !- Transmittance Schedule Name
    autocalculate,            !- Number of Vertices
    705480.8045063375,        !- Vertex 1 Xcoordinate
    5711274.457491078,        !- Vertex 1 Ycoordinate
    6,                        !- Vertex 1 Zcoordinate
    705480.8045063375,        !- Vertex 2 Xcoordinate
    5711274.457491078,        !- Vertex 2 Ycoordinate
    0,                        !- Vertex 2 Zcoordinate
    705481.0944200411,        !- Vertex 3 Xcoordinate
    5711269.858812051,        !- Vertex 3 Ycoordinate
    0,                        !- Vertex 3 Zcoordinate
    705481.0944200411,        !- Vertex 4 Xcoordinate
    5711269.858812051,        !- Vertex 4 Ycoordinate
    6;                        !- Vertex 4 Zcoordinate

SHADING:SITE:DETAILED,
    shade_way/635993728_1,    !- Name
    ,                         !- Transmittance Schedule Name
    autocalculate,            !- Number of Vertices
    705449.6855980926,        !- Vertex 1 Xcoordinate
    5711272.517653645,        !- Vertex 1 Ycoordinate
    6,                        !- Vertex 1 Zcoordinate
    705449.6855980926,        !- Vertex 2 Xcoordinate
    5711272.517653645,        !- Vertex 2 Ycoordinate
    0,                        !- Vertex 2 Zcoordinate
    705449.3662581517,        !- Vertex 3 Xcoordinate
    5711277.315581523,        !- Vertex 3 Ycoordinate
    0,                        !- Vertex 3 Zcoordinate
    705449.3662581517,        !- Vertex 4 Xcoordinate
    5711277.315581523,        !- Vertex 4 Ycoordinate
    6;                        !- Vertex 4 Zcoordinate

SHADING:SITE:DETAILED,
    shade_way/635993728_2,    !- Name
    ,                         !- Transmittance Schedule Name
    autocalculate,            !- Number of Vertices
    705449.3662581517,        !- Vertex 1 Xcoordinate
    5711277.315581523,        !- Vertex 1 Ycoordinate
    6,                        !- Vertex 1 Zcoordinate
    705449.3662581517,        !- Vertex 2 Xcoordinate
    5711277.315581523,        !- Vertex 2 Ycoordinate
    0,                        !- Vertex 2 Zcoordinate
    705456.4076733172,        !- Vertex 3 Xcoordinate
    5711277.784342035,        !- Vertex 3 Ycoordinate
    0,                        !- Vertex 3 Zcoordinate
    705456.4076733172,        !- Vertex 4 Xcoordinate
    5711277.784342035,        !- Vertex 4 Ycoordinate
    6;                        !- Vertex 4 Zcoordinate

SHADING:SITE:DETAILED,
    shade_way/635993728_3,    !- Name
    ,                         !- Transmittance Schedule Name
    autocalculate,            !- Number of Vertices
    705456.4076733172,        !- Vertex 1 Xcoordinate
    5711277.784342035,        !- Vertex 1 Ycoordinate
    6,                        !- Vertex 1 Zcoordinate
    705456.4076733172,        !- Vertex 2 Xcoordinate
    5711277.784342035,        !- Vertex 2 Ycoordinate
    0,                        !- Vertex 2 Zcoordinate
    705456.7270132577,        !- Vertex 3 Xcoordinate
    5711272.986414157,        !- Vertex 3 Ycoordinate
    0,                        !- Vertex 3 Zcoordinate
    705456.7270132577,        !- Vertex 4 Xcoordinate
    5711272.986414157,        !- Vertex 4 Ycoordinate
    6;                        !- Vertex 4 Zcoordinate

SHADING:SITE:DETAILED,
    shade_way/635993728_4,    !- Name
    ,                         !- Transmittance Schedule Name
    autocalculate,            !- Number of Vertices
    705456.7270132577,        !- Vertex 1 Xcoordinate
    5711272.986414157,        !- Vertex 1 Ycoordinate
    6,                        !- Vertex 1 Zcoordinate
    705456.7270132577,        !- Vertex 2 Xcoordinate
    5711272.986414157,        !- Vertex 2 Ycoordinate
    0,                        !- Vertex 2 Zcoordinate
    705449.6855980926,        !- Vertex 3 Xcoordinate
    5711272.517653645,        !- Vertex 3 Ycoordinate
    0,                        !- Vertex 3 Zcoordinate
    705449.6855980926,        !- Vertex 4 Xcoordinate
    5711272.517653645,        !- Vertex 4 Ycoordinate
    6;                        !- Vertex 4 Zcoordinate

SHADING:SITE:DETAILED,
    shade_way/1055854783_1,    !- Name
    ,                         !- Transmittance Schedule Name
    autocalculate,            !- Number of Vertices
    705480.5331143782,        !- Vertex 1 Xcoordinate
    5711278.934004681,        !- Vertex 1 Ycoordinate
    6,                        !- Vertex 1 Zcoordinate
    705480.5331143782,        !- Vertex 2 Xcoordinate
    5711278.934004681,        !- Vertex 2 Ycoordinate
    0,                        !- Vertex 2 Zcoordinate
    705480.8060930916,        !- Vertex 3 Xcoordinate
    5711274.423741837,        !- Vertex 3 Ycoordinate
    0,                        !- Vertex 3 Zcoordinate
    705480.8060930916,        !- Vertex 4 Xcoordinate
    5711274.423741837,        !- Vertex 4 Ycoordinate
    6;                        !- Vertex 4 Zcoordinate

SHADING:SITE:DETAILED,
    shade_way/1055854783_2,    !- Name
    ,                         !- Transmittance Schedule Name
    autocalculate,            !- Number of Vertices
    705480.8060930916,        !- Vertex 1 Xcoordinate
    5711274.423741837,        !- Vertex 1 Ycoordinate
    6,                        !- Vertex 1 Zcoordinate
    705480.8060930916,        !- Vertex 2 Xcoordinate
    5711274.423741837,        !- Vertex 2 Ycoordinate
    0,                        !- Vertex 2 Zcoordinate
    705473.3683271005,        !- Vertex 3 Xcoordinate
    5711273.973842919,        !- Vertex 3 Ycoordinate
    0,                        !- Vertex 3 Zcoordinate
    705473.3683271005,        !- Vertex 4 Xcoordinate
    5711273.973842919,        !- Vertex 4 Ycoordinate
    6;                        !- Vertex 4 Zcoordinate

SHADING:SITE:DETAILED,
    shade_way/1055854783_3,    !- Name
    ,                         !- Transmittance Schedule Name
    autocalculate,            !- Number of Vertices
    705473.3683271005,        !- Vertex 1 Xcoordinate
    5711273.973842919,        !- Vertex 1 Ycoordinate
    6,                        !- Vertex 1 Zcoordinate
    705473.3683271005,        !- Vertex 2 Xcoordinate
    5711273.973842919,        !- Vertex 2 Ycoordinate
    0,                        !- Vertex 2 Zcoordinate
    705473.0953483876,        !- Vertex 3 Xcoordinate
    5711278.484105762,        !- Vertex 3 Ycoordinate
    0,                        !- Vertex 3 Zcoordinate
    705473.0953483876,        !- Vertex 4 Xcoordinate
    5711278.484105762,        !- Vertex 4 Ycoordinate
    6;                        !- Vertex 4 Zcoordinate

SHADING:SITE:DETAILED,
    shade_way/1055854783_4,    !- Name
    ,                         !- Transmittance Schedule Name
    autocalculate,            !- Number of Vertices
    705473.0953483876,        !- Vertex 1 Xcoordinate
    5711278.484105762,        !- Vertex 1 Ycoordinate
    6,                        !- Vertex 1 Zcoordinate
    705473.0953483876,        !- Vertex 2 Xcoordinate
    5711278.484105762,        !- Vertex 2 Ycoordinate
    0,                        !- Vertex 2 Zcoordinate
    705480.5331143782,        !- Vertex 3 Xcoordinate
    5711278.934004681,        !- Vertex 3 Ycoordinate
    0,                        !- Vertex 3 Zcoordinate
    705480.5331143782,        !- Vertex 4 Xcoordinate
    5711278.934004681,        !- Vertex 4 Ycoordinate
    6;                        !- Vertex 4 Zcoordinate

SHADING:SITE:DETAILED,
    shade_way/635993725_1,    !- Name
    ,                         !- Transmittance Schedule Name
    autocalculate,            !- Number of Vertices
    705456.0830743902,        !- Vertex 1 Xcoordinate
    5711282.68795549,         !- Vertex 1 Ycoordinate
    6,                        !- Vertex 1 Zcoordinate
    705456.0830743902,        !- Vertex 2 Xcoordinate
    5711282.68795549,         !- Vertex 2 Ycoordinate
    0,                        !- Vertex 2 Zcoordinate
    705456.4073729976,        !- Vertex 3 Xcoordinate
    5711277.767729656,        !- Vertex 3 Ycoordinate
    0,                        !- Vertex 3 Zcoordinate
    705456.4073729976,        !- Vertex 4 Xcoordinate
    5711277.767729656,        !- Vertex 4 Ycoordinate
    6;                        !- Vertex 4 Zcoordinate

SHADING:SITE:DETAILED,
    shade_way/635993725_2,    !- Name
    ,                         !- Transmittance Schedule Name
    autocalculate,            !- Number of Vertices
    705456.4073729976,        !- Vertex 1 Xcoordinate
    5711277.767729656,        !- Vertex 1 Ycoordinate
    6,                        !- Vertex 1 Zcoordinate
    705456.4073729976,        !- Vertex 2 Xcoordinate
    5711277.767729656,        !- Vertex 2 Ycoordinate
    0,                        !- Vertex 2 Zcoordinate
    705449.366821944,         !- Vertex 3 Xcoordinate
    5711277.303636242,        !- Vertex 3 Ycoordinate
    0,                        !- Vertex 3 Zcoordinate
    705449.366821944,         !- Vertex 4 Xcoordinate
    5711277.303636242,        !- Vertex 4 Ycoordinate
    6;                        !- Vertex 4 Zcoordinate

SHADING:SITE:DETAILED,
    shade_way/635993725_3,    !- Name
    ,                         !- Transmittance Schedule Name
    autocalculate,            !- Number of Vertices
    705449.366821944,         !- Vertex 1 Xcoordinate
    5711277.303636242,        !- Vertex 1 Ycoordinate
    6,                        !- Vertex 1 Zcoordinate
    705449.366821944,         !- Vertex 2 Xcoordinate
    5711277.303636242,        !- Vertex 2 Ycoordinate
    0,                        !- Vertex 2 Zcoordinate
    705449.0425233368,        !- Vertex 3 Xcoordinate
    5711282.223862076,        !- Vertex 3 Ycoordinate
    0,                        !- Vertex 3 Zcoordinate
    705449.0425233368,        !- Vertex 4 Xcoordinate
    5711282.223862076,        !- Vertex 4 Ycoordinate
    6;                        !- Vertex 4 Zcoordinate

SHADING:SITE:DETAILED,
    shade_way/635993725_4,    !- Name
    ,                         !- Transmittance Schedule Name
    autocalculate,            !- Number of Vertices
    705449.0425233368,        !- Vertex 1 Xcoordinate
    5711282.223862076,        !- Vertex 1 Ycoordinate
    6,                        !- Vertex 1 Zcoordinate
    705449.0425233368,        !- Vertex 2 Xcoordinate
    5711282.223862076,        !- Vertex 2 Ycoordinate
    0,                        !- Vertex 2 Zcoordinate
    705456.0830743902,        !- Vertex 3 Xcoordinate
    5711282.68795549,         !- Vertex 3 Ycoordinate
    0,                        !- Vertex 3 Zcoordinate
    705456.0830743902,        !- Vertex 4 Xcoordinate
    5711282.68795549,         !- Vertex 4 Ycoordinate
    6;                        !- Vertex 4 Zcoordinate

SHADING:SITE:DETAILED,
    shade_way/1055854784_1,    !- Name
    ,                         !- Transmittance Schedule Name
    autocalculate,            !- Number of Vertices
    705472.8111040164,        !- Vertex 1 Xcoordinate
    5711282.9421582585,       !- Vertex 1 Ycoordinate
    6,                        !- Vertex 1 Zcoordinate
    705472.8111040164,        !- Vertex 2 Xcoordinate
    5711282.9421582585,       !- Vertex 2 Ycoordinate
    0,                        !- Vertex 2 Zcoordinate
    705480.2836478007,        !- Vertex 3 Xcoordinate
    5711283.378402215,        !- Vertex 3 Ycoordinate
    0,                        !- Vertex 3 Zcoordinate
    705480.2836478007,        !- Vertex 4 Xcoordinate
    5711283.378402215,        !- Vertex 4 Ycoordinate
    6;                        !- Vertex 4 Zcoordinate

SHADING:SITE:DETAILED,
    shade_way/1055854784_2,    !- Name
    ,                         !- Transmittance Schedule Name
    autocalculate,            !- Number of Vertices
    705480.2836478007,        !- Vertex 1 Xcoordinate
    5711283.378402215,        !- Vertex 1 Ycoordinate
    6,                        !- Vertex 1 Zcoordinate
    705480.2836478007,        !- Vertex 2 Xcoordinate
    5711283.378402215,        !- Vertex 2 Ycoordinate
    0,                        !- Vertex 2 Zcoordinate
    705480.5472409385,        !- Vertex 3 Xcoordinate
    5711278.867232553,        !- Vertex 3 Ycoordinate
    0,                        !- Vertex 3 Zcoordinate
    705480.5472409385,        !- Vertex 4 Xcoordinate
    5711278.867232553,        !- Vertex 4 Ycoordinate
    6;                        !- Vertex 4 Zcoordinate

SHADING:SITE:DETAILED,
    shade_way/1055854784_3,    !- Name
    ,                         !- Transmittance Schedule Name
    autocalculate,            !- Number of Vertices
    705480.5472409385,        !- Vertex 1 Xcoordinate
    5711278.867232553,        !- Vertex 1 Ycoordinate
    6,                        !- Vertex 1 Zcoordinate
    705480.5472409385,        !- Vertex 2 Xcoordinate
    5711278.867232553,        !- Vertex 2 Ycoordinate
    0,                        !- Vertex 2 Zcoordinate
    705473.0746971542,        !- Vertex 3 Xcoordinate
    5711278.430988597,        !- Vertex 3 Ycoordinate
    0,                        !- Vertex 3 Zcoordinate
    705473.0746971542,        !- Vertex 4 Xcoordinate
    5711278.430988597,        !- Vertex 4 Ycoordinate
    6;                        !- Vertex 4 Zcoordinate

SHADING:SITE:DETAILED,
    shade_way/1055854784_4,    !- Name
    ,                         !- Transmittance Schedule Name
    autocalculate,            !- Number of Vertices
    705473.0746971542,        !- Vertex 1 Xcoordinate
    5711278.430988597,        !- Vertex 1 Ycoordinate
    6,                        !- Vertex 1 Zcoordinate
    705473.0746971542,        !- Vertex 2 Xcoordinate
    5711278.430988597,        !- Vertex 2 Ycoordinate
    0,                        !- Vertex 2 Zcoordinate
    705472.8111040164,        !- Vertex 3 Xcoordinate
    5711282.9421582585,       !- Vertex 3 Ycoordinate
    0,                        !- Vertex 3 Zcoordinate
    705472.8111040164,        !- Vertex 4 Xcoordinate
    5711282.9421582585,       !- Vertex 4 Ycoordinate
    6;                        !- Vertex 4 Zcoordinate

SHADING:SITE:DETAILED,
    shade_way/635993722_1,    !- Name
    ,                         !- Transmittance Schedule Name
    autocalculate,            !- Number of Vertices
    705449.0428667448,        !- Vertex 1 Xcoordinate
    5711282.213571594,        !- Vertex 1 Ycoordinate
    6,                        !- Vertex 1 Zcoordinate
    705449.0428667448,        !- Vertex 2 Xcoordinate
    5711282.213571594,        !- Vertex 2 Ycoordinate
    0,                        !- Vertex 2 Zcoordinate
    705448.7089371836,        !- Vertex 3 Xcoordinate
    5711287.200224967,        !- Vertex 3 Ycoordinate
    0,                        !- Vertex 3 Zcoordinate
    705448.7089371836,        !- Vertex 4 Xcoordinate
    5711287.200224967,        !- Vertex 4 Ycoordinate
    6;                        !- Vertex 4 Zcoordinate

SHADING:SITE:DETAILED,
    shade_way/635993722_2,    !- Name
    ,                         !- Transmittance Schedule Name
    autocalculate,            !- Number of Vertices
    705448.7089371836,        !- Vertex 1 Xcoordinate
    5711287.200224967,        !- Vertex 1 Ycoordinate
    6,                        !- Vertex 1 Zcoordinate
    705448.7089371836,        !- Vertex 2 Xcoordinate
    5711287.200224967,        !- Vertex 2 Ycoordinate
    0,                        !- Vertex 2 Zcoordinate
    705455.7498280552,        !- Vertex 3 Xcoordinate
    5711287.671655883,        !- Vertex 3 Ycoordinate
    0,                        !- Vertex 3 Zcoordinate
    705455.7498280552,        !- Vertex 4 Xcoordinate
    5711287.671655883,        !- Vertex 4 Ycoordinate
    6;                        !- Vertex 4 Zcoordinate

SHADING:SITE:DETAILED,
    shade_way/635993722_3,    !- Name
    ,                         !- Transmittance Schedule Name
    autocalculate,            !- Number of Vertices
    705455.7498280552,        !- Vertex 1 Xcoordinate
    5711287.671655883,        !- Vertex 1 Ycoordinate
    6,                        !- Vertex 1 Zcoordinate
    705455.7498280552,        !- Vertex 2 Xcoordinate
    5711287.671655883,        !- Vertex 2 Ycoordinate
    0,                        !- Vertex 2 Zcoordinate
    705456.0837576159,        !- Vertex 3 Xcoordinate
    5711282.685002511,        !- Vertex 3 Ycoordinate
    0,                        !- Vertex 3 Zcoordinate
    705456.0837576159,        !- Vertex 4 Xcoordinate
    5711282.685002511,        !- Vertex 4 Ycoordinate
    6;                        !- Vertex 4 Zcoordinate

SHADING:SITE:DETAILED,
    shade_way/635993722_4,    !- Name
    ,                         !- Transmittance Schedule Name
    autocalculate,            !- Number of Vertices
    705456.0837576159,        !- Vertex 1 Xcoordinate
    5711282.685002511,        !- Vertex 1 Ycoordinate
    6,                        !- Vertex 1 Zcoordinate
    705456.0837576159,        !- Vertex 2 Xcoordinate
    5711282.685002511,        !- Vertex 2 Ycoordinate
    0,                        !- Vertex 2 Zcoordinate
    705449.0428667448,        !- Vertex 3 Xcoordinate
    5711282.213571594,        !- Vertex 3 Ycoordinate
    0,                        !- Vertex 3 Zcoordinate
    705449.0428667448,        !- Vertex 4 Xcoordinate
    5711282.213571594,        !- Vertex 4 Ycoordinate
    6;                        !- Vertex 4 Zcoordinate

SHADING:SITE:DETAILED,
    shade_way/635993719_1,    !- Name
    ,                         !- Transmittance Schedule Name
    autocalculate,            !- Number of Vertices
    705455.7495880799,        !- Vertex 1 Xcoordinate
    5711287.663490557,        !- Vertex 1 Ycoordinate
    6,                        !- Vertex 1 Zcoordinate
    705455.7495880799,        !- Vertex 2 Xcoordinate
    5711287.663490557,        !- Vertex 2 Ycoordinate
    0,                        !- Vertex 2 Zcoordinate
    705448.7087205268,        !- Vertex 3 Xcoordinate
    5711287.200160657,        !- Vertex 3 Ycoordinate
    0,                        !- Vertex 3 Zcoordinate
    705448.7087205268,        !- Vertex 4 Xcoordinate
    5711287.200160657,        !- Vertex 4 Ycoordinate
    6;                        !- Vertex 4 Zcoordinate

SHADING:SITE:DETAILED,
    shade_way/635993719_2,    !- Name
    ,                         !- Transmittance Schedule Name
    autocalculate,            !- Number of Vertices
    705448.7087205268,        !- Vertex 1 Xcoordinate
    5711287.200160657,        !- Vertex 1 Ycoordinate
    6,                        !- Vertex 1 Zcoordinate
    705448.7087205268,        !- Vertex 2 Xcoordinate
    5711287.200160657,        !- Vertex 2 Ycoordinate
    0,                        !- Vertex 2 Zcoordinate
    705448.4028369298,        !- Vertex 3 Xcoordinate
    5711291.84278157,         !- Vertex 3 Ycoordinate
    0,                        !- Vertex 3 Zcoordinate
    705448.4028369298,        !- Vertex 4 Xcoordinate
    5711291.84278157,         !- Vertex 4 Ycoordinate
    6;                        !- Vertex 4 Zcoordinate

SHADING:SITE:DETAILED,
    shade_way/635993719_3,    !- Name
    ,                         !- Transmittance Schedule Name
    autocalculate,            !- Number of Vertices
    705448.4028369298,        !- Vertex 1 Xcoordinate
    5711291.84278157,         !- Vertex 1 Ycoordinate
    6,                        !- Vertex 1 Zcoordinate
    705448.4028369298,        !- Vertex 2 Xcoordinate
    5711291.84278157,         !- Vertex 2 Ycoordinate
    0,                        !- Vertex 2 Zcoordinate
    705455.4445180137,        !- Vertex 3 Xcoordinate
    5711292.306064892,        !- Vertex 3 Ycoordinate
    0,                        !- Vertex 3 Zcoordinate
    705455.4445180137,        !- Vertex 4 Xcoordinate
    5711292.306064892,        !- Vertex 4 Ycoordinate
    6;                        !- Vertex 4 Zcoordinate

SHADING:SITE:DETAILED,
    shade_way/635993719_4,    !- Name
    ,                         !- Transmittance Schedule Name
    autocalculate,            !- Number of Vertices
    705455.4445180137,        !- Vertex 1 Xcoordinate
    5711292.306064892,        !- Vertex 1 Ycoordinate
    6,                        !- Vertex 1 Zcoordinate
    705455.4445180137,        !- Vertex 2 Xcoordinate
    5711292.306064892,        !- Vertex 2 Ycoordinate
    0,                        !- Vertex 2 Zcoordinate
    705455.7495880799,        !- Vertex 3 Xcoordinate
    5711287.663490557,        !- Vertex 3 Ycoordinate
    0,                        !- Vertex 3 Zcoordinate
    705455.7495880799,        !- Vertex 4 Xcoordinate
    5711287.663490557,        !- Vertex 4 Ycoordinate
    6;                        !- Vertex 4 Zcoordinate

SHADING:SITE:DETAILED,
    shade_way/1452504622_1,    !- Name
    ,                         !- Transmittance Schedule Name
    autocalculate,            !- Number of Vertices
    705498.5580017879,        !- Vertex 1 Xcoordinate
    5711296.667564926,        !- Vertex 1 Ycoordinate
    6,                        !- Vertex 1 Zcoordinate
    705498.5580017879,        !- Vertex 2 Xcoordinate
    5711296.667564926,        !- Vertex 2 Ycoordinate
    0,                        !- Vertex 2 Zcoordinate
    705510.4935562406,        !- Vertex 3 Xcoordinate
    5711286.149837851,        !- Vertex 3 Ycoordinate
    0,                        !- Vertex 3 Zcoordinate
    705510.4935562406,        !- Vertex 4 Xcoordinate
    5711286.149837851,        !- Vertex 4 Ycoordinate
    6;                        !- Vertex 4 Zcoordinate

SHADING:SITE:DETAILED,
    shade_way/1452504622_2,    !- Name
    ,                         !- Transmittance Schedule Name
    autocalculate,            !- Number of Vertices
    705510.4935562406,        !- Vertex 1 Xcoordinate
    5711286.149837851,        !- Vertex 1 Ycoordinate
    6,                        !- Vertex 1 Zcoordinate
    705510.4935562406,        !- Vertex 2 Xcoordinate
    5711286.149837851,        !- Vertex 2 Ycoordinate
    0,                        !- Vertex 2 Zcoordinate
    705507.9201743659,        !- Vertex 3 Xcoordinate
    5711283.228482293,        !- Vertex 3 Ycoordinate
    0,                        !- Vertex 3 Zcoordinate
    705507.9201743659,        !- Vertex 4 Xcoordinate
    5711283.228482293,        !- Vertex 4 Ycoordinate
    6;                        !- Vertex 4 Zcoordinate

SHADING:SITE:DETAILED,
    shade_way/1452504622_3,    !- Name
    ,                         !- Transmittance Schedule Name
    autocalculate,            !- Number of Vertices
    705507.9201743659,        !- Vertex 1 Xcoordinate
    5711283.228482293,        !- Vertex 1 Ycoordinate
    6,                        !- Vertex 1 Zcoordinate
    705507.9201743659,        !- Vertex 2 Xcoordinate
    5711283.228482293,        !- Vertex 2 Ycoordinate
    0,                        !- Vertex 2 Zcoordinate
    705495.9836421389,        !- Vertex 3 Xcoordinate
    5711293.747311789,        !- Vertex 3 Ycoordinate
    0,                        !- Vertex 3 Zcoordinate
    705495.9836421389,        !- Vertex 4 Xcoordinate
    5711293.747311789,        !- Vertex 4 Ycoordinate
    6;                        !- Vertex 4 Zcoordinate

SHADING:SITE:DETAILED,
    shade_way/1452504622_4,    !- Name
    ,                         !- Transmittance Schedule Name
    autocalculate,            !- Number of Vertices
    705495.9836421389,        !- Vertex 1 Xcoordinate
    5711293.747311789,        !- Vertex 1 Ycoordinate
    6,                        !- Vertex 1 Zcoordinate
    705495.9836421389,        !- Vertex 2 Xcoordinate
    5711293.747311789,        !- Vertex 2 Ycoordinate
    0,                        !- Vertex 2 Zcoordinate
    705498.5580017879,        !- Vertex 3 Xcoordinate
    5711296.667564926,        !- Vertex 3 Ycoordinate
    0,                        !- Vertex 3 Zcoordinate
    705498.5580017879,        !- Vertex 4 Xcoordinate
    5711296.667564926,        !- Vertex 4 Ycoordinate
    6;                        !- Vertex 4 Zcoordinate

SHADING:SITE:DETAILED,
    shade_way/1055854786_1,    !- Name
    ,                         !- Transmittance Schedule Name
    autocalculate,            !- Number of Vertices
    705486.2496917108,        !- Vertex 1 Xcoordinate
    5711288.687276269,        !- Vertex 1 Ycoordinate
    9,                        !- Vertex 1 Zcoordinate
    705486.2496917108,        !- Vertex 2 Xcoordinate
    5711288.687276269,        !- Vertex 2 Ycoordinate
    0,                        !- Vertex 2 Zcoordinate
    705472.514536747,         !- Vertex 3 Xcoordinate
    5711287.8635071125,       !- Vertex 3 Ycoordinate
    0,                        !- Vertex 3 Zcoordinate
    705472.514536747,         !- Vertex 4 Xcoordinate
    5711287.8635071125,       !- Vertex 4 Ycoordinate
    9;                        !- Vertex 4 Zcoordinate

SHADING:SITE:DETAILED,
    shade_way/1055854786_2,    !- Name
    ,                         !- Transmittance Schedule Name
    autocalculate,            !- Number of Vertices
    705472.514536747,         !- Vertex 1 Xcoordinate
    5711287.8635071125,       !- Vertex 1 Ycoordinate
    9,                        !- Vertex 1 Zcoordinate
    705472.514536747,         !- Vertex 2 Xcoordinate
    5711287.8635071125,       !- Vertex 2 Ycoordinate
    0,                        !- Vertex 2 Zcoordinate
    705472.2134089086,        !- Vertex 3 Xcoordinate
    5711292.881840015,        !- Vertex 3 Ycoordinate
    0,                        !- Vertex 3 Zcoordinate
    705472.2134089086,        !- Vertex 4 Xcoordinate
    5711292.881840015,        !- Vertex 4 Ycoordinate
    9;                        !- Vertex 4 Zcoordinate

SHADING:SITE:DETAILED,
    shade_way/1055854786_3,    !- Name
    ,                         !- Transmittance Schedule Name
    autocalculate,            !- Number of Vertices
    705472.2134089086,        !- Vertex 1 Xcoordinate
    5711292.881840015,        !- Vertex 1 Ycoordinate
    9,                        !- Vertex 1 Zcoordinate
    705472.2134089086,        !- Vertex 2 Xcoordinate
    5711292.881840015,        !- Vertex 2 Ycoordinate
    0,                        !- Vertex 2 Zcoordinate
    705485.9487967103,        !- Vertex 3 Xcoordinate
    5711293.705431434,        !- Vertex 3 Ycoordinate
    0,                        !- Vertex 3 Zcoordinate
    705485.9487967103,        !- Vertex 4 Xcoordinate
    5711293.705431434,        !- Vertex 4 Ycoordinate
    9;                        !- Vertex 4 Zcoordinate

SHADING:SITE:DETAILED,
    shade_way/1055854786_4,    !- Name
    ,                         !- Transmittance Schedule Name
    autocalculate,            !- Number of Vertices
    705485.9487967103,        !- Vertex 1 Xcoordinate
    5711293.705431434,        !- Vertex 1 Ycoordinate
    9,                        !- Vertex 1 Zcoordinate
    705485.9487967103,        !- Vertex 2 Xcoordinate
    5711293.705431434,        !- Vertex 2 Ycoordinate
    0,                        !- Vertex 2 Zcoordinate
    705486.2496917108,        !- Vertex 3 Xcoordinate
    5711288.687276269,        !- Vertex 3 Ycoordinate
    0,                        !- Vertex 3 Zcoordinate
    705486.2496917108,        !- Vertex 4 Xcoordinate
    5711288.687276269,        !- Vertex 4 Ycoordinate
    9;                        !- Vertex 4 Zcoordinate

SHADING:SITE:DETAILED,
    shade_way/1055854787_1,    !- Name
    ,                         !- Transmittance Schedule Name
    autocalculate,            !- Number of Vertices
    705471.108997847,         !- Vertex 1 Xcoordinate
    5711298.330518857,        !- Vertex 1 Ycoordinate
    6,                        !- Vertex 1 Zcoordinate
    705471.108997847,         !- Vertex 2 Xcoordinate
    5711298.330518857,        !- Vertex 2 Ycoordinate
    0,                        !- Vertex 2 Zcoordinate
    705483.0559627966,        !- Vertex 3 Xcoordinate
    5711298.99233435,         !- Vertex 3 Ycoordinate
    0,                        !- Vertex 3 Zcoordinate
    705483.0559627966,        !- Vertex 4 Xcoordinate
    5711298.99233435,         !- Vertex 4 Ycoordinate
    6;                        !- Vertex 4 Zcoordinate

SHADING:SITE:DETAILED,
    shade_way/1055854787_2,    !- Name
    ,                         !- Transmittance Schedule Name
    autocalculate,            !- Number of Vertices
    705483.0559627966,        !- Vertex 1 Xcoordinate
    5711298.99233435,         !- Vertex 1 Ycoordinate
    6,                        !- Vertex 1 Zcoordinate
    705483.0559627966,        !- Vertex 2 Xcoordinate
    5711298.99233435,         !- Vertex 2 Ycoordinate
    0,                        !- Vertex 2 Zcoordinate
    705483.3715720214,        !- Vertex 3 Xcoordinate
    5711293.29106482,         !- Vertex 3 Ycoordinate
    0,                        !- Vertex 3 Zcoordinate
    705483.3715720214,        !- Vertex 4 Xcoordinate
    5711293.29106482,         !- Vertex 4 Ycoordinate
    6;                        !- Vertex 4 Zcoordinate

SHADING:SITE:DETAILED,
    shade_way/1055854787_3,    !- Name
    ,                         !- Transmittance Schedule Name
    autocalculate,            !- Number of Vertices
    705483.3715720214,        !- Vertex 1 Xcoordinate
    5711293.29106482,         !- Vertex 1 Ycoordinate
    6,                        !- Vertex 1 Zcoordinate
    705483.3715720214,        !- Vertex 2 Xcoordinate
    5711293.29106482,         !- Vertex 2 Ycoordinate
    0,                        !- Vertex 2 Zcoordinate
    705471.4249333289,        !- Vertex 3 Xcoordinate
    5711292.629064114,        !- Vertex 3 Ycoordinate
    0,                        !- Vertex 3 Zcoordinate
    705471.4249333289,        !- Vertex 4 Xcoordinate
    5711292.629064114,        !- Vertex 4 Ycoordinate
    6;                        !- Vertex 4 Zcoordinate

SHADING:SITE:DETAILED,
    shade_way/1055854787_4,    !- Name
    ,                         !- Transmittance Schedule Name
    autocalculate,            !- Number of Vertices
    705471.4249333289,        !- Vertex 1 Xcoordinate
    5711292.629064114,        !- Vertex 1 Ycoordinate
    6,                        !- Vertex 1 Zcoordinate
    705471.4249333289,        !- Vertex 2 Xcoordinate
    5711292.629064114,        !- Vertex 2 Ycoordinate
    0,                        !- Vertex 2 Zcoordinate
    705471.108997847,         !- Vertex 3 Xcoordinate
    5711298.330518857,        !- Vertex 3 Ycoordinate
    0,                        !- Vertex 3 Zcoordinate
    705471.108997847,         !- Vertex 4 Xcoordinate
    5711298.330518857,        !- Vertex 4 Ycoordinate
    6;                        !- Vertex 4 Zcoordinate

SHADING:SITE:DETAILED,
    shade_way/394361012_1,    !- Name
    ,                         !- Transmittance Schedule Name
    autocalculate,            !- Number of Vertices
    705478.6479953103,        !- Vertex 1 Xcoordinate
    5711346.521179499,        !- Vertex 1 Ycoordinate
    9,                        !- Vertex 1 Zcoordinate
    705478.6479953103,        !- Vertex 2 Xcoordinate
    5711346.521179499,        !- Vertex 2 Ycoordinate
    0,                        !- Vertex 2 Zcoordinate
    705510.8051500607,        !- Vertex 3 Xcoordinate
    5711348.2256227555,       !- Vertex 3 Ycoordinate
    0,                        !- Vertex 3 Zcoordinate
    705510.8051500607,        !- Vertex 4 Xcoordinate
    5711348.2256227555,       !- Vertex 4 Ycoordinate
    9;                        !- Vertex 4 Zcoordinate

SHADING:SITE:DETAILED,
    shade_way/394361012_2,    !- Name
    ,                         !- Transmittance Schedule Name
    autocalculate,            !- Number of Vertices
    705510.8051500607,        !- Vertex 1 Xcoordinate
    5711348.2256227555,       !- Vertex 1 Ycoordinate
    9,                        !- Vertex 1 Zcoordinate
    705510.8051500607,        !- Vertex 2 Xcoordinate
    5711348.2256227555,       !- Vertex 2 Ycoordinate
    0,                        !- Vertex 2 Zcoordinate
    705513.3381611226,        !- Vertex 3 Xcoordinate
    5711300.436159508,        !- Vertex 3 Ycoordinate
    0,                        !- Vertex 3 Zcoordinate
    705513.3381611226,        !- Vertex 4 Xcoordinate
    5711300.436159508,        !- Vertex 4 Ycoordinate
    9;                        !- Vertex 4 Zcoordinate

SHADING:SITE:DETAILED,
    shade_way/394361012_3,    !- Name
    ,                         !- Transmittance Schedule Name
    autocalculate,            !- Number of Vertices
    705513.3381611226,        !- Vertex 1 Xcoordinate
    5711300.436159508,        !- Vertex 1 Ycoordinate
    9,                        !- Vertex 1 Zcoordinate
    705513.3381611226,        !- Vertex 2 Xcoordinate
    5711300.436159508,        !- Vertex 2 Ycoordinate
    0,                        !- Vertex 2 Zcoordinate
    705481.1810063722,        !- Vertex 3 Xcoordinate
    5711298.731716252,        !- Vertex 3 Ycoordinate
    0,                        !- Vertex 3 Zcoordinate
    705481.1810063722,        !- Vertex 4 Xcoordinate
    5711298.731716252,        !- Vertex 4 Ycoordinate
    9;                        !- Vertex 4 Zcoordinate

SHADING:SITE:DETAILED,
    shade_way/394361012_4,    !- Name
    ,                         !- Transmittance Schedule Name
    autocalculate,            !- Number of Vertices
    705481.1810063722,        !- Vertex 1 Xcoordinate
    5711298.731716252,        !- Vertex 1 Ycoordinate
    9,                        !- Vertex 1 Zcoordinate
    705481.1810063722,        !- Vertex 2 Xcoordinate
    5711298.731716252,        !- Vertex 2 Ycoordinate
    0,                        !- Vertex 2 Zcoordinate
    705478.6479953103,        !- Vertex 3 Xcoordinate
    5711346.521179499,        !- Vertex 3 Ycoordinate
    0,                        !- Vertex 3 Zcoordinate
    705478.6479953103,        !- Vertex 4 Xcoordinate
    5711346.521179499,        !- Vertex 4 Ycoordinate
    9;                        !- Vertex 4 Zcoordinate

OTHEREQUIPMENT,
    EU_Step8_InternalGain_6c9ca6572f8a6e57_F0_dwelling_0_f000,    !- Name
    Electricity,              !- Fuel Type
    6c9ca6572f8a6e57_F0_dwelling_0,    !- Zone or ZoneList or Space or SpaceList Name
    EU_Step8_GainSchedule_6c9ca6572f8a6e57_F0_dwelling_0_f000,    !- Schedule Name
    Watts/Area,               !- Design Level Calculation Method
    ,                         !- Design Level
    1,                        !- Power per Zone Floor Area
    ,                         !- Power per Person
    0,                        !- Fraction Latent
    0,                        !- Fraction Radiant
    0,                        !- Fraction Lost
    0,                        !- Carbon Dioxide Generation Rate
    EU_Step8_InternalGains;    !- EndUse Subcategory

ZONEVENTILATION:DESIGNFLOWRATE,
    EU_ConstantAir_6c9ca6572f8a6e57_F0_dwelling_0,    !- Name
    6c9ca6572f8a6e57_F0_dwelling_0,    !- Zone or ZoneList or Space or SpaceList Name
    EU_AlwaysOn,              !- Schedule Name
    AirChanges/Hour,          !- Design Flow Rate Calculation Method
    ,                         !- Design Flow Rate
    ,                         !- Flow Rate per Floor Area
    ,                         !- Flow Rate per Person
    0.4800000000000001,       !- Air Changes per Hour
    Natural,                  !- Ventilation Type
    0,                        !- Fan Pressure Rise
    1,                        !- Fan Total Efficiency
    1,                        !- Constant Term Coefficient
    0,                        !- Temperature Term Coefficient
    0,                        !- Velocity Term Coefficient
    0,                        !- Velocity Squared Term Coefficient
    -100,                     !- Minimum Indoor Temperature
    ,                         !- Minimum Indoor Temperature Schedule Name
    100,                      !- Maximum Indoor Temperature
    ,                         !- Maximum Indoor Temperature Schedule Name
    -100,                     !- Delta Temperature
    ,                         !- Delta Temperature Schedule Name
    -100,                     !- Minimum Outdoor Temperature
    ,                         !- Minimum Outdoor Temperature Schedule Name
    100,                      !- Maximum Outdoor Temperature
    ,                         !- Maximum Outdoor Temperature Schedule Name
    40;                       !- Maximum Wind Speed

HVACTEMPLATE:THERMOSTAT,
    EU_HeatOnly_6c9ca6572f8a6e57_F0_dwelling_0,    !- Name
    ,                         !- Heating Setpoint Schedule Name
    20,                       !- Constant Heating Setpoint
    ,                         !- Cooling Setpoint Schedule Name
    50;                       !- Constant Cooling Setpoint

HVACTEMPLATE:ZONE:IDEALLOADSAIRSYSTEM,
    6c9ca6572f8a6e57_F0_dwelling_0,    !- Zone Name
    EU_HeatOnly_6c9ca6572f8a6e57_F0_dwelling_0,    !- Template Thermostat Name
    EU_AlwaysOn,              !- System Availability Schedule Name
    50,                       !- Maximum Heating Supply Air Temperature
    13,                       !- Minimum Cooling Supply Air Temperature
    0.0156,                   !- Maximum Heating Supply Air Humidity Ratio
    0.0077,                   !- Minimum Cooling Supply Air Humidity Ratio
    NoLimit,                  !- Heating Limit
    ,                         !- Maximum Heating Air Flow Rate
    ,                         !- Maximum Sensible Heating Capacity
    NoLimit,                  !- Cooling Limit
    ,                         !- Maximum Cooling Air Flow Rate
    ,                         !- Maximum Total Cooling Capacity
    EU_AlwaysOn,              !- Heating Availability Schedule Name
    EU_CoolingOff,            !- Cooling Availability Schedule Name
    ConstantSensibleHeatRatio,    !- Dehumidification Control Type
    0.7,                      !- Cooling Sensible Heat Ratio
    60,                       !- Dehumidification Setpoint
    None,                     !- Humidification Control Type
    30,                       !- Humidification Setpoint
    None,                     !- Outdoor Air Method
    0.00944,                  !- Outdoor Air Flow Rate per Person
    0.0,                      !- Outdoor Air Flow Rate per Zone Floor Area
    0,                        !- Outdoor Air Flow Rate per Zone
    ,                         !- Design Specification Outdoor Air Object Name
    None,                     !- Demand Controlled Ventilation Type
    NoEconomizer,             !- Outdoor Air Economizer Type
    None,                     !- Heat Recovery Type
    0.70,                     !- Sensible Heat Recovery Effectiveness
    0.65;                     !- Latent Heat Recovery Effectiveness

SIZING:ZONE,
    6c9ca6572f8a6e57_F0_dwelling_0,    !- Zone or ZoneList Name
    SupplyAirTemperature,     !- Zone Cooling Design Supply Air Temperature Input Method
    13,                       !- Zone Cooling Design Supply Air Temperature
    ,                         !- Zone Cooling Design Supply Air Temperature Difference
    SupplyAirTemperature,     !- Zone Heating Design Supply Air Temperature Input Method
    50,                       !- Zone Heating Design Supply Air Temperature
    ,                         !- Zone Heating Design Supply Air Temperature Difference
    0.008,                    !- Zone Cooling Design Supply Air Humidity Ratio
    0.008,                    !- Zone Heating Design Supply Air Humidity Ratio
    ,                         !- Design Specification Outdoor Air Object Name
    ,                         !- Zone Heating Sizing Factor
    ,                         !- Zone Cooling Sizing Factor
    DesignDay,                !- Cooling Design Air Flow Method
    0,                        !- Cooling Design Air Flow Rate
    0.000762,                 !- Cooling Minimum Air Flow per Zone Floor Area
    0,                        !- Cooling Minimum Air Flow
    0.2,                      !- Cooling Minimum Air Flow Fraction
    DesignDay,                !- Heating Design Air Flow Method
    0,                        !- Heating Design Air Flow Rate
    0.002032,                 !- Heating Maximum Air Flow per Zone Floor Area
    0.1415762,                !- Heating Maximum Air Flow
    0.3,                      !- Heating Maximum Air Flow Fraction
    ,                         !- Design Specification Zone Air Distribution Object Name
    No,                       !- Account for Dedicated Outdoor Air System
    NeutralSupplyAir,         !- Dedicated Outdoor Air System Control Strategy
    autosize,                 !- Dedicated Outdoor Air Low Setpoint Temperature for Design
    autosize,                 !- Dedicated Outdoor Air High Setpoint Temperature for Design
    Sensible Load Only No Latent Load,    !- Zone Load Sizing Method
    HumidityRatioDifference,    !- Zone Latent Cooling Design Supply Air Humidity Ratio Input Method
    ,                         !- Zone Dehumidification Design Supply Air Humidity Ratio
    0.005,                    !- Zone Cooling Design Supply Air Humidity Ratio Difference
    HumidityRatioDifference,    !- Zone Latent Heating Design Supply Air Humidity Ratio Input Method
    ,                         !- Zone Humidification Design Supply Air Humidity Ratio
    0.005;                    !- Zone Humidification Design Supply Air Humidity Ratio Difference

OUTPUT:VARIABLE,
    *,                        !- Key Value
    Zone Ideal Loads Zone Total Heating Energy,    !- Variable Name
    Hourly;                   !- Reporting Frequency

OUTPUT:SQLITE,
    SimpleAndTabular,         !- Option Type
    UseOutputControlTableStyle;    !- Unit Conversion for Tabular Data