!- Windows Line endings 

Version,
    23.1;                     !- Version Identifier

SimulationControl,
    Yes,                      !- Do Zone Sizing Calculation
    Yes,                      !- Do System Sizing Calculation
    Yes,                      !- Do Plant Sizing Calculation
    No,                       !- Run Simulation for Sizing Periods
    Yes,                      !- Run Simulation for Weather File Run Periods
    No,                       !- Do HVAC Sizing Simulation for Sizing Periods
    1;                        !- Maximum Number of HVAC Sizing Simulation Passes

Building,
    EU S2 Campaign,           !- Name
    0,                        !- North Axis
    City,                     !- Terrain
    ,                         !- Loads Convergence Tolerance Value
    ,                         !- Temperature Convergence Tolerance Value
    FullExterior,             !- Solar Distribution
    ,                         !- Maximum Number of Warmup Days
    ;                         !- Minimum Number of Warmup Days

ShadowCalculation,
    PolygonClipping,          !- Shading Calculation Method
    Periodic,                 !- Shading Calculation Update Frequency Method
    1;                        !- Shading Calculation Update Frequency

HeatBalanceAlgorithm,
    ConductionTransferFunction,    !- Algorithm
    200,                      !- Surface Temperature Upper Limit
    0.1,                      !- Minimum Surface Convection Heat Transfer Coefficient Value
    10000000;                 !- Maximum Surface Convection Heat Transfer Coefficient Value

Timestep,
    12;                       !- Number of Timesteps per Hour

Site:Location,
    London,                   !- Name
    51.5,                     !- Latitude
    -0.5,                     !- Longitude
    0,                        !- Time Zone
    25;                       !- Elevation

SizingPeriod:WeatherFileDays,
    AnnualSizingPeriod,       !- Name
    1,                        !- Begin Month
    1,                        !- Begin Day of Month
    12,                       !- End Month
    31,                       !- End Day of Month
    Monday,                   !- Day of Week for Start Day
    No,                       !- Use Weather File Daylight Saving Period
    No;                       !- Use Weather File Rain and Snow Indicators

RunPeriod,
    RunPeriod1,               !- Name
    1,                        !- Begin Month
    1,                        !- Begin Day of Month
    ,                         !- Begin Year
    12,                       !- End Month
    31,                       !- End Day of Month
    ,                         !- End Year
    Sunday,                   !- Day of Week for Start Day
    No,                       !- Use Weather File Holidays and Special Days
    No,                       !- Use Weather File Daylight Saving Period
    No,                       !- Apply Weekend Holiday Rule
    Yes,                      !- Use Weather File Rain Indicators
    Yes;                      !- Use Weather File Snow Indicators

ScheduleTypeLimits,
    Any Number;               !- Name

SCHEDULETYPELIMITS,
    EU_Step8_AnyNumber_Wm2,    !- Name
    ,                         !- Lower Limit Value
    ,                         !- Upper Limit Value
    Continuous,               !- Numeric Type
    Dimensionless;            !- Unit Type

SCHEDULE:CONSTANT,
    EU_AlwaysOn,              !- Name
    ,                         !- Schedule Type Limits Name
    1;                        !- Hourly Value

SCHEDULE:CONSTANT,
    EU_CoolingOff,            !- Name
    ,                         !- Schedule Type Limits Name
    0;                        !- Hourly Value

SCHEDULE:FILE,
    EU_Step8_GainSchedule_dae39e37346b7588_F0_dwelling_0_f000,    !- Name
    EU_Step8_AnyNumber_Wm2,    !- Schedule Type Limits Name
    ../../schedules/dae39e37346b7588/dae39e37346b7588_F0_dwelling_0_f000_gain.csv,    !- File Name
    1,                        !- Column Number
    0,                        !- Rows to Skip at Top
    8760,                     !- Number of Hours of Data
    Comma,                    !- Column Separator
    No,                       !- Interpolate to Timestep
    60,                       !- Minutes per Item
    Yes;                      !- Adjust Schedule for Daylight Savings

MATERIAL,
    EU_InternalMass_Material,    !- Name
    MediumRough,              !- Roughness
    0.1,                      !- Thickness
    1,                        !- Conductivity
    1800,                     !- Density
    900,                      !- Specific Heat
    0.9,                      !- Thermal Absorptance
    0.7,                      !- Solar Absorptance
    0.7;                      !- Visible Absorptance

MATERIAL:NOMASS,
    EU_wall_NoMass,           !- Name
    MediumRough,              !- Roughness
    0.5555555555555555,       !- Thermal Resistance
    0.9,                      !- Thermal Absorptance
    0.7,                      !- Solar Absorptance
    0.7;                      !- Visible Absorptance

MATERIAL:NOMASS,
    EU_roof_NoMass,           !- Name
    MediumRough,              !- Roughness
    0.5102040816326531,       !- Thermal Resistance
    0.9,                      !- Thermal Absorptance
    0.7,                      !- Solar Absorptance
    0.7;                      !- Visible Absorptance

MATERIAL:NOMASS,
    EU_floor_NoMass,          !- Name
    MediumRough,              !- Roughness
    1.6891891891891893,       !- Thermal Resistance
    0.9,                      !- Thermal Absorptance
    0.7,                      !- Solar Absorptance
    0.7;                      !- Visible Absorptance

CONSTRUCTION,
    EU_wall_Construction,     !- Name
    EU_wall_NoMass;           !- Outside Layer

CONSTRUCTION,
    EU_roof_Construction,     !- Name
    EU_roof_NoMass;           !- Outside Layer

CONSTRUCTION,
    EU_floor_Construction,    !- Name
    EU_floor_NoMass;          !- Outside Layer

CONSTRUCTION,
    EU_InternalMass_Construction,    !- Name
    EU_InternalMass_Material;    !- Outside Layer

GlobalGeometryRules,
    UpperLeftCorner,          !- Starting Vertex Position
    CounterClockWise,         !- Vertex Entry Direction
    World;                    !- Coordinate System

ZONE,
    dae39e37346b7588_F0_dwelling_0,    !- Name
    0,                        !- Direction of Relative North
    0,                        !- X Origin
    0,                        !- Y Origin
    0,                        !- Z Origin
    1,                        !- Type
    1,                        !- Multiplier
    autocalculate,            !- Ceiling Height
    202.54833984375,          !- Volume
    autocalculate,            !- Floor Area
    ,                         !- Zone Inside Convection Algorithm
    ,                         !- Zone Outside Convection Algorithm
    Yes;                      !- Part of Total Floor Area

BUILDINGSURFACE:DETAILED,
    Block dae39e37346b7588_0 Storey 0 Wall 0001,    !- Name
    wall,                     !- Surface Type
    EU_wall_Construction,     !- Construction Name
    dae39e37346b7588_F0_dwelling_0,    !- Zone Name
    ,                         !- Space Name
    Adiabatic,                !- Outside Boundary Condition
    ,                         !- Outside Boundary Condition Object
    NoSun,                    !- Sun Exposure
    NoWind,                   !- Wind Exposure
    autocalculate,            !- View Factor to Ground
    autocalculate,            !- Number of Vertices
    705384.186,               !- Vertex 1 Xcoordinate
    5711105.451,              !- Vertex 1 Ycoordinate
    6,                        !- Vertex 1 Zcoordinate
    705384.186,               !- Vertex 2 Xcoordinate
    5711105.451,              !- Vertex 2 Ycoordinate
    0,                        !- Vertex 2 Zcoordinate
    705391.476,               !- Vertex 3 Xcoordinate
    5711104.722,              !- Vertex 3 Ycoordinate
    0,                        !- Vertex 3 Zcoordinate
    705391.476,               !- Vertex 4 Xcoordinate
    5711104.722,              !- Vertex 4 Ycoordinate
    6;                        !- Vertex 4 Zcoordinate

BUILDINGSURFACE:DETAILED,
    Block dae39e37346b7588_0 Storey 0 Wall 0002,    !- Name
    wall,                     !- Surface Type
    EU_wall_Construction,     !- Construction Name
    dae39e37346b7588_F0_dwelling_0,    !- Zone Name
    ,                         !- Space Name
    outdoors,                 !- Outside Boundary Condition
    ,                         !- Outside Boundary Condition Object
    SunExposed,               !- Sun Exposure
    WindExposed,              !- Wind Exposure
    autocalculate,            !- View Factor to Ground
    autocalculate,            !- Number of Vertices
    705391.476,               !- Vertex 1 Xcoordinate
    5711104.722,              !- Vertex 1 Ycoordinate
    6,                        !- Vertex 1 Zcoordinate
    705391.476,               !- Vertex 2 Xcoordinate
    5711104.722,              !- Vertex 2 Ycoordinate
    0,                        !- Vertex 2 Zcoordinate
    705391.139,               !- Vertex 3 Xcoordinate
    5711100.688,              !- Vertex 3 Ycoordinate
    0,                        !- Vertex 3 Zcoordinate
    705391.139,               !- Vertex 4 Xcoordinate
    5711100.688,              !- Vertex 4 Ycoordinate
    6;                        !- Vertex 4 Zcoordinate

BUILDINGSURFACE:DETAILED,
    Block dae39e37346b7588_0 Storey 0 Wall 0003,    !- Name
    wall,                     !- Surface Type
    EU_wall_Construction,     !- Construction Name
    dae39e37346b7588_F0_dwelling_0,    !- Zone Name
    ,                         !- Space Name
    Adiabatic,                !- Outside Boundary Condition
    ,                         !- Outside Boundary Condition Object
    NoSun,                    !- Sun Exposure
    NoWind,                   !- Wind Exposure
    autocalculate,            !- View Factor to Ground
    autocalculate,            !- Number of Vertices
    705391.139,               !- Vertex 1 Xcoordinate
    5711100.688,              !- Vertex 1 Ycoordinate
    6,                        !- Vertex 1 Zcoordinate
    705391.139,               !- Vertex 2 Xcoordinate
    5711100.688,              !- Vertex 2 Ycoordinate
    0,                        !- Vertex 2 Zcoordinate
    705382.446,               !- Vertex 3 Xcoordinate
    5711101.405,              !- Vertex 3 Ycoordinate
    0,                        !- Vertex 3 Zcoordinate
    705382.446,               !- Vertex 4 Xcoordinate
    5711101.405,              !- Vertex 4 Ycoordinate
    6;                        !- Vertex 4 Zcoordinate

BUILDINGSURFACE:DETAILED,
    Block dae39e37346b7588_0 Storey 0 Wall 0004,    !- Name
    wall,                     !- Surface Type
    EU_wall_Construction,     !- Construction Name
    dae39e37346b7588_F0_dwelling_0,    !- Zone Name
    ,                         !- Space Name
    outdoors,                 !- Outside Boundary Condition
    ,                         !- Outside Boundary Condition Object
    SunExposed,               !- Sun Exposure
    WindExposed,              !- Wind Exposure
    autocalculate,            !- View Factor to Ground
    autocalculate,            !- Number of Vertices
    705382.446,               !- Vertex 1 Xcoordinate
    5711101.405,              !- Vertex 1 Ycoordinate
    6,                        !- Vertex 1 Zcoordinate
    705382.446,               !- Vertex 2 Xcoordinate
    5711101.405,              !- Vertex 2 Ycoordinate
    0,                        !- Vertex 2 Zcoordinate
    705382.728,               !- Vertex 3 Xcoordinate
    5711104.045,              !- Vertex 3 Ycoordinate
    0,                        !- Vertex 3 Zcoordinate
    705382.728,               !- Vertex 4 Xcoordinate
    5711104.045,              !- Vertex 4 Ycoordinate
    6;                        !- Vertex 4 Zcoordinate

BUILDINGSURFACE:DETAILED,
    Block dae39e37346b7588_0 Storey 0 Wall 0005,    !- Name
    wall,                     !- Surface Type
    EU_wall_Construction,     !- Construction Name
    dae39e37346b7588_F0_dwelling_0,    !- Zone Name
    ,                         !- Space Name
    outdoors,                 !- Outside Boundary Condition
    ,                         !- Outside Boundary Condition Object
    SunExposed,               !- Sun Exposure
    WindExposed,              !- Wind Exposure
    autocalculate,            !- View Factor to Ground
    autocalculate,            !- Number of Vertices
    705382.728,               !- Vertex 1 Xcoordinate
    5711104.045,              !- Vertex 1 Ycoordinate
    6,                        !- Vertex 1 Zcoordinate
    705382.728,               !- Vertex 2 Xcoordinate
    5711104.045,              !- Vertex 2 Ycoordinate
    0,                        !- Vertex 2 Zcoordinate
    705384.039,               !- Vertex 3 Xcoordinate
    5711103.931,              !- Vertex 3 Ycoordinate
    0,                        !- Vertex 3 Zcoordinate
    705384.039,               !- Vertex 4 Xcoordinate
    5711103.931,              !- Vertex 4 Ycoordinate
    6;                        !- Vertex 4 Zcoordinate

BUILDINGSURFACE:DETAILED,
    Block dae39e37346b7588_0 Storey 0 Wall 0006,    !- Name
    wall,                     !- Surface Type
    EU_wall_Construction,     !- Construction Name
    dae39e37346b7588_F0_dwelling_0,    !- Zone Name
    ,                         !- Space Name
    outdoors,                 !- Outside Boundary Condition
    ,                         !- Outside Boundary Condition Object
    SunExposed,               !- Sun Exposure
    WindExposed,              !- Wind Exposure
    autocalculate,            !- View Factor to Ground
    autocalculate,            !- Number of Vertices
    705384.039,               !- Vertex 1 Xcoordinate
    5711103.931,              !- Vertex 1 Ycoordinate
    6,                        !- Vertex 1 Zcoordinate
    705384.039,               !- Vertex 2 Xcoordinate
    5711103.931,              !- Vertex 2 Ycoordinate
    0,                        !- Vertex 2 Zcoordinate
    705384.186,               !- Vertex 3 Xcoordinate
    5711105.451,              !- Vertex 3 Ycoordinate
    0,                        !- Vertex 3 Zcoordinate
    705384.186,               !- Vertex 4 Xcoordinate
    5711105.451,              !- Vertex 4 Ycoordinate
    6;                        !- Vertex 4 Zcoordinate

BUILDINGSURFACE:DETAILED,
    Block dae39e37346b7588_0 Storey 0 Floor 0001,    !- Name
    floor,                    !- Surface Type
    EU_floor_Construction,    !- Construction Name
    dae39e37346b7588_F0_dwelling_0,    !- Zone Name
    ,                         !- Space Name
    ground,                   !- Outside Boundary Condition
    ,                         !- Outside Boundary Condition Object
    NoSun,                    !- Sun Exposure
    NoWind,                   !- Wind Exposure
    autocalculate,            !- View Factor to Ground
    autocalculate,            !- Number of Vertices
    705391.139,               !- Vertex 1 Xcoordinate
    5711100.688,              !- Vertex 1 Ycoordinate
    0,                        !- Vertex 1 Zcoordinate
    705391.476,               !- Vertex 2 Xcoordinate
    5711104.722,              !- Vertex 2 Ycoordinate
    0,                        !- Vertex 2 Zcoordinate
    705384.186,               !- Vertex 3 Xcoordinate
    5711105.451,              !- Vertex 3 Ycoordinate
    0,                        !- Vertex 3 Zcoordinate
    705384.039,               !- Vertex 4 Xcoordinate
    5711103.931,              !- Vertex 4 Ycoordinate
    0,                        !- Vertex 4 Zcoordinate
    705382.728,               !- Vertex 5 Xcoordinate
    5711104.045,              !- Vertex 5 Ycoordinate
    0,                        !- Vertex 5 Zcoordinate
    705382.446,               !- Vertex 6 Xcoordinate
    5711101.405,              !- Vertex 6 Ycoordinate
    0;                        !- Vertex 6 Zcoordinate

BUILDINGSURFACE:DETAILED,
    Block dae39e37346b7588_0 Storey 0 Roof 0001,    !- Name
    roof,                     !- Surface Type
    EU_roof_Construction,     !- Construction Name
    dae39e37346b7588_F0_dwelling_0,    !- Zone Name
    ,                         !- Space Name
    outdoors,                 !- Outside Boundary Condition
    ,                         !- Outside Boundary Condition Object
    NoSun,                    !- Sun Exposure
    WindExposed,              !- Wind Exposure
    autocalculate,            !- View Factor to Ground
    autocalculate,            !- Number of Vertices
    705391.476,               !- Vertex 1 Xcoordinate
    5711104.722,              !- Vertex 1 Ycoordinate
    6,                        !- Vertex 1 Zcoordinate
    705391.139,               !- Vertex 2 Xcoordinate
    5711100.688,              !- Vertex 2 Ycoordinate
    6,                        !- Vertex 2 Zcoordinate
    705382.446,               !- Vertex 3 Xcoordinate
    5711101.405,              !- Vertex 3 Ycoordinate
    6,                        !- Vertex 3 Zcoordinate
    705382.728,               !- Vertex 4 Xcoordinate
    5711104.045,              !- Vertex 4 Ycoordinate
    6,                        !- Vertex 4 Zcoordinate
    705384.039,               !- Vertex 5 Xcoordinate
    5711103.931,              !- Vertex 5 Ycoordinate
    6,                        !- Vertex 5 Zcoordinate
    705384.186,               !- Vertex 6 Xcoordinate
    5711105.451,              !- Vertex 6 Ycoordinate
    6;                        !- Vertex 6 Zcoordinate

INTERNALMASS,
    dae39e37346b7588_F0_dwelling_0_EU_InternalMass,    !- Name
    EU_InternalMass_Construction,    !- Construction Name
    dae39e37346b7588_F0_dwelling_0,    !- Zone or ZoneList Name
    ,                         !- Space or SpaceList Name
    33.75807049665853;        !- Surface Area

SHADING:SITE:DETAILED,
    shade_way/195649318_1,    !- Name
    ,                         !- Transmittance Schedule Name
    autocalculate,            !- Number of Vertices
    705366.1111645815,        !- Vertex 1 Xcoordinate
    5711096.422577593,        !- Vertex 1 Ycoordinate
    3,                        !- Vertex 1 Zcoordinate
    705366.1111645815,        !- Vertex 2 Xcoordinate
    5711096.422577593,        !- Vertex 2 Ycoordinate
    0,                        !- Vertex 2 Zcoordinate
    705390.6674395985,        !- Vertex 3 Xcoordinate
    5711095.729903252,        !- Vertex 3 Ycoordinate
    0,                        !- Vertex 3 Zcoordinate
    705390.6674395985,        !- Vertex 4 Xcoordinate
    5711095.729903252,        !- Vertex 4 Ycoordinate
    3;                        !- Vertex 4 Zcoordinate

SHADING:SITE:DETAILED,
    shade_way/195649318_2,    !- Name
    ,                         !- Transmittance Schedule Name
    autocalculate,            !- Number of Vertices
    705390.6674395985,        !- Vertex 1 Xcoordinate
    5711095.729903252,        !- Vertex 1 Ycoordinate
    3,                        !- Vertex 1 Zcoordinate
    705390.6674395985,        !- Vertex 2 Xcoordinate
    5711095.729903252,        !- Vertex 2 Ycoordinate
    0,                        !- Vertex 2 Zcoordinate
    705390.4928970633,        !- Vertex 3 Xcoordinate
    5711089.5421260195,       !- Vertex 3 Ycoordinate
    0,                        !- Vertex 3 Zcoordinate
    705390.4928970633,        !- Vertex 4 Xcoordinate
    5711089.5421260195,       !- Vertex 4 Ycoordinate
    3;                        !- Vertex 4 Zcoordinate

SHADING:SITE:DETAILED,
    shade_way/195649318_3,    !- Name
    ,                         !- Transmittance Schedule Name
    autocalculate,            !- Number of Vertices
    705390.4928970633,        !- Vertex 1 Xcoordinate
    5711089.5421260195,       !- Vertex 1 Ycoordinate
    3,                        !- Vertex 1 Zcoordinate
    705390.4928970633,        !- Vertex 2 Xcoordinate
    5711089.5421260195,       !- Vertex 2 Ycoordinate
    0,                        !- Vertex 2 Zcoordinate
    705365.9366891729,        !- Vertex 3 Xcoordinate
    5711090.234872543,        !- Vertex 3 Ycoordinate
    0,                        !- Vertex 3 Zcoordinate
    705365.9366891729,        !- Vertex 4 Xcoordinate
    5711090.234872543,        !- Vertex 4 Ycoordinate
    3;                        !- Vertex 4 Zcoordinate

SHADING:SITE:DETAILED,
    shade_way/195649318_4,    !- Name
    ,                         !- Transmittance Schedule Name
    autocalculate,            !- Number of Vertices
    705365.9366891729,        !- Vertex 1 Xcoordinate
    5711090.234872543,        !- Vertex 1 Ycoordinate
    3,                        !- Vertex 1 Zcoordinate
    705365.9366891729,        !- Vertex 2 Xcoordinate
    5711090.234872543,        !- Vertex 2 Ycoordinate
    0,                        !- Vertex 2 Zcoordinate
    705366.1111645815,        !- Vertex 3 Xcoordinate
    5711096.422577593,        !- Vertex 3 Ycoordinate
    0,                        !- Vertex 3 Zcoordinate
    705366.1111645815,        !- Vertex 4 Xcoordinate
    5711096.422577593,        !- Vertex 4 Ycoordinate
    3;                        !- Vertex 4 Zcoordinate

SHADING:SITE:DETAILED,
    shade_way/892496652_1,    !- Name
    ,                         !- Transmittance Schedule Name
    autocalculate,            !- Number of Vertices
    705382.1273996029,        !- Vertex 1 Xcoordinate
    5711101.429946938,        !- Vertex 1 Ycoordinate
    6,                        !- Vertex 1 Zcoordinate
    705382.1273996029,        !- Vertex 2 Xcoordinate
    5711101.429946938,        !- Vertex 2 Ycoordinate
    0,                        !- Vertex 2 Zcoordinate
    705391.1396568778,        !- Vertex 3 Xcoordinate
    5711100.687334618,        !- Vertex 3 Ycoordinate
    0,                        !- Vertex 3 Zcoordinate
    705391.1396568778,        !- Vertex 4 Xcoordinate
    5711100.687334618,        !- Vertex 4 Ycoordinate
    6;                        !- Vertex 4 Zcoordinate

SHADING:SITE:DETAILED,
    shade_way/892496652_2,    !- Name
    ,                         !- Transmittance Schedule Name
    autocalculate,            !- Number of Vertices
    705391.1396568778,        !- Vertex 1 Xcoordinate
    5711100.687334618,        !- Vertex 1 Ycoordinate
    6,                        !- Vertex 1 Zcoordinate
    705391.1396568778,        !- Vertex 2 Xcoordinate
    5711100.687334618,        !- Vertex 2 Ycoordinate
    0,                        !- Vertex 2 Zcoordinate
    705390.690932889,         !- Vertex 3 Xcoordinate
    5711095.240986389,        !- Vertex 3 Ycoordinate
    0,                        !- Vertex 3 Zcoordinate
    705390.690932889,         !- Vertex 4 Xcoordinate
    5711095.240986389,        !- Vertex 4 Ycoordinate
    6;                        !- Vertex 4 Zcoordinate

SHADING:SITE:DETAILED,
    shade_way/892496652_3,    !- Name
    ,                         !- Transmittance Schedule Name
    autocalculate,            !- Number of Vertices
    705390.690932889,         !- Vertex 1 Xcoordinate
    5711095.240986389,        !- Vertex 1 Ycoordinate
    6,                        !- Vertex 1 Zcoordinate
    705390.690932889,         !- Vertex 2 Xcoordinate
    5711095.240986389,        !- Vertex 2 Ycoordinate
    0,                        !- Vertex 2 Zcoordinate
    705381.6786015444,        !- Vertex 3 Xcoordinate
    5711095.983531156,        !- Vertex 3 Ycoordinate
    0,                        !- Vertex 3 Zcoordinate
    705381.6786015444,        !- Vertex 4 Xcoordinate
    5711095.983531156,        !- Vertex 4 Ycoordinate
    6;                        !- Vertex 4 Zcoordinate

SHADING:SITE:DETAILED,
    shade_way/892496652_4,    !- Name
    ,                         !- Transmittance Schedule Name
    autocalculate,            !- Number of Vertices
    705381.6786015444,        !- Vertex 1 Xcoordinate
    5711095.983531156,        !- Vertex 1 Ycoordinate
    6,                        !- Vertex 1 Zcoordinate
    705381.6786015444,        !- Vertex 2 Xcoordinate
    5711095.983531156,        !- Vertex 2 Ycoordinate
    0,                        !- Vertex 2 Zcoordinate
    705382.1273996029,        !- Vertex 3 Xcoordinate
    5711101.429946938,        !- Vertex 3 Ycoordinate
    0,                        !- Vertex 3 Zcoordinate
    705382.1273996029,        !- Vertex 4 Xcoordinate
    5711101.429946938,        !- Vertex 4 Ycoordinate
    6;                        !- Vertex 4 Zcoordinate

SHADING:SITE:DETAILED,
    shade_way/394902414_1,    !- Name
    ,                         !- Transmittance Schedule Name
    autocalculate,            !- Number of Vertices
    705351.112181083,         !- Vertex 1 Xcoordinate
    5711107.831515296,        !- Vertex 1 Ycoordinate
    9,                        !- Vertex 1 Zcoordinate
    705351.112181083,         !- Vertex 2 Xcoordinate
    5711107.831515296,        !- Vertex 2 Ycoordinate
    0,                        !- Vertex 2 Zcoordinate
    705367.2946488456,        !- Vertex 3 Xcoordinate
    5711106.470773792,        !- Vertex 3 Ycoordinate
    0,                        !- Vertex 3 Zcoordinate
    705367.2946488456,        !- Vertex 4 Xcoordinate
    5711106.470773792,        !- Vertex 4 Ycoordinate
    9;                        !- Vertex 4 Zcoordinate

SHADING:SITE:DETAILED,
    shade_way/394902414_2,    !- Name
    ,                         !- Transmittance Schedule Name
    autocalculate,            !- Number of Vertices
    705367.2946488456,        !- Vertex 1 Xcoordinate
    5711106.470773792,        !- Vertex 1 Ycoordinate
    9,                        !- Vertex 1 Zcoordinate
    705367.2946488456,        !- Vertex 2 Xcoordinate
    5711106.470773792,        !- Vertex 2 Ycoordinate
    0,                        !- Vertex 2 Zcoordinate
    705366.016208445,         !- Vertex 3 Xcoordinate
    5711091.266711483,        !- Vertex 3 Ycoordinate
    0,                        !- Vertex 3 Zcoordinate
    705366.016208445,         !- Vertex 4 Xcoordinate
    5711091.266711483,        !- Vertex 4 Ycoordinate
    9;                        !- Vertex 4 Zcoordinate

SHADING:SITE:DETAILED,
    shade_way/394902414_3,    !- Name
    ,                         !- Transmittance Schedule Name
    autocalculate,            !- Number of Vertices
    705366.016208445,         !- Vertex 1 Xcoordinate
    5711091.266711483,        !- Vertex 1 Ycoordinate
    9,                        !- Vertex 1 Zcoordinate
    705366.016208445,         !- Vertex 2 Xcoordinate
    5711091.266711483,        !- Vertex 2 Ycoordinate
    0,                        !- Vertex 2 Zcoordinate
    705349.833740682,         !- Vertex 3 Xcoordinate
    5711092.627452983,        !- Vertex 3 Ycoordinate
    0,                        !- Vertex 3 Zcoordinate
    705349.833740682,         !- Vertex 4 Xcoordinate
    5711092.627452983,        !- Vertex 4 Ycoordinate
    9;                        !- Vertex 4 Zcoordinate

SHADING:SITE:DETAILED,
    shade_way/394902414_4,    !- Name
    ,                         !- Transmittance Schedule Name
    autocalculate,            !- Number of Vertices
    705349.833740682,         !- Vertex 1 Xcoordinate
    5711092.627452983,        !- Vertex 1 Ycoordinate
    9,                        !- Vertex 1 Zcoordinate
    705349.833740682,         !- Vertex 2 Xcoordinate
    5711092.627452983,        !- Vertex 2 Ycoordinate
    0,                        !- Vertex 2 Zcoordinate
    705351.112181083,         !- Vertex 3 Xcoordinate
    5711107.831515296,        !- Vertex 3 Ycoordinate
    0,                        !- Vertex 3 Zcoordinate
    705351.112181083,         !- Vertex 4 Xcoordinate
    5711107.831515296,        !- Vertex 4 Ycoordinate
    9;                        !- Vertex 4 Zcoordinate

SHADING:SITE:DETAILED,
    shade_way/892496650_1,    !- Name
    ,                         !- Transmittance Schedule Name
    autocalculate,            !- Number of Vertices
    705391.501016125,         !- Vertex 1 Xcoordinate
    5711104.718615397,        !- Vertex 1 Ycoordinate
    6,                        !- Vertex 1 Zcoordinate
    705391.501016125,         !- Vertex 2 Xcoordinate
    5711104.718615397,        !- Vertex 2 Ycoordinate
    0,                        !- Vertex 2 Zcoordinate
    705382.8138477072,        !- Vertex 3 Xcoordinate
    5711105.580625998,        !- Vertex 3 Ycoordinate
    0,                        !- Vertex 3 Zcoordinate
    705382.8138477072,        !- Vertex 4 Xcoordinate
    5711105.580625998,        !- Vertex 4 Ycoordinate
    6;                        !- Vertex 4 Zcoordinate

SHADING:SITE:DETAILED,
    shade_way/892496650_2,    !- Name
    ,                         !- Transmittance Schedule Name
    autocalculate,            !- Number of Vertices
    705382.8138477072,        !- Vertex 1 Xcoordinate
    5711105.580625998,        !- Vertex 1 Ycoordinate
    6,                        !- Vertex 1 Zcoordinate
    705382.8138477072,        !- Vertex 2 Xcoordinate
    5711105.580625998,        !- Vertex 2 Ycoordinate
    0,                        !- Vertex 2 Zcoordinate
    705383.2901546089,        !- Vertex 3 Xcoordinate
    5711110.380750586,        !- Vertex 3 Ycoordinate
    0,                        !- Vertex 3 Zcoordinate
    705383.2901546089,        !- Vertex 4 Xcoordinate
    5711110.380750586,        !- Vertex 4 Ycoordinate
    6;                        !- Vertex 4 Zcoordinate

SHADING:SITE:DETAILED,
    shade_way/892496650_3,    !- Name
    ,                         !- Transmittance Schedule Name
    autocalculate,            !- Number of Vertices
    705383.2901546089,        !- Vertex 1 Xcoordinate
    5711110.380750586,        !- Vertex 1 Ycoordinate
    6,                        !- Vertex 1 Zcoordinate
    705383.2901546089,        !- Vertex 2 Xcoordinate
    5711110.380750586,        !- Vertex 2 Ycoordinate
    0,                        !- Vertex 2 Zcoordinate
    705391.977320579,         !- Vertex 3 Xcoordinate
    5711109.5188652435,       !- Vertex 3 Ycoordinate
    0,                        !- Vertex 3 Zcoordinate
    705391.977320579,         !- Vertex 4 Xcoordinate
    5711109.5188652435,       !- Vertex 4 Ycoordinate
    6;                        !- Vertex 4 Zcoordinate

SHADING:SITE:DETAILED,
    shade_way/892496650_4,    !- Name
    ,                         !- Transmittance Schedule Name
    autocalculate,            !- Number of Vertices
    705391.977320579,         !- Vertex 1 Xcoordinate
    5711109.5188652435,       !- Vertex 1 Ycoordinate
    6,                        !- Vertex 1 Zcoordinate
    705391.977320579,         !- Vertex 2 Xcoordinate
    5711109.5188652435,       !- Vertex 2 Ycoordinate
    0,                        !- Vertex 2 Zcoordinate
    705391.501016125,         !- Vertex 3 Xcoordinate
    5711104.718615397,        !- Vertex 3 Ycoordinate
    0,                        !- Vertex 3 Zcoordinate
    705391.501016125,         !- Vertex 4 Xcoordinate
    5711104.718615397,        !- Vertex 4 Ycoordinate
    6;                        !- Vertex 4 Zcoordinate

SHADING:SITE:DETAILED,
    shade_way/892496649_1,    !- Name
    ,                         !- Transmittance Schedule Name
    autocalculate,            !- Number of Vertices
    705392.5007337315,        !- Vertex 1 Xcoordinate
    5711115.055752688,        !- Vertex 1 Ycoordinate
    6,                        !- Vertex 1 Zcoordinate
    705392.5007337315,        !- Vertex 2 Xcoordinate
    5711115.055752688,        !- Vertex 2 Ycoordinate
    0,                        !- Vertex 2 Zcoordinate
    705391.9697684965,        !- Vertex 3 Xcoordinate
    5711109.439124333,        !- Vertex 3 Ycoordinate
    0,                        !- Vertex 3 Zcoordinate
    705391.9697684965,        !- Vertex 4 Xcoordinate
    5711109.439124333,        !- Vertex 4 Ycoordinate
    6;                        !- Vertex 4 Zcoordinate

SHADING:SITE:DETAILED,
    shade_way/892496649_2,    !- Name
    ,                         !- Transmittance Schedule Name
    autocalculate,            !- Number of Vertices
    705391.9697684965,        !- Vertex 1 Xcoordinate
    5711109.439124333,        !- Vertex 1 Ycoordinate
    6,                        !- Vertex 1 Zcoordinate
    705391.9697684965,        !- Vertex 2 Xcoordinate
    5711109.439124333,        !- Vertex 2 Ycoordinate
    0,                        !- Vertex 2 Zcoordinate
    705383.3498354917,        !- Vertex 3 Xcoordinate
    5711110.254005514,        !- Vertex 3 Ycoordinate
    0,                        !- Vertex 3 Zcoordinate
    705383.3498354917,        !- Vertex 4 Xcoordinate
    5711110.254005514,        !- Vertex 4 Ycoordinate
    6;                        !- Vertex 4 Zcoordinate

SHADING:SITE:DETAILED,
    shade_way/892496649_3,    !- Name
    ,                         !- Transmittance Schedule Name
    autocalculate,            !- Number of Vertices
    705383.3498354917,        !- Vertex 1 Xcoordinate
    5711110.254005514,        !- Vertex 1 Ycoordinate
    6,                        !- Vertex 1 Zcoordinate
    705383.3498354917,        !- Vertex 2 Xcoordinate
    5711110.254005514,        !- Vertex 2 Ycoordinate
    0,                        !- Vertex 2 Zcoordinate
    705383.8808007268,        !- Vertex 3 Xcoordinate
    5711115.870633869,        !- Vertex 3 Ycoordinate
    0,                        !- Vertex 3 Zcoordinate
    705383.8808007268,        !- Vertex 4 Xcoordinate
    5711115.870633869,        !- Vertex 4 Ycoordinate
    6;                        !- Vertex 4 Zcoordinate

SHADING:SITE:DETAILED,
    shade_way/892496649_4,    !- Name
    ,                         !- Transmittance Schedule Name
    autocalculate,            !- Number of Vertices
    705383.8808007268,        !- Vertex 1 Xcoordinate
    5711115.870633869,        !- Vertex 1 Ycoordinate
    6,                        !- Vertex 1 Zcoordinate
    705383.8808007268,        !- Vertex 2 Xcoordinate
    5711115.870633869,        !- Vertex 2 Ycoordinate
    0,                        !- Vertex 2 Zcoordinate
    705392.5007337315,        !- Vertex 3 Xcoordinate
    5711115.055752688,        !- Vertex 3 Ycoordinate
    0,                        !- Vertex 3 Zcoordinate
    705392.5007337315,        !- Vertex 4 Xcoordinate
    5711115.055752688,        !- Vertex 4 Ycoordinate
    6;                        !- Vertex 4 Zcoordinate

SHADING:SITE:DETAILED,
    shade_way/892496648_1,    !- Name
    ,                         !- Transmittance Schedule Name
    autocalculate,            !- Number of Vertices
    705392.4930401049,        !- Vertex 1 Xcoordinate
    5711114.974222245,        !- Vertex 1 Ycoordinate
    6,                        !- Vertex 1 Zcoordinate
    705392.4930401049,        !- Vertex 2 Xcoordinate
    5711114.974222245,        !- Vertex 2 Ycoordinate
    0,                        !- Vertex 2 Zcoordinate
    705383.8738323576,        !- Vertex 3 Xcoordinate
    5711115.88911184,         !- Vertex 3 Ycoordinate
    0,                        !- Vertex 3 Zcoordinate
    705383.8738323576,        !- Vertex 4 Xcoordinate
    5711115.88911184,         !- Vertex 4 Ycoordinate
    6;                        !- Vertex 4 Zcoordinate

SHADING:SITE:DETAILED,
    shade_way/892496648_2,    !- Name
    ,                         !- Transmittance Schedule Name
    autocalculate,            !- Number of Vertices
    705383.8738323576,        !- Vertex 1 Xcoordinate
    5711115.88911184,         !- Vertex 1 Ycoordinate
    6,                        !- Vertex 1 Zcoordinate
    705383.8738323576,        !- Vertex 2 Xcoordinate
    5711115.88911184,         !- Vertex 2 Ycoordinate
    0,                        !- Vertex 2 Zcoordinate
    705384.3532119547,        !- Vertex 3 Xcoordinate
    5711120.404184593,        !- Vertex 3 Ycoordinate
    0,                        !- Vertex 3 Zcoordinate
    705384.3532119547,        !- Vertex 4 Xcoordinate
    5711120.404184593,        !- Vertex 4 Ycoordinate
    6;                        !- Vertex 4 Zcoordinate

SHADING:SITE:DETAILED,
    shade_way/892496648_3,    !- Name
    ,                         !- Transmittance Schedule Name
    autocalculate,            !- Number of Vertices
    705384.3532119547,        !- Vertex 1 Xcoordinate
    5711120.404184593,        !- Vertex 1 Ycoordinate
    6,                        !- Vertex 1 Zcoordinate
    705384.3532119547,        !- Vertex 2 Xcoordinate
    5711120.404184593,        !- Vertex 2 Ycoordinate
    0,                        !- Vertex 2 Zcoordinate
    705392.9724181913,        !- Vertex 3 Xcoordinate
    5711119.489056122,        !- Vertex 3 Ycoordinate
    0,                        !- Vertex 3 Zcoordinate
    705392.9724181913,        !- Vertex 4 Xcoordinate
    5711119.489056122,        !- Vertex 4 Ycoordinate
    6;                        !- Vertex 4 Zcoordinate

SHADING:SITE:DETAILED,
    shade_way/892496648_4,    !- Name
    ,                         !- Transmittance Schedule Name
    autocalculate,            !- Number of Vertices
    705392.9724181913,        !- Vertex 1 Xcoordinate
    5711119.489056122,        !- Vertex 1 Ycoordinate
    6,                        !- Vertex 1 Zcoordinate
    705392.9724181913,        !- Vertex 2 Xcoordinate
    5711119.489056122,        !- Vertex 2 Ycoordinate
    0,                        !- Vertex 2 Zcoordinate
    705392.4930401049,        !- Vertex 3 Xcoordinate
    5711114.974222245,        !- Vertex 3 Ycoordinate
    0,                        !- Vertex 3 Zcoordinate
    705392.4930401049,        !- Vertex 4 Xcoordinate
    5711114.974222245,        !- Vertex 4 Ycoordinate
    6;                        !- Vertex 4 Zcoordinate

SHADING:SITE:DETAILED,
    shade_way/892496647_1,    !- Name
    ,                         !- Transmittance Schedule Name
    autocalculate,            !- Number of Vertices
    705392.9588295227,        !- Vertex 1 Xcoordinate
    5711119.490550828,        !- Vertex 1 Ycoordinate
    6,                        !- Vertex 1 Zcoordinate
    705392.9588295227,        !- Vertex 2 Xcoordinate
    5711119.490550828,        !- Vertex 2 Ycoordinate
    0,                        !- Vertex 2 Zcoordinate
    705384.2412420133,        !- Vertex 3 Xcoordinate
    5711120.330904044,        !- Vertex 3 Ycoordinate
    0,                        !- Vertex 3 Zcoordinate
    705384.2412420133,        !- Vertex 4 Xcoordinate
    5711120.330904044,        !- Vertex 4 Ycoordinate
    6;                        !- Vertex 4 Zcoordinate

SHADING:SITE:DETAILED,
    shade_way/892496647_2,    !- Name
    ,                         !- Transmittance Schedule Name
    autocalculate,            !- Number of Vertices
    705384.2412420133,        !- Vertex 1 Xcoordinate
    5711120.330904044,        !- Vertex 1 Ycoordinate
    6,                        !- Vertex 1 Zcoordinate
    705384.2412420133,        !- Vertex 2 Xcoordinate
    5711120.330904044,        !- Vertex 2 Ycoordinate
    0,                        !- Vertex 2 Zcoordinate
    705384.6896948841,        !- Vertex 3 Xcoordinate
    5711124.983027805,        !- Vertex 3 Ycoordinate
    0,                        !- Vertex 3 Zcoordinate
    705384.6896948841,        !- Vertex 4 Xcoordinate
    5711124.983027805,        !- Vertex 4 Ycoordinate
    6;                        !- Vertex 4 Zcoordinate

SHADING:SITE:DETAILED,
    shade_way/892496647_3,    !- Name
    ,                         !- Transmittance Schedule Name
    autocalculate,            !- Number of Vertices
    705384.6896948841,        !- Vertex 1 Xcoordinate
    5711124.983027805,        !- Vertex 1 Ycoordinate
    6,                        !- Vertex 1 Zcoordinate
    705384.6896948841,        !- Vertex 2 Xcoordinate
    5711124.983027805,        !- Vertex 2 Ycoordinate
    0,                        !- Vertex 2 Zcoordinate
    705393.407377647,         !- Vertex 3 Xcoordinate
    5711124.142944267,        !- Vertex 3 Ycoordinate
    0,                        !- Vertex 3 Zcoordinate
    705393.407377647,         !- Vertex 4 Xcoordinate
    5711124.142944267,        !- Vertex 4 Ycoordinate
    6;                        !- Vertex 4 Zcoordinate

SHADING:SITE:DETAILED,
    shade_way/892496647_4,    !- Name
    ,                         !- Transmittance Schedule Name
    autocalculate,            !- Number of Vertices
    705393.407377647,         !- Vertex 1 Xcoordinate
    5711124.142944267,        !- Vertex 1 Ycoordinate
    6,                        !- Vertex 1 Zcoordinate
    705393.407377647,         !- Vertex 2 Xcoordinate
    5711124.142944267,        !- Vertex 2 Ycoordinate
    0,                        !- Vertex 2 Zcoordinate
    705392.9588295227,        !- Vertex 3 Xcoordinate
    5711119.490550828,        !- Vertex 3 Ycoordinate
    0,                        !- Vertex 3 Zcoordinate
    705392.9588295227,        !- Vertex 4 Xcoordinate
    5711119.490550828,        !- Vertex 4 Ycoordinate
    6;                        !- Vertex 4 Zcoordinate

SHADING:SITE:DETAILED,
    shade_way/892496646_1,    !- Name
    ,                         !- Transmittance Schedule Name
    autocalculate,            !- Number of Vertices
    705393.4792614914,        !- Vertex 1 Xcoordinate
    5711124.136684017,        !- Vertex 1 Ycoordinate
    6,                        !- Vertex 1 Zcoordinate
    705393.4792614914,        !- Vertex 2 Xcoordinate
    5711124.136684017,        !- Vertex 2 Ycoordinate
    0,                        !- Vertex 2 Zcoordinate
    705384.3761824635,        !- Vertex 3 Xcoordinate
    5711124.901736655,        !- Vertex 3 Ycoordinate
    0,                        !- Vertex 3 Zcoordinate
    705384.3761824635,        !- Vertex 4 Xcoordinate
    5711124.901736655,        !- Vertex 4 Ycoordinate
    6;                        !- Vertex 4 Zcoordinate

SHADING:SITE:DETAILED,
    shade_way/892496646_2,    !- Name
    ,                         !- Transmittance Schedule Name
    autocalculate,            !- Number of Vertices
    705384.3761824635,        !- Vertex 1 Xcoordinate
    5711124.901736655,        !- Vertex 1 Ycoordinate
    6,                        !- Vertex 1 Zcoordinate
    705384.3761824635,        !- Vertex 2 Xcoordinate
    5711124.901736655,        !- Vertex 2 Ycoordinate
    0,                        !- Vertex 2 Zcoordinate
    705384.8240502264,        !- Vertex 3 Xcoordinate
    5711130.230749915,        !- Vertex 3 Ycoordinate
    0,                        !- Vertex 3 Zcoordinate
    705384.8240502264,        !- Vertex 4 Xcoordinate
    5711130.230749915,        !- Vertex 4 Ycoordinate
    6;                        !- Vertex 4 Zcoordinate

SHADING:SITE:DETAILED,
    shade_way/892496646_3,    !- Name
    ,                         !- Transmittance Schedule Name
    autocalculate,            !- Number of Vertices
    705384.8240502264,        !- Vertex 1 Xcoordinate
    5711130.230749915,        !- Vertex 1 Ycoordinate
    6,                        !- Vertex 1 Zcoordinate
    705384.8240502264,        !- Vertex 2 Xcoordinate
    5711130.230749915,        !- Vertex 2 Ycoordinate
    0,                        !- Vertex 2 Zcoordinate
    705393.9271292543,        !- Vertex 3 Xcoordinate
    5711129.465697276,        !- Vertex 3 Ycoordinate
    0,                        !- Vertex 3 Zcoordinate
    705393.9271292543,        !- Vertex 4 Xcoordinate
    5711129.465697276,        !- Vertex 4 Ycoordinate
    6;                        !- Vertex 4 Zcoordinate

SHADING:SITE:DETAILED,
    shade_way/892496646_4,    !- Name
    ,                         !- Transmittance Schedule Name
    autocalculate,            !- Number of Vertices
    705393.9271292543,        !- Vertex 1 Xcoordinate
    5711129.465697276,        !- Vertex 1 Ycoordinate
    6,                        !- Vertex 1 Zcoordinate
    705393.9271292543,        !- Vertex 2 Xcoordinate
    5711129.465697276,        !- Vertex 2 Ycoordinate
    0,                        !- Vertex 2 Zcoordinate
    705393.4792614914,        !- Vertex 3 Xcoordinate
    5711124.136684017,        !- Vertex 3 Ycoordinate
    0,                        !- Vertex 3 Zcoordinate
    705393.4792614914,        !- Vertex 4 Xcoordinate
    5711124.136684017,        !- Vertex 4 Ycoordinate
    6;                        !- Vertex 4 Zcoordinate

OTHEREQUIPMENT,
    EU_Step8_InternalGain_dae39e37346b7588_F0_dwelling_0_f000,    !- Name
    Electricity,              !- Fuel Type
    dae39e37346b7588_F0_dwelling_0,    !- Zone or ZoneList or Space or SpaceList Name
    EU_Step8_GainSchedule_dae39e37346b7588_F0_dwelling_0_f000,    !- Schedule Name
    Watts/Area,               !- Design Level Calculation Method
    ,                         !- Design Level
    1,                        !- Power per Zone Floor Area
    ,                         !- Power per Person
    0,                        !- Fraction Latent
    0,                        !- Fraction Radiant
    0,                        !- Fraction Lost
    0,                        !- Carbon Dioxide Generation Rate
    EU_Step8_InternalGains;    !- EndUse Subcategory

ZONEVENTILATION:DESIGNFLOWRATE,
    EU_ConstantAir_dae39e37346b7588_F0_dwelling_0,    !- Name
    dae39e37346b7588_F0_dwelling_0,    !- Zone or ZoneList or Space or SpaceList Name
    EU_AlwaysOn,              !- Schedule Name
    AirChanges/Hour,          !- Design Flow Rate Calculation Method
    ,                         !- Design Flow Rate
    ,                         !- Flow Rate per Floor Area
    ,                         !- Flow Rate per Person
    0.4800000000000001,       !- Air Changes per Hour
    Natural,                  !- Ventilation Type
    0,                        !- Fan Pressure Rise
    1,                        !- Fan Total Efficiency
    1,                        !- Constant Term Coefficient
    0,                        !- Temperature Term Coefficient
    0,                        !- Velocity Term Coefficient
    0,                        !- Velocity Squared Term Coefficient
    -100,                     !- Minimum Indoor Temperature
    ,                         !- Minimum Indoor Temperature Schedule Name
    100,                      !- Maximum Indoor Temperature
    ,                         !- Maximum Indoor Temperature Schedule Name
    -100,                     !- Delta Temperature
    ,                         !- Delta Temperature Schedule Name
    -100,                     !- Minimum Outdoor Temperature
    ,                         !- Minimum Outdoor Temperature Schedule Name
    100,                      !- Maximum Outdoor Temperature
    ,                         !- Maximum Outdoor Temperature Schedule Name
    40;                       !- Maximum Wind Speed

HVACTEMPLATE:THERMOSTAT,
    EU_HeatOnly_dae39e37346b7588_F0_dwelling_0,    !- Name
    ,                         !- Heating Setpoint Schedule Name
    20,                       !- Constant Heating Setpoint
    ,                         !- Cooling Setpoint Schedule Name
    50;                       !- Constant Cooling Setpoint

HVACTEMPLATE:ZONE:IDEALLOADSAIRSYSTEM,
    dae39e37346b7588_F0_dwelling_0,    !- Zone Name
    EU_HeatOnly_dae39e37346b7588_F0_dwelling_0,    !- Template Thermostat Name
    EU_AlwaysOn,              !- System Availability Schedule Name
    50,                       !- Maximum Heating Supply Air Temperature
    13,                       !- Minimum Cooling Supply Air Temperature
    0.0156,                   !- Maximum Heating Supply Air Humidity Ratio
    0.0077,                   !- Minimum Cooling Supply Air Humidity Ratio
    NoLimit,                  !- Heating Limit
    ,                         !- Maximum Heating Air Flow Rate
    ,                         !- Maximum Sensible Heating Capacity
    NoLimit,                  !- Cooling Limit
    ,                         !- Maximum Cooling Air Flow Rate
    ,                         !- Maximum Total Cooling Capacity
    EU_AlwaysOn,              !- Heating Availability Schedule Name
    EU_CoolingOff,            !- Cooling Availability Schedule Name
    ConstantSensibleHeatRatio,    !- Dehumidification Control Type
    0.7,                      !- Cooling Sensible Heat Ratio
    60,                       !- Dehumidification Setpoint
    None,                     !- Humidification Control Type
    30,                       !- Humidification Setpoint
    None,                     !- Outdoor Air Method
    0.00944,                  !- Outdoor Air Flow Rate per Person
    0.0,                      !- Outdoor Air Flow Rate per Zone Floor Area
    0,                        !- Outdoor Air Flow Rate per Zone
    ,                         !- Design Specification Outdoor Air Object Name
    None,                     !- Demand Controlled Ventilation Type
    NoEconomizer,             !- Outdoor Air Economizer Type
    None,                     !- Heat Recovery Type
    0.70,                     !- Sensible Heat Recovery Effectiveness
    0.65;                     !- Latent Heat Recovery Effectiveness

SIZING:ZONE,
    dae39e37346b7588_F0_dwelling_0,    !- Zone or ZoneList Name
    SupplyAirTemperature,     !- Zone Cooling Design Supply Air Temperature Input Method
    13,                       !- Zone Cooling Design Supply Air Temperature
    ,                         !- Zone Cooling Design Supply Air Temperature Difference
    SupplyAirTemperature,     !- Zone Heating Design Supply Air Temperature Input Method
    50,                       !- Zone Heating Design Supply Air Temperature
    ,                         !- Zone Heating Design Supply Air Temperature Difference
    0.008,                    !- Zone Cooling Design Supply Air Humidity Ratio
    0.008,                    !- Zone Heating Design Supply Air Humidity Ratio
    ,                         !- Design Specification Outdoor Air Object Name
    ,                         !- Zone Heating Sizing Factor
    ,                         !- Zone Cooling Sizing Factor
    DesignDay,                !- Cooling Design Air Flow Method
    0,                        !- Cooling Design Air Flow Rate
    0.000762,                 !- Cooling Minimum Air Flow per Zone Floor Area
    0,                        !- Cooling Minimum Air Flow
    0.2,                      !- Cooling Minimum Air Flow Fraction
    DesignDay,                !- Heating Design Air Flow Method
    0,                        !- Heating Design Air Flow Rate
    0.002032,                 !- Heating Maximum Air Flow per Zone Floor Area
    0.1415762,                !- Heating Maximum Air Flow
    0.3,                      !- Heating Maximum Air Flow Fraction
    ,                         !- Design Specification Zone Air Distribution Object Name
    No,                       !- Account for Dedicated Outdoor Air System
    NeutralSupplyAir,         !- Dedicated Outdoor Air System Control Strategy
    autosize,                 !- Dedicated Outdoor Air Low Setpoint Temperature for Design
    autosize,                 !- Dedicated Outdoor Air High Setpoint Temperature for Design
    Sensible Load Only No Latent Load,    !- Zone Load Sizing Method
    HumidityRatioDifference,    !- Zone Latent Cooling Design Supply Air Humidity Ratio Input Method
    ,                         !- Zone Dehumidification Design Supply Air Humidity Ratio
    0.005,                    !- Zone Cooling Design Supply Air Humidity Ratio Difference
    HumidityRatioDifference,    !- Zone Latent Heating Design Supply Air Humidity Ratio Input Method
    ,                         !- Zone Humidification Design Supply Air Humidity Ratio
    0.005;                    !- Zone Humidification Design Supply Air Humidity Ratio Difference

OUTPUT:VARIABLE,
    *,                        !- Key Value
    Zone Ideal Loads Zone Total Heating Energy,    !- Variable Name
    Hourly;                   !- Reporting Frequency

OUTPUT:SQLITE,
    SimpleAndTabular,         !- Option Type
    UseOutputControlTableStyle;    !- Unit Conversion for Tabular Data