!- Windows Line endings 

Version,
    23.1;                     !- Version Identifier

SimulationControl,
    Yes,                      !- Do Zone Sizing Calculation
    Yes,                      !- Do System Sizing Calculation
    Yes,                      !- Do Plant Sizing Calculation
    No,                       !- Run Simulation for Sizing Periods
    Yes,                      !- Run Simulation for Weather File Run Periods
    No,                       !- Do HVAC Sizing Simulation for Sizing Periods
    1;                        !- Maximum Number of HVAC Sizing Simulation Passes

Building,
    EU S2 Campaign,           !- Name
    0,                        !- North Axis
    City,                     !- Terrain
    ,                         !- Loads Convergence Tolerance Value
    ,                         !- Temperature Convergence Tolerance Value
    FullExterior,             !- Solar Distribution
    ,                         !- Maximum Number of Warmup Days
    ;                         !- Minimum Number of Warmup Days

ShadowCalculation,
    PolygonClipping,          !- Shading Calculation Method
    Periodic,                 !- Shading Calculation Update Frequency Method
    1;                        !- Shading Calculation Update Frequency

HeatBalanceAlgorithm,
    ConductionTransferFunction,    !- Algorithm
    200,                      !- Surface Temperature Upper Limit
    0.1,                      !- Minimum Surface Convection Heat Transfer Coefficient Value
    10000000;                 !- Maximum Surface Convection Heat Transfer Coefficient Value

Timestep,
    12;                       !- Number of Timesteps per Hour

Site:Location,
    London,                   !- Name
    51.5,                     !- Latitude
    -0.5,                     !- Longitude
    0,                        !- Time Zone
    25;                       !- Elevation

SizingPeriod:WeatherFileDays,
    AnnualSizingPeriod,       !- Name
    1,                        !- Begin Month
    1,                        !- Begin Day of Month
    12,                       !- End Month
    31,                       !- End Day of Month
    Monday,                   !- Day of Week for Start Day
    No,                       !- Use Weather File Daylight Saving Period
    No;                       !- Use Weather File Rain and Snow Indicators

RunPeriod,
    RunPeriod1,               !- Name
    1,                        !- Begin Month
    1,                        !- Begin Day of Month
    ,                         !- Begin Year
    12,                       !- End Month
    31,                       !- End Day of Month
    ,                         !- End Year
    Sunday,                   !- Day of Week for Start Day
    No,                       !- Use Weather File Holidays and Special Days
    No,                       !- Use Weather File Daylight Saving Period
    No,                       !- Apply Weekend Holiday Rule
    Yes,                      !- Use Weather File Rain Indicators
    Yes;                      !- Use Weather File Snow Indicators

ScheduleTypeLimits,
    Any Number;               !- Name

SCHEDULETYPELIMITS,
    EU_Step8_AnyNumber_Wm2,    !- Name
    ,                         !- Lower Limit Value
    ,                         !- Upper Limit Value
    Continuous,               !- Numeric Type
    Dimensionless;            !- Unit Type

SCHEDULE:CONSTANT,
    EU_AlwaysOn,              !- Name
    ,                         !- Schedule Type Limits Name
    1;                        !- Hourly Value

SCHEDULE:CONSTANT,
    EU_CoolingOff,            !- Name
    ,                         !- Schedule Type Limits Name
    0;                        !- Hourly Value

SCHEDULE:FILE,
    EU_Step8_GainSchedule_df59350c0f1d10de_F0_dwelling_0_f000,    !- Name
    EU_Step8_AnyNumber_Wm2,    !- Schedule Type Limits Name
    ../../schedules/df59350c0f1d10de/df59350c0f1d10de_F0_dwelling_0_f000_gain.csv,    !- File Name
    1,                        !- Column Number
    0,                        !- Rows to Skip at Top
    8760,                     !- Number of Hours of Data
    Comma,                    !- Column Separator
    No,                       !- Interpolate to Timestep
    60,                       !- Minutes per Item
    Yes;                      !- Adjust Schedule for Daylight Savings

MATERIAL,
    EU_InternalMass_Material,    !- Name
    MediumRough,              !- Roughness
    0.1,                      !- Thickness
    1,                        !- Conductivity
    1800,                     !- Density
    900,                      !- Specific Heat
    0.9,                      !- Thermal Absorptance
    0.7,                      !- Solar Absorptance
    0.7;                      !- Visible Absorptance

MATERIAL:NOMASS,
    EU_wall_NoMass,           !- Name
    MediumRough,              !- Roughness
    0.7247189243747139,       !- Thermal Resistance
    0.9,                      !- Thermal Absorptance
    0.7,                      !- Solar Absorptance
    0.7;                      !- Visible Absorptance

MATERIAL:NOMASS,
    EU_roof_NoMass,           !- Name
    MediumRough,              !- Roughness
    2.989465563045695,        !- Thermal Resistance
    0.9,                      !- Thermal Absorptance
    0.7,                      !- Solar Absorptance
    0.7;                      !- Visible Absorptance

MATERIAL:NOMASS,
    EU_floor_NoMass,          !- Name
    MediumRough,              !- Roughness
    2.3915724504365556,       !- Thermal Resistance
    0.9,                      !- Thermal Absorptance
    0.7,                      !- Solar Absorptance
    0.7;                      !- Visible Absorptance

CONSTRUCTION,
    EU_wall_Construction,     !- Name
    EU_wall_NoMass;           !- Outside Layer

CONSTRUCTION,
    EU_roof_Construction,     !- Name
    EU_roof_NoMass;           !- Outside Layer

CONSTRUCTION,
    EU_floor_Construction,    !- Name
    EU_floor_NoMass;          !- Outside Layer

CONSTRUCTION,
    EU_InternalMass_Construction,    !- Name
    EU_InternalMass_Material;    !- Outside Layer

GlobalGeometryRules,
    UpperLeftCorner,          !- Starting Vertex Position
    CounterClockWise,         !- Vertex Entry Direction
    World;                    !- Coordinate System

ZONE,
    df59350c0f1d10de_F0_dwelling_0,    !- Name
    0,                        !- Direction of Relative North
    0,                        !- X Origin
    0,                        !- Y Origin
    0,                        !- Z Origin
    1,                        !- Type
    1,                        !- Multiplier
    autocalculate,            !- Ceiling Height
    524.23681640625,          !- Volume
    autocalculate,            !- Floor Area
    ,                         !- Zone Inside Convection Algorithm
    ,                         !- Zone Outside Convection Algorithm
    Yes;                      !- Part of Total Floor Area

BUILDINGSURFACE:DETAILED,
    Block df59350c0f1d10de_0 Storey 0 Wall 0001,    !- Name
    wall,                     !- Surface Type
    EU_wall_Construction,     !- Construction Name
    df59350c0f1d10de_F0_dwelling_0,    !- Zone Name
    ,                         !- Space Name
    Adiabatic,                !- Outside Boundary Condition
    ,                         !- Outside Boundary Condition Object
    NoSun,                    !- Sun Exposure
    NoWind,                   !- Wind Exposure
    autocalculate,            !- View Factor to Ground
    autocalculate,            !- Number of Vertices
    705720.429,               !- Vertex 1 Xcoordinate
    5711541.972,              !- Vertex 1 Ycoordinate
    9,                        !- Vertex 1 Zcoordinate
    705720.429,               !- Vertex 2 Xcoordinate
    5711541.972,              !- Vertex 2 Ycoordinate
    0,                        !- Vertex 2 Zcoordinate
    705728.101,               !- Vertex 3 Xcoordinate
    5711548.609,              !- Vertex 3 Ycoordinate
    0,                        !- Vertex 3 Zcoordinate
    705728.101,               !- Vertex 4 Xcoordinate
    5711548.609,              !- Vertex 4 Ycoordinate
    9;                        !- Vertex 4 Zcoordinate

BUILDINGSURFACE:DETAILED,
    Block df59350c0f1d10de_0 Storey 0 Wall 0002,    !- Name
    wall,                     !- Surface Type
    EU_wall_Construction,     !- Construction Name
    df59350c0f1d10de_F0_dwelling_0,    !- Zone Name
    ,                         !- Space Name
    outdoors,                 !- Outside Boundary Condition
    ,                         !- Outside Boundary Condition Object
    SunExposed,               !- Sun Exposure
    WindExposed,              !- Wind Exposure
    autocalculate,            !- View Factor to Ground
    autocalculate,            !- Number of Vertices
    705728.101,               !- Vertex 1 Xcoordinate
    5711548.609,              !- Vertex 1 Ycoordinate
    9,                        !- Vertex 1 Zcoordinate
    705728.101,               !- Vertex 2 Xcoordinate
    5711548.609,              !- Vertex 2 Ycoordinate
    0,                        !- Vertex 2 Zcoordinate
    705731.862,               !- Vertex 3 Xcoordinate
    5711544.273,              !- Vertex 3 Ycoordinate
    0,                        !- Vertex 3 Zcoordinate
    705731.862,               !- Vertex 4 Xcoordinate
    5711544.273,              !- Vertex 4 Ycoordinate
    9;                        !- Vertex 4 Zcoordinate

BUILDINGSURFACE:DETAILED,
    Block df59350c0f1d10de_0 Storey 0 Wall 0003,    !- Name
    wall,                     !- Surface Type
    EU_wall_Construction,     !- Construction Name
    df59350c0f1d10de_F0_dwelling_0,    !- Zone Name
    ,                         !- Space Name
    Adiabatic,                !- Outside Boundary Condition
    ,                         !- Outside Boundary Condition Object
    NoSun,                    !- Sun Exposure
    NoWind,                   !- Wind Exposure
    autocalculate,            !- View Factor to Ground
    autocalculate,            !- Number of Vertices
    705731.862,               !- Vertex 1 Xcoordinate
    5711544.273,              !- Vertex 1 Ycoordinate
    9,                        !- Vertex 1 Zcoordinate
    705731.862,               !- Vertex 2 Xcoordinate
    5711544.273,              !- Vertex 2 Ycoordinate
    0,                        !- Vertex 2 Zcoordinate
    705724.218,               !- Vertex 3 Xcoordinate
    5711537.638,              !- Vertex 3 Ycoordinate
    0,                        !- Vertex 3 Zcoordinate
    705724.218,               !- Vertex 4 Xcoordinate
    5711537.638,              !- Vertex 4 Ycoordinate
    9;                        !- Vertex 4 Zcoordinate

BUILDINGSURFACE:DETAILED,
    Block df59350c0f1d10de_0 Storey 0 Wall 0004,    !- Name
    wall,                     !- Surface Type
    EU_wall_Construction,     !- Construction Name
    df59350c0f1d10de_F0_dwelling_0,    !- Zone Name
    ,                         !- Space Name
    outdoors,                 !- Outside Boundary Condition
    ,                         !- Outside Boundary Condition Object
    SunExposed,               !- Sun Exposure
    WindExposed,              !- Wind Exposure
    autocalculate,            !- View Factor to Ground
    autocalculate,            !- Number of Vertices
    705724.218,               !- Vertex 1 Xcoordinate
    5711537.638,              !- Vertex 1 Ycoordinate
    9,                        !- Vertex 1 Zcoordinate
    705724.218,               !- Vertex 2 Xcoordinate
    5711537.638,              !- Vertex 2 Ycoordinate
    0,                        !- Vertex 2 Zcoordinate
    705720.429,               !- Vertex 3 Xcoordinate
    5711541.972,              !- Vertex 3 Ycoordinate
    0,                        !- Vertex 3 Zcoordinate
    705720.429,               !- Vertex 4 Xcoordinate
    5711541.972,              !- Vertex 4 Ycoordinate
    9;                        !- Vertex 4 Zcoordinate

BUILDINGSURFACE:DETAILED,
    Block df59350c0f1d10de_0 Storey 0 Floor 0001,    !- Name
    floor,                    !- Surface Type
    EU_floor_Construction,    !- Construction Name
    df59350c0f1d10de_F0_dwelling_0,    !- Zone Name
    ,                         !- Space Name
    ground,                   !- Outside Boundary Condition
    ,                         !- Outside Boundary Condition Object
    NoSun,                    !- Sun Exposure
    NoWind,                   !- Wind Exposure
    autocalculate,            !- View Factor to Ground
    autocalculate,            !- Number of Vertices
    705731.862,               !- Vertex 1 Xcoordinate
    5711544.273,              !- Vertex 1 Ycoordinate
    0,                        !- Vertex 1 Zcoordinate
    705728.101,               !- Vertex 2 Xcoordinate
    5711548.609,              !- Vertex 2 Ycoordinate
    0,                        !- Vertex 2 Zcoordinate
    705720.429,               !- Vertex 3 Xcoordinate
    5711541.972,              !- Vertex 3 Ycoordinate
    0,                        !- Vertex 3 Zcoordinate
    705724.218,               !- Vertex 4 Xcoordinate
    5711537.638,              !- Vertex 4 Ycoordinate
    0;                        !- Vertex 4 Zcoordinate

BUILDINGSURFACE:DETAILED,
    Block df59350c0f1d10de_0 Storey 0 Roof 0001,    !- Name
    roof,                     !- Surface Type
    EU_roof_Construction,     !- Construction Name
    df59350c0f1d10de_F0_dwelling_0,    !- Zone Name
    ,                         !- Space Name
    outdoors,                 !- Outside Boundary Condition
    ,                         !- Outside Boundary Condition Object
    NoSun,                    !- Sun Exposure
    WindExposed,              !- Wind Exposure
    autocalculate,            !- View Factor to Ground
    autocalculate,            !- Number of Vertices
    705728.101,               !- Vertex 1 Xcoordinate
    5711548.609,              !- Vertex 1 Ycoordinate
    9,                        !- Vertex 1 Zcoordinate
    705731.862,               !- Vertex 2 Xcoordinate
    5711544.273,              !- Vertex 2 Ycoordinate
    9,                        !- Vertex 2 Zcoordinate
    705724.218,               !- Vertex 3 Xcoordinate
    5711537.638,              !- Vertex 3 Ycoordinate
    9,                        !- Vertex 3 Zcoordinate
    705720.429,               !- Vertex 4 Xcoordinate
    5711541.972,              !- Vertex 4 Ycoordinate
    9;                        !- Vertex 4 Zcoordinate

INTERNALMASS,
    df59350c0f1d10de_F0_dwelling_0_EU_InternalMass,    !- Name
    EU_InternalMass_Construction,    !- Construction Name
    df59350c0f1d10de_F0_dwelling_0,    !- Zone or ZoneList Name
    ,                         !- Space or SpaceList Name
    58.24832999987838;        !- Surface Area

SHADING:SITE:DETAILED,
    shade_way/1057778437_1,    !- Name
    ,                         !- Transmittance Schedule Name
    autocalculate,            !- Number of Vertices
    705745.7020269032,        !- Vertex 1 Xcoordinate
    5711528.875857387,        !- Vertex 1 Ycoordinate
    9,                        !- Vertex 1 Zcoordinate
    705745.7020269032,        !- Vertex 2 Xcoordinate
    5711528.875857387,        !- Vertex 2 Ycoordinate
    0,                        !- Vertex 2 Zcoordinate
    705739.3260285085,        !- Vertex 3 Xcoordinate
    5711523.449576661,        !- Vertex 3 Ycoordinate
    0,                        !- Vertex 3 Zcoordinate
    705739.3260285085,        !- Vertex 4 Xcoordinate
    5711523.449576661,        !- Vertex 4 Ycoordinate
    9;                        !- Vertex 4 Zcoordinate

SHADING:SITE:DETAILED,
    shade_way/1057778437_2,    !- Name
    ,                         !- Transmittance Schedule Name
    autocalculate,            !- Number of Vertices
    705739.3260285085,        !- Vertex 1 Xcoordinate
    5711523.449576661,        !- Vertex 1 Ycoordinate
    9,                        !- Vertex 1 Zcoordinate
    705739.3260285085,        !- Vertex 2 Xcoordinate
    5711523.449576661,        !- Vertex 2 Ycoordinate
    0,                        !- Vertex 2 Zcoordinate
    705736.0746893242,        !- Vertex 3 Xcoordinate
    5711527.271599679,        !- Vertex 3 Ycoordinate
    0,                        !- Vertex 3 Zcoordinate
    705736.0746893242,        !- Vertex 4 Xcoordinate
    5711527.271599679,        !- Vertex 4 Ycoordinate
    9;                        !- Vertex 4 Zcoordinate

SHADING:SITE:DETAILED,
    shade_way/1057778437_3,    !- Name
    ,                         !- Transmittance Schedule Name
    autocalculate,            !- Number of Vertices
    705736.0746893242,        !- Vertex 1 Xcoordinate
    5711527.271599679,        !- Vertex 1 Ycoordinate
    9,                        !- Vertex 1 Zcoordinate
    705736.0746893242,        !- Vertex 2 Xcoordinate
    5711527.271599679,        !- Vertex 2 Ycoordinate
    0,                        !- Vertex 2 Zcoordinate
    705742.4487691149,        !- Vertex 3 Xcoordinate
    5711532.696617417,        !- Vertex 3 Ycoordinate
    0,                        !- Vertex 3 Zcoordinate
    705742.4487691149,        !- Vertex 4 Xcoordinate
    5711532.696617417,        !- Vertex 4 Ycoordinate
    9;                        !- Vertex 4 Zcoordinate

SHADING:SITE:DETAILED,
    shade_way/1057778437_4,    !- Name
    ,                         !- Transmittance Schedule Name
    autocalculate,            !- Number of Vertices
    705742.4487691149,        !- Vertex 1 Xcoordinate
    5711532.696617417,        !- Vertex 1 Ycoordinate
    9,                        !- Vertex 1 Zcoordinate
    705742.4487691149,        !- Vertex 2 Xcoordinate
    5711532.696617417,        !- Vertex 2 Ycoordinate
    0,                        !- Vertex 2 Zcoordinate
    705745.7020269032,        !- Vertex 3 Xcoordinate
    5711528.875857387,        !- Vertex 3 Ycoordinate
    0,                        !- Vertex 3 Zcoordinate
    705745.7020269032,        !- Vertex 4 Xcoordinate
    5711528.875857387,        !- Vertex 4 Ycoordinate
    9;                        !- Vertex 4 Zcoordinate

SHADING:SITE:DETAILED,
    shade_way/328227202_1,    !- Name
    ,                         !- Transmittance Schedule Name
    autocalculate,            !- Number of Vertices
    705727.6049220494,        !- Vertex 1 Xcoordinate
    5711533.788109957,        !- Vertex 1 Ycoordinate
    9,                        !- Vertex 1 Zcoordinate
    705727.6049220494,        !- Vertex 2 Xcoordinate
    5711533.788109957,        !- Vertex 2 Ycoordinate
    0,                        !- Vertex 2 Zcoordinate
    705724.2180405619,        !- Vertex 3 Xcoordinate
    5711537.637569339,        !- Vertex 3 Ycoordinate
    0,                        !- Vertex 3 Zcoordinate
    705724.2180405619,        !- Vertex 4 Xcoordinate
    5711537.637569339,        !- Vertex 4 Ycoordinate
    9;                        !- Vertex 4 Zcoordinate

SHADING:SITE:DETAILED,
    shade_way/328227202_2,    !- Name
    ,                         !- Transmittance Schedule Name
    autocalculate,            !- Number of Vertices
    705724.2180405619,        !- Vertex 1 Xcoordinate
    5711537.637569339,        !- Vertex 1 Ycoordinate
    9,                        !- Vertex 1 Zcoordinate
    705724.2180405619,        !- Vertex 2 Xcoordinate
    5711537.637569339,        !- Vertex 2 Ycoordinate
    0,                        !- Vertex 2 Zcoordinate
    705731.8167660296,        !- Vertex 3 Xcoordinate
    5711544.323371876,        !- Vertex 3 Ycoordinate
    0,                        !- Vertex 3 Zcoordinate
    705731.8167660296,        !- Vertex 4 Xcoordinate
    5711544.323371876,        !- Vertex 4 Ycoordinate
    9;                        !- Vertex 4 Zcoordinate

SHADING:SITE:DETAILED,
    shade_way/328227202_3,    !- Name
    ,                         !- Transmittance Schedule Name
    autocalculate,            !- Number of Vertices
    705731.8167660296,        !- Vertex 1 Xcoordinate
    5711544.323371876,        !- Vertex 1 Ycoordinate
    9,                        !- Vertex 1 Zcoordinate
    705731.8167660296,        !- Vertex 2 Xcoordinate
    5711544.323371876,        !- Vertex 2 Ycoordinate
    0,                        !- Vertex 2 Zcoordinate
    705735.2036475167,        !- Vertex 3 Xcoordinate
    5711540.473912495,        !- Vertex 3 Ycoordinate
    0,                        !- Vertex 3 Zcoordinate
    705735.2036475167,        !- Vertex 4 Xcoordinate
    5711540.473912495,        !- Vertex 4 Ycoordinate
    9;                        !- Vertex 4 Zcoordinate

SHADING:SITE:DETAILED,
    shade_way/328227202_4,    !- Name
    ,                         !- Transmittance Schedule Name
    autocalculate,            !- Number of Vertices
    705735.2036475167,        !- Vertex 1 Xcoordinate
    5711540.473912495,        !- Vertex 1 Ycoordinate
    9,                        !- Vertex 1 Zcoordinate
    705735.2036475167,        !- Vertex 2 Xcoordinate
    5711540.473912495,        !- Vertex 2 Ycoordinate
    0,                        !- Vertex 2 Zcoordinate
    705727.6049220494,        !- Vertex 3 Xcoordinate
    5711533.788109957,        !- Vertex 3 Ycoordinate
    0,                        !- Vertex 3 Zcoordinate
    705727.6049220494,        !- Vertex 4 Xcoordinate
    5711533.788109957,        !- Vertex 4 Ycoordinate
    9;                        !- Vertex 4 Zcoordinate

SHADING:SITE:DETAILED,
    shade_way/1058057717_1,    !- Name
    ,                         !- Transmittance Schedule Name
    autocalculate,            !- Number of Vertices
    705720.4559581794,        !- Vertex 1 Xcoordinate
    5711541.939706559,        !- Vertex 1 Ycoordinate
    6,                        !- Vertex 1 Zcoordinate
    705720.4559581794,        !- Vertex 2 Xcoordinate
    5711541.939706559,        !- Vertex 2 Ycoordinate
    0,                        !- Vertex 2 Zcoordinate
    705717.4224459691,        !- Vertex 3 Xcoordinate
    5711545.417600666,        !- Vertex 3 Ycoordinate
    0,                        !- Vertex 3 Zcoordinate
    705717.4224459691,        !- Vertex 4 Xcoordinate
    5711545.417600666,        !- Vertex 4 Ycoordinate
    6;                        !- Vertex 4 Zcoordinate

SHADING:SITE:DETAILED,
    shade_way/1058057717_2,    !- Name
    ,                         !- Transmittance Schedule Name
    autocalculate,            !- Number of Vertices
    705717.4224459691,        !- Vertex 1 Xcoordinate
    5711545.417600666,        !- Vertex 1 Ycoordinate
    6,                        !- Vertex 1 Zcoordinate
    705717.4224459691,        !- Vertex 2 Xcoordinate
    5711545.417600666,        !- Vertex 2 Ycoordinate
    0,                        !- Vertex 2 Zcoordinate
    705725.0673135556,        !- Vertex 3 Xcoordinate
    5711552.085658536,        !- Vertex 3 Ycoordinate
    0,                        !- Vertex 3 Zcoordinate
    705725.0673135556,        !- Vertex 4 Xcoordinate
    5711552.085658536,        !- Vertex 4 Ycoordinate
    6;                        !- Vertex 4 Zcoordinate

SHADING:SITE:DETAILED,
    shade_way/1058057717_3,    !- Name
    ,                         !- Transmittance Schedule Name
    autocalculate,            !- Number of Vertices
    705725.0673135556,        !- Vertex 1 Xcoordinate
    5711552.085658536,        !- Vertex 1 Ycoordinate
    6,                        !- Vertex 1 Zcoordinate
    705725.0673135556,        !- Vertex 2 Xcoordinate
    5711552.085658536,        !- Vertex 2 Ycoordinate
    0,                        !- Vertex 2 Zcoordinate
    705728.1017482481,        !- Vertex 3 Xcoordinate
    5711548.608387869,        !- Vertex 3 Ycoordinate
    0,                        !- Vertex 3 Zcoordinate
    705728.1017482481,        !- Vertex 4 Xcoordinate
    5711548.608387869,        !- Vertex 4 Ycoordinate
    6;                        !- Vertex 4 Zcoordinate

SHADING:SITE:DETAILED,
    shade_way/1058057717_4,    !- Name
    ,                         !- Transmittance Schedule Name
    autocalculate,            !- Number of Vertices
    705728.1017482481,        !- Vertex 1 Xcoordinate
    5711548.608387869,        !- Vertex 1 Ycoordinate
    6,                        !- Vertex 1 Zcoordinate
    705728.1017482481,        !- Vertex 2 Xcoordinate
    5711548.608387869,        !- Vertex 2 Ycoordinate
    0,                        !- Vertex 2 Zcoordinate
    705720.4559581794,        !- Vertex 3 Xcoordinate
    5711541.939706559,        !- Vertex 3 Ycoordinate
    0,                        !- Vertex 3 Zcoordinate
    705720.4559581794,        !- Vertex 4 Xcoordinate
    5711541.939706559,        !- Vertex 4 Ycoordinate
    6;                        !- Vertex 4 Zcoordinate

SHADING:SITE:DETAILED,
    shade_way/1058057718_1,    !- Name
    ,                         !- Transmittance Schedule Name
    autocalculate,            !- Number of Vertices
    705725.0498971785,        !- Vertex 1 Xcoordinate
    5711552.070613251,        !- Vertex 1 Ycoordinate
    6,                        !- Vertex 1 Zcoordinate
    705725.0498971785,        !- Vertex 2 Xcoordinate
    5711552.070613251,        !- Vertex 2 Ycoordinate
    0,                        !- Vertex 2 Zcoordinate
    705717.4252610983,        !- Vertex 3 Xcoordinate
    5711545.412336452,        !- Vertex 3 Ycoordinate
    0,                        !- Vertex 3 Zcoordinate
    705717.4252610983,        !- Vertex 4 Xcoordinate
    5711545.412336452,        !- Vertex 4 Ycoordinate
    6;                        !- Vertex 4 Zcoordinate

SHADING:SITE:DETAILED,
    shade_way/1058057718_2,    !- Name
    ,                         !- Transmittance Schedule Name
    autocalculate,            !- Number of Vertices
    705717.4252610983,        !- Vertex 1 Xcoordinate
    5711545.412336452,        !- Vertex 1 Ycoordinate
    6,                        !- Vertex 1 Zcoordinate
    705717.4252610983,        !- Vertex 2 Xcoordinate
    5711545.412336452,        !- Vertex 2 Ycoordinate
    0,                        !- Vertex 2 Zcoordinate
    705714.4399374004,        !- Vertex 3 Xcoordinate
    5711548.833972254,        !- Vertex 3 Ycoordinate
    0,                        !- Vertex 3 Zcoordinate
    705714.4399374004,        !- Vertex 4 Xcoordinate
    5711548.833972254,        !- Vertex 4 Ycoordinate
    6;                        !- Vertex 4 Zcoordinate

SHADING:SITE:DETAILED,
    shade_way/1058057718_3,    !- Name
    ,                         !- Transmittance Schedule Name
    autocalculate,            !- Number of Vertices
    705714.4399374004,        !- Vertex 1 Xcoordinate
    5711548.833972254,        !- Vertex 1 Ycoordinate
    6,                        !- Vertex 1 Zcoordinate
    705714.4399374004,        !- Vertex 2 Xcoordinate
    5711548.833972254,        !- Vertex 2 Ycoordinate
    0,                        !- Vertex 2 Zcoordinate
    705722.0629089159,        !- Vertex 3 Xcoordinate
    5711555.491122667,        !- Vertex 3 Ycoordinate
    0,                        !- Vertex 3 Zcoordinate
    705722.0629089159,        !- Vertex 4 Xcoordinate
    5711555.491122667,        !- Vertex 4 Ycoordinate
    6;                        !- Vertex 4 Zcoordinate

SHADING:SITE:DETAILED,
    shade_way/1058057718_4,    !- Name
    ,                         !- Transmittance Schedule Name
    autocalculate,            !- Number of Vertices
    705722.0629089159,        !- Vertex 1 Xcoordinate
    5711555.491122667,        !- Vertex 1 Ycoordinate
    6,                        !- Vertex 1 Zcoordinate
    705722.0629089159,        !- Vertex 2 Xcoordinate
    5711555.491122667,        !- Vertex 2 Ycoordinate
    0,                        !- Vertex 2 Zcoordinate
    705725.0498971785,        !- Vertex 3 Xcoordinate
    5711552.070613251,        !- Vertex 3 Ycoordinate
    0,                        !- Vertex 3 Zcoordinate
    705725.0498971785,        !- Vertex 4 Xcoordinate
    5711552.070613251,        !- Vertex 4 Ycoordinate
    6;                        !- Vertex 4 Zcoordinate

SHADING:SITE:DETAILED,
    shade_way/1058057719_1,    !- Name
    ,                         !- Transmittance Schedule Name
    autocalculate,            !- Number of Vertices
    705711.4891005931,        !- Vertex 1 Xcoordinate
    5711552.2111222455,       !- Vertex 1 Ycoordinate
    6,                        !- Vertex 1 Zcoordinate
    705711.4891005931,        !- Vertex 2 Xcoordinate
    5711552.2111222455,       !- Vertex 2 Ycoordinate
    0,                        !- Vertex 2 Zcoordinate
    705719.1220708033,        !- Vertex 3 Xcoordinate
    5711558.865410653,        !- Vertex 3 Ycoordinate
    0,                        !- Vertex 3 Zcoordinate
    705719.1220708033,        !- Vertex 4 Xcoordinate
    5711558.865410653,        !- Vertex 4 Ycoordinate
    6;                        !- Vertex 4 Zcoordinate

SHADING:SITE:DETAILED,
    shade_way/1058057719_2,    !- Name
    ,                         !- Transmittance Schedule Name
    autocalculate,            !- Number of Vertices
    705719.1220708033,        !- Vertex 1 Xcoordinate
    5711558.865410653,        !- Vertex 1 Ycoordinate
    6,                        !- Vertex 1 Zcoordinate
    705719.1220708033,        !- Vertex 2 Xcoordinate
    5711558.865410653,        !- Vertex 2 Ycoordinate
    0,                        !- Vertex 2 Zcoordinate
    705722.0845667796,        !- Vertex 3 Xcoordinate
    5711555.469353998,        !- Vertex 3 Ycoordinate
    0,                        !- Vertex 3 Zcoordinate
    705722.0845667796,        !- Vertex 4 Xcoordinate
    5711555.469353998,        !- Vertex 4 Ycoordinate
    6;                        !- Vertex 4 Zcoordinate

SHADING:SITE:DETAILED,
    shade_way/1058057719_3,    !- Name
    ,                         !- Transmittance Schedule Name
    autocalculate,            !- Number of Vertices
    705722.0845667796,        !- Vertex 1 Xcoordinate
    5711555.469353998,        !- Vertex 1 Ycoordinate
    6,                        !- Vertex 1 Zcoordinate
    705722.0845667796,        !- Vertex 2 Xcoordinate
    5711555.469353998,        !- Vertex 2 Ycoordinate
    0,                        !- Vertex 2 Zcoordinate
    705714.4491005383,        !- Vertex 3 Xcoordinate
    5711548.813379678,        !- Vertex 3 Ycoordinate
    0,                        !- Vertex 3 Zcoordinate
    705714.4491005383,        !- Vertex 4 Xcoordinate
    5711548.813379678,        !- Vertex 4 Ycoordinate
    6;                        !- Vertex 4 Zcoordinate

SHADING:SITE:DETAILED,
    shade_way/1058057719_4,    !- Name
    ,                         !- Transmittance Schedule Name
    autocalculate,            !- Number of Vertices
    705714.4491005383,        !- Vertex 1 Xcoordinate
    5711548.813379678,        !- Vertex 1 Ycoordinate
    6,                        !- Vertex 1 Zcoordinate
    705714.4491005383,        !- Vertex 2 Xcoordinate
    5711548.813379678,        !- Vertex 2 Ycoordinate
    0,                        !- Vertex 2 Zcoordinate
    705711.4891005931,        !- Vertex 3 Xcoordinate
    5711552.2111222455,       !- Vertex 3 Ycoordinate
    0,                        !- Vertex 3 Zcoordinate
    705711.4891005931,        !- Vertex 4 Xcoordinate
    5711552.2111222455,       !- Vertex 4 Ycoordinate
    6;                        !- Vertex 4 Zcoordinate

SHADING:SITE:DETAILED,
    shade_way/1058057720_1,    !- Name
    ,                         !- Transmittance Schedule Name
    autocalculate,            !- Number of Vertices
    705708.5008803387,        !- Vertex 1 Xcoordinate
    5711555.653575726,        !- Vertex 1 Ycoordinate
    6,                        !- Vertex 1 Zcoordinate
    705708.5008803387,        !- Vertex 2 Xcoordinate
    5711555.653575726,        !- Vertex 2 Ycoordinate
    0,                        !- Vertex 2 Zcoordinate
    705716.2092865575,        !- Vertex 3 Xcoordinate
    5711562.25812589,         !- Vertex 3 Ycoordinate
    0,                        !- Vertex 3 Zcoordinate
    705716.2092865575,        !- Vertex 4 Xcoordinate
    5711562.25812589,         !- Vertex 4 Ycoordinate
    6;                        !- Vertex 4 Zcoordinate

SHADING:SITE:DETAILED,
    shade_way/1058057720_2,    !- Name
    ,                         !- Transmittance Schedule Name
    autocalculate,            !- Number of Vertices
    705716.2092865575,        !- Vertex 1 Xcoordinate
    5711562.25812589,         !- Vertex 1 Ycoordinate
    6,                        !- Vertex 1 Zcoordinate
    705716.2092865575,        !- Vertex 2 Xcoordinate
    5711562.25812589,         !- Vertex 2 Ycoordinate
    0,                        !- Vertex 2 Zcoordinate
    705719.1741362079,        !- Vertex 3 Xcoordinate
    5711558.795849121,        !- Vertex 3 Ycoordinate
    0,                        !- Vertex 3 Zcoordinate
    705719.1741362079,        !- Vertex 4 Xcoordinate
    5711558.795849121,        !- Vertex 4 Ycoordinate
    6;                        !- Vertex 4 Zcoordinate

SHADING:SITE:DETAILED,
    shade_way/1058057720_3,    !- Name
    ,                         !- Transmittance Schedule Name
    autocalculate,            !- Number of Vertices
    705719.1741362079,        !- Vertex 1 Xcoordinate
    5711558.795849121,        !- Vertex 1 Ycoordinate
    6,                        !- Vertex 1 Zcoordinate
    705719.1741362079,        !- Vertex 2 Xcoordinate
    5711558.795849121,        !- Vertex 2 Ycoordinate
    0,                        !- Vertex 2 Zcoordinate
    705711.4657299909,        !- Vertex 3 Xcoordinate
    5711552.191298956,        !- Vertex 3 Ycoordinate
    0,                        !- Vertex 3 Zcoordinate
    705711.4657299909,        !- Vertex 4 Xcoordinate
    5711552.191298956,        !- Vertex 4 Ycoordinate
    6;                        !- Vertex 4 Zcoordinate

SHADING:SITE:DETAILED,
    shade_way/1058057720_4,    !- Name
    ,                         !- Transmittance Schedule Name
    autocalculate,            !- Number of Vertices
    705711.4657299909,        !- Vertex 1 Xcoordinate
    5711552.191298956,        !- Vertex 1 Ycoordinate
    6,                        !- Vertex 1 Zcoordinate
    705711.4657299909,        !- Vertex 2 Xcoordinate
    5711552.191298956,        !- Vertex 2 Ycoordinate
    0,                        !- Vertex 2 Zcoordinate
    705708.5008803387,        !- Vertex 3 Xcoordinate
    5711555.653575726,        !- Vertex 3 Ycoordinate
    0,                        !- Vertex 3 Zcoordinate
    705708.5008803387,        !- Vertex 4 Xcoordinate
    5711555.653575726,        !- Vertex 4 Ycoordinate
    6;                        !- Vertex 4 Zcoordinate

SHADING:SITE:DETAILED,
    shade_way/1058057721_1,    !- Name
    ,                         !- Transmittance Schedule Name
    autocalculate,            !- Number of Vertices
    705705.5426638838,        !- Vertex 1 Xcoordinate
    5711559.041565768,        !- Vertex 1 Ycoordinate
    6,                        !- Vertex 1 Zcoordinate
    705705.5426638838,        !- Vertex 2 Xcoordinate
    5711559.041565768,        !- Vertex 2 Ycoordinate
    0,                        !- Vertex 2 Zcoordinate
    705713.3052075976,        !- Vertex 3 Xcoordinate
    5711565.681715538,        !- Vertex 3 Ycoordinate
    0,                        !- Vertex 3 Zcoordinate
    705713.3052075976,        !- Vertex 4 Xcoordinate
    5711565.681715538,        !- Vertex 4 Ycoordinate
    6;                        !- Vertex 4 Zcoordinate

SHADING:SITE:DETAILED,
    shade_way/1058057721_2,    !- Name
    ,                         !- Transmittance Schedule Name
    autocalculate,            !- Number of Vertices
    705713.3052075976,        !- Vertex 1 Xcoordinate
    5711565.681715538,        !- Vertex 1 Ycoordinate
    6,                        !- Vertex 1 Zcoordinate
    705713.3052075976,        !- Vertex 2 Xcoordinate
    5711565.681715538,        !- Vertex 2 Ycoordinate
    0,                        !- Vertex 2 Zcoordinate
    705716.2281130607,        !- Vertex 3 Xcoordinate
    5711562.26363745,         !- Vertex 3 Ycoordinate
    0,                        !- Vertex 3 Zcoordinate
    705716.2281130607,        !- Vertex 4 Xcoordinate
    5711562.26363745,         !- Vertex 4 Ycoordinate
    6;                        !- Vertex 4 Zcoordinate

SHADING:SITE:DETAILED,
    shade_way/1058057721_3,    !- Name
    ,                         !- Transmittance Schedule Name
    autocalculate,            !- Number of Vertices
    705716.2281130607,        !- Vertex 1 Xcoordinate
    5711562.26363745,         !- Vertex 1 Ycoordinate
    6,                        !- Vertex 1 Zcoordinate
    705716.2281130607,        !- Vertex 2 Xcoordinate
    5711562.26363745,         !- Vertex 2 Ycoordinate
    0,                        !- Vertex 2 Zcoordinate
    705708.4655693478,        !- Vertex 3 Xcoordinate
    5711555.62348768,         !- Vertex 3 Ycoordinate
    0,                        !- Vertex 3 Zcoordinate
    705708.4655693478,        !- Vertex 4 Xcoordinate
    5711555.62348768,         !- Vertex 4 Ycoordinate
    6;                        !- Vertex 4 Zcoordinate

SHADING:SITE:DETAILED,
    shade_way/1058057721_4,    !- Name
    ,                         !- Transmittance Schedule Name
    autocalculate,            !- Number of Vertices
    705708.4655693478,        !- Vertex 1 Xcoordinate
    5711555.62348768,         !- Vertex 1 Ycoordinate
    6,                        !- Vertex 1 Zcoordinate
    705708.4655693478,        !- Vertex 2 Xcoordinate
    5711555.62348768,         !- Vertex 2 Ycoordinate
    0,                        !- Vertex 2 Zcoordinate
    705705.5426638838,        !- Vertex 3 Xcoordinate
    5711559.041565768,        !- Vertex 3 Ycoordinate
    0,                        !- Vertex 3 Zcoordinate
    705705.5426638838,        !- Vertex 4 Xcoordinate
    5711559.041565768,        !- Vertex 4 Ycoordinate
    6;                        !- Vertex 4 Zcoordinate

OTHEREQUIPMENT,
    EU_Step8_InternalGain_df59350c0f1d10de_F0_dwelling_0_f000,    !- Name
    Electricity,              !- Fuel Type
    df59350c0f1d10de_F0_dwelling_0,    !- Zone or ZoneList or Space or SpaceList Name
    EU_Step8_GainSchedule_df59350c0f1d10de_F0_dwelling_0_f000,    !- Schedule Name
    Watts/Area,               !- Design Level Calculation Method
    ,                         !- Design Level
    1,                        !- Power per Zone Floor Area
    ,                         !- Power per Person
    0,                        !- Fraction Latent
    0,                        !- Fraction Radiant
    0,                        !- Fraction Lost
    0,                        !- Carbon Dioxide Generation Rate
    EU_Step8_InternalGains;    !- EndUse Subcategory

ZONEVENTILATION:DESIGNFLOWRATE,
    EU_ConstantAir_df59350c0f1d10de_F0_dwelling_0,    !- Name
    df59350c0f1d10de_F0_dwelling_0,    !- Zone or ZoneList or Space or SpaceList Name
    EU_AlwaysOn,              !- Schedule Name
    AirChanges/Hour,          !- Design Flow Rate Calculation Method
    ,                         !- Design Flow Rate
    ,                         !- Flow Rate per Floor Area
    ,                         !- Flow Rate per Person
    0.418134938716768,        !- Air Changes per Hour
    Natural,                  !- Ventilation Type
    0,                        !- Fan Pressure Rise
    1,                        !- Fan Total Efficiency
    1,                        !- Constant Term Coefficient
    0,                        !- Temperature Term Coefficient
    0,                        !- Velocity Term Coefficient
    0,                        !- Velocity Squared Term Coefficient
    -100,                     !- Minimum Indoor Temperature
    ,                         !- Minimum Indoor Temperature Schedule Name
    100,                      !- Maximum Indoor Temperature
    ,                         !- Maximum Indoor Temperature Schedule Name
    -100,                     !- Delta Temperature
    ,                         !- Delta Temperature Schedule Name
    -100,                     !- Minimum Outdoor Temperature
    ,                         !- Minimum Outdoor Temperature Schedule Name
    100,                      !- Maximum Outdoor Temperature
    ,                         !- Maximum Outdoor Temperature Schedule Name
    40;                       !- Maximum Wind Speed

HVACTEMPLATE:THERMOSTAT,
    EU_HeatOnly_df59350c0f1d10de_F0_dwelling_0,    !- Name
    ,                         !- Heating Setpoint Schedule Name
    20,                       !- Constant Heating Setpoint
    ,                         !- Cooling Setpoint Schedule Name
    50;                       !- Constant Cooling Setpoint

HVACTEMPLATE:ZONE:IDEALLOADSAIRSYSTEM,
    df59350c0f1d10de_F0_dwelling_0,    !- Zone Name
    EU_HeatOnly_df59350c0f1d10de_F0_dwelling_0,    !- Template Thermostat Name
    EU_AlwaysOn,              !- System Availability Schedule Name
    50,                       !- Maximum Heating Supply Air Temperature
    13,                       !- Minimum Cooling Supply Air Temperature
    0.0156,                   !- Maximum Heating Supply Air Humidity Ratio
    0.0077,                   !- Minimum Cooling Supply Air Humidity Ratio
    NoLimit,                  !- Heating Limit
    ,                         !- Maximum Heating Air Flow Rate
    ,                         !- Maximum Sensible Heating Capacity
    NoLimit,                  !- Cooling Limit
    ,                         !- Maximum Cooling Air Flow Rate
    ,                         !- Maximum Total Cooling Capacity
    EU_AlwaysOn,              !- Heating Availability Schedule Name
    EU_CoolingOff,            !- Cooling Availability Schedule Name
    ConstantSensibleHeatRatio,    !- Dehumidification Control Type
    0.7,                      !- Cooling Sensible Heat Ratio
    60,                       !- Dehumidification Setpoint
    None,                     !- Humidification Control Type
    30,                       !- Humidification Setpoint
    None,                     !- Outdoor Air Method
    0.00944,                  !- Outdoor Air Flow Rate per Person
    0.0,                      !- Outdoor Air Flow Rate per Zone Floor Area
    0,                        !- Outdoor Air Flow Rate per Zone
    ,                         !- Design Specification Outdoor Air Object Name
    None,                     !- Demand Controlled Ventilation Type
    NoEconomizer,             !- Outdoor Air Economizer Type
    None,                     !- Heat Recovery Type
    0.70,                     !- Sensible Heat Recovery Effectiveness
    0.65;                     !- Latent Heat Recovery Effectiveness

SIZING:ZONE,
    df59350c0f1d10de_F0_dwelling_0,    !- Zone or ZoneList Name
    SupplyAirTemperature,     !- Zone Cooling Design Supply Air Temperature Input Method
    13,                       !- Zone Cooling Design Supply Air Temperature
    ,                         !- Zone Cooling Design Supply Air Temperature Difference
    SupplyAirTemperature,     !- Zone Heating Design Supply Air Temperature Input Method
    50,                       !- Zone Heating Design Supply Air Temperature
    ,                         !- Zone Heating Design Supply Air Temperature Difference
    0.008,                    !- Zone Cooling Design Supply Air Humidity Ratio
    0.008,                    !- Zone Heating Design Supply Air Humidity Ratio
    ,                         !- Design Specification Outdoor Air Object Name
    ,                         !- Zone Heating Sizing Factor
    ,                         !- Zone Cooling Sizing Factor
    DesignDay,                !- Cooling Design Air Flow Method
    0,                        !- Cooling Design Air Flow Rate
    0.000762,                 !- Cooling Minimum Air Flow per Zone Floor Area
    0,                        !- Cooling Minimum Air Flow
    0.2,                      !- Cooling Minimum Air Flow Fraction
    DesignDay,                !- Heating Design Air Flow Method
    0,                        !- Heating Design Air Flow Rate
    0.002032,                 !- Heating Maximum Air Flow per Zone Floor Area
    0.1415762,                !- Heating Maximum Air Flow
    0.3,                      !- Heating Maximum Air Flow Fraction
    ,                         !- Design Specification Zone Air Distribution Object Name
    No,                       !- Account for Dedicated Outdoor Air System
    NeutralSupplyAir,         !- Dedicated Outdoor Air System Control Strategy
    autosize,                 !- Dedicated Outdoor Air Low Setpoint Temperature for Design
    autosize,                 !- Dedicated Outdoor Air High Setpoint Temperature for Design
    Sensible Load Only No Latent Load,    !- Zone Load Sizing Method
    HumidityRatioDifference,    !- Zone Latent Cooling Design Supply Air Humidity Ratio Input Method
    ,                         !- Zone Dehumidification Design Supply Air Humidity Ratio
    0.005,                    !- Zone Cooling Design Supply Air Humidity Ratio Difference
    HumidityRatioDifference,    !- Zone Latent Heating Design Supply Air Humidity Ratio Input Method
    ,                         !- Zone Humidification Design Supply Air Humidity Ratio
    0.005;                    !- Zone Humidification Design Supply Air Humidity Ratio Difference

OUTPUT:VARIABLE,
    *,                        !- Key Value
    Zone Ideal Loads Zone Total Heating Energy,    !- Variable Name
    Hourly;                   !- Reporting Frequency

OUTPUT:SQLITE,
    SimpleAndTabular,         !- Option Type
    UseOutputControlTableStyle;    !- Unit Conversion for Tabular Data