!- Windows Line endings 

Version,
    23.1;                     !- Version Identifier

SimulationControl,
    Yes,                      !- Do Zone Sizing Calculation
    Yes,                      !- Do System Sizing Calculation
    Yes,                      !- Do Plant Sizing Calculation
    No,                       !- Run Simulation for Sizing Periods
    Yes,                      !- Run Simulation for Weather File Run Periods
    No,                       !- Do HVAC Sizing Simulation for Sizing Periods
    1;                        !- Maximum Number of HVAC Sizing Simulation Passes

Building,
    EU S2 Campaign,           !- Name
    0,                        !- North Axis
    City,                     !- Terrain
    ,                         !- Loads Convergence Tolerance Value
    ,                         !- Temperature Convergence Tolerance Value
    FullExterior,             !- Solar Distribution
    ,                         !- Maximum Number of Warmup Days
    ;                         !- Minimum Number of Warmup Days

ShadowCalculation,
    PolygonClipping,          !- Shading Calculation Method
    Periodic,                 !- Shading Calculation Update Frequency Method
    1;                        !- Shading Calculation Update Frequency

HeatBalanceAlgorithm,
    ConductionTransferFunction,    !- Algorithm
    200,                      !- Surface Temperature Upper Limit
    0.1,                      !- Minimum Surface Convection Heat Transfer Coefficient Value
    10000000;                 !- Maximum Surface Convection Heat Transfer Coefficient Value

Timestep,
    12;                       !- Number of Timesteps per Hour

Site:Location,
    London,                   !- Name
    51.5,                     !- Latitude
    -0.5,                     !- Longitude
    0,                        !- Time Zone
    25;                       !- Elevation

SizingPeriod:WeatherFileDays,
    AnnualSizingPeriod,       !- Name
    1,                        !- Begin Month
    1,                        !- Begin Day of Month
    12,                       !- End Month
    31,                       !- End Day of Month
    Monday,                   !- Day of Week for Start Day
    No,                       !- Use Weather File Daylight Saving Period
    No;                       !- Use Weather File Rain and Snow Indicators

RunPeriod,
    RunPeriod1,               !- Name
    1,                        !- Begin Month
    1,                        !- Begin Day of Month
    ,                         !- Begin Year
    12,                       !- End Month
    31,                       !- End Day of Month
    ,                         !- End Year
    Sunday,                   !- Day of Week for Start Day
    No,                       !- Use Weather File Holidays and Special Days
    No,                       !- Use Weather File Daylight Saving Period
    No,                       !- Apply Weekend Holiday Rule
    Yes,                      !- Use Weather File Rain Indicators
    Yes;                      !- Use Weather File Snow Indicators

ScheduleTypeLimits,
    Any Number;               !- Name

SCHEDULETYPELIMITS,
    EU_Step8_AnyNumber_Wm2,    !- Name
    ,                         !- Lower Limit Value
    ,                         !- Upper Limit Value
    Continuous,               !- Numeric Type
    Dimensionless;            !- Unit Type

SCHEDULE:CONSTANT,
    EU_AlwaysOn,              !- Name
    ,                         !- Schedule Type Limits Name
    1;                        !- Hourly Value

SCHEDULE:CONSTANT,
    EU_CoolingOff,            !- Name
    ,                         !- Schedule Type Limits Name
    0;                        !- Hourly Value

SCHEDULE:FILE,
    EU_Step8_GainSchedule_e0bd56780a240974_F0_dwelling_0_f000,    !- Name
    EU_Step8_AnyNumber_Wm2,    !- Schedule Type Limits Name
    ../../schedules/e0bd56780a240974/e0bd56780a240974_F0_dwelling_0_f000_gain.csv,    !- File Name
    1,                        !- Column Number
    0,                        !- Rows to Skip at Top
    8760,                     !- Number of Hours of Data
    Comma,                    !- Column Separator
    No,                       !- Interpolate to Timestep
    60,                       !- Minutes per Item
    Yes;                      !- Adjust Schedule for Daylight Savings

MATERIAL,
    EU_InternalMass_Material,    !- Name
    MediumRough,              !- Roughness
    0.1,                      !- Thickness
    1,                        !- Conductivity
    1800,                     !- Density
    900,                      !- Specific Heat
    0.9,                      !- Thermal Absorptance
    0.7,                      !- Solar Absorptance
    0.7;                      !- Visible Absorptance

MATERIAL:NOMASS,
    EU_wall_NoMass,           !- Name
    MediumRough,              !- Roughness
    0.5555555555555555,       !- Thermal Resistance
    0.9,                      !- Thermal Absorptance
    0.7,                      !- Solar Absorptance
    0.7;                      !- Visible Absorptance

MATERIAL:NOMASS,
    EU_roof_NoMass,           !- Name
    MediumRough,              !- Roughness
    0.5102040816326531,       !- Thermal Resistance
    0.9,                      !- Thermal Absorptance
    0.7,                      !- Solar Absorptance
    0.7;                      !- Visible Absorptance

MATERIAL:NOMASS,
    EU_floor_NoMass,          !- Name
    MediumRough,              !- Roughness
    1.6891891891891893,       !- Thermal Resistance
    0.9,                      !- Thermal Absorptance
    0.7,                      !- Solar Absorptance
    0.7;                      !- Visible Absorptance

CONSTRUCTION,
    EU_wall_Construction,     !- Name
    EU_wall_NoMass;           !- Outside Layer

CONSTRUCTION,
    EU_roof_Construction,     !- Name
    EU_roof_NoMass;           !- Outside Layer

CONSTRUCTION,
    EU_floor_Construction,    !- Name
    EU_floor_NoMass;          !- Outside Layer

CONSTRUCTION,
    EU_InternalMass_Construction,    !- Name
    EU_InternalMass_Material;    !- Outside Layer

GlobalGeometryRules,
    UpperLeftCorner,          !- Starting Vertex Position
    CounterClockWise,         !- Vertex Entry Direction
    World;                    !- Coordinate System

ZONE,
    e0bd56780a240974_F0_dwelling_0,    !- Name
    0,                        !- Direction of Relative North
    0,                        !- X Origin
    0,                        !- Y Origin
    0,                        !- Z Origin
    1,                        !- Type
    1,                        !- Multiplier
    autocalculate,            !- Ceiling Height
    522.301025390625,         !- Volume
    autocalculate,            !- Floor Area
    ,                         !- Zone Inside Convection Algorithm
    ,                         !- Zone Outside Convection Algorithm
    Yes;                      !- Part of Total Floor Area

BUILDINGSURFACE:DETAILED,
    Block e0bd56780a240974_0 Storey 0 Wall 0001,    !- Name
    wall,                     !- Surface Type
    EU_wall_Construction,     !- Construction Name
    e0bd56780a240974_F0_dwelling_0,    !- Zone Name
    ,                         !- Space Name
    outdoors,                 !- Outside Boundary Condition
    ,                         !- Outside Boundary Condition Object
    SunExposed,               !- Sun Exposure
    WindExposed,              !- Wind Exposure
    autocalculate,            !- View Factor to Ground
    autocalculate,            !- Number of Vertices
    705515.318,               !- Vertex 1 Xcoordinate
    5711059.299,              !- Vertex 1 Ycoordinate
    9,                        !- Vertex 1 Zcoordinate
    705515.318,               !- Vertex 2 Xcoordinate
    5711059.299,              !- Vertex 2 Ycoordinate
    0,                        !- Vertex 2 Zcoordinate
    705515.418,               !- Vertex 3 Xcoordinate
    5711060.951,              !- Vertex 3 Ycoordinate
    0,                        !- Vertex 3 Zcoordinate
    705515.418,               !- Vertex 4 Xcoordinate
    5711060.951,              !- Vertex 4 Ycoordinate
    9;                        !- Vertex 4 Zcoordinate

BUILDINGSURFACE:DETAILED,
    Block e0bd56780a240974_0 Storey 0 Wall 0002,    !- Name
    wall,                     !- Surface Type
    EU_wall_Construction,     !- Construction Name
    e0bd56780a240974_F0_dwelling_0,    !- Zone Name
    ,                         !- Space Name
    outdoors,                 !- Outside Boundary Condition
    ,                         !- Outside Boundary Condition Object
    SunExposed,               !- Sun Exposure
    WindExposed,              !- Wind Exposure
    autocalculate,            !- View Factor to Ground
    autocalculate,            !- Number of Vertices
    705515.418,               !- Vertex 1 Xcoordinate
    5711060.951,              !- Vertex 1 Ycoordinate
    9,                        !- Vertex 1 Zcoordinate
    705515.418,               !- Vertex 2 Xcoordinate
    5711060.951,              !- Vertex 2 Ycoordinate
    0,                        !- Vertex 2 Zcoordinate
    705518.064,               !- Vertex 3 Xcoordinate
    5711060.813,              !- Vertex 3 Ycoordinate
    0,                        !- Vertex 3 Zcoordinate
    705518.064,               !- Vertex 4 Xcoordinate
    5711060.813,              !- Vertex 4 Ycoordinate
    9;                        !- Vertex 4 Zcoordinate

BUILDINGSURFACE:DETAILED,
    Block e0bd56780a240974_0 Storey 0 Wall 0003,    !- Name
    wall,                     !- Surface Type
    EU_wall_Construction,     !- Construction Name
    e0bd56780a240974_F0_dwelling_0,    !- Zone Name
    ,                         !- Space Name
    outdoors,                 !- Outside Boundary Condition
    ,                         !- Outside Boundary Condition Object
    SunExposed,               !- Sun Exposure
    WindExposed,              !- Wind Exposure
    autocalculate,            !- View Factor to Ground
    autocalculate,            !- Number of Vertices
    705518.064,               !- Vertex 1 Xcoordinate
    5711060.813,              !- Vertex 1 Ycoordinate
    9,                        !- Vertex 1 Zcoordinate
    705518.064,               !- Vertex 2 Xcoordinate
    5711060.813,              !- Vertex 2 Ycoordinate
    0,                        !- Vertex 2 Zcoordinate
    705518.225,               !- Vertex 3 Xcoordinate
    5711063.871,              !- Vertex 3 Ycoordinate
    0,                        !- Vertex 3 Zcoordinate
    705518.225,               !- Vertex 4 Xcoordinate
    5711063.871,              !- Vertex 4 Ycoordinate
    9;                        !- Vertex 4 Zcoordinate

BUILDINGSURFACE:DETAILED,
    Block e0bd56780a240974_0 Storey 0 Wall 0004,    !- Name
    wall,                     !- Surface Type
    EU_wall_Construction,     !- Construction Name
    e0bd56780a240974_F0_dwelling_0,    !- Zone Name
    ,                         !- Space Name
    outdoors,                 !- Outside Boundary Condition
    ,                         !- Outside Boundary Condition Object
    SunExposed,               !- Sun Exposure
    WindExposed,              !- Wind Exposure
    autocalculate,            !- View Factor to Ground
    autocalculate,            !- Number of Vertices
    705518.225,               !- Vertex 1 Xcoordinate
    5711063.871,              !- Vertex 1 Ycoordinate
    9,                        !- Vertex 1 Zcoordinate
    705518.225,               !- Vertex 2 Xcoordinate
    5711063.871,              !- Vertex 2 Ycoordinate
    0,                        !- Vertex 2 Zcoordinate
    705522.824,               !- Vertex 3 Xcoordinate
    5711063.712,              !- Vertex 3 Ycoordinate
    0,                        !- Vertex 3 Zcoordinate
    705522.824,               !- Vertex 4 Xcoordinate
    5711063.712,              !- Vertex 4 Ycoordinate
    9;                        !- Vertex 4 Zcoordinate

BUILDINGSURFACE:DETAILED,
    Block e0bd56780a240974_0 Storey 0 Wall 0005,    !- Name
    wall,                     !- Surface Type
    EU_wall_Construction,     !- Construction Name
    e0bd56780a240974_F0_dwelling_0,    !- Zone Name
    ,                         !- Space Name
    Adiabatic,                !- Outside Boundary Condition
    ,                         !- Outside Boundary Condition Object
    NoSun,                    !- Sun Exposure
    NoWind,                   !- Wind Exposure
    autocalculate,            !- View Factor to Ground
    autocalculate,            !- Number of Vertices
    705522.824,               !- Vertex 1 Xcoordinate
    5711063.712,              !- Vertex 1 Ycoordinate
    9,                        !- Vertex 1 Zcoordinate
    705522.824,               !- Vertex 2 Xcoordinate
    5711063.712,              !- Vertex 2 Ycoordinate
    0,                        !- Vertex 2 Zcoordinate
    705522.497,               !- Vertex 3 Xcoordinate
    5711054.3,                !- Vertex 3 Ycoordinate
    0,                        !- Vertex 3 Zcoordinate
    705522.497,               !- Vertex 4 Xcoordinate
    5711054.3,                !- Vertex 4 Ycoordinate
    9;                        !- Vertex 4 Zcoordinate

BUILDINGSURFACE:DETAILED,
    Block e0bd56780a240974_0 Storey 0 Wall 0006,    !- Name
    wall,                     !- Surface Type
    EU_wall_Construction,     !- Construction Name
    e0bd56780a240974_F0_dwelling_0,    !- Zone Name
    ,                         !- Space Name
    outdoors,                 !- Outside Boundary Condition
    ,                         !- Outside Boundary Condition Object
    SunExposed,               !- Sun Exposure
    WindExposed,              !- Wind Exposure
    autocalculate,            !- View Factor to Ground
    autocalculate,            !- Number of Vertices
    705522.497,               !- Vertex 1 Xcoordinate
    5711054.3,                !- Vertex 1 Ycoordinate
    9,                        !- Vertex 1 Zcoordinate
    705522.497,               !- Vertex 2 Xcoordinate
    5711054.3,                !- Vertex 2 Ycoordinate
    0,                        !- Vertex 2 Zcoordinate
    705517.289,               !- Vertex 3 Xcoordinate
    5711054.557,              !- Vertex 3 Ycoordinate
    0,                        !- Vertex 3 Zcoordinate
    705517.289,               !- Vertex 4 Xcoordinate
    5711054.557,              !- Vertex 4 Ycoordinate
    9;                        !- Vertex 4 Zcoordinate

BUILDINGSURFACE:DETAILED,
    Block e0bd56780a240974_0 Storey 0 Wall 0007,    !- Name
    wall,                     !- Surface Type
    EU_wall_Construction,     !- Construction Name
    e0bd56780a240974_F0_dwelling_0,    !- Zone Name
    ,                         !- Space Name
    outdoors,                 !- Outside Boundary Condition
    ,                         !- Outside Boundary Condition Object
    SunExposed,               !- Sun Exposure
    WindExposed,              !- Wind Exposure
    autocalculate,            !- View Factor to Ground
    autocalculate,            !- Number of Vertices
    705517.289,               !- Vertex 1 Xcoordinate
    5711054.557,              !- Vertex 1 Ycoordinate
    9,                        !- Vertex 1 Zcoordinate
    705517.289,               !- Vertex 2 Xcoordinate
    5711054.557,              !- Vertex 2 Ycoordinate
    0,                        !- Vertex 2 Zcoordinate
    705517.365,               !- Vertex 3 Xcoordinate
    5711055.774,              !- Vertex 3 Ycoordinate
    0,                        !- Vertex 3 Zcoordinate
    705517.365,               !- Vertex 4 Xcoordinate
    5711055.774,              !- Vertex 4 Ycoordinate
    9;                        !- Vertex 4 Zcoordinate

BUILDINGSURFACE:DETAILED,
    Block e0bd56780a240974_0 Storey 0 Wall 0008,    !- Name
    wall,                     !- Surface Type
    EU_wall_Construction,     !- Construction Name
    e0bd56780a240974_F0_dwelling_0,    !- Zone Name
    ,                         !- Space Name
    outdoors,                 !- Outside Boundary Condition
    ,                         !- Outside Boundary Condition Object
    SunExposed,               !- Sun Exposure
    WindExposed,              !- Wind Exposure
    autocalculate,            !- View Factor to Ground
    autocalculate,            !- Number of Vertices
    705517.365,               !- Vertex 1 Xcoordinate
    5711055.774,              !- Vertex 1 Ycoordinate
    9,                        !- Vertex 1 Zcoordinate
    705517.365,               !- Vertex 2 Xcoordinate
    5711055.774,              !- Vertex 2 Ycoordinate
    0,                        !- Vertex 2 Zcoordinate
    705515.101,               !- Vertex 3 Xcoordinate
    5711055.905,              !- Vertex 3 Ycoordinate
    0,                        !- Vertex 3 Zcoordinate
    705515.101,               !- Vertex 4 Xcoordinate
    5711055.905,              !- Vertex 4 Ycoordinate
    9;                        !- Vertex 4 Zcoordinate

BUILDINGSURFACE:DETAILED,
    Block e0bd56780a240974_0 Storey 0 Wall 0009,    !- Name
    wall,                     !- Surface Type
    EU_wall_Construction,     !- Construction Name
    e0bd56780a240974_F0_dwelling_0,    !- Zone Name
    ,                         !- Space Name
    outdoors,                 !- Outside Boundary Condition
    ,                         !- Outside Boundary Condition Object
    SunExposed,               !- Sun Exposure
    WindExposed,              !- Wind Exposure
    autocalculate,            !- View Factor to Ground
    autocalculate,            !- Number of Vertices
    705515.101,               !- Vertex 1 Xcoordinate
    5711055.905,              !- Vertex 1 Ycoordinate
    9,                        !- Vertex 1 Zcoordinate
    705515.101,               !- Vertex 2 Xcoordinate
    5711055.905,              !- Vertex 2 Ycoordinate
    0,                        !- Vertex 2 Zcoordinate
    705515.318,               !- Vertex 3 Xcoordinate
    5711059.299,              !- Vertex 3 Ycoordinate
    0,                        !- Vertex 3 Zcoordinate
    705515.318,               !- Vertex 4 Xcoordinate
    5711059.299,              !- Vertex 4 Ycoordinate
    9;                        !- Vertex 4 Zcoordinate

BUILDINGSURFACE:DETAILED,
    Block e0bd56780a240974_0 Storey 0 Floor 0001,    !- Name
    floor,                    !- Surface Type
    EU_floor_Construction,    !- Construction Name
    e0bd56780a240974_F0_dwelling_0,    !- Zone Name
    ,                         !- Space Name
    ground,                   !- Outside Boundary Condition
    ,                         !- Outside Boundary Condition Object
    NoSun,                    !- Sun Exposure
    NoWind,                   !- Wind Exposure
    autocalculate,            !- View Factor to Ground
    autocalculate,            !- Number of Vertices
    705522.497,               !- Vertex 1 Xcoordinate
    5711054.3,                !- Vertex 1 Ycoordinate
    0,                        !- Vertex 1 Zcoordinate
    705522.824,               !- Vertex 2 Xcoordinate
    5711063.712,              !- Vertex 2 Ycoordinate
    0,                        !- Vertex 2 Zcoordinate
    705518.225,               !- Vertex 3 Xcoordinate
    5711063.871,              !- Vertex 3 Ycoordinate
    0,                        !- Vertex 3 Zcoordinate
    705518.064,               !- Vertex 4 Xcoordinate
    5711060.813,              !- Vertex 4 Ycoordinate
    0,                        !- Vertex 4 Zcoordinate
    705515.418,               !- Vertex 5 Xcoordinate
    5711060.951,              !- Vertex 5 Ycoordinate
    0,                        !- Vertex 5 Zcoordinate
    705515.318,               !- Vertex 6 Xcoordinate
    5711059.299,              !- Vertex 6 Ycoordinate
    0,                        !- Vertex 6 Zcoordinate
    705515.101,               !- Vertex 7 Xcoordinate
    5711055.905,              !- Vertex 7 Ycoordinate
    0,                        !- Vertex 7 Zcoordinate
    705517.365,               !- Vertex 8 Xcoordinate
    5711055.774,              !- Vertex 8 Ycoordinate
    0,                        !- Vertex 8 Zcoordinate
    705517.289,               !- Vertex 9 Xcoordinate
    5711054.557,              !- Vertex 9 Ycoordinate
    0;                        !- Vertex 9 Zcoordinate

BUILDINGSURFACE:DETAILED,
    Block e0bd56780a240974_0 Storey 0 Roof 0001,    !- Name
    roof,                     !- Surface Type
    EU_roof_Construction,     !- Construction Name
    e0bd56780a240974_F0_dwelling_0,    !- Zone Name
    ,                         !- Space Name
    outdoors,                 !- Outside Boundary Condition
    ,                         !- Outside Boundary Condition Object
    NoSun,                    !- Sun Exposure
    WindExposed,              !- Wind Exposure
    autocalculate,            !- View Factor to Ground
    autocalculate,            !- Number of Vertices
    705522.824,               !- Vertex 1 Xcoordinate
    5711063.712,              !- Vertex 1 Ycoordinate
    9,                        !- Vertex 1 Zcoordinate
    705522.497,               !- Vertex 2 Xcoordinate
    5711054.3,                !- Vertex 2 Ycoordinate
    9,                        !- Vertex 2 Zcoordinate
    705517.289,               !- Vertex 3 Xcoordinate
    5711054.557,              !- Vertex 3 Ycoordinate
    9,                        !- Vertex 3 Zcoordinate
    705517.365,               !- Vertex 4 Xcoordinate
    5711055.774,              !- Vertex 4 Ycoordinate
    9,                        !- Vertex 4 Zcoordinate
    705515.101,               !- Vertex 5 Xcoordinate
    5711055.905,              !- Vertex 5 Ycoordinate
    9,                        !- Vertex 5 Zcoordinate
    705515.318,               !- Vertex 6 Xcoordinate
    5711059.299,              !- Vertex 6 Ycoordinate
    9,                        !- Vertex 6 Zcoordinate
    705515.418,               !- Vertex 7 Xcoordinate
    5711060.951,              !- Vertex 7 Ycoordinate
    9,                        !- Vertex 7 Zcoordinate
    705518.064,               !- Vertex 8 Xcoordinate
    5711060.813,              !- Vertex 8 Ycoordinate
    9,                        !- Vertex 8 Zcoordinate
    705518.225,               !- Vertex 9 Xcoordinate
    5711063.871,              !- Vertex 9 Ycoordinate
    9;                        !- Vertex 9 Zcoordinate

INTERNALMASS,
    e0bd56780a240974_F0_dwelling_0_EU_InternalMass,    !- Name
    EU_InternalMass_Construction,    !- Construction Name
    e0bd56780a240974_F0_dwelling_0,    !- Zone or ZoneList Name
    ,                         !- Space or SpaceList Name
    58.03343650176167;        !- Surface Area

SHADING:SITE:DETAILED,
    shade_way/422882745_1,    !- Name
    ,                         !- Transmittance Schedule Name
    autocalculate,            !- Number of Vertices
    705538.7149753536,        !- Vertex 1 Xcoordinate
    5711009.665824149,        !- Vertex 1 Ycoordinate
    6,                        !- Vertex 1 Zcoordinate
    705538.7149753536,        !- Vertex 2 Xcoordinate
    5711009.665824149,        !- Vertex 2 Ycoordinate
    0,                        !- Vertex 2 Zcoordinate
    705516.4126522312,        !- Vertex 3 Xcoordinate
    5711010.477789617,        !- Vertex 3 Ycoordinate
    0,                        !- Vertex 3 Zcoordinate
    705516.4126522312,        !- Vertex 4 Xcoordinate
    5711010.477789617,        !- Vertex 4 Ycoordinate
    6;                        !- Vertex 4 Zcoordinate

SHADING:SITE:DETAILED,
    shade_way/422882745_2,    !- Name
    ,                         !- Transmittance Schedule Name
    autocalculate,            !- Number of Vertices
    705516.4126522312,        !- Vertex 1 Xcoordinate
    5711010.477789617,        !- Vertex 1 Ycoordinate
    6,                        !- Vertex 1 Zcoordinate
    705516.4126522312,        !- Vertex 2 Xcoordinate
    5711010.477789617,        !- Vertex 2 Ycoordinate
    0,                        !- Vertex 2 Zcoordinate
    705517.5861349385,        !- Vertex 3 Xcoordinate
    5711042.707372672,        !- Vertex 3 Ycoordinate
    0,                        !- Vertex 3 Zcoordinate
    705517.5861349385,        !- Vertex 4 Xcoordinate
    5711042.707372672,        !- Vertex 4 Ycoordinate
    6;                        !- Vertex 4 Zcoordinate

SHADING:SITE:DETAILED,
    shade_way/422882745_3,    !- Name
    ,                         !- Transmittance Schedule Name
    autocalculate,            !- Number of Vertices
    705517.5861349385,        !- Vertex 1 Xcoordinate
    5711042.707372672,        !- Vertex 1 Ycoordinate
    6,                        !- Vertex 1 Zcoordinate
    705517.5861349385,        !- Vertex 2 Xcoordinate
    5711042.707372672,        !- Vertex 2 Ycoordinate
    0,                        !- Vertex 2 Zcoordinate
    705539.8884857444,        !- Vertex 3 Xcoordinate
    5711041.895320252,        !- Vertex 3 Ycoordinate
    0,                        !- Vertex 3 Zcoordinate
    705539.8884857444,        !- Vertex 4 Xcoordinate
    5711041.895320252,        !- Vertex 4 Ycoordinate
    6;                        !- Vertex 4 Zcoordinate

SHADING:SITE:DETAILED,
    shade_way/422882745_4,    !- Name
    ,                         !- Transmittance Schedule Name
    autocalculate,            !- Number of Vertices
    705539.8884857444,        !- Vertex 1 Xcoordinate
    5711041.895320252,        !- Vertex 1 Ycoordinate
    6,                        !- Vertex 1 Zcoordinate
    705539.8884857444,        !- Vertex 2 Xcoordinate
    5711041.895320252,        !- Vertex 2 Ycoordinate
    0,                        !- Vertex 2 Zcoordinate
    705538.7149753536,        !- Vertex 3 Xcoordinate
    5711009.665824149,        !- Vertex 3 Ycoordinate
    0,                        !- Vertex 3 Zcoordinate
    705538.7149753536,        !- Vertex 4 Xcoordinate
    5711009.665824149,        !- Vertex 4 Ycoordinate
    6;                        !- Vertex 4 Zcoordinate

SHADING:SITE:DETAILED,
    shade_way/1459054339_1,    !- Name
    ,                         !- Transmittance Schedule Name
    autocalculate,            !- Number of Vertices
    705517.8524236649,        !- Vertex 1 Xcoordinate
    5711042.697590872,        !- Vertex 1 Ycoordinate
    6,                        !- Vertex 1 Zcoordinate
    705517.8524236649,        !- Vertex 2 Xcoordinate
    5711042.697590872,        !- Vertex 2 Ycoordinate
    0,                        !- Vertex 2 Zcoordinate
    705516.4102851416,        !- Vertex 3 Xcoordinate
    5711010.426807561,        !- Vertex 3 Ycoordinate
    0,                        !- Vertex 3 Zcoordinate
    705516.4102851416,        !- Vertex 4 Xcoordinate
    5711010.426807561,        !- Vertex 4 Ycoordinate
    6;                        !- Vertex 4 Zcoordinate

SHADING:SITE:DETAILED,
    shade_way/1459054339_2,    !- Name
    ,                         !- Transmittance Schedule Name
    autocalculate,            !- Number of Vertices
    705516.4102851416,        !- Vertex 1 Xcoordinate
    5711010.426807561,        !- Vertex 1 Ycoordinate
    6,                        !- Vertex 1 Zcoordinate
    705516.4102851416,        !- Vertex 2 Xcoordinate
    5711010.426807561,        !- Vertex 2 Ycoordinate
    0,                        !- Vertex 2 Zcoordinate
    705510.58123,             !- Vertex 3 Xcoordinate
    5711010.687067932,        !- Vertex 3 Ycoordinate
    0,                        !- Vertex 3 Zcoordinate
    705510.58123,             !- Vertex 4 Xcoordinate
    5711010.687067932,        !- Vertex 4 Ycoordinate
    6;                        !- Vertex 4 Zcoordinate

SHADING:SITE:DETAILED,
    shade_way/1459054339_3,    !- Name
    ,                         !- Transmittance Schedule Name
    autocalculate,            !- Number of Vertices
    705510.58123,             !- Vertex 1 Xcoordinate
    5711010.687067932,        !- Vertex 1 Ycoordinate
    6,                        !- Vertex 1 Zcoordinate
    705510.58123,             !- Vertex 2 Xcoordinate
    5711010.687067932,        !- Vertex 2 Ycoordinate
    0,                        !- Vertex 2 Zcoordinate
    705512.0232103519,        !- Vertex 3 Xcoordinate
    5711042.958290941,        !- Vertex 3 Ycoordinate
    0,                        !- Vertex 3 Zcoordinate
    705512.0232103519,        !- Vertex 4 Xcoordinate
    5711042.958290941,        !- Vertex 4 Ycoordinate
    6;                        !- Vertex 4 Zcoordinate

SHADING:SITE:DETAILED,
    shade_way/1459054339_4,    !- Name
    ,                         !- Transmittance Schedule Name
    autocalculate,            !- Number of Vertices
    705512.0232103519,        !- Vertex 1 Xcoordinate
    5711042.958290941,        !- Vertex 1 Ycoordinate
    6,                        !- Vertex 1 Zcoordinate
    705512.0232103519,        !- Vertex 2 Xcoordinate
    5711042.958290941,        !- Vertex 2 Ycoordinate
    0,                        !- Vertex 2 Zcoordinate
    705517.8524236649,        !- Vertex 3 Xcoordinate
    5711042.697590872,        !- Vertex 3 Ycoordinate
    0,                        !- Vertex 3 Zcoordinate
    705517.8524236649,        !- Vertex 4 Xcoordinate
    5711042.697590872,        !- Vertex 4 Ycoordinate
    6;                        !- Vertex 4 Zcoordinate

SHADING:SITE:DETAILED,
    shade_way/233103562_1,    !- Name
    ,                         !- Transmittance Schedule Name
    autocalculate,            !- Number of Vertices
    705512.61556398,          !- Vertex 1 Xcoordinate
    5711042.901531941,        !- Vertex 1 Ycoordinate
    9,                        !- Vertex 1 Zcoordinate
    705512.61556398,          !- Vertex 2 Xcoordinate
    5711042.901531941,        !- Vertex 2 Ycoordinate
    0,                        !- Vertex 2 Zcoordinate
    705510.569463799,         !- Vertex 3 Xcoordinate
    5711010.499181778,        !- Vertex 3 Ycoordinate
    0,                        !- Vertex 3 Zcoordinate
    705510.569463799,         !- Vertex 4 Xcoordinate
    5711010.499181778,        !- Vertex 4 Ycoordinate
    9;                        !- Vertex 4 Zcoordinate

SHADING:SITE:DETAILED,
    shade_way/233103562_2,    !- Name
    ,                         !- Transmittance Schedule Name
    autocalculate,            !- Number of Vertices
    705510.569463799,         !- Vertex 1 Xcoordinate
    5711010.499181778,        !- Vertex 1 Ycoordinate
    9,                        !- Vertex 1 Zcoordinate
    705510.569463799,         !- Vertex 2 Xcoordinate
    5711010.499181778,        !- Vertex 2 Ycoordinate
    0,                        !- Vertex 2 Zcoordinate
    705503.1765884703,        !- Vertex 3 Xcoordinate
    5711010.966275687,        !- Vertex 3 Ycoordinate
    0,                        !- Vertex 3 Zcoordinate
    705503.1765884703,        !- Vertex 4 Xcoordinate
    5711010.966275687,        !- Vertex 4 Ycoordinate
    9;                        !- Vertex 4 Zcoordinate

SHADING:SITE:DETAILED,
    shade_way/233103562_3,    !- Name
    ,                         !- Transmittance Schedule Name
    autocalculate,            !- Number of Vertices
    705503.1765884703,        !- Vertex 1 Xcoordinate
    5711010.966275687,        !- Vertex 1 Ycoordinate
    9,                        !- Vertex 1 Zcoordinate
    705503.1765884703,        !- Vertex 2 Xcoordinate
    5711010.966275687,        !- Vertex 2 Ycoordinate
    0,                        !- Vertex 2 Zcoordinate
    705505.2227701833,        !- Vertex 3 Xcoordinate
    5711043.368362178,        !- Vertex 3 Ycoordinate
    0,                        !- Vertex 3 Zcoordinate
    705505.2227701833,        !- Vertex 4 Xcoordinate
    5711043.368362178,        !- Vertex 4 Ycoordinate
    9;                        !- Vertex 4 Zcoordinate

SHADING:SITE:DETAILED,
    shade_way/233103562_4,    !- Name
    ,                         !- Transmittance Schedule Name
    autocalculate,            !- Number of Vertices
    705505.2227701833,        !- Vertex 1 Xcoordinate
    5711043.368362178,        !- Vertex 1 Ycoordinate
    9,                        !- Vertex 1 Zcoordinate
    705505.2227701833,        !- Vertex 2 Xcoordinate
    5711043.368362178,        !- Vertex 2 Ycoordinate
    0,                        !- Vertex 2 Zcoordinate
    705512.61556398,          !- Vertex 3 Xcoordinate
    5711042.901531941,        !- Vertex 3 Ycoordinate
    0,                        !- Vertex 3 Zcoordinate
    705512.61556398,          !- Vertex 4 Xcoordinate
    5711042.901531941,        !- Vertex 4 Ycoordinate
    9;                        !- Vertex 4 Zcoordinate

SHADING:SITE:DETAILED,
    shade_way/422882744_1,    !- Name
    ,                         !- Transmittance Schedule Name
    autocalculate,            !- Number of Vertices
    705506.2993676199,        !- Vertex 1 Xcoordinate
    5711052.074136293,        !- Vertex 1 Ycoordinate
    9,                        !- Vertex 1 Zcoordinate
    705506.2993676199,        !- Vertex 2 Xcoordinate
    5711052.074136293,        !- Vertex 2 Ycoordinate
    0,                        !- Vertex 2 Zcoordinate
    705513.5205156485,        !- Vertex 3 Xcoordinate
    5711051.5202354295,       !- Vertex 3 Ycoordinate
    0,                        !- Vertex 3 Zcoordinate
    705513.5205156485,        !- Vertex 4 Xcoordinate
    5711051.5202354295,       !- Vertex 4 Ycoordinate
    9;                        !- Vertex 4 Zcoordinate

SHADING:SITE:DETAILED,
    shade_way/422882744_2,    !- Name
    ,                         !- Transmittance Schedule Name
    autocalculate,            !- Number of Vertices
    705513.5205156485,        !- Vertex 1 Xcoordinate
    5711051.5202354295,       !- Vertex 1 Ycoordinate
    9,                        !- Vertex 1 Zcoordinate
    705513.5205156485,        !- Vertex 2 Xcoordinate
    5711051.5202354295,       !- Vertex 2 Ycoordinate
    0,                        !- Vertex 2 Zcoordinate
    705512.8460330666,        !- Vertex 3 Xcoordinate
    5711042.725730575,        !- Vertex 3 Ycoordinate
    0,                        !- Vertex 3 Zcoordinate
    705512.8460330666,        !- Vertex 4 Xcoordinate
    5711042.725730575,        !- Vertex 4 Ycoordinate
    9;                        !- Vertex 4 Zcoordinate

SHADING:SITE:DETAILED,
    shade_way/422882744_3,    !- Name
    ,                         !- Transmittance Schedule Name
    autocalculate,            !- Number of Vertices
    705512.8460330666,        !- Vertex 1 Xcoordinate
    5711042.725730575,        !- Vertex 1 Ycoordinate
    9,                        !- Vertex 1 Zcoordinate
    705512.8460330666,        !- Vertex 2 Xcoordinate
    5711042.725730575,        !- Vertex 2 Ycoordinate
    0,                        !- Vertex 2 Zcoordinate
    705505.6248850384,        !- Vertex 3 Xcoordinate
    5711043.2796314405,       !- Vertex 3 Ycoordinate
    0,                        !- Vertex 3 Zcoordinate
    705505.6248850384,        !- Vertex 4 Xcoordinate
    5711043.2796314405,       !- Vertex 4 Ycoordinate
    9;                        !- Vertex 4 Zcoordinate

SHADING:SITE:DETAILED,
    shade_way/422882744_4,    !- Name
    ,                         !- Transmittance Schedule Name
    autocalculate,            !- Number of Vertices
    705505.6248850384,        !- Vertex 1 Xcoordinate
    5711043.2796314405,       !- Vertex 1 Ycoordinate
    9,                        !- Vertex 1 Zcoordinate
    705505.6248850384,        !- Vertex 2 Xcoordinate
    5711043.2796314405,       !- Vertex 2 Ycoordinate
    0,                        !- Vertex 2 Zcoordinate
    705506.2993676199,        !- Vertex 3 Xcoordinate
    5711052.074136293,        !- Vertex 3 Ycoordinate
    0,                        !- Vertex 3 Zcoordinate
    705506.2993676199,        !- Vertex 4 Xcoordinate
    5711052.074136293,        !- Vertex 4 Ycoordinate
    9;                        !- Vertex 4 Zcoordinate

SHADING:SITE:DETAILED,
    shade_way/422882742_1,    !- Name
    ,                         !- Transmittance Schedule Name
    autocalculate,            !- Number of Vertices
    705542.1188268706,        !- Vertex 1 Xcoordinate
    5711053.6207737755,       !- Vertex 1 Ycoordinate
    9,                        !- Vertex 1 Zcoordinate
    705542.1188268706,        !- Vertex 2 Xcoordinate
    5711053.6207737755,       !- Vertex 2 Ycoordinate
    0,                        !- Vertex 2 Zcoordinate
    705542.4390618213,        !- Vertex 3 Xcoordinate
    5711063.048246299,        !- Vertex 3 Ycoordinate
    0,                        !- Vertex 3 Zcoordinate
    705542.4390618213,        !- Vertex 4 Xcoordinate
    5711063.048246299,        !- Vertex 4 Ycoordinate
    9;                        !- Vertex 4 Zcoordinate

SHADING:SITE:DETAILED,
    shade_way/422882742_2,    !- Name
    ,                         !- Transmittance Schedule Name
    autocalculate,            !- Number of Vertices
    705542.4390618213,        !- Vertex 1 Xcoordinate
    5711063.048246299,        !- Vertex 1 Ycoordinate
    9,                        !- Vertex 1 Zcoordinate
    705542.4390618213,        !- Vertex 2 Xcoordinate
    5711063.048246299,        !- Vertex 2 Ycoordinate
    0,                        !- Vertex 2 Zcoordinate
    705547.317053728,         !- Vertex 3 Xcoordinate
    5711062.882369017,        !- Vertex 3 Ycoordinate
    0,                        !- Vertex 3 Zcoordinate
    705547.317053728,         !- Vertex 4 Xcoordinate
    5711062.882369017,        !- Vertex 4 Ycoordinate
    9;                        !- Vertex 4 Zcoordinate

SHADING:SITE:DETAILED,
    shade_way/422882742_3,    !- Name
    ,                         !- Transmittance Schedule Name
    autocalculate,            !- Number of Vertices
    705547.317053728,         !- Vertex 1 Xcoordinate
    5711062.882369017,        !- Vertex 1 Ycoordinate
    9,                        !- Vertex 1 Zcoordinate
    705547.317053728,         !- Vertex 2 Xcoordinate
    5711062.882369017,        !- Vertex 2 Ycoordinate
    0,                        !- Vertex 2 Zcoordinate
    705546.9967801042,        !- Vertex 3 Xcoordinate
    5711053.455232541,        !- Vertex 3 Ycoordinate
    0,                        !- Vertex 3 Zcoordinate
    705546.9967801042,        !- Vertex 4 Xcoordinate
    5711053.455232541,        !- Vertex 4 Ycoordinate
    9;                        !- Vertex 4 Zcoordinate

SHADING:SITE:DETAILED,
    shade_way/422882742_4,    !- Name
    ,                         !- Transmittance Schedule Name
    autocalculate,            !- Number of Vertices
    705546.9967801042,        !- Vertex 1 Xcoordinate
    5711053.455232541,        !- Vertex 1 Ycoordinate
    9,                        !- Vertex 1 Zcoordinate
    705546.9967801042,        !- Vertex 2 Xcoordinate
    5711053.455232541,        !- Vertex 2 Ycoordinate
    0,                        !- Vertex 2 Zcoordinate
    705542.1188268706,        !- Vertex 3 Xcoordinate
    5711053.6207737755,       !- Vertex 3 Ycoordinate
    0,                        !- Vertex 3 Zcoordinate
    705542.1188268706,        !- Vertex 4 Xcoordinate
    5711053.6207737755,       !- Vertex 4 Ycoordinate
    9;                        !- Vertex 4 Zcoordinate

SHADING:SITE:DETAILED,
    shade_way/1060201727_1,    !- Name
    ,                         !- Transmittance Schedule Name
    autocalculate,            !- Number of Vertices
    705542.4390618213,        !- Vertex 1 Xcoordinate
    5711063.048246299,        !- Vertex 1 Ycoordinate
    9,                        !- Vertex 1 Zcoordinate
    705542.4390618213,        !- Vertex 2 Xcoordinate
    5711063.048246299,        !- Vertex 2 Ycoordinate
    0,                        !- Vertex 2 Zcoordinate
    705542.1189503229,        !- Vertex 3 Xcoordinate
    5711053.625145063,        !- Vertex 3 Ycoordinate
    0,                        !- Vertex 3 Zcoordinate
    705542.1189503229,        !- Vertex 4 Xcoordinate
    5711053.625145063,        !- Vertex 4 Ycoordinate
    9;                        !- Vertex 4 Zcoordinate

SHADING:SITE:DETAILED,
    shade_way/1060201727_2,    !- Name
    ,                         !- Transmittance Schedule Name
    autocalculate,            !- Number of Vertices
    705542.1189503229,        !- Vertex 1 Xcoordinate
    5711053.625145063,        !- Vertex 1 Ycoordinate
    9,                        !- Vertex 1 Zcoordinate
    705542.1189503229,        !- Vertex 2 Xcoordinate
    5711053.625145063,        !- Vertex 2 Ycoordinate
    0,                        !- Vertex 2 Zcoordinate
    705537.2617565301,        !- Vertex 3 Xcoordinate
    5711053.789981081,        !- Vertex 3 Ycoordinate
    0,                        !- Vertex 3 Zcoordinate
    705537.2617565301,        !- Vertex 4 Xcoordinate
    5711053.789981081,        !- Vertex 4 Ycoordinate
    9;                        !- Vertex 4 Zcoordinate

SHADING:SITE:DETAILED,
    shade_way/1060201727_3,    !- Name
    ,                         !- Transmittance Schedule Name
    autocalculate,            !- Number of Vertices
    705537.2617565301,        !- Vertex 1 Xcoordinate
    5711053.789981081,        !- Vertex 1 Ycoordinate
    9,                        !- Vertex 1 Zcoordinate
    705537.2617565301,        !- Vertex 2 Xcoordinate
    5711053.789981081,        !- Vertex 2 Ycoordinate
    0,                        !- Vertex 2 Zcoordinate
    705537.5818680287,        !- Vertex 3 Xcoordinate
    5711063.213082317,        !- Vertex 3 Ycoordinate
    0,                        !- Vertex 3 Zcoordinate
    705537.5818680287,        !- Vertex 4 Xcoordinate
    5711063.213082317,        !- Vertex 4 Ycoordinate
    9;                        !- Vertex 4 Zcoordinate

SHADING:SITE:DETAILED,
    shade_way/1060201727_4,    !- Name
    ,                         !- Transmittance Schedule Name
    autocalculate,            !- Number of Vertices
    705537.5818680287,        !- Vertex 1 Xcoordinate
    5711063.213082317,        !- Vertex 1 Ycoordinate
    9,                        !- Vertex 1 Zcoordinate
    705537.5818680287,        !- Vertex 2 Xcoordinate
    5711063.213082317,        !- Vertex 2 Ycoordinate
    0,                        !- Vertex 2 Zcoordinate
    705542.4390618213,        !- Vertex 3 Xcoordinate
    5711063.048246299,        !- Vertex 3 Ycoordinate
    0,                        !- Vertex 3 Zcoordinate
    705542.4390618213,        !- Vertex 4 Xcoordinate
    5711063.048246299,        !- Vertex 4 Ycoordinate
    9;                        !- Vertex 4 Zcoordinate

SHADING:SITE:DETAILED,
    shade_way/1060201728_1,    !- Name
    ,                         !- Transmittance Schedule Name
    autocalculate,            !- Number of Vertices
    705532.238423312,         !- Vertex 1 Xcoordinate
    5711053.959926419,        !- Vertex 1 Ycoordinate
    9,                        !- Vertex 1 Zcoordinate
    705532.238423312,         !- Vertex 2 Xcoordinate
    5711053.959926419,        !- Vertex 2 Ycoordinate
    0,                        !- Vertex 2 Zcoordinate
    705532.5654901306,        !- Vertex 3 Xcoordinate
    5711063.383307556,        !- Vertex 3 Ycoordinate
    0,                        !- Vertex 3 Zcoordinate
    705532.5654901306,        !- Vertex 4 Xcoordinate
    5711063.383307556,        !- Vertex 4 Ycoordinate
    9;                        !- Vertex 4 Zcoordinate

SHADING:SITE:DETAILED,
    shade_way/1060201728_2,    !- Name
    ,                         !- Transmittance Schedule Name
    autocalculate,            !- Number of Vertices
    705532.5654901306,        !- Vertex 1 Xcoordinate
    5711063.383307556,        !- Vertex 1 Ycoordinate
    9,                        !- Vertex 1 Zcoordinate
    705532.5654901306,        !- Vertex 2 Xcoordinate
    5711063.383307556,        !- Vertex 2 Ycoordinate
    0,                        !- Vertex 2 Zcoordinate
    705537.5894464157,        !- Vertex 3 Xcoordinate
    5711063.209144836,        !- Vertex 3 Ycoordinate
    0,                        !- Vertex 3 Zcoordinate
    705537.5894464157,        !- Vertex 4 Xcoordinate
    5711063.209144836,        !- Vertex 4 Ycoordinate
    9;                        !- Vertex 4 Zcoordinate

SHADING:SITE:DETAILED,
    shade_way/1060201728_3,    !- Name
    ,                         !- Transmittance Schedule Name
    autocalculate,            !- Number of Vertices
    705537.5894464157,        !- Vertex 1 Xcoordinate
    5711063.209144836,        !- Vertex 1 Ycoordinate
    9,                        !- Vertex 1 Zcoordinate
    705537.5894464157,        !- Vertex 2 Xcoordinate
    5711063.209144836,        !- Vertex 2 Ycoordinate
    0,                        !- Vertex 2 Zcoordinate
    705537.2623795972,        !- Vertex 3 Xcoordinate
    5711053.7857637,          !- Vertex 3 Ycoordinate
    0,                        !- Vertex 3 Zcoordinate
    705537.2623795972,        !- Vertex 4 Xcoordinate
    5711053.7857637,          !- Vertex 4 Ycoordinate
    9;                        !- Vertex 4 Zcoordinate

SHADING:SITE:DETAILED,
    shade_way/1060201728_4,    !- Name
    ,                         !- Transmittance Schedule Name
    autocalculate,            !- Number of Vertices
    705537.2623795972,        !- Vertex 1 Xcoordinate
    5711053.7857637,          !- Vertex 1 Ycoordinate
    9,                        !- Vertex 1 Zcoordinate
    705537.2623795972,        !- Vertex 2 Xcoordinate
    5711053.7857637,          !- Vertex 2 Ycoordinate
    0,                        !- Vertex 2 Zcoordinate
    705532.238423312,         !- Vertex 3 Xcoordinate
    5711053.959926419,        !- Vertex 3 Ycoordinate
    0,                        !- Vertex 3 Zcoordinate
    705532.238423312,         !- Vertex 4 Xcoordinate
    5711053.959926419,        !- Vertex 4 Ycoordinate
    9;                        !- Vertex 4 Zcoordinate

SHADING:SITE:DETAILED,
    shade_way/191828441_1,    !- Name
    ,                         !- Transmittance Schedule Name
    autocalculate,            !- Number of Vertices
    705505.465619216,         !- Vertex 1 Xcoordinate
    5711040.748214369,        !- Vertex 1 Ycoordinate
    6,                        !- Vertex 1 Zcoordinate
    705505.465619216,         !- Vertex 2 Xcoordinate
    5711040.748214369,        !- Vertex 2 Ycoordinate
    0,                        !- Vertex 2 Zcoordinate
    705503.1143250995,        !- Vertex 3 Xcoordinate
    5711014.01606116,         !- Vertex 3 Ycoordinate
    0,                        !- Vertex 3 Zcoordinate
    705503.1143250995,        !- Vertex 4 Xcoordinate
    5711014.01606116,         !- Vertex 4 Ycoordinate
    6;                        !- Vertex 4 Zcoordinate

SHADING:SITE:DETAILED,
    shade_way/191828441_2,    !- Name
    ,                         !- Transmittance Schedule Name
    autocalculate,            !- Number of Vertices
    705503.1143250995,        !- Vertex 1 Xcoordinate
    5711014.01606116,         !- Vertex 1 Ycoordinate
    6,                        !- Vertex 1 Zcoordinate
    705503.1143250995,        !- Vertex 2 Xcoordinate
    5711014.01606116,         !- Vertex 2 Ycoordinate
    0,                        !- Vertex 2 Zcoordinate
    705483.7067297878,        !- Vertex 3 Xcoordinate
    5711015.723045792,        !- Vertex 3 Ycoordinate
    0,                        !- Vertex 3 Zcoordinate
    705483.7067297878,        !- Vertex 4 Xcoordinate
    5711015.723045792,        !- Vertex 4 Ycoordinate
    6;                        !- Vertex 4 Zcoordinate

SHADING:SITE:DETAILED,
    shade_way/191828441_3,    !- Name
    ,                         !- Transmittance Schedule Name
    autocalculate,            !- Number of Vertices
    705483.7067297878,        !- Vertex 1 Xcoordinate
    5711015.723045792,        !- Vertex 1 Ycoordinate
    6,                        !- Vertex 1 Zcoordinate
    705483.7067297878,        !- Vertex 2 Xcoordinate
    5711015.723045792,        !- Vertex 2 Ycoordinate
    0,                        !- Vertex 2 Zcoordinate
    705486.0579381133,        !- Vertex 3 Xcoordinate
    5711042.455155068,        !- Vertex 3 Ycoordinate
    0,                        !- Vertex 3 Zcoordinate
    705486.0579381133,        !- Vertex 4 Xcoordinate
    5711042.455155068,        !- Vertex 4 Ycoordinate
    6;                        !- Vertex 4 Zcoordinate

SHADING:SITE:DETAILED,
    shade_way/191828441_4,    !- Name
    ,                         !- Transmittance Schedule Name
    autocalculate,            !- Number of Vertices
    705486.0579381133,        !- Vertex 1 Xcoordinate
    5711042.455155068,        !- Vertex 1 Ycoordinate
    6,                        !- Vertex 1 Zcoordinate
    705486.0579381133,        !- Vertex 2 Xcoordinate
    5711042.455155068,        !- Vertex 2 Ycoordinate
    0,                        !- Vertex 2 Zcoordinate
    705505.465619216,         !- Vertex 3 Xcoordinate
    5711040.748214369,        !- Vertex 3 Ycoordinate
    0,                        !- Vertex 3 Zcoordinate
    705505.465619216,         !- Vertex 4 Xcoordinate
    5711040.748214369,        !- Vertex 4 Ycoordinate
    6;                        !- Vertex 4 Zcoordinate

SHADING:SITE:DETAILED,
    shade_way/1060201729_1,    !- Name
    ,                         !- Transmittance Schedule Name
    autocalculate,            !- Number of Vertices
    705527.7921791248,        !- Vertex 1 Xcoordinate
    5711063.546330354,        !- Vertex 1 Ycoordinate
    9,                        !- Vertex 1 Zcoordinate
    705527.7921791248,        !- Vertex 2 Xcoordinate
    5711063.546330354,        !- Vertex 2 Ycoordinate
    0,                        !- Vertex 2 Zcoordinate
    705532.5654901306,        !- Vertex 3 Xcoordinate
    5711063.383307556,        !- Vertex 3 Ycoordinate
    0,                        !- Vertex 3 Zcoordinate
    705532.5654901306,        !- Vertex 4 Xcoordinate
    5711063.383307556,        !- Vertex 4 Ycoordinate
    9;                        !- Vertex 4 Zcoordinate

SHADING:SITE:DETAILED,
    shade_way/1060201729_2,    !- Name
    ,                         !- Transmittance Schedule Name
    autocalculate,            !- Number of Vertices
    705532.5654901306,        !- Vertex 1 Xcoordinate
    5711063.383307556,        !- Vertex 1 Ycoordinate
    9,                        !- Vertex 1 Zcoordinate
    705532.5654901306,        !- Vertex 2 Xcoordinate
    5711063.383307556,        !- Vertex 2 Ycoordinate
    0,                        !- Vertex 2 Zcoordinate
    705532.2436224645,        !- Vertex 3 Xcoordinate
    5711053.959586995,        !- Vertex 3 Ycoordinate
    0,                        !- Vertex 3 Zcoordinate
    705532.2436224645,        !- Vertex 4 Xcoordinate
    5711053.959586995,        !- Vertex 4 Ycoordinate
    9;                        !- Vertex 4 Zcoordinate

SHADING:SITE:DETAILED,
    shade_way/1060201729_3,    !- Name
    ,                         !- Transmittance Schedule Name
    autocalculate,            !- Number of Vertices
    705532.2436224645,        !- Vertex 1 Xcoordinate
    5711053.959586995,        !- Vertex 1 Ycoordinate
    9,                        !- Vertex 1 Zcoordinate
    705532.2436224645,        !- Vertex 2 Xcoordinate
    5711053.959586995,        !- Vertex 2 Ycoordinate
    0,                        !- Vertex 2 Zcoordinate
    705527.4703114588,        !- Vertex 3 Xcoordinate
    5711054.122609794,        !- Vertex 3 Ycoordinate
    0,                        !- Vertex 3 Zcoordinate
    705527.4703114588,        !- Vertex 4 Xcoordinate
    5711054.122609794,        !- Vertex 4 Ycoordinate
    9;                        !- Vertex 4 Zcoordinate

SHADING:SITE:DETAILED,
    shade_way/1060201729_4,    !- Name
    ,                         !- Transmittance Schedule Name
    autocalculate,            !- Number of Vertices
    705527.4703114588,        !- Vertex 1 Xcoordinate
    5711054.122609794,        !- Vertex 1 Ycoordinate
    9,                        !- Vertex 1 Zcoordinate
    705527.4703114588,        !- Vertex 2 Xcoordinate
    5711054.122609794,        !- Vertex 2 Ycoordinate
    0,                        !- Vertex 2 Zcoordinate
    705527.7921791248,        !- Vertex 3 Xcoordinate
    5711063.546330354,        !- Vertex 3 Ycoordinate
    0,                        !- Vertex 3 Zcoordinate
    705527.7921791248,        !- Vertex 4 Xcoordinate
    5711063.546330354,        !- Vertex 4 Ycoordinate
    9;                        !- Vertex 4 Zcoordinate

SHADING:SITE:DETAILED,
    shade_way/1060201730_1,    !- Name
    ,                         !- Transmittance Schedule Name
    autocalculate,            !- Number of Vertices
    705527.7921791248,        !- Vertex 1 Xcoordinate
    5711063.546330354,        !- Vertex 1 Ycoordinate
    9,                        !- Vertex 1 Zcoordinate
    705527.7921791248,        !- Vertex 2 Xcoordinate
    5711063.546330354,        !- Vertex 2 Ycoordinate
    0,                        !- Vertex 2 Zcoordinate
    705527.4720407258,        !- Vertex 3 Xcoordinate
    5711054.123230725,        !- Vertex 3 Ycoordinate
    0,                        !- Vertex 3 Zcoordinate
    705527.4720407258,        !- Vertex 4 Xcoordinate
    5711054.123230725,        !- Vertex 4 Ycoordinate
    9;                        !- Vertex 4 Zcoordinate

SHADING:SITE:DETAILED,
    shade_way/1060201730_2,    !- Name
    ,                         !- Transmittance Schedule Name
    autocalculate,            !- Number of Vertices
    705527.4720407258,        !- Vertex 1 Xcoordinate
    5711054.123230725,        !- Vertex 1 Ycoordinate
    9,                        !- Vertex 1 Zcoordinate
    705527.4720407258,        !- Vertex 2 Xcoordinate
    5711054.123230725,        !- Vertex 2 Ycoordinate
    0,                        !- Vertex 2 Zcoordinate
    705522.4965114363,        !- Vertex 3 Xcoordinate
    5711054.2924154885,       !- Vertex 3 Ycoordinate
    0,                        !- Vertex 3 Zcoordinate
    705522.4965114363,        !- Vertex 4 Xcoordinate
    5711054.2924154885,       !- Vertex 4 Ycoordinate
    9;                        !- Vertex 4 Zcoordinate

SHADING:SITE:DETAILED,
    shade_way/1060201730_3,    !- Name
    ,                         !- Transmittance Schedule Name
    autocalculate,            !- Number of Vertices
    705522.4965114363,        !- Vertex 1 Xcoordinate
    5711054.2924154885,       !- Vertex 1 Ycoordinate
    9,                        !- Vertex 1 Zcoordinate
    705522.4965114363,        !- Vertex 2 Xcoordinate
    5711054.2924154885,       !- Vertex 2 Ycoordinate
    0,                        !- Vertex 2 Zcoordinate
    705522.8166498356,        !- Vertex 3 Xcoordinate
    5711063.715515118,        !- Vertex 3 Ycoordinate
    0,                        !- Vertex 3 Zcoordinate
    705522.8166498356,        !- Vertex 4 Xcoordinate
    5711063.715515118,        !- Vertex 4 Ycoordinate
    9;                        !- Vertex 4 Zcoordinate

SHADING:SITE:DETAILED,
    shade_way/1060201730_4,    !- Name
    ,                         !- Transmittance Schedule Name
    autocalculate,            !- Number of Vertices
    705522.8166498356,        !- Vertex 1 Xcoordinate
    5711063.715515118,        !- Vertex 1 Ycoordinate
    9,                        !- Vertex 1 Zcoordinate
    705522.8166498356,        !- Vertex 2 Xcoordinate
    5711063.715515118,        !- Vertex 2 Ycoordinate
    0,                        !- Vertex 2 Zcoordinate
    705527.7921791248,        !- Vertex 3 Xcoordinate
    5711063.546330354,        !- Vertex 3 Ycoordinate
    0,                        !- Vertex 3 Zcoordinate
    705527.7921791248,        !- Vertex 4 Xcoordinate
    5711063.546330354,        !- Vertex 4 Ycoordinate
    9;                        !- Vertex 4 Zcoordinate

OTHEREQUIPMENT,
    EU_Step8_InternalGain_e0bd56780a240974_F0_dwelling_0_f000,    !- Name
    Electricity,              !- Fuel Type
    e0bd56780a240974_F0_dwelling_0,    !- Zone or ZoneList or Space or SpaceList Name
    EU_Step8_GainSchedule_e0bd56780a240974_F0_dwelling_0_f000,    !- Schedule Name
    Watts/Area,               !- Design Level Calculation Method
    ,                         !- Design Level
    1,                        !- Power per Zone Floor Area
    ,                         !- Power per Person
    0,                        !- Fraction Latent
    0,                        !- Fraction Radiant
    0,                        !- Fraction Lost
    0,                        !- Carbon Dioxide Generation Rate
    EU_Step8_InternalGains;    !- EndUse Subcategory

ZONEVENTILATION:DESIGNFLOWRATE,
    EU_ConstantAir_e0bd56780a240974_F0_dwelling_0,    !- Name
    e0bd56780a240974_F0_dwelling_0,    !- Zone or ZoneList or Space or SpaceList Name
    EU_AlwaysOn,              !- Schedule Name
    AirChanges/Hour,          !- Design Flow Rate Calculation Method
    ,                         !- Design Flow Rate
    ,                         !- Flow Rate per Floor Area
    ,                         !- Flow Rate per Person
    0.4800000000000001,       !- Air Changes per Hour
    Natural,                  !- Ventilation Type
    0,                        !- Fan Pressure Rise
    1,                        !- Fan Total Efficiency
    1,                        !- Constant Term Coefficient
    0,                        !- Temperature Term Coefficient
    0,                        !- Velocity Term Coefficient
    0,                        !- Velocity Squared Term Coefficient
    -100,                     !- Minimum Indoor Temperature
    ,                         !- Minimum Indoor Temperature Schedule Name
    100,                      !- Maximum Indoor Temperature
    ,                         !- Maximum Indoor Temperature Schedule Name
    -100,                     !- Delta Temperature
    ,                         !- Delta Temperature Schedule Name
    -100,                     !- Minimum Outdoor Temperature
    ,                         !- Minimum Outdoor Temperature Schedule Name
    100,                      !- Maximum Outdoor Temperature
    ,                         !- Maximum Outdoor Temperature Schedule Name
    40;                       !- Maximum Wind Speed

HVACTEMPLATE:THERMOSTAT,
    EU_HeatOnly_e0bd56780a240974_F0_dwelling_0,    !- Name
    ,                         !- Heating Setpoint Schedule Name
    20,                       !- Constant Heating Setpoint
    ,                         !- Cooling Setpoint Schedule Name
    50;                       !- Constant Cooling Setpoint

HVACTEMPLATE:ZONE:IDEALLOADSAIRSYSTEM,
    e0bd56780a240974_F0_dwelling_0,    !- Zone Name
    EU_HeatOnly_e0bd56780a240974_F0_dwelling_0,    !- Template Thermostat Name
    EU_AlwaysOn,              !- System Availability Schedule Name
    50,                       !- Maximum Heating Supply Air Temperature
    13,                       !- Minimum Cooling Supply Air Temperature
    0.0156,                   !- Maximum Heating Supply Air Humidity Ratio
    0.0077,                   !- Minimum Cooling Supply Air Humidity Ratio
    NoLimit,                  !- Heating Limit
    ,                         !- Maximum Heating Air Flow Rate
    ,                         !- Maximum Sensible Heating Capacity
    NoLimit,                  !- Cooling Limit
    ,                         !- Maximum Cooling Air Flow Rate
    ,                         !- Maximum Total Cooling Capacity
    EU_AlwaysOn,              !- Heating Availability Schedule Name
    EU_CoolingOff,            !- Cooling Availability Schedule Name
    ConstantSensibleHeatRatio,    !- Dehumidification Control Type
    0.7,                      !- Cooling Sensible Heat Ratio
    60,                       !- Dehumidification Setpoint
    None,                     !- Humidification Control Type
    30,                       !- Humidification Setpoint
    None,                     !- Outdoor Air Method
    0.00944,                  !- Outdoor Air Flow Rate per Person
    0.0,                      !- Outdoor Air Flow Rate per Zone Floor Area
    0,                        !- Outdoor Air Flow Rate per Zone
    ,                         !- Design Specification Outdoor Air Object Name
    None,                     !- Demand Controlled Ventilation Type
    NoEconomizer,             !- Outdoor Air Economizer Type
    None,                     !- Heat Recovery Type
    0.70,                     !- Sensible Heat Recovery Effectiveness
    0.65;                     !- Latent Heat Recovery Effectiveness

SIZING:ZONE,
    e0bd56780a240974_F0_dwelling_0,    !- Zone or ZoneList Name
    SupplyAirTemperature,     !- Zone Cooling Design Supply Air Temperature Input Method
    13,                       !- Zone Cooling Design Supply Air Temperature
    ,                         !- Zone Cooling Design Supply Air Temperature Difference
    SupplyAirTemperature,     !- Zone Heating Design Supply Air Temperature Input Method
    50,                       !- Zone Heating Design Supply Air Temperature
    ,                         !- Zone Heating Design Supply Air Temperature Difference
    0.008,                    !- Zone Cooling Design Supply Air Humidity Ratio
    0.008,                    !- Zone Heating Design Supply Air Humidity Ratio
    ,                         !- Design Specification Outdoor Air Object Name
    ,                         !- Zone Heating Sizing Factor
    ,                         !- Zone Cooling Sizing Factor
    DesignDay,                !- Cooling Design Air Flow Method
    0,                        !- Cooling Design Air Flow Rate
    0.000762,                 !- Cooling Minimum Air Flow per Zone Floor Area
    0,                        !- Cooling Minimum Air Flow
    0.2,                      !- Cooling Minimum Air Flow Fraction
    DesignDay,                !- Heating Design Air Flow Method
    0,                        !- Heating Design Air Flow Rate
    0.002032,                 !- Heating Maximum Air Flow per Zone Floor Area
    0.1415762,                !- Heating Maximum Air Flow
    0.3,                      !- Heating Maximum Air Flow Fraction
    ,                         !- Design Specification Zone Air Distribution Object Name
    No,                       !- Account for Dedicated Outdoor Air System
    NeutralSupplyAir,         !- Dedicated Outdoor Air System Control Strategy
    autosize,                 !- Dedicated Outdoor Air Low Setpoint Temperature for Design
    autosize,                 !- Dedicated Outdoor Air High Setpoint Temperature for Design
    Sensible Load Only No Latent Load,    !- Zone Load Sizing Method
    HumidityRatioDifference,    !- Zone Latent Cooling Design Supply Air Humidity Ratio Input Method
    ,                         !- Zone Dehumidification Design Supply Air Humidity Ratio
    0.005,                    !- Zone Cooling Design Supply Air Humidity Ratio Difference
    HumidityRatioDifference,    !- Zone Latent Heating Design Supply Air Humidity Ratio Input Method
    ,                         !- Zone Humidification Design Supply Air Humidity Ratio
    0.005;                    !- Zone Humidification Design Supply Air Humidity Ratio Difference

OUTPUT:VARIABLE,
    *,                        !- Key Value
    Zone Ideal Loads Zone Total Heating Energy,    !- Variable Name
    Hourly;                   !- Reporting Frequency

OUTPUT:SQLITE,
    SimpleAndTabular,         !- Option Type
    UseOutputControlTableStyle;    !- Unit Conversion for Tabular Data