!- Windows Line endings 

Version,
    23.1;                     !- Version Identifier

SimulationControl,
    Yes,                      !- Do Zone Sizing Calculation
    Yes,                      !- Do System Sizing Calculation
    Yes,                      !- Do Plant Sizing Calculation
    No,                       !- Run Simulation for Sizing Periods
    Yes,                      !- Run Simulation for Weather File Run Periods
    No,                       !- Do HVAC Sizing Simulation for Sizing Periods
    1;                        !- Maximum Number of HVAC Sizing Simulation Passes

Building,
    EU S2 Campaign,           !- Name
    0,                        !- North Axis
    City,                     !- Terrain
    ,                         !- Loads Convergence Tolerance Value
    ,                         !- Temperature Convergence Tolerance Value
    FullExterior,             !- Solar Distribution
    ,                         !- Maximum Number of Warmup Days
    ;                         !- Minimum Number of Warmup Days

ShadowCalculation,
    PolygonClipping,          !- Shading Calculation Method
    Periodic,                 !- Shading Calculation Update Frequency Method
    1;                        !- Shading Calculation Update Frequency

HeatBalanceAlgorithm,
    ConductionTransferFunction,    !- Algorithm
    200,                      !- Surface Temperature Upper Limit
    0.1,                      !- Minimum Surface Convection Heat Transfer Coefficient Value
    10000000;                 !- Maximum Surface Convection Heat Transfer Coefficient Value

Timestep,
    12;                       !- Number of Timesteps per Hour

Site:Location,
    London,                   !- Name
    51.5,                     !- Latitude
    -0.5,                     !- Longitude
    0,                        !- Time Zone
    25;                       !- Elevation

SizingPeriod:WeatherFileDays,
    AnnualSizingPeriod,       !- Name
    1,                        !- Begin Month
    1,                        !- Begin Day of Month
    12,                       !- End Month
    31,                       !- End Day of Month
    Monday,                   !- Day of Week for Start Day
    No,                       !- Use Weather File Daylight Saving Period
    No;                       !- Use Weather File Rain and Snow Indicators

RunPeriod,
    RunPeriod1,               !- Name
    1,                        !- Begin Month
    1,                        !- Begin Day of Month
    ,                         !- Begin Year
    12,                       !- End Month
    31,                       !- End Day of Month
    ,                         !- End Year
    Sunday,                   !- Day of Week for Start Day
    No,                       !- Use Weather File Holidays and Special Days
    No,                       !- Use Weather File Daylight Saving Period
    No,                       !- Apply Weekend Holiday Rule
    Yes,                      !- Use Weather File Rain Indicators
    Yes;                      !- Use Weather File Snow Indicators

ScheduleTypeLimits,
    Any Number;               !- Name

SCHEDULETYPELIMITS,
    EU_Step8_AnyNumber_Wm2,    !- Name
    ,                         !- Lower Limit Value
    ,                         !- Upper Limit Value
    Continuous,               !- Numeric Type
    Dimensionless;            !- Unit Type

SCHEDULE:CONSTANT,
    EU_AlwaysOn,              !- Name
    ,                         !- Schedule Type Limits Name
    1;                        !- Hourly Value

SCHEDULE:CONSTANT,
    EU_CoolingOff,            !- Name
    ,                         !- Schedule Type Limits Name
    0;                        !- Hourly Value

SCHEDULE:FILE,
    EU_Step8_GainSchedule_e331db15984ee349_F0_dwelling_0_f000,    !- Name
    EU_Step8_AnyNumber_Wm2,    !- Schedule Type Limits Name
    ../../schedules/e331db15984ee349/e331db15984ee349_F0_dwelling_0_f000_gain.csv,    !- File Name
    1,                        !- Column Number
    0,                        !- Rows to Skip at Top
    8760,                     !- Number of Hours of Data
    Comma,                    !- Column Separator
    No,                       !- Interpolate to Timestep
    60,                       !- Minutes per Item
    Yes;                      !- Adjust Schedule for Daylight Savings

MATERIAL,
    EU_InternalMass_Material,    !- Name
    MediumRough,              !- Roughness
    0.1,                      !- Thickness
    1,                        !- Conductivity
    1800,                     !- Density
    900,                      !- Specific Heat
    0.9,                      !- Thermal Absorptance
    0.7,                      !- Solar Absorptance
    0.7;                      !- Visible Absorptance

MATERIAL:NOMASS,
    EU_wall_NoMass,           !- Name
    MediumRough,              !- Roughness
    0.5555555555555555,       !- Thermal Resistance
    0.9,                      !- Thermal Absorptance
    0.7,                      !- Solar Absorptance
    0.7;                      !- Visible Absorptance

MATERIAL:NOMASS,
    EU_roof_NoMass,           !- Name
    MediumRough,              !- Roughness
    0.5102040816326531,       !- Thermal Resistance
    0.9,                      !- Thermal Absorptance
    0.7,                      !- Solar Absorptance
    0.7;                      !- Visible Absorptance

MATERIAL:NOMASS,
    EU_floor_NoMass,          !- Name
    MediumRough,              !- Roughness
    1.6891891891891893,       !- Thermal Resistance
    0.9,                      !- Thermal Absorptance
    0.7,                      !- Solar Absorptance
    0.7;                      !- Visible Absorptance

CONSTRUCTION,
    EU_wall_Construction,     !- Name
    EU_wall_NoMass;           !- Outside Layer

CONSTRUCTION,
    EU_roof_Construction,     !- Name
    EU_roof_NoMass;           !- Outside Layer

CONSTRUCTION,
    EU_floor_Construction,    !- Name
    EU_floor_NoMass;          !- Outside Layer

CONSTRUCTION,
    EU_InternalMass_Construction,    !- Name
    EU_InternalMass_Material;    !- Outside Layer

GlobalGeometryRules,
    UpperLeftCorner,          !- Starting Vertex Position
    CounterClockWise,         !- Vertex Entry Direction
    World;                    !- Coordinate System

ZONE,
    e331db15984ee349_F0_dwelling_0,    !- Name
    0,                        !- Direction of Relative North
    0,                        !- X Origin
    0,                        !- Y Origin
    0,                        !- Z Origin
    1,                        !- Type
    1,                        !- Multiplier
    autocalculate,            !- Ceiling Height
    266.46826171875,          !- Volume
    autocalculate,            !- Floor Area
    ,                         !- Zone Inside Convection Algorithm
    ,                         !- Zone Outside Convection Algorithm
    Yes;                      !- Part of Total Floor Area

BUILDINGSURFACE:DETAILED,
    Block e331db15984ee349_0 Storey 0 Wall 0001,    !- Name
    wall,                     !- Surface Type
    EU_wall_Construction,     !- Construction Name
    e331db15984ee349_F0_dwelling_0,    !- Zone Name
    ,                         !- Space Name
    Adiabatic,                !- Outside Boundary Condition
    ,                         !- Outside Boundary Condition Object
    NoSun,                    !- Sun Exposure
    NoWind,                   !- Wind Exposure
    autocalculate,            !- View Factor to Ground
    autocalculate,            !- Number of Vertices
    705480.539,               !- Vertex 1 Xcoordinate
    5711440.065,              !- Vertex 1 Ycoordinate
    6,                        !- Vertex 1 Zcoordinate
    705480.539,               !- Vertex 2 Xcoordinate
    5711440.065,              !- Vertex 2 Ycoordinate
    0,                        !- Vertex 2 Zcoordinate
    705488.689,               !- Vertex 3 Xcoordinate
    5711438.702,              !- Vertex 3 Ycoordinate
    0,                        !- Vertex 3 Zcoordinate
    705488.689,               !- Vertex 4 Xcoordinate
    5711438.702,              !- Vertex 4 Ycoordinate
    6;                        !- Vertex 4 Zcoordinate

BUILDINGSURFACE:DETAILED,
    Block e331db15984ee349_0 Storey 0 Wall 0002,    !- Name
    wall,                     !- Surface Type
    EU_wall_Construction,     !- Construction Name
    e331db15984ee349_F0_dwelling_0,    !- Zone Name
    ,                         !- Space Name
    outdoors,                 !- Outside Boundary Condition
    ,                         !- Outside Boundary Condition Object
    SunExposed,               !- Sun Exposure
    WindExposed,              !- Wind Exposure
    autocalculate,            !- View Factor to Ground
    autocalculate,            !- Number of Vertices
    705488.689,               !- Vertex 1 Xcoordinate
    5711438.702,              !- Vertex 1 Ycoordinate
    6,                        !- Vertex 1 Zcoordinate
    705488.689,               !- Vertex 2 Xcoordinate
    5711438.702,              !- Vertex 2 Ycoordinate
    0,                        !- Vertex 2 Zcoordinate
    705487.767,               !- Vertex 3 Xcoordinate
    5711433.486,              !- Vertex 3 Ycoordinate
    0,                        !- Vertex 3 Zcoordinate
    705487.767,               !- Vertex 4 Xcoordinate
    5711433.486,              !- Vertex 4 Ycoordinate
    6;                        !- Vertex 4 Zcoordinate

BUILDINGSURFACE:DETAILED,
    Block e331db15984ee349_0 Storey 0 Wall 0003,    !- Name
    wall,                     !- Surface Type
    EU_wall_Construction,     !- Construction Name
    e331db15984ee349_F0_dwelling_0,    !- Zone Name
    ,                         !- Space Name
    outdoors,                 !- Outside Boundary Condition
    ,                         !- Outside Boundary Condition Object
    SunExposed,               !- Sun Exposure
    WindExposed,              !- Wind Exposure
    autocalculate,            !- View Factor to Ground
    autocalculate,            !- Number of Vertices
    705487.767,               !- Vertex 1 Xcoordinate
    5711433.486,              !- Vertex 1 Ycoordinate
    6,                        !- Vertex 1 Zcoordinate
    705487.767,               !- Vertex 2 Xcoordinate
    5711433.486,              !- Vertex 2 Ycoordinate
    0,                        !- Vertex 2 Zcoordinate
    705479.676,               !- Vertex 3 Xcoordinate
    5711434.617,              !- Vertex 3 Ycoordinate
    0,                        !- Vertex 3 Zcoordinate
    705479.676,               !- Vertex 4 Xcoordinate
    5711434.617,              !- Vertex 4 Ycoordinate
    6;                        !- Vertex 4 Zcoordinate

BUILDINGSURFACE:DETAILED,
    Block e331db15984ee349_0 Storey 0 Wall 0004,    !- Name
    wall,                     !- Surface Type
    EU_wall_Construction,     !- Construction Name
    e331db15984ee349_F0_dwelling_0,    !- Zone Name
    ,                         !- Space Name
    outdoors,                 !- Outside Boundary Condition
    ,                         !- Outside Boundary Condition Object
    SunExposed,               !- Sun Exposure
    WindExposed,              !- Wind Exposure
    autocalculate,            !- View Factor to Ground
    autocalculate,            !- Number of Vertices
    705479.676,               !- Vertex 1 Xcoordinate
    5711434.617,              !- Vertex 1 Ycoordinate
    6,                        !- Vertex 1 Zcoordinate
    705479.676,               !- Vertex 2 Xcoordinate
    5711434.617,              !- Vertex 2 Ycoordinate
    0,                        !- Vertex 2 Zcoordinate
    705480.539,               !- Vertex 3 Xcoordinate
    5711440.065,              !- Vertex 3 Ycoordinate
    0,                        !- Vertex 3 Zcoordinate
    705480.539,               !- Vertex 4 Xcoordinate
    5711440.065,              !- Vertex 4 Ycoordinate
    6;                        !- Vertex 4 Zcoordinate

BUILDINGSURFACE:DETAILED,
    Block e331db15984ee349_0 Storey 0 Floor 0001,    !- Name
    floor,                    !- Surface Type
    EU_floor_Construction,    !- Construction Name
    e331db15984ee349_F0_dwelling_0,    !- Zone Name
    ,                         !- Space Name
    ground,                   !- Outside Boundary Condition
    ,                         !- Outside Boundary Condition Object
    NoSun,                    !- Sun Exposure
    NoWind,                   !- Wind Exposure
    autocalculate,            !- View Factor to Ground
    autocalculate,            !- Number of Vertices
    705487.767,               !- Vertex 1 Xcoordinate
    5711433.486,              !- Vertex 1 Ycoordinate
    0,                        !- Vertex 1 Zcoordinate
    705488.689,               !- Vertex 2 Xcoordinate
    5711438.702,              !- Vertex 2 Ycoordinate
    0,                        !- Vertex 2 Zcoordinate
    705480.539,               !- Vertex 3 Xcoordinate
    5711440.065,              !- Vertex 3 Ycoordinate
    0,                        !- Vertex 3 Zcoordinate
    705479.676,               !- Vertex 4 Xcoordinate
    5711434.617,              !- Vertex 4 Ycoordinate
    0;                        !- Vertex 4 Zcoordinate

BUILDINGSURFACE:DETAILED,
    Block e331db15984ee349_0 Storey 0 Roof 0001,    !- Name
    roof,                     !- Surface Type
    EU_roof_Construction,     !- Construction Name
    e331db15984ee349_F0_dwelling_0,    !- Zone Name
    ,                         !- Space Name
    outdoors,                 !- Outside Boundary Condition
    ,                         !- Outside Boundary Condition Object
    NoSun,                    !- Sun Exposure
    WindExposed,              !- Wind Exposure
    autocalculate,            !- View Factor to Ground
    autocalculate,            !- Number of Vertices
    705488.689,               !- Vertex 1 Xcoordinate
    5711438.702,              !- Vertex 1 Ycoordinate
    6,                        !- Vertex 1 Zcoordinate
    705487.767,               !- Vertex 2 Xcoordinate
    5711433.486,              !- Vertex 2 Ycoordinate
    6,                        !- Vertex 2 Zcoordinate
    705479.676,               !- Vertex 3 Xcoordinate
    5711434.617,              !- Vertex 3 Ycoordinate
    6,                        !- Vertex 3 Zcoordinate
    705480.539,               !- Vertex 4 Xcoordinate
    5711440.065,              !- Vertex 4 Ycoordinate
    6;                        !- Vertex 4 Zcoordinate

INTERNALMASS,
    e331db15984ee349_F0_dwelling_0_EU_InternalMass,    !- Name
    EU_InternalMass_Construction,    !- Construction Name
    e331db15984ee349_F0_dwelling_0,    !- Zone or ZoneList Name
    ,                         !- Space or SpaceList Name
    44.41145350339863;        !- Surface Area

SHADING:SITE:DETAILED,
    shade_way/1054901274_1,    !- Name
    ,                         !- Transmittance Schedule Name
    autocalculate,            !- Number of Vertices
    705487.282577159,         !- Vertex 1 Xcoordinate
    5711411.828976047,        !- Vertex 1 Ycoordinate
    6,                        !- Vertex 1 Zcoordinate
    705487.282577159,         !- Vertex 2 Xcoordinate
    5711411.828976047,        !- Vertex 2 Ycoordinate
    0,                        !- Vertex 2 Zcoordinate
    705478.1926356268,        !- Vertex 3 Xcoordinate
    5711412.218107676,        !- Vertex 3 Ycoordinate
    0,                        !- Vertex 3 Zcoordinate
    705478.1926356268,        !- Vertex 4 Xcoordinate
    5711412.218107676,        !- Vertex 4 Ycoordinate
    6;                        !- Vertex 4 Zcoordinate

SHADING:SITE:DETAILED,
    shade_way/1054901274_2,    !- Name
    ,                         !- Transmittance Schedule Name
    autocalculate,            !- Number of Vertices
    705478.1926356268,        !- Vertex 1 Xcoordinate
    5711412.218107676,        !- Vertex 1 Ycoordinate
    6,                        !- Vertex 1 Zcoordinate
    705478.1926356268,        !- Vertex 2 Xcoordinate
    5711412.218107676,        !- Vertex 2 Ycoordinate
    0,                        !- Vertex 2 Zcoordinate
    705478.4968625002,        !- Vertex 3 Xcoordinate
    5711419.326258401,        !- Vertex 3 Ycoordinate
    0,                        !- Vertex 3 Zcoordinate
    705478.4968625002,        !- Vertex 4 Xcoordinate
    5711419.326258401,        !- Vertex 4 Ycoordinate
    6;                        !- Vertex 4 Zcoordinate

SHADING:SITE:DETAILED,
    shade_way/1054901274_3,    !- Name
    ,                         !- Transmittance Schedule Name
    autocalculate,            !- Number of Vertices
    705478.4968625002,        !- Vertex 1 Xcoordinate
    5711419.326258401,        !- Vertex 1 Ycoordinate
    6,                        !- Vertex 1 Zcoordinate
    705478.4968625002,        !- Vertex 2 Xcoordinate
    5711419.326258401,        !- Vertex 2 Ycoordinate
    0,                        !- Vertex 2 Zcoordinate
    705487.5868040324,        !- Vertex 3 Xcoordinate
    5711418.937126771,        !- Vertex 3 Ycoordinate
    0,                        !- Vertex 3 Zcoordinate
    705487.5868040324,        !- Vertex 4 Xcoordinate
    5711418.937126771,        !- Vertex 4 Ycoordinate
    6;                        !- Vertex 4 Zcoordinate

SHADING:SITE:DETAILED,
    shade_way/1054901274_4,    !- Name
    ,                         !- Transmittance Schedule Name
    autocalculate,            !- Number of Vertices
    705487.5868040324,        !- Vertex 1 Xcoordinate
    5711418.937126771,        !- Vertex 1 Ycoordinate
    6,                        !- Vertex 1 Zcoordinate
    705487.5868040324,        !- Vertex 2 Xcoordinate
    5711418.937126771,        !- Vertex 2 Ycoordinate
    0,                        !- Vertex 2 Zcoordinate
    705487.282577159,         !- Vertex 3 Xcoordinate
    5711411.828976047,        !- Vertex 3 Ycoordinate
    0,                        !- Vertex 3 Zcoordinate
    705487.282577159,         !- Vertex 4 Xcoordinate
    5711411.828976047,        !- Vertex 4 Ycoordinate
    6;                        !- Vertex 4 Zcoordinate

SHADING:SITE:DETAILED,
    shade_way/390799034_1,    !- Name
    ,                         !- Transmittance Schedule Name
    autocalculate,            !- Number of Vertices
    705512.8093350029,        !- Vertex 1 Xcoordinate
    5711432.933786286,        !- Vertex 1 Ycoordinate
    12,                       !- Vertex 1 Zcoordinate
    705512.8093350029,        !- Vertex 2 Xcoordinate
    5711432.933786286,        !- Vertex 2 Ycoordinate
    0,                        !- Vertex 2 Zcoordinate
    705498.6582742486,        !- Vertex 3 Xcoordinate
    5711433.578546498,        !- Vertex 3 Ycoordinate
    0,                        !- Vertex 3 Zcoordinate
    705498.6582742486,        !- Vertex 4 Xcoordinate
    5711433.578546498,        !- Vertex 4 Ycoordinate
    12;                       !- Vertex 4 Zcoordinate

SHADING:SITE:DETAILED,
    shade_way/390799034_2,    !- Name
    ,                         !- Transmittance Schedule Name
    autocalculate,            !- Number of Vertices
    705498.6582742486,        !- Vertex 1 Xcoordinate
    5711433.578546498,        !- Vertex 1 Ycoordinate
    12,                       !- Vertex 1 Zcoordinate
    705498.6582742486,        !- Vertex 2 Xcoordinate
    5711433.578546498,        !- Vertex 2 Ycoordinate
    0,                        !- Vertex 2 Zcoordinate
    705499.04153163,          !- Vertex 3 Xcoordinate
    5711441.990198499,        !- Vertex 3 Ycoordinate
    0,                        !- Vertex 3 Zcoordinate
    705499.04153163,          !- Vertex 4 Xcoordinate
    5711441.990198499,        !- Vertex 4 Ycoordinate
    12;                       !- Vertex 4 Zcoordinate

SHADING:SITE:DETAILED,
    shade_way/390799034_3,    !- Name
    ,                         !- Transmittance Schedule Name
    autocalculate,            !- Number of Vertices
    705499.04153163,          !- Vertex 1 Xcoordinate
    5711441.990198499,        !- Vertex 1 Ycoordinate
    12,                       !- Vertex 1 Zcoordinate
    705499.04153163,          !- Vertex 2 Xcoordinate
    5711441.990198499,        !- Vertex 2 Ycoordinate
    0,                        !- Vertex 2 Zcoordinate
    705513.1925923843,        !- Vertex 3 Xcoordinate
    5711441.345438287,        !- Vertex 3 Ycoordinate
    0,                        !- Vertex 3 Zcoordinate
    705513.1925923843,        !- Vertex 4 Xcoordinate
    5711441.345438287,        !- Vertex 4 Ycoordinate
    12;                       !- Vertex 4 Zcoordinate

SHADING:SITE:DETAILED,
    shade_way/390799034_4,    !- Name
    ,                         !- Transmittance Schedule Name
    autocalculate,            !- Number of Vertices
    705513.1925923843,        !- Vertex 1 Xcoordinate
    5711441.345438287,        !- Vertex 1 Ycoordinate
    12,                       !- Vertex 1 Zcoordinate
    705513.1925923843,        !- Vertex 2 Xcoordinate
    5711441.345438287,        !- Vertex 2 Ycoordinate
    0,                        !- Vertex 2 Zcoordinate
    705512.8093350029,        !- Vertex 3 Xcoordinate
    5711432.933786286,        !- Vertex 3 Ycoordinate
    0,                        !- Vertex 3 Zcoordinate
    705512.8093350029,        !- Vertex 4 Xcoordinate
    5711432.933786286,        !- Vertex 4 Ycoordinate
    12;                       !- Vertex 4 Zcoordinate

SHADING:SITE:DETAILED,
    shade_way/395620833_1,    !- Name
    ,                         !- Transmittance Schedule Name
    autocalculate,            !- Number of Vertices
    705512.4758615448,        !- Vertex 1 Xcoordinate
    5711446.146776852,        !- Vertex 1 Ycoordinate
    9,                        !- Vertex 1 Zcoordinate
    705512.4758615448,        !- Vertex 2 Xcoordinate
    5711446.146776852,        !- Vertex 2 Ycoordinate
    0,                        !- Vertex 2 Zcoordinate
    705512.3213233596,        !- Vertex 3 Xcoordinate
    5711441.385334772,        !- Vertex 3 Ycoordinate
    0,                        !- Vertex 3 Zcoordinate
    705512.3213233596,        !- Vertex 4 Xcoordinate
    5711441.385334772,        !- Vertex 4 Ycoordinate
    9;                        !- Vertex 4 Zcoordinate

SHADING:SITE:DETAILED,
    shade_way/395620833_2,    !- Name
    ,                         !- Transmittance Schedule Name
    autocalculate,            !- Number of Vertices
    705512.3213233596,        !- Vertex 1 Xcoordinate
    5711441.385334772,        !- Vertex 1 Ycoordinate
    9,                        !- Vertex 1 Zcoordinate
    705512.3213233596,        !- Vertex 2 Xcoordinate
    5711441.385334772,        !- Vertex 2 Ycoordinate
    0,                        !- Vertex 2 Zcoordinate
    705504.523298882,         !- Vertex 3 Xcoordinate
    5711441.63829509,         !- Vertex 3 Ycoordinate
    0,                        !- Vertex 3 Zcoordinate
    705504.523298882,         !- Vertex 4 Xcoordinate
    5711441.63829509,         !- Vertex 4 Ycoordinate
    9;                        !- Vertex 4 Zcoordinate

SHADING:SITE:DETAILED,
    shade_way/395620833_3,    !- Name
    ,                         !- Transmittance Schedule Name
    autocalculate,            !- Number of Vertices
    705504.523298882,         !- Vertex 1 Xcoordinate
    5711441.63829509,         !- Vertex 1 Ycoordinate
    9,                        !- Vertex 1 Zcoordinate
    705504.523298882,         !- Vertex 2 Xcoordinate
    5711441.63829509,         !- Vertex 2 Ycoordinate
    0,                        !- Vertex 2 Zcoordinate
    705504.6778370673,        !- Vertex 3 Xcoordinate
    5711446.399737171,        !- Vertex 3 Ycoordinate
    0,                        !- Vertex 3 Zcoordinate
    705504.6778370673,        !- Vertex 4 Xcoordinate
    5711446.399737171,        !- Vertex 4 Ycoordinate
    9;                        !- Vertex 4 Zcoordinate

SHADING:SITE:DETAILED,
    shade_way/395620833_4,    !- Name
    ,                         !- Transmittance Schedule Name
    autocalculate,            !- Number of Vertices
    705504.6778370673,        !- Vertex 1 Xcoordinate
    5711446.399737171,        !- Vertex 1 Ycoordinate
    9,                        !- Vertex 1 Zcoordinate
    705504.6778370673,        !- Vertex 2 Xcoordinate
    5711446.399737171,        !- Vertex 2 Ycoordinate
    0,                        !- Vertex 2 Zcoordinate
    705512.4758615448,        !- Vertex 3 Xcoordinate
    5711446.146776852,        !- Vertex 3 Ycoordinate
    0,                        !- Vertex 3 Zcoordinate
    705512.4758615448,        !- Vertex 4 Xcoordinate
    5711446.146776852,        !- Vertex 4 Ycoordinate
    9;                        !- Vertex 4 Zcoordinate

SHADING:SITE:DETAILED,
    shade_way/395620831_1,    !- Name
    ,                         !- Transmittance Schedule Name
    autocalculate,            !- Number of Vertices
    705504.6773617765,        !- Vertex 1 Xcoordinate
    5711446.387715084,        !- Vertex 1 Ycoordinate
    9,                        !- Vertex 1 Zcoordinate
    705504.6773617765,        !- Vertex 2 Xcoordinate
    5711446.387715084,        !- Vertex 2 Ycoordinate
    0,                        !- Vertex 2 Zcoordinate
    705504.829654825,         !- Vertex 3 Xcoordinate
    5711451.20474687,         !- Vertex 3 Ycoordinate
    0,                        !- Vertex 3 Zcoordinate
    705504.829654825,         !- Vertex 4 Xcoordinate
    5711451.20474687,         !- Vertex 4 Ycoordinate
    9;                        !- Vertex 4 Zcoordinate

SHADING:SITE:DETAILED,
    shade_way/395620831_2,    !- Name
    ,                         !- Transmittance Schedule Name
    autocalculate,            !- Number of Vertices
    705504.829654825,         !- Vertex 1 Xcoordinate
    5711451.20474687,         !- Vertex 1 Ycoordinate
    9,                        !- Vertex 1 Zcoordinate
    705504.829654825,         !- Vertex 2 Xcoordinate
    5711451.20474687,         !- Vertex 2 Ycoordinate
    0,                        !- Vertex 2 Zcoordinate
    705512.6293844737,        !- Vertex 3 Xcoordinate
    5711450.958012593,        !- Vertex 3 Ycoordinate
    0,                        !- Vertex 3 Zcoordinate
    705512.6293844737,        !- Vertex 4 Xcoordinate
    5711450.958012593,        !- Vertex 4 Ycoordinate
    9;                        !- Vertex 4 Zcoordinate

SHADING:SITE:DETAILED,
    shade_way/395620831_3,    !- Name
    ,                         !- Transmittance Schedule Name
    autocalculate,            !- Number of Vertices
    705512.6293844737,        !- Vertex 1 Xcoordinate
    5711450.958012593,        !- Vertex 1 Ycoordinate
    9,                        !- Vertex 1 Zcoordinate
    705512.6293844737,        !- Vertex 2 Xcoordinate
    5711450.958012593,        !- Vertex 2 Ycoordinate
    0,                        !- Vertex 2 Zcoordinate
    705512.4770914253,        !- Vertex 3 Xcoordinate
    5711446.140980806,        !- Vertex 3 Ycoordinate
    0,                        !- Vertex 3 Zcoordinate
    705512.4770914253,        !- Vertex 4 Xcoordinate
    5711446.140980806,        !- Vertex 4 Ycoordinate
    9;                        !- Vertex 4 Zcoordinate

SHADING:SITE:DETAILED,
    shade_way/395620831_4,    !- Name
    ,                         !- Transmittance Schedule Name
    autocalculate,            !- Number of Vertices
    705512.4770914253,        !- Vertex 1 Xcoordinate
    5711446.140980806,        !- Vertex 1 Ycoordinate
    9,                        !- Vertex 1 Zcoordinate
    705512.4770914253,        !- Vertex 2 Xcoordinate
    5711446.140980806,        !- Vertex 2 Ycoordinate
    0,                        !- Vertex 2 Zcoordinate
    705504.6773617765,        !- Vertex 3 Xcoordinate
    5711446.387715084,        !- Vertex 3 Ycoordinate
    0,                        !- Vertex 3 Zcoordinate
    705504.6773617765,        !- Vertex 4 Xcoordinate
    5711446.387715084,        !- Vertex 4 Ycoordinate
    9;                        !- Vertex 4 Zcoordinate

SHADING:SITE:DETAILED,
    shade_way/395620829_1,    !- Name
    ,                         !- Transmittance Schedule Name
    autocalculate,            !- Number of Vertices
    705511.8845755057,        !- Vertex 1 Xcoordinate
    5711450.967099217,        !- Vertex 1 Ycoordinate
    6,                        !- Vertex 1 Zcoordinate
    705511.8845755057,        !- Vertex 2 Xcoordinate
    5711450.967099217,        !- Vertex 2 Ycoordinate
    0,                        !- Vertex 2 Zcoordinate
    705502.6521814598,        !- Vertex 3 Xcoordinate
    5711451.272458845,        !- Vertex 3 Ycoordinate
    0,                        !- Vertex 3 Zcoordinate
    705502.6521814598,        !- Vertex 4 Xcoordinate
    5711451.272458845,        !- Vertex 4 Ycoordinate
    6;                        !- Vertex 4 Zcoordinate

SHADING:SITE:DETAILED,
    shade_way/395620829_2,    !- Name
    ,                         !- Transmittance Schedule Name
    autocalculate,            !- Number of Vertices
    705502.6521814598,        !- Vertex 1 Xcoordinate
    5711451.272458845,        !- Vertex 1 Ycoordinate
    6,                        !- Vertex 1 Zcoordinate
    705502.6521814598,        !- Vertex 2 Xcoordinate
    5711451.272458845,        !- Vertex 2 Ycoordinate
    0,                        !- Vertex 2 Zcoordinate
    705502.8195194905,        !- Vertex 3 Xcoordinate
    5711456.336259957,        !- Vertex 3 Ycoordinate
    0,                        !- Vertex 3 Zcoordinate
    705502.8195194905,        !- Vertex 4 Xcoordinate
    5711456.336259957,        !- Vertex 4 Ycoordinate
    6;                        !- Vertex 4 Zcoordinate

SHADING:SITE:DETAILED,
    shade_way/395620829_3,    !- Name
    ,                         !- Transmittance Schedule Name
    autocalculate,            !- Number of Vertices
    705502.8195194905,        !- Vertex 1 Xcoordinate
    5711456.336259957,        !- Vertex 1 Ycoordinate
    6,                        !- Vertex 1 Zcoordinate
    705502.8195194905,        !- Vertex 2 Xcoordinate
    5711456.336259957,        !- Vertex 2 Ycoordinate
    0,                        !- Vertex 2 Zcoordinate
    705512.0519135366,        !- Vertex 3 Xcoordinate
    5711456.030900328,        !- Vertex 3 Ycoordinate
    0,                        !- Vertex 3 Zcoordinate
    705512.0519135366,        !- Vertex 4 Xcoordinate
    5711456.030900328,        !- Vertex 4 Ycoordinate
    6;                        !- Vertex 4 Zcoordinate

SHADING:SITE:DETAILED,
    shade_way/395620829_4,    !- Name
    ,                         !- Transmittance Schedule Name
    autocalculate,            !- Number of Vertices
    705512.0519135366,        !- Vertex 1 Xcoordinate
    5711456.030900328,        !- Vertex 1 Ycoordinate
    6,                        !- Vertex 1 Zcoordinate
    705512.0519135366,        !- Vertex 2 Xcoordinate
    5711456.030900328,        !- Vertex 2 Ycoordinate
    0,                        !- Vertex 2 Zcoordinate
    705511.8845755057,        !- Vertex 3 Xcoordinate
    5711450.967099217,        !- Vertex 3 Ycoordinate
    0,                        !- Vertex 3 Zcoordinate
    705511.8845755057,        !- Vertex 4 Xcoordinate
    5711450.967099217,        !- Vertex 4 Ycoordinate
    6;                        !- Vertex 4 Zcoordinate

SHADING:SITE:DETAILED,
    shade_way/1056562078_1,    !- Name
    ,                         !- Transmittance Schedule Name
    autocalculate,            !- Number of Vertices
    705481.4886078527,        !- Vertex 1 Xcoordinate
    5711446.2948913695,       !- Vertex 1 Ycoordinate
    6,                        !- Vertex 1 Zcoordinate
    705481.4886078527,        !- Vertex 2 Xcoordinate
    5711446.2948913695,       !- Vertex 2 Ycoordinate
    0,                        !- Vertex 2 Zcoordinate
    705489.6946395437,        !- Vertex 3 Xcoordinate
    5711444.979885985,        !- Vertex 3 Ycoordinate
    0,                        !- Vertex 3 Zcoordinate
    705489.6946395437,        !- Vertex 4 Xcoordinate
    5711444.979885985,        !- Vertex 4 Ycoordinate
    6;                        !- Vertex 4 Zcoordinate

SHADING:SITE:DETAILED,
    shade_way/1056562078_2,    !- Name
    ,                         !- Transmittance Schedule Name
    autocalculate,            !- Number of Vertices
    705489.6946395437,        !- Vertex 1 Xcoordinate
    5711444.979885985,        !- Vertex 1 Ycoordinate
    6,                        !- Vertex 1 Zcoordinate
    705489.6946395437,        !- Vertex 2 Xcoordinate
    5711444.979885985,        !- Vertex 2 Ycoordinate
    0,                        !- Vertex 2 Zcoordinate
    705488.6885647487,        !- Vertex 3 Xcoordinate
    5711438.702020321,        !- Vertex 3 Ycoordinate
    0,                        !- Vertex 3 Zcoordinate
    705488.6885647487,        !- Vertex 4 Xcoordinate
    5711438.702020321,        !- Vertex 4 Ycoordinate
    6;                        !- Vertex 4 Zcoordinate

SHADING:SITE:DETAILED,
    shade_way/1056562078_3,    !- Name
    ,                         !- Transmittance Schedule Name
    autocalculate,            !- Number of Vertices
    705488.6885647487,        !- Vertex 1 Xcoordinate
    5711438.702020321,        !- Vertex 1 Ycoordinate
    6,                        !- Vertex 1 Zcoordinate
    705488.6885647487,        !- Vertex 2 Xcoordinate
    5711438.702020321,        !- Vertex 2 Ycoordinate
    0,                        !- Vertex 2 Zcoordinate
    705480.4825697446,        !- Vertex 3 Xcoordinate
    5711440.017140767,        !- Vertex 3 Ycoordinate
    0,                        !- Vertex 3 Zcoordinate
    705480.4825697446,        !- Vertex 4 Xcoordinate
    5711440.017140767,        !- Vertex 4 Ycoordinate
    6;                        !- Vertex 4 Zcoordinate

SHADING:SITE:DETAILED,
    shade_way/1056562078_4,    !- Name
    ,                         !- Transmittance Schedule Name
    autocalculate,            !- Number of Vertices
    705480.4825697446,        !- Vertex 1 Xcoordinate
    5711440.017140767,        !- Vertex 1 Ycoordinate
    6,                        !- Vertex 1 Zcoordinate
    705480.4825697446,        !- Vertex 2 Xcoordinate
    5711440.017140767,        !- Vertex 2 Ycoordinate
    0,                        !- Vertex 2 Zcoordinate
    705481.4886078527,        !- Vertex 3 Xcoordinate
    5711446.2948913695,       !- Vertex 3 Ycoordinate
    0,                        !- Vertex 3 Zcoordinate
    705481.4886078527,        !- Vertex 4 Xcoordinate
    5711446.2948913695,       !- Vertex 4 Ycoordinate
    6;                        !- Vertex 4 Zcoordinate

SHADING:SITE:DETAILED,
    shade_way/1056562079_1,    !- Name
    ,                         !- Transmittance Schedule Name
    autocalculate,            !- Number of Vertices
    705489.6487897544,        !- Vertex 1 Xcoordinate
    5711444.987233689,        !- Vertex 1 Ycoordinate
    6,                        !- Vertex 1 Zcoordinate
    705489.6487897544,        !- Vertex 2 Xcoordinate
    5711444.987233689,        !- Vertex 2 Ycoordinate
    0,                        !- Vertex 2 Zcoordinate
    705481.4886078527,        !- Vertex 3 Xcoordinate
    5711446.2948913695,       !- Vertex 3 Ycoordinate
    0,                        !- Vertex 3 Zcoordinate
    705481.4886078527,        !- Vertex 4 Xcoordinate
    5711446.2948913695,       !- Vertex 4 Ycoordinate
    6;                        !- Vertex 4 Zcoordinate

SHADING:SITE:DETAILED,
    shade_way/1056562079_2,    !- Name
    ,                         !- Transmittance Schedule Name
    autocalculate,            !- Number of Vertices
    705481.4886078527,        !- Vertex 1 Xcoordinate
    5711446.2948913695,       !- Vertex 1 Ycoordinate
    6,                        !- Vertex 1 Zcoordinate
    705481.4886078527,        !- Vertex 2 Xcoordinate
    5711446.2948913695,       !- Vertex 2 Ycoordinate
    0,                        !- Vertex 2 Zcoordinate
    705482.4767862599,        !- Vertex 3 Xcoordinate
    5711452.461083293,        !- Vertex 3 Ycoordinate
    0,                        !- Vertex 3 Zcoordinate
    705482.4767862599,        !- Vertex 4 Xcoordinate
    5711452.461083293,        !- Vertex 4 Ycoordinate
    6;                        !- Vertex 4 Zcoordinate

SHADING:SITE:DETAILED,
    shade_way/1056562079_3,    !- Name
    ,                         !- Transmittance Schedule Name
    autocalculate,            !- Number of Vertices
    705482.4767862599,        !- Vertex 1 Xcoordinate
    5711452.461083293,        !- Vertex 1 Ycoordinate
    6,                        !- Vertex 1 Zcoordinate
    705482.4767862599,        !- Vertex 2 Xcoordinate
    5711452.461083293,        !- Vertex 2 Ycoordinate
    0,                        !- Vertex 2 Zcoordinate
    705490.636931475,         !- Vertex 3 Xcoordinate
    5711451.15331055,         !- Vertex 3 Ycoordinate
    0,                        !- Vertex 3 Zcoordinate
    705490.636931475,         !- Vertex 4 Xcoordinate
    5711451.15331055,         !- Vertex 4 Ycoordinate
    6;                        !- Vertex 4 Zcoordinate

SHADING:SITE:DETAILED,
    shade_way/1056562079_4,    !- Name
    ,                         !- Transmittance Schedule Name
    autocalculate,            !- Number of Vertices
    705490.636931475,         !- Vertex 1 Xcoordinate
    5711451.15331055,         !- Vertex 1 Ycoordinate
    6,                        !- Vertex 1 Zcoordinate
    705490.636931475,         !- Vertex 2 Xcoordinate
    5711451.15331055,         !- Vertex 2 Ycoordinate
    0,                        !- Vertex 2 Zcoordinate
    705489.6487897544,        !- Vertex 3 Xcoordinate
    5711444.987233689,        !- Vertex 3 Ycoordinate
    0,                        !- Vertex 3 Zcoordinate
    705489.6487897544,        !- Vertex 4 Xcoordinate
    5711444.987233689,        !- Vertex 4 Ycoordinate
    6;                        !- Vertex 4 Zcoordinate

SHADING:SITE:DETAILED,
    shade_way/1056562080_1,    !- Name
    ,                         !- Transmittance Schedule Name
    autocalculate,            !- Number of Vertices
    705482.4826171757,        !- Vertex 1 Xcoordinate
    5711452.460088049,        !- Vertex 1 Ycoordinate
    6,                        !- Vertex 1 Zcoordinate
    705482.4826171757,        !- Vertex 2 Xcoordinate
    5711452.460088049,        !- Vertex 2 Ycoordinate
    0,                        !- Vertex 2 Zcoordinate
    705483.4319369061,        !- Vertex 3 Xcoordinate
    5711458.356205124,        !- Vertex 3 Ycoordinate
    0,                        !- Vertex 3 Zcoordinate
    705483.4319369061,        !- Vertex 4 Xcoordinate
    5711458.356205124,        !- Vertex 4 Ycoordinate
    6;                        !- Vertex 4 Zcoordinate

SHADING:SITE:DETAILED,
    shade_way/1056562080_2,    !- Name
    ,                         !- Transmittance Schedule Name
    autocalculate,            !- Number of Vertices
    705483.4319369061,        !- Vertex 1 Xcoordinate
    5711458.356205124,        !- Vertex 1 Ycoordinate
    6,                        !- Vertex 1 Zcoordinate
    705483.4319369061,        !- Vertex 2 Xcoordinate
    5711458.356205124,        !- Vertex 2 Ycoordinate
    0,                        !- Vertex 2 Zcoordinate
    705491.5853357975,        !- Vertex 3 Xcoordinate
    5711457.043439828,        !- Vertex 3 Ycoordinate
    0,                        !- Vertex 3 Zcoordinate
    705491.5853357975,        !- Vertex 4 Xcoordinate
    5711457.043439828,        !- Vertex 4 Ycoordinate
    6;                        !- Vertex 4 Zcoordinate

SHADING:SITE:DETAILED,
    shade_way/1056562080_3,    !- Name
    ,                         !- Transmittance Schedule Name
    autocalculate,            !- Number of Vertices
    705491.5853357975,        !- Vertex 1 Xcoordinate
    5711457.043439828,        !- Vertex 1 Ycoordinate
    6,                        !- Vertex 1 Zcoordinate
    705491.5853357975,        !- Vertex 2 Xcoordinate
    5711457.043439828,        !- Vertex 2 Ycoordinate
    0,                        !- Vertex 2 Zcoordinate
    705490.636016067,         !- Vertex 3 Xcoordinate
    5711451.147322752,        !- Vertex 3 Ycoordinate
    0,                        !- Vertex 3 Zcoordinate
    705490.636016067,         !- Vertex 4 Xcoordinate
    5711451.147322752,        !- Vertex 4 Ycoordinate
    6;                        !- Vertex 4 Zcoordinate

SHADING:SITE:DETAILED,
    shade_way/1056562080_4,    !- Name
    ,                         !- Transmittance Schedule Name
    autocalculate,            !- Number of Vertices
    705490.636016067,         !- Vertex 1 Xcoordinate
    5711451.147322752,        !- Vertex 1 Ycoordinate
    6,                        !- Vertex 1 Zcoordinate
    705490.636016067,         !- Vertex 2 Xcoordinate
    5711451.147322752,        !- Vertex 2 Ycoordinate
    0,                        !- Vertex 2 Zcoordinate
    705482.4826171757,        !- Vertex 3 Xcoordinate
    5711452.460088049,        !- Vertex 3 Ycoordinate
    0,                        !- Vertex 3 Zcoordinate
    705482.4826171757,        !- Vertex 4 Xcoordinate
    5711452.460088049,        !- Vertex 4 Ycoordinate
    6;                        !- Vertex 4 Zcoordinate

SHADING:SITE:DETAILED,
    shade_way/1056562081_1,    !- Name
    ,                         !- Transmittance Schedule Name
    autocalculate,            !- Number of Vertices
    705492.5791532577,        !- Vertex 1 Xcoordinate
    5711463.0698132925,       !- Vertex 1 Ycoordinate
    6,                        !- Vertex 1 Zcoordinate
    705492.5791532577,        !- Vertex 2 Xcoordinate
    5711463.0698132925,       !- Vertex 2 Ycoordinate
    0,                        !- Vertex 2 Zcoordinate
    705491.5741701846,        !- Vertex 3 Xcoordinate
    5711457.004395417,        !- Vertex 3 Ycoordinate
    0,                        !- Vertex 3 Zcoordinate
    705491.5741701846,        !- Vertex 4 Xcoordinate
    5711457.004395417,        !- Vertex 4 Ycoordinate
    6;                        !- Vertex 4 Zcoordinate

SHADING:SITE:DETAILED,
    shade_way/1056562081_2,    !- Name
    ,                         !- Transmittance Schedule Name
    autocalculate,            !- Number of Vertices
    705491.5741701846,        !- Vertex 1 Xcoordinate
    5711457.004395417,        !- Vertex 1 Ycoordinate
    6,                        !- Vertex 1 Zcoordinate
    705491.5741701846,        !- Vertex 2 Xcoordinate
    5711457.004395417,        !- Vertex 2 Ycoordinate
    0,                        !- Vertex 2 Zcoordinate
    705483.3152489678,        !- Vertex 3 Xcoordinate
    5711458.3730345005,       !- Vertex 3 Ycoordinate
    0,                        !- Vertex 3 Zcoordinate
    705483.3152489678,        !- Vertex 4 Xcoordinate
    5711458.3730345005,       !- Vertex 4 Ycoordinate
    6;                        !- Vertex 4 Zcoordinate

SHADING:SITE:DETAILED,
    shade_way/1056562081_3,    !- Name
    ,                         !- Transmittance Schedule Name
    autocalculate,            !- Number of Vertices
    705483.3152489678,        !- Vertex 1 Xcoordinate
    5711458.3730345005,       !- Vertex 1 Ycoordinate
    6,                        !- Vertex 1 Zcoordinate
    705483.3152489678,        !- Vertex 2 Xcoordinate
    5711458.3730345005,       !- Vertex 2 Ycoordinate
    0,                        !- Vertex 2 Zcoordinate
    705484.320232041,         !- Vertex 3 Xcoordinate
    5711464.438452377,        !- Vertex 3 Ycoordinate
    0,                        !- Vertex 3 Zcoordinate
    705484.320232041,         !- Vertex 4 Xcoordinate
    5711464.438452377,        !- Vertex 4 Ycoordinate
    6;                        !- Vertex 4 Zcoordinate

SHADING:SITE:DETAILED,
    shade_way/1056562081_4,    !- Name
    ,                         !- Transmittance Schedule Name
    autocalculate,            !- Number of Vertices
    705484.320232041,         !- Vertex 1 Xcoordinate
    5711464.438452377,        !- Vertex 1 Ycoordinate
    6,                        !- Vertex 1 Zcoordinate
    705484.320232041,         !- Vertex 2 Xcoordinate
    5711464.438452377,        !- Vertex 2 Ycoordinate
    0,                        !- Vertex 2 Zcoordinate
    705492.5791532577,        !- Vertex 3 Xcoordinate
    5711463.0698132925,       !- Vertex 3 Ycoordinate
    0,                        !- Vertex 3 Zcoordinate
    705492.5791532577,        !- Vertex 4 Xcoordinate
    5711463.0698132925,       !- Vertex 4 Ycoordinate
    6;                        !- Vertex 4 Zcoordinate

OTHEREQUIPMENT,
    EU_Step8_InternalGain_e331db15984ee349_F0_dwelling_0_f000,    !- Name
    Electricity,              !- Fuel Type
    e331db15984ee349_F0_dwelling_0,    !- Zone or ZoneList or Space or SpaceList Name
    EU_Step8_GainSchedule_e331db15984ee349_F0_dwelling_0_f000,    !- Schedule Name
    Watts/Area,               !- Design Level Calculation Method
    ,                         !- Design Level
    1,                        !- Power per Zone Floor Area
    ,                         !- Power per Person
    0,                        !- Fraction Latent
    0,                        !- Fraction Radiant
    0,                        !- Fraction Lost
    0,                        !- Carbon Dioxide Generation Rate
    EU_Step8_InternalGains;    !- EndUse Subcategory

ZONEVENTILATION:DESIGNFLOWRATE,
    EU_ConstantAir_e331db15984ee349_F0_dwelling_0,    !- Name
    e331db15984ee349_F0_dwelling_0,    !- Zone or ZoneList or Space or SpaceList Name
    EU_AlwaysOn,              !- Schedule Name
    AirChanges/Hour,          !- Design Flow Rate Calculation Method
    ,                         !- Design Flow Rate
    ,                         !- Flow Rate per Floor Area
    ,                         !- Flow Rate per Person
    0.4800000000000001,       !- Air Changes per Hour
    Natural,                  !- Ventilation Type
    0,                        !- Fan Pressure Rise
    1,                        !- Fan Total Efficiency
    1,                        !- Constant Term Coefficient
    0,                        !- Temperature Term Coefficient
    0,                        !- Velocity Term Coefficient
    0,                        !- Velocity Squared Term Coefficient
    -100,                     !- Minimum Indoor Temperature
    ,                         !- Minimum Indoor Temperature Schedule Name
    100,                      !- Maximum Indoor Temperature
    ,                         !- Maximum Indoor Temperature Schedule Name
    -100,                     !- Delta Temperature
    ,                         !- Delta Temperature Schedule Name
    -100,                     !- Minimum Outdoor Temperature
    ,                         !- Minimum Outdoor Temperature Schedule Name
    100,                      !- Maximum Outdoor Temperature
    ,                         !- Maximum Outdoor Temperature Schedule Name
    40;                       !- Maximum Wind Speed

HVACTEMPLATE:THERMOSTAT,
    EU_HeatOnly_e331db15984ee349_F0_dwelling_0,    !- Name
    ,                         !- Heating Setpoint Schedule Name
    20,                       !- Constant Heating Setpoint
    ,                         !- Cooling Setpoint Schedule Name
    50;                       !- Constant Cooling Setpoint

HVACTEMPLATE:ZONE:IDEALLOADSAIRSYSTEM,
    e331db15984ee349_F0_dwelling_0,    !- Zone Name
    EU_HeatOnly_e331db15984ee349_F0_dwelling_0,    !- Template Thermostat Name
    EU_AlwaysOn,              !- System Availability Schedule Name
    50,                       !- Maximum Heating Supply Air Temperature
    13,                       !- Minimum Cooling Supply Air Temperature
    0.0156,                   !- Maximum Heating Supply Air Humidity Ratio
    0.0077,                   !- Minimum Cooling Supply Air Humidity Ratio
    NoLimit,                  !- Heating Limit
    ,                         !- Maximum Heating Air Flow Rate
    ,                         !- Maximum Sensible Heating Capacity
    NoLimit,                  !- Cooling Limit
    ,                         !- Maximum Cooling Air Flow Rate
    ,                         !- Maximum Total Cooling Capacity
    EU_AlwaysOn,              !- Heating Availability Schedule Name
    EU_CoolingOff,            !- Cooling Availability Schedule Name
    ConstantSensibleHeatRatio,    !- Dehumidification Control Type
    0.7,                      !- Cooling Sensible Heat Ratio
    60,                       !- Dehumidification Setpoint
    None,                     !- Humidification Control Type
    30,                       !- Humidification Setpoint
    None,                     !- Outdoor Air Method
    0.00944,                  !- Outdoor Air Flow Rate per Person
    0.0,                      !- Outdoor Air Flow Rate per Zone Floor Area
    0,                        !- Outdoor Air Flow Rate per Zone
    ,                         !- Design Specification Outdoor Air Object Name
    None,                     !- Demand Controlled Ventilation Type
    NoEconomizer,             !- Outdoor Air Economizer Type
    None,                     !- Heat Recovery Type
    0.70,                     !- Sensible Heat Recovery Effectiveness
    0.65;                     !- Latent Heat Recovery Effectiveness

SIZING:ZONE,
    e331db15984ee349_F0_dwelling_0,    !- Zone or ZoneList Name
    SupplyAirTemperature,     !- Zone Cooling Design Supply Air Temperature Input Method
    13,                       !- Zone Cooling Design Supply Air Temperature
    ,                         !- Zone Cooling Design Supply Air Temperature Difference
    SupplyAirTemperature,     !- Zone Heating Design Supply Air Temperature Input Method
    50,                       !- Zone Heating Design Supply Air Temperature
    ,                         !- Zone Heating Design Supply Air Temperature Difference
    0.008,                    !- Zone Cooling Design Supply Air Humidity Ratio
    0.008,                    !- Zone Heating Design Supply Air Humidity Ratio
    ,                         !- Design Specification Outdoor Air Object Name
    ,                         !- Zone Heating Sizing Factor
    ,                         !- Zone Cooling Sizing Factor
    DesignDay,                !- Cooling Design Air Flow Method
    0,                        !- Cooling Design Air Flow Rate
    0.000762,                 !- Cooling Minimum Air Flow per Zone Floor Area
    0,                        !- Cooling Minimum Air Flow
    0.2,                      !- Cooling Minimum Air Flow Fraction
    DesignDay,                !- Heating Design Air Flow Method
    0,                        !- Heating Design Air Flow Rate
    0.002032,                 !- Heating Maximum Air Flow per Zone Floor Area
    0.1415762,                !- Heating Maximum Air Flow
    0.3,                      !- Heating Maximum Air Flow Fraction
    ,                         !- Design Specification Zone Air Distribution Object Name
    No,                       !- Account for Dedicated Outdoor Air System
    NeutralSupplyAir,         !- Dedicated Outdoor Air System Control Strategy
    autosize,                 !- Dedicated Outdoor Air Low Setpoint Temperature for Design
    autosize,                 !- Dedicated Outdoor Air High Setpoint Temperature for Design
    Sensible Load Only No Latent Load,    !- Zone Load Sizing Method
    HumidityRatioDifference,    !- Zone Latent Cooling Design Supply Air Humidity Ratio Input Method
    ,                         !- Zone Dehumidification Design Supply Air Humidity Ratio
    0.005,                    !- Zone Cooling Design Supply Air Humidity Ratio Difference
    HumidityRatioDifference,    !- Zone Latent Heating Design Supply Air Humidity Ratio Input Method
    ,                         !- Zone Humidification Design Supply Air Humidity Ratio
    0.005;                    !- Zone Humidification Design Supply Air Humidity Ratio Difference

OUTPUT:VARIABLE,
    *,                        !- Key Value
    Zone Ideal Loads Zone Total Heating Energy,    !- Variable Name
    Hourly;                   !- Reporting Frequency

OUTPUT:SQLITE,
    SimpleAndTabular,         !- Option Type
    UseOutputControlTableStyle;    !- Unit Conversion for Tabular Data