!- Windows Line endings 

Version,
    23.1;                     !- Version Identifier

SimulationControl,
    Yes,                      !- Do Zone Sizing Calculation
    Yes,                      !- Do System Sizing Calculation
    Yes,                      !- Do Plant Sizing Calculation
    No,                       !- Run Simulation for Sizing Periods
    Yes,                      !- Run Simulation for Weather File Run Periods
    No,                       !- Do HVAC Sizing Simulation for Sizing Periods
    1;                        !- Maximum Number of HVAC Sizing Simulation Passes

Building,
    EU S2 Campaign,           !- Name
    0,                        !- North Axis
    City,                     !- Terrain
    ,                         !- Loads Convergence Tolerance Value
    ,                         !- Temperature Convergence Tolerance Value
    FullExterior,             !- Solar Distribution
    ,                         !- Maximum Number of Warmup Days
    ;                         !- Minimum Number of Warmup Days

ShadowCalculation,
    PolygonClipping,          !- Shading Calculation Method
    Periodic,                 !- Shading Calculation Update Frequency Method
    1;                        !- Shading Calculation Update Frequency

HeatBalanceAlgorithm,
    ConductionTransferFunction,    !- Algorithm
    200,                      !- Surface Temperature Upper Limit
    0.1,                      !- Minimum Surface Convection Heat Transfer Coefficient Value
    10000000;                 !- Maximum Surface Convection Heat Transfer Coefficient Value

Timestep,
    12;                       !- Number of Timesteps per Hour

Site:Location,
    Lyon-Bron,                !- Name
    45.75,                    !- Latitude
    5,                        !- Longitude
    1,                        !- Time Zone
    198;                      !- Elevation

SizingPeriod:WeatherFileDays,
    AnnualSizingPeriod,       !- Name
    1,                        !- Begin Month
    1,                        !- Begin Day of Month
    12,                       !- End Month
    31,                       !- End Day of Month
    Monday,                   !- Day of Week for Start Day
    No,                       !- Use Weather File Daylight Saving Period
    No;                       !- Use Weather File Rain and Snow Indicators

RunPeriod,
    RunPeriod1,               !- Name
    1,                        !- Begin Month
    1,                        !- Begin Day of Month
    ,                         !- Begin Year
    12,                       !- End Month
    31,                       !- End Day of Month
    ,                         !- End Year
    Sunday,                   !- Day of Week for Start Day
    No,                       !- Use Weather File Holidays and Special Days
    No,                       !- Use Weather File Daylight Saving Period
    No,                       !- Apply Weekend Holiday Rule
    Yes,                      !- Use Weather File Rain Indicators
    Yes;                      !- Use Weather File Snow Indicators

ScheduleTypeLimits,
    Any Number;               !- Name

SCHEDULETYPELIMITS,
    EU_Step8_AnyNumber_Wm2,    !- Name
    ,                         !- Lower Limit Value
    ,                         !- Upper Limit Value
    Continuous,               !- Numeric Type
    Dimensionless;            !- Unit Type

SCHEDULE:CONSTANT,
    EU_AlwaysOn,              !- Name
    ,                         !- Schedule Type Limits Name
    1;                        !- Hourly Value

SCHEDULE:CONSTANT,
    EU_CoolingOff,            !- Name
    ,                         !- Schedule Type Limits Name
    0;                        !- Hourly Value

SCHEDULE:FILE,
    EU_Step8_GainSchedule_1e10d54d154018e3_F0_dwelling_0_f000,    !- Name
    EU_Step8_AnyNumber_Wm2,    !- Schedule Type Limits Name
    ../../schedules/1e10d54d154018e3/1e10d54d154018e3_F0_dwelling_0_f000_gain.csv,    !- File Name
    1,                        !- Column Number
    0,                        !- Rows to Skip at Top
    8760,                     !- Number of Hours of Data
    Comma,                    !- Column Separator
    No,                       !- Interpolate to Timestep
    60,                       !- Minutes per Item
    Yes;                      !- Adjust Schedule for Daylight Savings

MATERIAL,
    EU_InternalMass_Material,    !- Name
    MediumRough,              !- Roughness
    0.1,                      !- Thickness
    1,                        !- Conductivity
    1800,                     !- Density
    900,                      !- Specific Heat
    0.9,                      !- Thermal Absorptance
    0.7,                      !- Solar Absorptance
    0.7;                      !- Visible Absorptance

MATERIAL:NOMASS,
    EU_wall_NoMass,           !- Name
    MediumRough,              !- Roughness
    3.7798073540525423,       !- Thermal Resistance
    0.9,                      !- Thermal Absorptance
    0.7,                      !- Solar Absorptance
    0.7;                      !- Visible Absorptance

MATERIAL:NOMASS,
    EU_roof_NoMass,           !- Name
    MediumRough,              !- Roughness
    4.586377124164172,        !- Thermal Resistance
    0.9,                      !- Thermal Absorptance
    0.7,                      !- Solar Absorptance
    0.7;                      !- Visible Absorptance

MATERIAL:NOMASS,
    EU_floor_NoMass,          !- Name
    MediumRough,              !- Roughness
    6.08968962597354,         !- Thermal Resistance
    0.9,                      !- Thermal Absorptance
    0.7,                      !- Solar Absorptance
    0.7;                      !- Visible Absorptance

CONSTRUCTION,
    EU_wall_Construction,     !- Name
    EU_wall_NoMass;           !- Outside Layer

CONSTRUCTION,
    EU_roof_Construction,     !- Name
    EU_roof_NoMass;           !- Outside Layer

CONSTRUCTION,
    EU_floor_Construction,    !- Name
    EU_floor_NoMass;          !- Outside Layer

CONSTRUCTION,
    EU_InternalMass_Construction,    !- Name
    EU_InternalMass_Material;    !- Outside Layer

GlobalGeometryRules,
    UpperLeftCorner,          !- Starting Vertex Position
    CounterClockWise,         !- Vertex Entry Direction
    World;                    !- Coordinate System

ZONE,
    1e10d54d154018e3_F0_dwelling_0,    !- Name
    0,                        !- Direction of Relative North
    0,                        !- X Origin
    0,                        !- Y Origin
    0,                        !- Z Origin
    1,                        !- Type
    1,                        !- Multiplier
    autocalculate,            !- Ceiling Height
    664.288330078125,         !- Volume
    autocalculate,            !- Floor Area
    ,                         !- Zone Inside Convection Algorithm
    ,                         !- Zone Outside Convection Algorithm
    Yes;                      !- Part of Total Floor Area

BUILDINGSURFACE:DETAILED,
    Block 1e10d54d154018e3_0 Storey 0 Wall 0001,    !- Name
    wall,                     !- Surface Type
    EU_wall_Construction,     !- Construction Name
    1e10d54d154018e3_F0_dwelling_0,    !- Zone Name
    ,                         !- Space Name
    outdoors,                 !- Outside Boundary Condition
    ,                         !- Outside Boundary Condition Object
    SunExposed,               !- Sun Exposure
    WindExposed,              !- Wind Exposure
    autocalculate,            !- View Factor to Ground
    autocalculate,            !- Number of Vertices
    642551.6926598271,        !- Vertex 1 Xcoordinate
    5070528.903675965,        !- Vertex 1 Ycoordinate
    9,                        !- Vertex 1 Zcoordinate
    642551.6926598271,        !- Vertex 2 Xcoordinate
    5070528.903675965,        !- Vertex 2 Ycoordinate
    0,                        !- Vertex 2 Zcoordinate
    642547.7922163645,        !- Vertex 3 Xcoordinate
    5070538.7118391935,       !- Vertex 3 Ycoordinate
    0,                        !- Vertex 3 Zcoordinate
    642547.7922163645,        !- Vertex 4 Xcoordinate
    5070538.7118391935,       !- Vertex 4 Ycoordinate
    9;                        !- Vertex 4 Zcoordinate

BUILDINGSURFACE:DETAILED,
    Block 1e10d54d154018e3_0 Storey 0 Wall 0002,    !- Name
    wall,                     !- Surface Type
    EU_wall_Construction,     !- Construction Name
    1e10d54d154018e3_F0_dwelling_0,    !- Zone Name
    ,                         !- Space Name
    outdoors,                 !- Outside Boundary Condition
    ,                         !- Outside Boundary Condition Object
    SunExposed,               !- Sun Exposure
    WindExposed,              !- Wind Exposure
    autocalculate,            !- View Factor to Ground
    autocalculate,            !- Number of Vertices
    642547.7922163645,        !- Vertex 1 Xcoordinate
    5070538.7118391935,       !- Vertex 1 Ycoordinate
    9,                        !- Vertex 1 Zcoordinate
    642547.7922163645,        !- Vertex 2 Xcoordinate
    5070538.7118391935,       !- Vertex 2 Ycoordinate
    0,                        !- Vertex 2 Zcoordinate
    642541.3863391068,        !- Vertex 3 Xcoordinate
    5070534.510913712,        !- Vertex 3 Ycoordinate
    0,                        !- Vertex 3 Zcoordinate
    642541.3863391068,        !- Vertex 4 Xcoordinate
    5070534.510913712,        !- Vertex 4 Ycoordinate
    9;                        !- Vertex 4 Zcoordinate

BUILDINGSURFACE:DETAILED,
    Block 1e10d54d154018e3_0 Storey 0 Wall 0003,    !- Name
    wall,                     !- Surface Type
    EU_wall_Construction,     !- Construction Name
    1e10d54d154018e3_F0_dwelling_0,    !- Zone Name
    ,                         !- Space Name
    outdoors,                 !- Outside Boundary Condition
    ,                         !- Outside Boundary Condition Object
    SunExposed,               !- Sun Exposure
    WindExposed,              !- Wind Exposure
    autocalculate,            !- View Factor to Ground
    autocalculate,            !- Number of Vertices
    642541.3863391068,        !- Vertex 1 Xcoordinate
    5070534.510913712,        !- Vertex 1 Ycoordinate
    9,                        !- Vertex 1 Zcoordinate
    642541.3863391068,        !- Vertex 2 Xcoordinate
    5070534.510913712,        !- Vertex 2 Ycoordinate
    0,                        !- Vertex 2 Zcoordinate
    642544.0863645662,        !- Vertex 3 Xcoordinate
    5070526.404852018,        !- Vertex 3 Ycoordinate
    0,                        !- Vertex 3 Zcoordinate
    642544.0863645662,        !- Vertex 4 Xcoordinate
    5070526.404852018,        !- Vertex 4 Ycoordinate
    9;                        !- Vertex 4 Zcoordinate

BUILDINGSURFACE:DETAILED,
    Block 1e10d54d154018e3_0 Storey 0 Wall 0004,    !- Name
    wall,                     !- Surface Type
    EU_wall_Construction,     !- Construction Name
    1e10d54d154018e3_F0_dwelling_0,    !- Zone Name
    ,                         !- Space Name
    outdoors,                 !- Outside Boundary Condition
    ,                         !- Outside Boundary Condition Object
    SunExposed,               !- Sun Exposure
    WindExposed,              !- Wind Exposure
    autocalculate,            !- View Factor to Ground
    autocalculate,            !- Number of Vertices
    642544.0863645662,        !- Vertex 1 Xcoordinate
    5070526.404852018,        !- Vertex 1 Ycoordinate
    9,                        !- Vertex 1 Zcoordinate
    642544.0863645662,        !- Vertex 2 Xcoordinate
    5070526.404852018,        !- Vertex 2 Ycoordinate
    0,                        !- Vertex 2 Zcoordinate
    642551.6926598271,        !- Vertex 3 Xcoordinate
    5070528.903675965,        !- Vertex 3 Ycoordinate
    0,                        !- Vertex 3 Zcoordinate
    642551.6926598271,        !- Vertex 4 Xcoordinate
    5070528.903675965,        !- Vertex 4 Ycoordinate
    9;                        !- Vertex 4 Zcoordinate

BUILDINGSURFACE:DETAILED,
    Block 1e10d54d154018e3_0 Storey 0 Floor 0001,    !- Name
    floor,                    !- Surface Type
    EU_floor_Construction,    !- Construction Name
    1e10d54d154018e3_F0_dwelling_0,    !- Zone Name
    ,                         !- Space Name
    ground,                   !- Outside Boundary Condition
    ,                         !- Outside Boundary Condition Object
    NoSun,                    !- Sun Exposure
    NoWind,                   !- Wind Exposure
    autocalculate,            !- View Factor to Ground
    autocalculate,            !- Number of Vertices
    642547.7922163645,        !- Vertex 1 Xcoordinate
    5070538.7118391935,       !- Vertex 1 Ycoordinate
    0,                        !- Vertex 1 Zcoordinate
    642551.6926598271,        !- Vertex 2 Xcoordinate
    5070528.903675965,        !- Vertex 2 Ycoordinate
    0,                        !- Vertex 2 Zcoordinate
    642544.0863645662,        !- Vertex 3 Xcoordinate
    5070526.404852018,        !- Vertex 3 Ycoordinate
    0,                        !- Vertex 3 Zcoordinate
    642541.3863391068,        !- Vertex 4 Xcoordinate
    5070534.510913712,        !- Vertex 4 Ycoordinate
    0;                        !- Vertex 4 Zcoordinate

BUILDINGSURFACE:DETAILED,
    Block 1e10d54d154018e3_0 Storey 0 Roof 0001,    !- Name
    roof,                     !- Surface Type
    EU_roof_Construction,     !- Construction Name
    1e10d54d154018e3_F0_dwelling_0,    !- Zone Name
    ,                         !- Space Name
    outdoors,                 !- Outside Boundary Condition
    ,                         !- Outside Boundary Condition Object
    SunExposed,               !- Sun Exposure
    WindExposed,              !- Wind Exposure
    autocalculate,            !- View Factor to Ground
    autocalculate,            !- Number of Vertices
    642551.6926598271,        !- Vertex 1 Xcoordinate
    5070528.903675965,        !- Vertex 1 Ycoordinate
    9,                        !- Vertex 1 Zcoordinate
    642547.7922163645,        !- Vertex 2 Xcoordinate
    5070538.7118391935,       !- Vertex 2 Ycoordinate
    9,                        !- Vertex 2 Zcoordinate
    642541.3863391068,        !- Vertex 3 Xcoordinate
    5070534.510913712,        !- Vertex 3 Ycoordinate
    9,                        !- Vertex 3 Zcoordinate
    642544.0863645662,        !- Vertex 4 Xcoordinate
    5070526.404852018,        !- Vertex 4 Ycoordinate
    9;                        !- Vertex 4 Zcoordinate

INTERNALMASS,
    1e10d54d154018e3_F0_dwelling_0_EU_InternalMass,    !- Name
    EU_InternalMass_Construction,    !- Construction Name
    1e10d54d154018e3_F0_dwelling_0,    !- Zone or ZoneList Name
    ,                         !- Space or SpaceList Name
    73.80967451037017;        !- Surface Area

SHADING:SITE:DETAILED,
    shade_BATIMENT0000000240880045_part0_1,    !- Name
    ,                         !- Transmittance Schedule Name
    autocalculate,            !- Number of Vertices
    642508.8375353472,        !- Vertex 1 Xcoordinate
    5070528.779000572,        !- Vertex 1 Ycoordinate
    26.9,                     !- Vertex 1 Zcoordinate
    642508.8375353472,        !- Vertex 2 Xcoordinate
    5070528.779000572,        !- Vertex 2 Ycoordinate
    0,                        !- Vertex 2 Zcoordinate
    642530.2178985107,        !- Vertex 3 Xcoordinate
    5070535.7281857785,       !- Vertex 3 Ycoordinate
    0,                        !- Vertex 3 Zcoordinate
    642530.2178985107,        !- Vertex 4 Xcoordinate
    5070535.7281857785,       !- Vertex 4 Ycoordinate
    26.9;                     !- Vertex 4 Zcoordinate

SHADING:SITE:DETAILED,
    shade_BATIMENT0000000240880045_part0_2,    !- Name
    ,                         !- Transmittance Schedule Name
    autocalculate,            !- Number of Vertices
    642530.2178985107,        !- Vertex 1 Xcoordinate
    5070535.7281857785,       !- Vertex 1 Ycoordinate
    26.9,                     !- Vertex 1 Zcoordinate
    642530.2178985107,        !- Vertex 2 Xcoordinate
    5070535.7281857785,       !- Vertex 2 Ycoordinate
    0,                        !- Vertex 2 Zcoordinate
    642547.0346679909,        !- Vertex 3 Xcoordinate
    5070483.988502914,        !- Vertex 3 Ycoordinate
    0,                        !- Vertex 3 Zcoordinate
    642547.0346679909,        !- Vertex 4 Xcoordinate
    5070483.988502914,        !- Vertex 4 Ycoordinate
    26.9;                     !- Vertex 4 Zcoordinate

SHADING:SITE:DETAILED,
    shade_BATIMENT0000000240880045_part0_3,    !- Name
    ,                         !- Transmittance Schedule Name
    autocalculate,            !- Number of Vertices
    642547.0346679909,        !- Vertex 1 Xcoordinate
    5070483.988502914,        !- Vertex 1 Ycoordinate
    26.9,                     !- Vertex 1 Zcoordinate
    642547.0346679909,        !- Vertex 2 Xcoordinate
    5070483.988502914,        !- Vertex 2 Ycoordinate
    0,                        !- Vertex 2 Zcoordinate
    642525.6543048272,        !- Vertex 3 Xcoordinate
    5070477.0393177075,       !- Vertex 3 Ycoordinate
    0,                        !- Vertex 3 Zcoordinate
    642525.6543048272,        !- Vertex 4 Xcoordinate
    5070477.0393177075,       !- Vertex 4 Ycoordinate
    26.9;                     !- Vertex 4 Zcoordinate

SHADING:SITE:DETAILED,
    shade_BATIMENT0000000240880045_part0_4,    !- Name
    ,                         !- Transmittance Schedule Name
    autocalculate,            !- Number of Vertices
    642525.6543048272,        !- Vertex 1 Xcoordinate
    5070477.0393177075,       !- Vertex 1 Ycoordinate
    26.9,                     !- Vertex 1 Zcoordinate
    642525.6543048272,        !- Vertex 2 Xcoordinate
    5070477.0393177075,       !- Vertex 2 Ycoordinate
    0,                        !- Vertex 2 Zcoordinate
    642508.8375353472,        !- Vertex 3 Xcoordinate
    5070528.779000572,        !- Vertex 3 Ycoordinate
    0,                        !- Vertex 3 Zcoordinate
    642508.8375353472,        !- Vertex 4 Xcoordinate
    5070528.779000572,        !- Vertex 4 Ycoordinate
    26.9;                     !- Vertex 4 Zcoordinate

SHADING:SITE:DETAILED,
    shade_BATIMENT0000000240880044_part0_1,    !- Name
    ,                         !- Transmittance Schedule Name
    autocalculate,            !- Number of Vertices
    642530.1791156086,        !- Vertex 1 Xcoordinate
    5070535.715599928,        !- Vertex 1 Ycoordinate
    24.7,                     !- Vertex 1 Zcoordinate
    642530.1791156086,        !- Vertex 2 Xcoordinate
    5070535.715599928,        !- Vertex 2 Ycoordinate
    0,                        !- Vertex 2 Zcoordinate
    642503.1005031988,        !- Vertex 3 Xcoordinate
    5070526.914312932,        !- Vertex 3 Ycoordinate
    0,                        !- Vertex 3 Zcoordinate
    642503.1005031988,        !- Vertex 4 Xcoordinate
    5070526.914312932,        !- Vertex 4 Ycoordinate
    24.7;                     !- Vertex 4 Zcoordinate

SHADING:SITE:DETAILED,
    shade_BATIMENT0000000240880044_part0_2,    !- Name
    ,                         !- Transmittance Schedule Name
    autocalculate,            !- Number of Vertices
    642503.1005031988,        !- Vertex 1 Xcoordinate
    5070526.914312932,        !- Vertex 1 Ycoordinate
    24.7,                     !- Vertex 1 Zcoordinate
    642503.1005031988,        !- Vertex 2 Xcoordinate
    5070526.914312932,        !- Vertex 2 Ycoordinate
    0,                        !- Vertex 2 Zcoordinate
    642493.00026696,          !- Vertex 3 Xcoordinate
    5070557.989426406,        !- Vertex 3 Ycoordinate
    0,                        !- Vertex 3 Zcoordinate
    642493.00026696,          !- Vertex 4 Xcoordinate
    5070557.989426406,        !- Vertex 4 Ycoordinate
    24.7;                     !- Vertex 4 Zcoordinate

SHADING:SITE:DETAILED,
    shade_BATIMENT0000000240880044_part0_3,    !- Name
    ,                         !- Transmittance Schedule Name
    autocalculate,            !- Number of Vertices
    642493.00026696,          !- Vertex 1 Xcoordinate
    5070557.989426406,        !- Vertex 1 Ycoordinate
    24.7,                     !- Vertex 1 Zcoordinate
    642493.00026696,          !- Vertex 2 Xcoordinate
    5070557.989426406,        !- Vertex 2 Ycoordinate
    0,                        !- Vertex 2 Zcoordinate
    642520.0790251882,        !- Vertex 3 Xcoordinate
    5070566.7907411745,       !- Vertex 3 Ycoordinate
    0,                        !- Vertex 3 Zcoordinate
    642520.0790251882,        !- Vertex 4 Xcoordinate
    5070566.7907411745,       !- Vertex 4 Ycoordinate
    24.7;                     !- Vertex 4 Zcoordinate

SHADING:SITE:DETAILED,
    shade_BATIMENT0000000240880044_part0_4,    !- Name
    ,                         !- Transmittance Schedule Name
    autocalculate,            !- Number of Vertices
    642520.0790251882,        !- Vertex 1 Xcoordinate
    5070566.7907411745,       !- Vertex 1 Ycoordinate
    24.7,                     !- Vertex 1 Zcoordinate
    642520.0790251882,        !- Vertex 2 Xcoordinate
    5070566.7907411745,       !- Vertex 2 Ycoordinate
    0,                        !- Vertex 2 Zcoordinate
    642530.1791156086,        !- Vertex 3 Xcoordinate
    5070535.715599928,        !- Vertex 3 Ycoordinate
    0,                        !- Vertex 3 Zcoordinate
    642530.1791156086,        !- Vertex 4 Xcoordinate
    5070535.715599928,        !- Vertex 4 Ycoordinate
    24.7;                     !- Vertex 4 Zcoordinate

SHADING:SITE:DETAILED,
    shade_BATIMENT0000000240881348_part0_1,    !- Name
    ,                         !- Transmittance Schedule Name
    autocalculate,            !- Number of Vertices
    642567.1441619239,        !- Vertex 1 Xcoordinate
    5070459.432905357,        !- Vertex 1 Ycoordinate
    25.2,                     !- Vertex 1 Zcoordinate
    642567.1441619239,        !- Vertex 2 Xcoordinate
    5070459.432905357,        !- Vertex 2 Ycoordinate
    0,                        !- Vertex 2 Zcoordinate
    642549.6742069323,        !- Vertex 3 Xcoordinate
    5070511.128279456,        !- Vertex 3 Ycoordinate
    0,                        !- Vertex 3 Zcoordinate
    642549.6742069323,        !- Vertex 4 Xcoordinate
    5070511.128279456,        !- Vertex 4 Ycoordinate
    25.2;                     !- Vertex 4 Zcoordinate

SHADING:SITE:DETAILED,
    shade_BATIMENT0000000240881348_part0_2,    !- Name
    ,                         !- Transmittance Schedule Name
    autocalculate,            !- Number of Vertices
    642549.6742069323,        !- Vertex 1 Xcoordinate
    5070511.128279456,        !- Vertex 1 Ycoordinate
    25.2,                     !- Vertex 1 Zcoordinate
    642549.6742069323,        !- Vertex 2 Xcoordinate
    5070511.128279456,        !- Vertex 2 Ycoordinate
    0,                        !- Vertex 2 Zcoordinate
    642573.9879291458,        !- Vertex 3 Xcoordinate
    5070519.3448682735,       !- Vertex 3 Ycoordinate
    0,                        !- Vertex 3 Zcoordinate
    642573.9879291458,        !- Vertex 4 Xcoordinate
    5070519.3448682735,       !- Vertex 4 Ycoordinate
    25.2;                     !- Vertex 4 Zcoordinate

SHADING:SITE:DETAILED,
    shade_BATIMENT0000000240881348_part0_3,    !- Name
    ,                         !- Transmittance Schedule Name
    autocalculate,            !- Number of Vertices
    642573.9879291458,        !- Vertex 1 Xcoordinate
    5070519.3448682735,       !- Vertex 1 Ycoordinate
    25.2,                     !- Vertex 1 Zcoordinate
    642573.9879291458,        !- Vertex 2 Xcoordinate
    5070519.3448682735,       !- Vertex 2 Ycoordinate
    0,                        !- Vertex 2 Zcoordinate
    642591.4578841374,        !- Vertex 3 Xcoordinate
    5070467.649494176,        !- Vertex 3 Ycoordinate
    0,                        !- Vertex 3 Zcoordinate
    642591.4578841374,        !- Vertex 4 Xcoordinate
    5070467.649494176,        !- Vertex 4 Ycoordinate
    25.2;                     !- Vertex 4 Zcoordinate

SHADING:SITE:DETAILED,
    shade_BATIMENT0000000240881348_part0_4,    !- Name
    ,                         !- Transmittance Schedule Name
    autocalculate,            !- Number of Vertices
    642591.4578841374,        !- Vertex 1 Xcoordinate
    5070467.649494176,        !- Vertex 1 Ycoordinate
    25.2,                     !- Vertex 1 Zcoordinate
    642591.4578841374,        !- Vertex 2 Xcoordinate
    5070467.649494176,        !- Vertex 2 Ycoordinate
    0,                        !- Vertex 2 Zcoordinate
    642567.1441619239,        !- Vertex 3 Xcoordinate
    5070459.432905357,        !- Vertex 3 Ycoordinate
    0,                        !- Vertex 3 Zcoordinate
    642567.1441619239,        !- Vertex 4 Xcoordinate
    5070459.432905357,        !- Vertex 4 Ycoordinate
    25.2;                     !- Vertex 4 Zcoordinate

SHADING:SITE:DETAILED,
    shade_BATIMENT0000000240881347_part0_1,    !- Name
    ,                         !- Transmittance Schedule Name
    autocalculate,            !- Number of Vertices
    642567.197691435,         !- Vertex 1 Xcoordinate
    5070507.184218243,        !- Vertex 1 Ycoordinate
    14.5,                     !- Vertex 1 Zcoordinate
    642567.197691435,         !- Vertex 2 Xcoordinate
    5070507.184218243,        !- Vertex 2 Ycoordinate
    0,                        !- Vertex 2 Zcoordinate
    642563.7977573564,        !- Vertex 3 Xcoordinate
    5070515.891149371,        !- Vertex 3 Ycoordinate
    0,                        !- Vertex 3 Zcoordinate
    642563.7977573564,        !- Vertex 4 Xcoordinate
    5070515.891149371,        !- Vertex 4 Ycoordinate
    14.5;                     !- Vertex 4 Zcoordinate

SHADING:SITE:DETAILED,
    shade_BATIMENT0000000240881347_part0_2,    !- Name
    ,                         !- Transmittance Schedule Name
    autocalculate,            !- Number of Vertices
    642563.7977573564,        !- Vertex 1 Xcoordinate
    5070515.891149371,        !- Vertex 1 Ycoordinate
    14.5,                     !- Vertex 1 Zcoordinate
    642563.7977573564,        !- Vertex 2 Xcoordinate
    5070515.891149371,        !- Vertex 2 Ycoordinate
    0,                        !- Vertex 2 Zcoordinate
    642569.1128472912,        !- Vertex 3 Xcoordinate
    5070517.966496768,        !- Vertex 3 Ycoordinate
    0,                        !- Vertex 3 Zcoordinate
    642569.1128472912,        !- Vertex 4 Xcoordinate
    5070517.966496768,        !- Vertex 4 Ycoordinate
    14.5;                     !- Vertex 4 Zcoordinate

SHADING:SITE:DETAILED,
    shade_BATIMENT0000000240881347_part0_3,    !- Name
    ,                         !- Transmittance Schedule Name
    autocalculate,            !- Number of Vertices
    642569.1128472912,        !- Vertex 1 Xcoordinate
    5070517.966496768,        !- Vertex 1 Ycoordinate
    14.5,                     !- Vertex 1 Zcoordinate
    642569.1128472912,        !- Vertex 2 Xcoordinate
    5070517.966496768,        !- Vertex 2 Ycoordinate
    0,                        !- Vertex 2 Zcoordinate
    642572.5127813686,        !- Vertex 3 Xcoordinate
    5070509.259565639,        !- Vertex 3 Ycoordinate
    0,                        !- Vertex 3 Zcoordinate
    642572.5127813686,        !- Vertex 4 Xcoordinate
    5070509.259565639,        !- Vertex 4 Ycoordinate
    14.5;                     !- Vertex 4 Zcoordinate

SHADING:SITE:DETAILED,
    shade_BATIMENT0000000240881347_part0_4,    !- Name
    ,                         !- Transmittance Schedule Name
    autocalculate,            !- Number of Vertices
    642572.5127813686,        !- Vertex 1 Xcoordinate
    5070509.259565639,        !- Vertex 1 Ycoordinate
    14.5,                     !- Vertex 1 Zcoordinate
    642572.5127813686,        !- Vertex 2 Xcoordinate
    5070509.259565639,        !- Vertex 2 Ycoordinate
    0,                        !- Vertex 2 Zcoordinate
    642567.197691435,         !- Vertex 3 Xcoordinate
    5070507.184218243,        !- Vertex 3 Ycoordinate
    0,                        !- Vertex 3 Zcoordinate
    642567.197691435,         !- Vertex 4 Xcoordinate
    5070507.184218243,        !- Vertex 4 Ycoordinate
    14.5;                     !- Vertex 4 Zcoordinate

SHADING:SITE:DETAILED,
    shade_BATIMENT0000000240879608_part0_1,    !- Name
    ,                         !- Transmittance Schedule Name
    autocalculate,            !- Number of Vertices
    642549.6859419473,        !- Vertex 1 Xcoordinate
    5070511.0921419505,       !- Vertex 1 Ycoordinate
    12.3,                     !- Vertex 1 Zcoordinate
    642549.6859419473,        !- Vertex 2 Xcoordinate
    5070511.0921419505,       !- Vertex 2 Ycoordinate
    0,                        !- Vertex 2 Zcoordinate
    642548.0861295746,        !- Vertex 3 Xcoordinate
    5070515.895325695,        !- Vertex 3 Ycoordinate
    0,                        !- Vertex 3 Zcoordinate
    642548.0861295746,        !- Vertex 4 Xcoordinate
    5070515.895325695,        !- Vertex 4 Ycoordinate
    12.3;                     !- Vertex 4 Zcoordinate

SHADING:SITE:DETAILED,
    shade_BATIMENT0000000240879608_part0_2,    !- Name
    ,                         !- Transmittance Schedule Name
    autocalculate,            !- Number of Vertices
    642548.0861295746,        !- Vertex 1 Xcoordinate
    5070515.895325695,        !- Vertex 1 Ycoordinate
    12.3,                     !- Vertex 1 Zcoordinate
    642548.0861295746,        !- Vertex 2 Xcoordinate
    5070515.895325695,        !- Vertex 2 Ycoordinate
    0,                        !- Vertex 2 Zcoordinate
    642562.2865141715,        !- Vertex 3 Xcoordinate
    5070520.625222885,        !- Vertex 3 Ycoordinate
    0,                        !- Vertex 3 Zcoordinate
    642562.2865141715,        !- Vertex 4 Xcoordinate
    5070520.625222885,        !- Vertex 4 Ycoordinate
    12.3;                     !- Vertex 4 Zcoordinate

SHADING:SITE:DETAILED,
    shade_BATIMENT0000000240879608_part0_3,    !- Name
    ,                         !- Transmittance Schedule Name
    autocalculate,            !- Number of Vertices
    642562.2865141715,        !- Vertex 1 Xcoordinate
    5070520.625222885,        !- Vertex 1 Ycoordinate
    12.3,                     !- Vertex 1 Zcoordinate
    642562.2865141715,        !- Vertex 2 Xcoordinate
    5070520.625222885,        !- Vertex 2 Ycoordinate
    0,                        !- Vertex 2 Zcoordinate
    642563.8863265449,        !- Vertex 3 Xcoordinate
    5070515.822039141,        !- Vertex 3 Ycoordinate
    0,                        !- Vertex 3 Zcoordinate
    642563.8863265449,        !- Vertex 4 Xcoordinate
    5070515.822039141,        !- Vertex 4 Ycoordinate
    12.3;                     !- Vertex 4 Zcoordinate

SHADING:SITE:DETAILED,
    shade_BATIMENT0000000240879608_part0_4,    !- Name
    ,                         !- Transmittance Schedule Name
    autocalculate,            !- Number of Vertices
    642563.8863265449,        !- Vertex 1 Xcoordinate
    5070515.822039141,        !- Vertex 1 Ycoordinate
    12.3,                     !- Vertex 1 Zcoordinate
    642563.8863265449,        !- Vertex 2 Xcoordinate
    5070515.822039141,        !- Vertex 2 Ycoordinate
    0,                        !- Vertex 2 Zcoordinate
    642549.6859419473,        !- Vertex 3 Xcoordinate
    5070511.0921419505,       !- Vertex 3 Ycoordinate
    0,                        !- Vertex 3 Zcoordinate
    642549.6859419473,        !- Vertex 4 Xcoordinate
    5070511.0921419505,       !- Vertex 4 Ycoordinate
    12.3;                     !- Vertex 4 Zcoordinate

SHADING:SITE:DETAILED,
    shade_BATIMENT0000000240879478_part0_1,    !- Name
    ,                         !- Transmittance Schedule Name
    autocalculate,            !- Number of Vertices
    642564.5009278639,        !- Vertex 1 Xcoordinate
    5070526.098379371,        !- Vertex 1 Ycoordinate
    8.3,                      !- Vertex 1 Zcoordinate
    642564.5009278639,        !- Vertex 2 Xcoordinate
    5070526.098379371,        !- Vertex 2 Ycoordinate
    0,                        !- Vertex 2 Zcoordinate
    642545.8853194439,        !- Vertex 3 Xcoordinate
    5070519.498652586,        !- Vertex 3 Ycoordinate
    0,                        !- Vertex 3 Zcoordinate
    642545.8853194439,        !- Vertex 4 Xcoordinate
    5070519.498652586,        !- Vertex 4 Ycoordinate
    8.3;                      !- Vertex 4 Zcoordinate

SHADING:SITE:DETAILED,
    shade_BATIMENT0000000240879478_part0_2,    !- Name
    ,                         !- Transmittance Schedule Name
    autocalculate,            !- Number of Vertices
    642545.8853194439,        !- Vertex 1 Xcoordinate
    5070519.498652586,        !- Vertex 1 Ycoordinate
    8.3,                      !- Vertex 1 Zcoordinate
    642545.8853194439,        !- Vertex 2 Xcoordinate
    5070519.498652586,        !- Vertex 2 Ycoordinate
    0,                        !- Vertex 2 Zcoordinate
    642543.9601946068,        !- Vertex 3 Xcoordinate
    5070524.925978341,        !- Vertex 3 Ycoordinate
    0,                        !- Vertex 3 Zcoordinate
    642543.9601946068,        !- Vertex 4 Xcoordinate
    5070524.925978341,        !- Vertex 4 Ycoordinate
    8.3;                      !- Vertex 4 Zcoordinate

SHADING:SITE:DETAILED,
    shade_BATIMENT0000000240879478_part0_3,    !- Name
    ,                         !- Transmittance Schedule Name
    autocalculate,            !- Number of Vertices
    642543.9601946068,        !- Vertex 1 Xcoordinate
    5070524.925978341,        !- Vertex 1 Ycoordinate
    8.3,                      !- Vertex 1 Zcoordinate
    642543.9601946068,        !- Vertex 2 Xcoordinate
    5070524.925978341,        !- Vertex 2 Ycoordinate
    0,                        !- Vertex 2 Zcoordinate
    642562.5758030275,        !- Vertex 3 Xcoordinate
    5070531.525705121,        !- Vertex 3 Ycoordinate
    0,                        !- Vertex 3 Zcoordinate
    642562.5758030275,        !- Vertex 4 Xcoordinate
    5070531.525705121,        !- Vertex 4 Ycoordinate
    8.3;                      !- Vertex 4 Zcoordinate

SHADING:SITE:DETAILED,
    shade_BATIMENT0000000240879478_part0_4,    !- Name
    ,                         !- Transmittance Schedule Name
    autocalculate,            !- Number of Vertices
    642562.5758030275,        !- Vertex 1 Xcoordinate
    5070531.525705121,        !- Vertex 1 Ycoordinate
    8.3,                      !- Vertex 1 Zcoordinate
    642562.5758030275,        !- Vertex 2 Xcoordinate
    5070531.525705121,        !- Vertex 2 Ycoordinate
    0,                        !- Vertex 2 Zcoordinate
    642564.5009278639,        !- Vertex 3 Xcoordinate
    5070526.098379371,        !- Vertex 3 Ycoordinate
    0,                        !- Vertex 3 Zcoordinate
    642564.5009278639,        !- Vertex 4 Xcoordinate
    5070526.098379371,        !- Vertex 4 Ycoordinate
    8.3;                      !- Vertex 4 Zcoordinate

SHADING:SITE:DETAILED,
    shade_BATIMENT0000000240879620_part0_1,    !- Name
    ,                         !- Transmittance Schedule Name
    autocalculate,            !- Number of Vertices
    642554.7756121191,        !- Vertex 1 Xcoordinate
    5070530.052344256,        !- Vertex 1 Ycoordinate
    5.4,                      !- Vertex 1 Zcoordinate
    642554.7756121191,        !- Vertex 2 Xcoordinate
    5070530.052344256,        !- Vertex 2 Ycoordinate
    0,                        !- Vertex 2 Zcoordinate
    642548.1931622695,        !- Vertex 3 Xcoordinate
    5070539.612535196,        !- Vertex 3 Ycoordinate
    0,                        !- Vertex 3 Zcoordinate
    642548.1931622695,        !- Vertex 4 Xcoordinate
    5070539.612535196,        !- Vertex 4 Ycoordinate
    5.4;                      !- Vertex 4 Zcoordinate

SHADING:SITE:DETAILED,
    shade_BATIMENT0000000240879620_part0_2,    !- Name
    ,                         !- Transmittance Schedule Name
    autocalculate,            !- Number of Vertices
    642548.1931622695,        !- Vertex 1 Xcoordinate
    5070539.612535196,        !- Vertex 1 Ycoordinate
    5.4,                      !- Vertex 1 Zcoordinate
    642548.1931622695,        !- Vertex 2 Xcoordinate
    5070539.612535196,        !- Vertex 2 Ycoordinate
    0,                        !- Vertex 2 Zcoordinate
    642552.9183642796,        !- Vertex 3 Xcoordinate
    5070542.865439159,        !- Vertex 3 Ycoordinate
    0,                        !- Vertex 3 Zcoordinate
    642552.9183642796,        !- Vertex 4 Xcoordinate
    5070542.865439159,        !- Vertex 4 Ycoordinate
    5.4;                      !- Vertex 4 Zcoordinate

SHADING:SITE:DETAILED,
    shade_BATIMENT0000000240879620_part0_3,    !- Name
    ,                         !- Transmittance Schedule Name
    autocalculate,            !- Number of Vertices
    642552.9183642796,        !- Vertex 1 Xcoordinate
    5070542.865439159,        !- Vertex 1 Ycoordinate
    5.4,                      !- Vertex 1 Zcoordinate
    642552.9183642796,        !- Vertex 2 Xcoordinate
    5070542.865439159,        !- Vertex 2 Ycoordinate
    0,                        !- Vertex 2 Zcoordinate
    642559.4995660874,        !- Vertex 3 Xcoordinate
    5070533.304603427,        !- Vertex 3 Ycoordinate
    0,                        !- Vertex 3 Zcoordinate
    642559.4995660874,        !- Vertex 4 Xcoordinate
    5070533.304603427,        !- Vertex 4 Ycoordinate
    5.4;                      !- Vertex 4 Zcoordinate

SHADING:SITE:DETAILED,
    shade_BATIMENT0000000240879620_part0_4,    !- Name
    ,                         !- Transmittance Schedule Name
    autocalculate,            !- Number of Vertices
    642559.4995660874,        !- Vertex 1 Xcoordinate
    5070533.304603427,        !- Vertex 1 Ycoordinate
    5.4,                      !- Vertex 1 Zcoordinate
    642559.4995660874,        !- Vertex 2 Xcoordinate
    5070533.304603427,        !- Vertex 2 Ycoordinate
    0,                        !- Vertex 2 Zcoordinate
    642554.7756121191,        !- Vertex 3 Xcoordinate
    5070530.052344256,        !- Vertex 3 Ycoordinate
    0,                        !- Vertex 3 Zcoordinate
    642554.7756121191,        !- Vertex 4 Xcoordinate
    5070530.052344256,        !- Vertex 4 Ycoordinate
    5.4;                      !- Vertex 4 Zcoordinate

SHADING:SITE:DETAILED,
    shade_BATIMENT0000000240880057_part0_1,    !- Name
    ,                         !- Transmittance Schedule Name
    autocalculate,            !- Number of Vertices
    642557.2800598374,        !- Vertex 1 Xcoordinate
    5070594.952853104,        !- Vertex 1 Ycoordinate
    8.1,                      !- Vertex 1 Zcoordinate
    642557.2800598374,        !- Vertex 2 Xcoordinate
    5070594.952853104,        !- Vertex 2 Ycoordinate
    0,                        !- Vertex 2 Zcoordinate
    642633.393885998,         !- Vertex 3 Xcoordinate
    5070604.866129054,        !- Vertex 3 Ycoordinate
    0,                        !- Vertex 3 Zcoordinate
    642633.393885998,         !- Vertex 4 Xcoordinate
    5070604.866129054,        !- Vertex 4 Ycoordinate
    8.1;                      !- Vertex 4 Zcoordinate

SHADING:SITE:DETAILED,
    shade_BATIMENT0000000240880057_part0_2,    !- Name
    ,                         !- Transmittance Schedule Name
    autocalculate,            !- Number of Vertices
    642633.393885998,         !- Vertex 1 Xcoordinate
    5070604.866129054,        !- Vertex 1 Ycoordinate
    8.1,                      !- Vertex 1 Zcoordinate
    642633.393885998,         !- Vertex 2 Xcoordinate
    5070604.866129054,        !- Vertex 2 Ycoordinate
    0,                        !- Vertex 2 Zcoordinate
    642640.5601423662,        !- Vertex 3 Xcoordinate
    5070549.843834287,        !- Vertex 3 Ycoordinate
    0,                        !- Vertex 3 Zcoordinate
    642640.5601423662,        !- Vertex 4 Xcoordinate
    5070549.843834287,        !- Vertex 4 Ycoordinate
    8.1;                      !- Vertex 4 Zcoordinate

SHADING:SITE:DETAILED,
    shade_BATIMENT0000000240880057_part0_3,    !- Name
    ,                         !- Transmittance Schedule Name
    autocalculate,            !- Number of Vertices
    642640.5601423662,        !- Vertex 1 Xcoordinate
    5070549.843834287,        !- Vertex 1 Ycoordinate
    8.1,                      !- Vertex 1 Zcoordinate
    642640.5601423662,        !- Vertex 2 Xcoordinate
    5070549.843834287,        !- Vertex 2 Ycoordinate
    0,                        !- Vertex 2 Zcoordinate
    642564.4463162054,        !- Vertex 3 Xcoordinate
    5070539.930558337,        !- Vertex 3 Ycoordinate
    0,                        !- Vertex 3 Zcoordinate
    642564.4463162054,        !- Vertex 4 Xcoordinate
    5070539.930558337,        !- Vertex 4 Ycoordinate
    8.1;                      !- Vertex 4 Zcoordinate

SHADING:SITE:DETAILED,
    shade_BATIMENT0000000240880057_part0_4,    !- Name
    ,                         !- Transmittance Schedule Name
    autocalculate,            !- Number of Vertices
    642564.4463162054,        !- Vertex 1 Xcoordinate
    5070539.930558337,        !- Vertex 1 Ycoordinate
    8.1,                      !- Vertex 1 Zcoordinate
    642564.4463162054,        !- Vertex 2 Xcoordinate
    5070539.930558337,        !- Vertex 2 Ycoordinate
    0,                        !- Vertex 2 Zcoordinate
    642557.2800598374,        !- Vertex 3 Xcoordinate
    5070594.952853104,        !- Vertex 3 Ycoordinate
    0,                        !- Vertex 3 Zcoordinate
    642557.2800598374,        !- Vertex 4 Xcoordinate
    5070594.952853104,        !- Vertex 4 Ycoordinate
    8.1;                      !- Vertex 4 Zcoordinate

OTHEREQUIPMENT,
    EU_Step8_InternalGain_1e10d54d154018e3_F0_dwelling_0_f000,    !- Name
    Electricity,              !- Fuel Type
    1e10d54d154018e3_F0_dwelling_0,    !- Zone or ZoneList or Space or SpaceList Name
    EU_Step8_GainSchedule_1e10d54d154018e3_F0_dwelling_0_f000,    !- Schedule Name
    Watts/Area,               !- Design Level Calculation Method
    ,                         !- Design Level
    1,                        !- Power per Zone Floor Area
    ,                         !- Power per Person
    0,                        !- Fraction Latent
    0,                        !- Fraction Radiant
    0,                        !- Fraction Lost
    0,                        !- Carbon Dioxide Generation Rate
    EU_Step8_InternalGains;    !- EndUse Subcategory

ZONEVENTILATION:DESIGNFLOWRATE,
    EU_ConstantAir_1e10d54d154018e3_F0_dwelling_0,    !- Name
    1e10d54d154018e3_F0_dwelling_0,    !- Zone or ZoneList or Space or SpaceList Name
    EU_AlwaysOn,              !- Schedule Name
    AirChanges/Hour,          !- Design Flow Rate Calculation Method
    ,                         !- Design Flow Rate
    ,                         !- Flow Rate per Floor Area
    ,                         !- Flow Rate per Person
    0.4561443929638209,       !- Air Changes per Hour
    Natural,                  !- Ventilation Type
    0,                        !- Fan Pressure Rise
    1,                        !- Fan Total Efficiency
    1,                        !- Constant Term Coefficient
    0,                        !- Temperature Term Coefficient
    0,                        !- Velocity Term Coefficient
    0,                        !- Velocity Squared Term Coefficient
    -100,                     !- Minimum Indoor Temperature
    ,                         !- Minimum Indoor Temperature Schedule Name
    100,                      !- Maximum Indoor Temperature
    ,                         !- Maximum Indoor Temperature Schedule Name
    -100,                     !- Delta Temperature
    ,                         !- Delta Temperature Schedule Name
    -100,                     !- Minimum Outdoor Temperature
    ,                         !- Minimum Outdoor Temperature Schedule Name
    100,                      !- Maximum Outdoor Temperature
    ,                         !- Maximum Outdoor Temperature Schedule Name
    40;                       !- Maximum Wind Speed

HVACTEMPLATE:THERMOSTAT,
    EU_HeatOnly_1e10d54d154018e3_F0_dwelling_0,    !- Name
    ,                         !- Heating Setpoint Schedule Name
    20,                       !- Constant Heating Setpoint
    ,                         !- Cooling Setpoint Schedule Name
    50;                       !- Constant Cooling Setpoint

HVACTEMPLATE:ZONE:IDEALLOADSAIRSYSTEM,
    1e10d54d154018e3_F0_dwelling_0,    !- Zone Name
    EU_HeatOnly_1e10d54d154018e3_F0_dwelling_0,    !- Template Thermostat Name
    EU_AlwaysOn,              !- System Availability Schedule Name
    50,                       !- Maximum Heating Supply Air Temperature
    13,                       !- Minimum Cooling Supply Air Temperature
    0.0156,                   !- Maximum Heating Supply Air Humidity Ratio
    0.0077,                   !- Minimum Cooling Supply Air Humidity Ratio
    NoLimit,                  !- Heating Limit
    ,                         !- Maximum Heating Air Flow Rate
    ,                         !- Maximum Sensible Heating Capacity
    NoLimit,                  !- Cooling Limit
    ,                         !- Maximum Cooling Air Flow Rate
    ,                         !- Maximum Total Cooling Capacity
    EU_AlwaysOn,              !- Heating Availability Schedule Name
    EU_CoolingOff,            !- Cooling Availability Schedule Name
    ConstantSensibleHeatRatio,    !- Dehumidification Control Type
    0.7,                      !- Cooling Sensible Heat Ratio
    60,                       !- Dehumidification Setpoint
    None,                     !- Humidification Control Type
    30,                       !- Humidification Setpoint
    None,                     !- Outdoor Air Method
    0.00944,                  !- Outdoor Air Flow Rate per Person
    0.0,                      !- Outdoor Air Flow Rate per Zone Floor Area
    0,                        !- Outdoor Air Flow Rate per Zone
    ,                         !- Design Specification Outdoor Air Object Name
    None,                     !- Demand Controlled Ventilation Type
    NoEconomizer,             !- Outdoor Air Economizer Type
    None,                     !- Heat Recovery Type
    0.70,                     !- Sensible Heat Recovery Effectiveness
    0.65;                     !- Latent Heat Recovery Effectiveness

SIZING:ZONE,
    1e10d54d154018e3_F0_dwelling_0,    !- Zone or ZoneList Name
    SupplyAirTemperature,     !- Zone Cooling Design Supply Air Temperature Input Method
    13,                       !- Zone Cooling Design Supply Air Temperature
    ,                         !- Zone Cooling Design Supply Air Temperature Difference
    SupplyAirTemperature,     !- Zone Heating Design Supply Air Temperature Input Method
    50,                       !- Zone Heating Design Supply Air Temperature
    ,                         !- Zone Heating Design Supply Air Temperature Difference
    0.008,                    !- Zone Cooling Design Supply Air Humidity Ratio
    0.008,                    !- Zone Heating Design Supply Air Humidity Ratio
    ,                         !- Design Specification Outdoor Air Object Name
    ,                         !- Zone Heating Sizing Factor
    ,                         !- Zone Cooling Sizing Factor
    DesignDay,                !- Cooling Design Air Flow Method
    0,                        !- Cooling Design Air Flow Rate
    0.000762,                 !- Cooling Minimum Air Flow per Zone Floor Area
    0,                        !- Cooling Minimum Air Flow
    0.2,                      !- Cooling Minimum Air Flow Fraction
    DesignDay,                !- Heating Design Air Flow Method
    0,                        !- Heating Design Air Flow Rate
    0.002032,                 !- Heating Maximum Air Flow per Zone Floor Area
    0.1415762,                !- Heating Maximum Air Flow
    0.3,                      !- Heating Maximum Air Flow Fraction
    ,                         !- Design Specification Zone Air Distribution Object Name
    No,                       !- Account for Dedicated Outdoor Air System
    NeutralSupplyAir,         !- Dedicated Outdoor Air System Control Strategy
    autosize,                 !- Dedicated Outdoor Air Low Setpoint Temperature for Design
    autosize,                 !- Dedicated Outdoor Air High Setpoint Temperature for Design
    Sensible Load Only No Latent Load,    !- Zone Load Sizing Method
    HumidityRatioDifference,    !- Zone Latent Cooling Design Supply Air Humidity Ratio Input Method
    ,                         !- Zone Dehumidification Design Supply Air Humidity Ratio
    0.005,                    !- Zone Cooling Design Supply Air Humidity Ratio Difference
    HumidityRatioDifference,    !- Zone Latent Heating Design Supply Air Humidity Ratio Input Method
    ,                         !- Zone Humidification Design Supply Air Humidity Ratio
    0.005;                    !- Zone Humidification Design Supply Air Humidity Ratio Difference

OUTPUT:VARIABLE,
    *,                        !- Key Value
    Zone Ideal Loads Zone Total Heating Energy,    !- Variable Name
    Hourly;                   !- Reporting Frequency

OUTPUT:SQLITE,
    SimpleAndTabular,         !- Option Type
    UseOutputControlTableStyle;    !- Unit Conversion for Tabular Data