!- Windows Line endings 

Version,
    23.1;                     !- Version Identifier

SimulationControl,
    Yes,                      !- Do Zone Sizing Calculation
    Yes,                      !- Do System Sizing Calculation
    Yes,                      !- Do Plant Sizing Calculation
    No,                       !- Run Simulation for Sizing Periods
    Yes,                      !- Run Simulation for Weather File Run Periods
    No,                       !- Do HVAC Sizing Simulation for Sizing Periods
    1;                        !- Maximum Number of HVAC Sizing Simulation Passes

Building,
    EU S2 Campaign,           !- Name
    0,                        !- North Axis
    City,                     !- Terrain
    ,                         !- Loads Convergence Tolerance Value
    ,                         !- Temperature Convergence Tolerance Value
    FullExterior,             !- Solar Distribution
    ,                         !- Maximum Number of Warmup Days
    ;                         !- Minimum Number of Warmup Days

ShadowCalculation,
    PolygonClipping,          !- Shading Calculation Method
    Periodic,                 !- Shading Calculation Update Frequency Method
    1;                        !- Shading Calculation Update Frequency

HeatBalanceAlgorithm,
    ConductionTransferFunction,    !- Algorithm
    200,                      !- Surface Temperature Upper Limit
    0.1,                      !- Minimum Surface Convection Heat Transfer Coefficient Value
    10000000;                 !- Maximum Surface Convection Heat Transfer Coefficient Value

Timestep,
    12;                       !- Number of Timesteps per Hour

Site:Location,
    Lyon-Bron,                !- Name
    45.75,                    !- Latitude
    5,                        !- Longitude
    1,                        !- Time Zone
    198;                      !- Elevation

SizingPeriod:WeatherFileDays,
    AnnualSizingPeriod,       !- Name
    1,                        !- Begin Month
    1,                        !- Begin Day of Month
    12,                       !- End Month
    31,                       !- End Day of Month
    Monday,                   !- Day of Week for Start Day
    No,                       !- Use Weather File Daylight Saving Period
    No;                       !- Use Weather File Rain and Snow Indicators

RunPeriod,
    RunPeriod1,               !- Name
    1,                        !- Begin Month
    1,                        !- Begin Day of Month
    ,                         !- Begin Year
    12,                       !- End Month
    31,                       !- End Day of Month
    ,                         !- End Year
    Sunday,                   !- Day of Week for Start Day
    No,                       !- Use Weather File Holidays and Special Days
    No,                       !- Use Weather File Daylight Saving Period
    No,                       !- Apply Weekend Holiday Rule
    Yes,                      !- Use Weather File Rain Indicators
    Yes;                      !- Use Weather File Snow Indicators

ScheduleTypeLimits,
    Any Number;               !- Name

SCHEDULETYPELIMITS,
    EU_Step8_AnyNumber_Wm2,    !- Name
    ,                         !- Lower Limit Value
    ,                         !- Upper Limit Value
    Continuous,               !- Numeric Type
    Dimensionless;            !- Unit Type

SCHEDULE:CONSTANT,
    EU_AlwaysOn,              !- Name
    ,                         !- Schedule Type Limits Name
    1;                        !- Hourly Value

SCHEDULE:CONSTANT,
    EU_CoolingOff,            !- Name
    ,                         !- Schedule Type Limits Name
    0;                        !- Hourly Value

SCHEDULE:FILE,
    EU_Step8_GainSchedule_4d19748fb5f1765f_F0_dwelling_0_f000,    !- Name
    EU_Step8_AnyNumber_Wm2,    !- Schedule Type Limits Name
    ../../schedules/4d19748fb5f1765f/4d19748fb5f1765f_F0_dwelling_0_f000_gain.csv,    !- File Name
    1,                        !- Column Number
    0,                        !- Rows to Skip at Top
    8760,                     !- Number of Hours of Data
    Comma,                    !- Column Separator
    No,                       !- Interpolate to Timestep
    60,                       !- Minutes per Item
    Yes;                      !- Adjust Schedule for Daylight Savings

MATERIAL,
    EU_InternalMass_Material,    !- Name
    MediumRough,              !- Roughness
    0.1,                      !- Thickness
    1,                        !- Conductivity
    1800,                     !- Density
    900,                      !- Specific Heat
    0.9,                      !- Thermal Absorptance
    0.7,                      !- Solar Absorptance
    0.7;                      !- Visible Absorptance

MATERIAL:NOMASS,
    EU_wall_NoMass,           !- Name
    MediumRough,              !- Roughness
    0.74595548866958,         !- Thermal Resistance
    0.9,                      !- Thermal Absorptance
    0.7,                      !- Solar Absorptance
    0.7;                      !- Visible Absorptance

MATERIAL:NOMASS,
    EU_roof_NoMass,           !- Name
    MediumRough,              !- Roughness
    1.0381355932203389,       !- Thermal Resistance
    0.9,                      !- Thermal Absorptance
    0.7,                      !- Solar Absorptance
    0.7;                      !- Visible Absorptance

MATERIAL:NOMASS,
    EU_floor_NoMass,          !- Name
    MediumRough,              !- Roughness
    0.5319148936170213,       !- Thermal Resistance
    0.9,                      !- Thermal Absorptance
    0.7,                      !- Solar Absorptance
    0.7;                      !- Visible Absorptance

CONSTRUCTION,
    EU_wall_Construction,     !- Name
    EU_wall_NoMass;           !- Outside Layer

CONSTRUCTION,
    EU_roof_Construction,     !- Name
    EU_roof_NoMass;           !- Outside Layer

CONSTRUCTION,
    EU_floor_Construction,    !- Name
    EU_floor_NoMass;          !- Outside Layer

CONSTRUCTION,
    EU_InternalMass_Construction,    !- Name
    EU_InternalMass_Material;    !- Outside Layer

GlobalGeometryRules,
    UpperLeftCorner,          !- Starting Vertex Position
    CounterClockWise,         !- Vertex Entry Direction
    World;                    !- Coordinate System

ZONE,
    4d19748fb5f1765f_F0_dwelling_0,    !- Name
    0,                        !- Direction of Relative North
    0,                        !- X Origin
    0,                        !- Y Origin
    0,                        !- Z Origin
    1,                        !- Type
    1,                        !- Multiplier
    autocalculate,            !- Ceiling Height
    166.1982421875,           !- Volume
    autocalculate,            !- Floor Area
    ,                         !- Zone Inside Convection Algorithm
    ,                         !- Zone Outside Convection Algorithm
    Yes;                      !- Part of Total Floor Area

BUILDINGSURFACE:DETAILED,
    Block 4d19748fb5f1765f_0 Storey 0 Wall 0001,    !- Name
    wall,                     !- Surface Type
    EU_wall_Construction,     !- Construction Name
    4d19748fb5f1765f_F0_dwelling_0,    !- Zone Name
    ,                         !- Space Name
    outdoors,                 !- Outside Boundary Condition
    ,                         !- Outside Boundary Condition Object
    SunExposed,               !- Sun Exposure
    WindExposed,              !- Wind Exposure
    autocalculate,            !- View Factor to Ground
    autocalculate,            !- Number of Vertices
    642816.7770162527,        !- Vertex 1 Xcoordinate
    5070510.114938205,        !- Vertex 1 Ycoordinate
    6,                        !- Vertex 1 Zcoordinate
    642816.7770162527,        !- Vertex 2 Xcoordinate
    5070510.114938205,        !- Vertex 2 Ycoordinate
    0,                        !- Vertex 2 Zcoordinate
    642822.0797687061,        !- Vertex 3 Xcoordinate
    5070507.612329162,        !- Vertex 3 Ycoordinate
    0,                        !- Vertex 3 Zcoordinate
    642822.0797687061,        !- Vertex 4 Xcoordinate
    5070507.612329162,        !- Vertex 4 Ycoordinate
    6;                        !- Vertex 4 Zcoordinate

BUILDINGSURFACE:DETAILED,
    Block 4d19748fb5f1765f_0 Storey 0 Wall 0002,    !- Name
    wall,                     !- Surface Type
    EU_wall_Construction,     !- Construction Name
    4d19748fb5f1765f_F0_dwelling_0,    !- Zone Name
    ,                         !- Space Name
    outdoors,                 !- Outside Boundary Condition
    ,                         !- Outside Boundary Condition Object
    SunExposed,               !- Sun Exposure
    WindExposed,              !- Wind Exposure
    autocalculate,            !- View Factor to Ground
    autocalculate,            !- Number of Vertices
    642822.0797687061,        !- Vertex 1 Xcoordinate
    5070507.612329162,        !- Vertex 1 Ycoordinate
    6,                        !- Vertex 1 Zcoordinate
    642822.0797687061,        !- Vertex 2 Xcoordinate
    5070507.612329162,        !- Vertex 2 Ycoordinate
    0,                        !- Vertex 2 Zcoordinate
    642824.4822899615,        !- Vertex 3 Xcoordinate
    5070511.113495726,        !- Vertex 3 Ycoordinate
    0,                        !- Vertex 3 Zcoordinate
    642824.4822899615,        !- Vertex 4 Xcoordinate
    5070511.113495726,        !- Vertex 4 Ycoordinate
    6;                        !- Vertex 4 Zcoordinate

BUILDINGSURFACE:DETAILED,
    Block 4d19748fb5f1765f_0 Storey 0 Wall 0003,    !- Name
    wall,                     !- Surface Type
    EU_wall_Construction,     !- Construction Name
    4d19748fb5f1765f_F0_dwelling_0,    !- Zone Name
    ,                         !- Space Name
    outdoors,                 !- Outside Boundary Condition
    ,                         !- Outside Boundary Condition Object
    SunExposed,               !- Sun Exposure
    WindExposed,              !- Wind Exposure
    autocalculate,            !- View Factor to Ground
    autocalculate,            !- Number of Vertices
    642824.4822899615,        !- Vertex 1 Xcoordinate
    5070511.113495726,        !- Vertex 1 Ycoordinate
    6,                        !- Vertex 1 Zcoordinate
    642824.4822899615,        !- Vertex 2 Xcoordinate
    5070511.113495726,        !- Vertex 2 Ycoordinate
    0,                        !- Vertex 2 Zcoordinate
    642819.8799267537,        !- Vertex 3 Xcoordinate
    5070514.51703017,         !- Vertex 3 Ycoordinate
    0,                        !- Vertex 3 Zcoordinate
    642819.8799267537,        !- Vertex 4 Xcoordinate
    5070514.51703017,         !- Vertex 4 Ycoordinate
    6;                        !- Vertex 4 Zcoordinate

BUILDINGSURFACE:DETAILED,
    Block 4d19748fb5f1765f_0 Storey 0 Wall 0004,    !- Name
    wall,                     !- Surface Type
    EU_wall_Construction,     !- Construction Name
    4d19748fb5f1765f_F0_dwelling_0,    !- Zone Name
    ,                         !- Space Name
    outdoors,                 !- Outside Boundary Condition
    ,                         !- Outside Boundary Condition Object
    SunExposed,               !- Sun Exposure
    WindExposed,              !- Wind Exposure
    autocalculate,            !- View Factor to Ground
    autocalculate,            !- Number of Vertices
    642819.8799267537,        !- Vertex 1 Xcoordinate
    5070514.51703017,         !- Vertex 1 Ycoordinate
    6,                        !- Vertex 1 Zcoordinate
    642819.8799267537,        !- Vertex 2 Xcoordinate
    5070514.51703017,         !- Vertex 2 Ycoordinate
    0,                        !- Vertex 2 Zcoordinate
    642816.7770162527,        !- Vertex 3 Xcoordinate
    5070510.114938205,        !- Vertex 3 Ycoordinate
    0,                        !- Vertex 3 Zcoordinate
    642816.7770162527,        !- Vertex 4 Xcoordinate
    5070510.114938205,        !- Vertex 4 Ycoordinate
    6;                        !- Vertex 4 Zcoordinate

BUILDINGSURFACE:DETAILED,
    Block 4d19748fb5f1765f_0 Storey 0 Floor 0001,    !- Name
    floor,                    !- Surface Type
    EU_floor_Construction,    !- Construction Name
    4d19748fb5f1765f_F0_dwelling_0,    !- Zone Name
    ,                         !- Space Name
    ground,                   !- Outside Boundary Condition
    ,                         !- Outside Boundary Condition Object
    NoSun,                    !- Sun Exposure
    NoWind,                   !- Wind Exposure
    autocalculate,            !- View Factor to Ground
    autocalculate,            !- Number of Vertices
    642824.4822899615,        !- Vertex 1 Xcoordinate
    5070511.113495726,        !- Vertex 1 Ycoordinate
    0,                        !- Vertex 1 Zcoordinate
    642822.0797687061,        !- Vertex 2 Xcoordinate
    5070507.612329162,        !- Vertex 2 Ycoordinate
    0,                        !- Vertex 2 Zcoordinate
    642816.7770162527,        !- Vertex 3 Xcoordinate
    5070510.114938205,        !- Vertex 3 Ycoordinate
    0,                        !- Vertex 3 Zcoordinate
    642819.8799267537,        !- Vertex 4 Xcoordinate
    5070514.51703017,         !- Vertex 4 Ycoordinate
    0;                        !- Vertex 4 Zcoordinate

BUILDINGSURFACE:DETAILED,
    Block 4d19748fb5f1765f_0 Storey 0 Roof 0001,    !- Name
    roof,                     !- Surface Type
    EU_roof_Construction,     !- Construction Name
    4d19748fb5f1765f_F0_dwelling_0,    !- Zone Name
    ,                         !- Space Name
    outdoors,                 !- Outside Boundary Condition
    ,                         !- Outside Boundary Condition Object
    SunExposed,               !- Sun Exposure
    WindExposed,              !- Wind Exposure
    autocalculate,            !- View Factor to Ground
    autocalculate,            !- Number of Vertices
    642822.0797687061,        !- Vertex 1 Xcoordinate
    5070507.612329162,        !- Vertex 1 Ycoordinate
    6,                        !- Vertex 1 Zcoordinate
    642824.4822899615,        !- Vertex 2 Xcoordinate
    5070511.113495726,        !- Vertex 2 Ycoordinate
    6,                        !- Vertex 2 Zcoordinate
    642819.8799267537,        !- Vertex 3 Xcoordinate
    5070514.51703017,         !- Vertex 3 Ycoordinate
    6,                        !- Vertex 3 Zcoordinate
    642816.7770162527,        !- Vertex 4 Xcoordinate
    5070510.114938205,        !- Vertex 4 Ycoordinate
    6;                        !- Vertex 4 Zcoordinate

INTERNALMASS,
    4d19748fb5f1765f_F0_dwelling_0_EU_InternalMass,    !- Name
    EU_InternalMass_Construction,    !- Construction Name
    4d19748fb5f1765f_F0_dwelling_0,    !- Zone or ZoneList Name
    ,                         !- Space or SpaceList Name
    27.699639937123518;       !- Surface Area

SHADING:SITE:DETAILED,
    shade_BATIMENT0000000240880069_part0_1,    !- Name
    ,                         !- Transmittance Schedule Name
    autocalculate,            !- Number of Vertices
    642819.774469076,         !- Vertex 1 Xcoordinate
    5070494.803777553,        !- Vertex 1 Ycoordinate
    20.4,                     !- Vertex 1 Zcoordinate
    642819.774469076,         !- Vertex 2 Xcoordinate
    5070494.803777553,        !- Vertex 2 Ycoordinate
    0,                        !- Vertex 2 Zcoordinate
    642858.2979814875,        !- Vertex 3 Xcoordinate
    5070477.288350176,        !- Vertex 3 Ycoordinate
    0,                        !- Vertex 3 Zcoordinate
    642858.2979814875,        !- Vertex 4 Xcoordinate
    5070477.288350176,        !- Vertex 4 Ycoordinate
    20.4;                     !- Vertex 4 Zcoordinate

SHADING:SITE:DETAILED,
    shade_BATIMENT0000000240880069_part0_2,    !- Name
    ,                         !- Transmittance Schedule Name
    autocalculate,            !- Number of Vertices
    642858.2979814875,        !- Vertex 1 Xcoordinate
    5070477.288350176,        !- Vertex 1 Ycoordinate
    20.4,                     !- Vertex 1 Zcoordinate
    642858.2979814875,        !- Vertex 2 Xcoordinate
    5070477.288350176,        !- Vertex 2 Ycoordinate
    0,                        !- Vertex 2 Zcoordinate
    642852.7590042156,        !- Vertex 3 Xcoordinate
    5070465.105826605,        !- Vertex 3 Ycoordinate
    0,                        !- Vertex 3 Zcoordinate
    642852.7590042156,        !- Vertex 4 Xcoordinate
    5070465.105826605,        !- Vertex 4 Ycoordinate
    20.4;                     !- Vertex 4 Zcoordinate

SHADING:SITE:DETAILED,
    shade_BATIMENT0000000240880069_part0_3,    !- Name
    ,                         !- Transmittance Schedule Name
    autocalculate,            !- Number of Vertices
    642852.7590042156,        !- Vertex 1 Xcoordinate
    5070465.105826605,        !- Vertex 1 Ycoordinate
    20.4,                     !- Vertex 1 Zcoordinate
    642852.7590042156,        !- Vertex 2 Xcoordinate
    5070465.105826605,        !- Vertex 2 Ycoordinate
    0,                        !- Vertex 2 Zcoordinate
    642814.2351440458,        !- Vertex 3 Xcoordinate
    5070482.621309728,        !- Vertex 3 Ycoordinate
    0,                        !- Vertex 3 Zcoordinate
    642814.2351440458,        !- Vertex 4 Xcoordinate
    5070482.621309728,        !- Vertex 4 Ycoordinate
    20.4;                     !- Vertex 4 Zcoordinate

SHADING:SITE:DETAILED,
    shade_BATIMENT0000000240880069_part0_4,    !- Name
    ,                         !- Transmittance Schedule Name
    autocalculate,            !- Number of Vertices
    642814.2351440458,        !- Vertex 1 Xcoordinate
    5070482.621309728,        !- Vertex 1 Ycoordinate
    20.4,                     !- Vertex 1 Zcoordinate
    642814.2351440458,        !- Vertex 2 Xcoordinate
    5070482.621309728,        !- Vertex 2 Ycoordinate
    0,                        !- Vertex 2 Zcoordinate
    642819.774469076,         !- Vertex 3 Xcoordinate
    5070494.803777553,        !- Vertex 3 Ycoordinate
    0,                        !- Vertex 3 Zcoordinate
    642819.774469076,         !- Vertex 4 Xcoordinate
    5070494.803777553,        !- Vertex 4 Ycoordinate
    20.4;                     !- Vertex 4 Zcoordinate

SHADING:SITE:DETAILED,
    shade_BATIMENT0000000240880072_part0_1,    !- Name
    ,                         !- Transmittance Schedule Name
    autocalculate,            !- Number of Vertices
    642823.0775463331,        !- Vertex 1 Xcoordinate
    5070486.502992193,        !- Vertex 1 Ycoordinate
    10.3,                     !- Vertex 1 Zcoordinate
    642823.0775463331,        !- Vertex 2 Xcoordinate
    5070486.502992193,        !- Vertex 2 Ycoordinate
    0,                        !- Vertex 2 Zcoordinate
    642820.049401629,         !- Vertex 3 Xcoordinate
    5070479.847163915,        !- Vertex 3 Ycoordinate
    0,                        !- Vertex 3 Zcoordinate
    642820.049401629,         !- Vertex 4 Xcoordinate
    5070479.847163915,        !- Vertex 4 Ycoordinate
    10.3;                     !- Vertex 4 Zcoordinate

SHADING:SITE:DETAILED,
    shade_BATIMENT0000000240880072_part0_2,    !- Name
    ,                         !- Transmittance Schedule Name
    autocalculate,            !- Number of Vertices
    642820.049401629,         !- Vertex 1 Xcoordinate
    5070479.847163915,        !- Vertex 1 Ycoordinate
    10.3,                     !- Vertex 1 Zcoordinate
    642820.049401629,         !- Vertex 2 Xcoordinate
    5070479.847163915,        !- Vertex 2 Ycoordinate
    0,                        !- Vertex 2 Zcoordinate
    642814.3427817317,        !- Vertex 3 Xcoordinate
    5070482.443455482,        !- Vertex 3 Ycoordinate
    0,                        !- Vertex 3 Zcoordinate
    642814.3427817317,        !- Vertex 4 Xcoordinate
    5070482.443455482,        !- Vertex 4 Ycoordinate
    10.3;                     !- Vertex 4 Zcoordinate

SHADING:SITE:DETAILED,
    shade_BATIMENT0000000240880072_part0_3,    !- Name
    ,                         !- Transmittance Schedule Name
    autocalculate,            !- Number of Vertices
    642814.3427817317,        !- Vertex 1 Xcoordinate
    5070482.443455482,        !- Vertex 1 Ycoordinate
    10.3,                     !- Vertex 1 Zcoordinate
    642814.3427817317,        !- Vertex 2 Xcoordinate
    5070482.443455482,        !- Vertex 2 Ycoordinate
    0,                        !- Vertex 2 Zcoordinate
    642817.3712321137,        !- Vertex 3 Xcoordinate
    5070489.0994127095,       !- Vertex 3 Ycoordinate
    0,                        !- Vertex 3 Zcoordinate
    642817.3712321137,        !- Vertex 4 Xcoordinate
    5070489.0994127095,       !- Vertex 4 Ycoordinate
    10.3;                     !- Vertex 4 Zcoordinate

SHADING:SITE:DETAILED,
    shade_BATIMENT0000000240880072_part0_4,    !- Name
    ,                         !- Transmittance Schedule Name
    autocalculate,            !- Number of Vertices
    642817.3712321137,        !- Vertex 1 Xcoordinate
    5070489.0994127095,       !- Vertex 1 Ycoordinate
    10.3,                     !- Vertex 1 Zcoordinate
    642817.3712321137,        !- Vertex 2 Xcoordinate
    5070489.0994127095,       !- Vertex 2 Ycoordinate
    0,                        !- Vertex 2 Zcoordinate
    642823.0775463331,        !- Vertex 3 Xcoordinate
    5070486.502992193,        !- Vertex 3 Ycoordinate
    0,                        !- Vertex 3 Zcoordinate
    642823.0775463331,        !- Vertex 4 Xcoordinate
    5070486.502992193,        !- Vertex 4 Ycoordinate
    10.3;                     !- Vertex 4 Zcoordinate

SHADING:SITE:DETAILED,
    shade_BATIMENT0000000240880068_part0_1,    !- Name
    ,                         !- Transmittance Schedule Name
    autocalculate,            !- Number of Vertices
    642822.6861236455,        !- Vertex 1 Xcoordinate
    5070506.345650692,        !- Vertex 1 Ycoordinate
    22,                       !- Vertex 1 Zcoordinate
    642822.6861236455,        !- Vertex 2 Xcoordinate
    5070506.345650692,        !- Vertex 2 Ycoordinate
    0,                        !- Vertex 2 Zcoordinate
    642862.9484497451,        !- Vertex 3 Xcoordinate
    5070488.066184323,        !- Vertex 3 Ycoordinate
    0,                        !- Vertex 3 Zcoordinate
    642862.9484497451,        !- Vertex 4 Xcoordinate
    5070488.066184323,        !- Vertex 4 Ycoordinate
    22;                       !- Vertex 4 Zcoordinate

SHADING:SITE:DETAILED,
    shade_BATIMENT0000000240880068_part0_2,    !- Name
    ,                         !- Transmittance Schedule Name
    autocalculate,            !- Number of Vertices
    642862.9484497451,        !- Vertex 1 Xcoordinate
    5070488.066184323,        !- Vertex 1 Ycoordinate
    22,                       !- Vertex 1 Zcoordinate
    642862.9484497451,        !- Vertex 2 Xcoordinate
    5070488.066184323,        !- Vertex 2 Ycoordinate
    0,                        !- Vertex 2 Zcoordinate
    642858.0922997181,        !- Vertex 3 Xcoordinate
    5070477.370035331,        !- Vertex 3 Ycoordinate
    0,                        !- Vertex 3 Zcoordinate
    642858.0922997181,        !- Vertex 4 Xcoordinate
    5070477.370035331,        !- Vertex 4 Ycoordinate
    22;                       !- Vertex 4 Zcoordinate

SHADING:SITE:DETAILED,
    shade_BATIMENT0000000240880068_part0_3,    !- Name
    ,                         !- Transmittance Schedule Name
    autocalculate,            !- Number of Vertices
    642858.0922997181,        !- Vertex 1 Xcoordinate
    5070477.370035331,        !- Vertex 1 Ycoordinate
    22,                       !- Vertex 1 Zcoordinate
    642858.0922997181,        !- Vertex 2 Xcoordinate
    5070477.370035331,        !- Vertex 2 Ycoordinate
    0,                        !- Vertex 2 Zcoordinate
    642817.8299736184,        !- Vertex 3 Xcoordinate
    5070495.649501699,        !- Vertex 3 Ycoordinate
    0,                        !- Vertex 3 Zcoordinate
    642817.8299736184,        !- Vertex 4 Xcoordinate
    5070495.649501699,        !- Vertex 4 Ycoordinate
    22;                       !- Vertex 4 Zcoordinate

SHADING:SITE:DETAILED,
    shade_BATIMENT0000000240880068_part0_4,    !- Name
    ,                         !- Transmittance Schedule Name
    autocalculate,            !- Number of Vertices
    642817.8299736184,        !- Vertex 1 Xcoordinate
    5070495.649501699,        !- Vertex 1 Ycoordinate
    22,                       !- Vertex 1 Zcoordinate
    642817.8299736184,        !- Vertex 2 Xcoordinate
    5070495.649501699,        !- Vertex 2 Ycoordinate
    0,                        !- Vertex 2 Zcoordinate
    642822.6861236455,        !- Vertex 3 Xcoordinate
    5070506.345650692,        !- Vertex 3 Ycoordinate
    0,                        !- Vertex 3 Zcoordinate
    642822.6861236455,        !- Vertex 4 Xcoordinate
    5070506.345650692,        !- Vertex 4 Ycoordinate
    22;                       !- Vertex 4 Zcoordinate

SHADING:SITE:DETAILED,
    shade_BATIMENT0000000240880066_part0_1,    !- Name
    ,                         !- Transmittance Schedule Name
    autocalculate,            !- Number of Vertices
    642867.6095231944,        !- Vertex 1 Xcoordinate
    5070498.692323162,        !- Vertex 1 Ycoordinate
    22.4,                     !- Vertex 1 Zcoordinate
    642867.6095231944,        !- Vertex 2 Xcoordinate
    5070498.692323162,        !- Vertex 2 Ycoordinate
    0,                        !- Vertex 2 Zcoordinate
    642862.903697368,         !- Vertex 3 Xcoordinate
    5070488.086217105,        !- Vertex 3 Ycoordinate
    0,                        !- Vertex 3 Zcoordinate
    642862.903697368,         !- Vertex 4 Xcoordinate
    5070488.086217105,        !- Vertex 4 Ycoordinate
    22.4;                     !- Vertex 4 Zcoordinate

SHADING:SITE:DETAILED,
    shade_BATIMENT0000000240880066_part0_2,    !- Name
    ,                         !- Transmittance Schedule Name
    autocalculate,            !- Number of Vertices
    642862.903697368,         !- Vertex 1 Xcoordinate
    5070488.086217105,        !- Vertex 1 Ycoordinate
    22.4,                     !- Vertex 1 Zcoordinate
    642862.903697368,         !- Vertex 2 Xcoordinate
    5070488.086217105,        !- Vertex 2 Ycoordinate
    0,                        !- Vertex 2 Zcoordinate
    642831.4659317072,        !- Vertex 3 Xcoordinate
    5070502.034936819,        !- Vertex 3 Ycoordinate
    0,                        !- Vertex 3 Zcoordinate
    642831.4659317072,        !- Vertex 4 Xcoordinate
    5070502.034936819,        !- Vertex 4 Ycoordinate
    22.4;                     !- Vertex 4 Zcoordinate

SHADING:SITE:DETAILED,
    shade_BATIMENT0000000240880066_part0_3,    !- Name
    ,                         !- Transmittance Schedule Name
    autocalculate,            !- Number of Vertices
    642831.4659317072,        !- Vertex 1 Xcoordinate
    5070502.034936819,        !- Vertex 1 Ycoordinate
    22.4,                     !- Vertex 1 Zcoordinate
    642831.4659317072,        !- Vertex 2 Xcoordinate
    5070502.034936819,        !- Vertex 2 Ycoordinate
    0,                        !- Vertex 2 Zcoordinate
    642836.1717575344,        !- Vertex 3 Xcoordinate
    5070512.641042875,        !- Vertex 3 Ycoordinate
    0,                        !- Vertex 3 Zcoordinate
    642836.1717575344,        !- Vertex 4 Xcoordinate
    5070512.641042875,        !- Vertex 4 Ycoordinate
    22.4;                     !- Vertex 4 Zcoordinate

SHADING:SITE:DETAILED,
    shade_BATIMENT0000000240880066_part0_4,    !- Name
    ,                         !- Transmittance Schedule Name
    autocalculate,            !- Number of Vertices
    642836.1717575344,        !- Vertex 1 Xcoordinate
    5070512.641042875,        !- Vertex 1 Ycoordinate
    22.4,                     !- Vertex 1 Zcoordinate
    642836.1717575344,        !- Vertex 2 Xcoordinate
    5070512.641042875,        !- Vertex 2 Ycoordinate
    0,                        !- Vertex 2 Zcoordinate
    642867.6095231944,        !- Vertex 3 Xcoordinate
    5070498.692323162,        !- Vertex 3 Ycoordinate
    0,                        !- Vertex 3 Zcoordinate
    642867.6095231944,        !- Vertex 4 Xcoordinate
    5070498.692323162,        !- Vertex 4 Ycoordinate
    22.4;                     !- Vertex 4 Zcoordinate

SHADING:SITE:DETAILED,
    shade_BATIMENT0000000240880070_part0_1,    !- Name
    ,                         !- Transmittance Schedule Name
    autocalculate,            !- Number of Vertices
    642832.9889582098,        !- Vertex 1 Xcoordinate
    5070512.611803964,        !- Vertex 1 Ycoordinate
    13.8,                     !- Vertex 1 Zcoordinate
    642832.9889582098,        !- Vertex 2 Xcoordinate
    5070512.611803964,        !- Vertex 2 Ycoordinate
    0,                        !- Vertex 2 Zcoordinate
    642828.6838976971,        !- Vertex 3 Xcoordinate
    5070503.29179218,         !- Vertex 3 Ycoordinate
    0,                        !- Vertex 3 Zcoordinate
    642828.6838976971,        !- Vertex 4 Xcoordinate
    5070503.29179218,         !- Vertex 4 Ycoordinate
    13.8;                     !- Vertex 4 Zcoordinate

SHADING:SITE:DETAILED,
    shade_BATIMENT0000000240880070_part0_2,    !- Name
    ,                         !- Transmittance Schedule Name
    autocalculate,            !- Number of Vertices
    642828.6838976971,        !- Vertex 1 Xcoordinate
    5070503.29179218,         !- Vertex 1 Ycoordinate
    13.8,                     !- Vertex 1 Zcoordinate
    642828.6838976971,        !- Vertex 2 Xcoordinate
    5070503.29179218,         !- Vertex 2 Ycoordinate
    0,                        !- Vertex 2 Zcoordinate
    642822.5794468691,        !- Vertex 3 Xcoordinate
    5070506.110930365,        !- Vertex 3 Ycoordinate
    0,                        !- Vertex 3 Zcoordinate
    642822.5794468691,        !- Vertex 4 Xcoordinate
    5070506.110930365,        !- Vertex 4 Ycoordinate
    13.8;                     !- Vertex 4 Zcoordinate

SHADING:SITE:DETAILED,
    shade_BATIMENT0000000240880070_part0_3,    !- Name
    ,                         !- Transmittance Schedule Name
    autocalculate,            !- Number of Vertices
    642822.5794468691,        !- Vertex 1 Xcoordinate
    5070506.110930365,        !- Vertex 1 Ycoordinate
    13.8,                     !- Vertex 1 Zcoordinate
    642822.5794468691,        !- Vertex 2 Xcoordinate
    5070506.110930365,        !- Vertex 2 Ycoordinate
    0,                        !- Vertex 2 Zcoordinate
    642826.8837194782,        !- Vertex 3 Xcoordinate
    5070515.431752735,        !- Vertex 3 Ycoordinate
    0,                        !- Vertex 3 Zcoordinate
    642826.8837194782,        !- Vertex 4 Xcoordinate
    5070515.431752735,        !- Vertex 4 Ycoordinate
    13.8;                     !- Vertex 4 Zcoordinate

SHADING:SITE:DETAILED,
    shade_BATIMENT0000000240880070_part0_4,    !- Name
    ,                         !- Transmittance Schedule Name
    autocalculate,            !- Number of Vertices
    642826.8837194782,        !- Vertex 1 Xcoordinate
    5070515.431752735,        !- Vertex 1 Ycoordinate
    13.8,                     !- Vertex 1 Zcoordinate
    642826.8837194782,        !- Vertex 2 Xcoordinate
    5070515.431752735,        !- Vertex 2 Ycoordinate
    0,                        !- Vertex 2 Zcoordinate
    642832.9889582098,        !- Vertex 3 Xcoordinate
    5070512.611803964,        !- Vertex 3 Ycoordinate
    0,                        !- Vertex 3 Zcoordinate
    642832.9889582098,        !- Vertex 4 Xcoordinate
    5070512.611803964,        !- Vertex 4 Ycoordinate
    13.8;                     !- Vertex 4 Zcoordinate

SHADING:SITE:DETAILED,
    shade_BATIMENT0000000240880065_part0_1,    !- Name
    ,                         !- Transmittance Schedule Name
    autocalculate,            !- Number of Vertices
    642867.6095231944,        !- Vertex 1 Xcoordinate
    5070498.692323162,        !- Vertex 1 Ycoordinate
    22.9,                     !- Vertex 1 Zcoordinate
    642867.6095231944,        !- Vertex 2 Xcoordinate
    5070498.692323162,        !- Vertex 2 Ycoordinate
    0,                        !- Vertex 2 Zcoordinate
    642836.1915035092,        !- Vertex 3 Xcoordinate
    5070512.610937246,        !- Vertex 3 Ycoordinate
    0,                        !- Vertex 3 Zcoordinate
    642836.1915035092,        !- Vertex 4 Xcoordinate
    5070512.610937246,        !- Vertex 4 Ycoordinate
    22.9;                     !- Vertex 4 Zcoordinate

SHADING:SITE:DETAILED,
    shade_BATIMENT0000000240880065_part0_2,    !- Name
    ,                         !- Transmittance Schedule Name
    autocalculate,            !- Number of Vertices
    642836.1915035092,        !- Vertex 1 Xcoordinate
    5070512.610937246,        !- Vertex 1 Ycoordinate
    22.9,                     !- Vertex 1 Zcoordinate
    642836.1915035092,        !- Vertex 2 Xcoordinate
    5070512.610937246,        !- Vertex 2 Ycoordinate
    0,                        !- Vertex 2 Zcoordinate
    642841.3070258079,        !- Vertex 3 Xcoordinate
    5070524.158571499,        !- Vertex 3 Ycoordinate
    0,                        !- Vertex 3 Zcoordinate
    642841.3070258079,        !- Vertex 4 Xcoordinate
    5070524.158571499,        !- Vertex 4 Ycoordinate
    22.9;                     !- Vertex 4 Zcoordinate

SHADING:SITE:DETAILED,
    shade_BATIMENT0000000240880065_part0_3,    !- Name
    ,                         !- Transmittance Schedule Name
    autocalculate,            !- Number of Vertices
    642841.3070258079,        !- Vertex 1 Xcoordinate
    5070524.158571499,        !- Vertex 1 Ycoordinate
    22.9,                     !- Vertex 1 Zcoordinate
    642841.3070258079,        !- Vertex 2 Xcoordinate
    5070524.158571499,        !- Vertex 2 Ycoordinate
    0,                        !- Vertex 2 Zcoordinate
    642872.725045497,         !- Vertex 3 Xcoordinate
    5070510.239957423,        !- Vertex 3 Ycoordinate
    0,                        !- Vertex 3 Zcoordinate
    642872.725045497,         !- Vertex 4 Xcoordinate
    5070510.239957423,        !- Vertex 4 Ycoordinate
    22.9;                     !- Vertex 4 Zcoordinate

SHADING:SITE:DETAILED,
    shade_BATIMENT0000000240880065_part0_4,    !- Name
    ,                         !- Transmittance Schedule Name
    autocalculate,            !- Number of Vertices
    642872.725045497,         !- Vertex 1 Xcoordinate
    5070510.239957423,        !- Vertex 1 Ycoordinate
    22.9,                     !- Vertex 1 Zcoordinate
    642872.725045497,         !- Vertex 2 Xcoordinate
    5070510.239957423,        !- Vertex 2 Ycoordinate
    0,                        !- Vertex 2 Zcoordinate
    642867.6095231944,        !- Vertex 3 Xcoordinate
    5070498.692323162,        !- Vertex 3 Ycoordinate
    0,                        !- Vertex 3 Zcoordinate
    642867.6095231944,        !- Vertex 4 Xcoordinate
    5070498.692323162,        !- Vertex 4 Ycoordinate
    22.9;                     !- Vertex 4 Zcoordinate

SHADING:SITE:DETAILED,
    shade_BATIMENT0000000240880075_part0_1,    !- Name
    ,                         !- Transmittance Schedule Name
    autocalculate,            !- Number of Vertices
    642808.5719190851,        !- Vertex 1 Xcoordinate
    5070512.51972819,         !- Vertex 1 Ycoordinate
    14.4,                     !- Vertex 1 Zcoordinate
    642808.5719190851,        !- Vertex 2 Xcoordinate
    5070512.51972819,         !- Vertex 2 Ycoordinate
    0,                        !- Vertex 2 Zcoordinate
    642815.0644327027,        !- Vertex 3 Xcoordinate
    5070523.642588856,        !- Vertex 3 Ycoordinate
    0,                        !- Vertex 3 Zcoordinate
    642815.0644327027,        !- Vertex 4 Xcoordinate
    5070523.642588856,        !- Vertex 4 Ycoordinate
    14.4;                     !- Vertex 4 Zcoordinate

SHADING:SITE:DETAILED,
    shade_BATIMENT0000000240880075_part0_2,    !- Name
    ,                         !- Transmittance Schedule Name
    autocalculate,            !- Number of Vertices
    642815.0644327027,        !- Vertex 1 Xcoordinate
    5070523.642588856,        !- Vertex 1 Ycoordinate
    14.4,                     !- Vertex 1 Zcoordinate
    642815.0644327027,        !- Vertex 2 Xcoordinate
    5070523.642588856,        !- Vertex 2 Ycoordinate
    0,                        !- Vertex 2 Zcoordinate
    642820.5827828918,        !- Vertex 3 Xcoordinate
    5070520.421310413,        !- Vertex 3 Ycoordinate
    0,                        !- Vertex 3 Zcoordinate
    642820.5827828918,        !- Vertex 4 Xcoordinate
    5070520.421310413,        !- Vertex 4 Ycoordinate
    14.4;                     !- Vertex 4 Zcoordinate

SHADING:SITE:DETAILED,
    shade_BATIMENT0000000240880075_part0_3,    !- Name
    ,                         !- Transmittance Schedule Name
    autocalculate,            !- Number of Vertices
    642820.5827828918,        !- Vertex 1 Xcoordinate
    5070520.421310413,        !- Vertex 1 Ycoordinate
    14.4,                     !- Vertex 1 Zcoordinate
    642820.5827828918,        !- Vertex 2 Xcoordinate
    5070520.421310413,        !- Vertex 2 Ycoordinate
    0,                        !- Vertex 2 Zcoordinate
    642814.0908213838,        !- Vertex 3 Xcoordinate
    5070509.298672655,        !- Vertex 3 Ycoordinate
    0,                        !- Vertex 3 Zcoordinate
    642814.0908213838,        !- Vertex 4 Xcoordinate
    5070509.298672655,        !- Vertex 4 Ycoordinate
    14.4;                     !- Vertex 4 Zcoordinate

SHADING:SITE:DETAILED,
    shade_BATIMENT0000000240880075_part0_4,    !- Name
    ,                         !- Transmittance Schedule Name
    autocalculate,            !- Number of Vertices
    642814.0908213838,        !- Vertex 1 Xcoordinate
    5070509.298672655,        !- Vertex 1 Ycoordinate
    14.4,                     !- Vertex 1 Zcoordinate
    642814.0908213838,        !- Vertex 2 Xcoordinate
    5070509.298672655,        !- Vertex 2 Ycoordinate
    0,                        !- Vertex 2 Zcoordinate
    642808.5719190851,        !- Vertex 3 Xcoordinate
    5070512.51972819,         !- Vertex 3 Ycoordinate
    0,                        !- Vertex 3 Zcoordinate
    642808.5719190851,        !- Vertex 4 Xcoordinate
    5070512.51972819,         !- Vertex 4 Ycoordinate
    14.4;                     !- Vertex 4 Zcoordinate

OTHEREQUIPMENT,
    EU_Step8_InternalGain_4d19748fb5f1765f_F0_dwelling_0_f000,    !- Name
    Electricity,              !- Fuel Type
    4d19748fb5f1765f_F0_dwelling_0,    !- Zone or ZoneList or Space or SpaceList Name
    EU_Step8_GainSchedule_4d19748fb5f1765f_F0_dwelling_0_f000,    !- Schedule Name
    Watts/Area,               !- Design Level Calculation Method
    ,                         !- Design Level
    1,                        !- Power per Zone Floor Area
    ,                         !- Power per Person
    0,                        !- Fraction Latent
    0,                        !- Fraction Radiant
    0,                        !- Fraction Lost
    0,                        !- Carbon Dioxide Generation Rate
    EU_Step8_InternalGains;    !- EndUse Subcategory

ZONEVENTILATION:DESIGNFLOWRATE,
    EU_ConstantAir_4d19748fb5f1765f_F0_dwelling_0,    !- Name
    4d19748fb5f1765f_F0_dwelling_0,    !- Zone or ZoneList or Space or SpaceList Name
    EU_AlwaysOn,              !- Schedule Name
    AirChanges/Hour,          !- Design Flow Rate Calculation Method
    ,                         !- Design Flow Rate
    ,                         !- Flow Rate per Floor Area
    ,                         !- Flow Rate per Person
    0.6400000000000001,       !- Air Changes per Hour
    Natural,                  !- Ventilation Type
    0,                        !- Fan Pressure Rise
    1,                        !- Fan Total Efficiency
    1,                        !- Constant Term Coefficient
    0,                        !- Temperature Term Coefficient
    0,                        !- Velocity Term Coefficient
    0,                        !- Velocity Squared Term Coefficient
    -100,                     !- Minimum Indoor Temperature
    ,                         !- Minimum Indoor Temperature Schedule Name
    100,                      !- Maximum Indoor Temperature
    ,                         !- Maximum Indoor Temperature Schedule Name
    -100,                     !- Delta Temperature
    ,                         !- Delta Temperature Schedule Name
    -100,                     !- Minimum Outdoor Temperature
    ,                         !- Minimum Outdoor Temperature Schedule Name
    100,                      !- Maximum Outdoor Temperature
    ,                         !- Maximum Outdoor Temperature Schedule Name
    40;                       !- Maximum Wind Speed

HVACTEMPLATE:THERMOSTAT,
    EU_HeatOnly_4d19748fb5f1765f_F0_dwelling_0,    !- Name
    ,                         !- Heating Setpoint Schedule Name
    20,                       !- Constant Heating Setpoint
    ,                         !- Cooling Setpoint Schedule Name
    50;                       !- Constant Cooling Setpoint

HVACTEMPLATE:ZONE:IDEALLOADSAIRSYSTEM,
    4d19748fb5f1765f_F0_dwelling_0,    !- Zone Name
    EU_HeatOnly_4d19748fb5f1765f_F0_dwelling_0,    !- Template Thermostat Name
    EU_AlwaysOn,              !- System Availability Schedule Name
    50,                       !- Maximum Heating Supply Air Temperature
    13,                       !- Minimum Cooling Supply Air Temperature
    0.0156,                   !- Maximum Heating Supply Air Humidity Ratio
    0.0077,                   !- Minimum Cooling Supply Air Humidity Ratio
    NoLimit,                  !- Heating Limit
    ,                         !- Maximum Heating Air Flow Rate
    ,                         !- Maximum Sensible Heating Capacity
    NoLimit,                  !- Cooling Limit
    ,                         !- Maximum Cooling Air Flow Rate
    ,                         !- Maximum Total Cooling Capacity
    EU_AlwaysOn,              !- Heating Availability Schedule Name
    EU_CoolingOff,            !- Cooling Availability Schedule Name
    ConstantSensibleHeatRatio,    !- Dehumidification Control Type
    0.7,                      !- Cooling Sensible Heat Ratio
    60,                       !- Dehumidification Setpoint
    None,                     !- Humidification Control Type
    30,                       !- Humidification Setpoint
    None,                     !- Outdoor Air Method
    0.00944,                  !- Outdoor Air Flow Rate per Person
    0.0,                      !- Outdoor Air Flow Rate per Zone Floor Area
    0,                        !- Outdoor Air Flow Rate per Zone
    ,                         !- Design Specification Outdoor Air Object Name
    None,                     !- Demand Controlled Ventilation Type
    NoEconomizer,             !- Outdoor Air Economizer Type
    None,                     !- Heat Recovery Type
    0.70,                     !- Sensible Heat Recovery Effectiveness
    0.65;                     !- Latent Heat Recovery Effectiveness

SIZING:ZONE,
    4d19748fb5f1765f_F0_dwelling_0,    !- Zone or ZoneList Name
    SupplyAirTemperature,     !- Zone Cooling Design Supply Air Temperature Input Method
    13,                       !- Zone Cooling Design Supply Air Temperature
    ,                         !- Zone Cooling Design Supply Air Temperature Difference
    SupplyAirTemperature,     !- Zone Heating Design Supply Air Temperature Input Method
    50,                       !- Zone Heating Design Supply Air Temperature
    ,                         !- Zone Heating Design Supply Air Temperature Difference
    0.008,                    !- Zone Cooling Design Supply Air Humidity Ratio
    0.008,                    !- Zone Heating Design Supply Air Humidity Ratio
    ,                         !- Design Specification Outdoor Air Object Name
    ,                         !- Zone Heating Sizing Factor
    ,                         !- Zone Cooling Sizing Factor
    DesignDay,                !- Cooling Design Air Flow Method
    0,                        !- Cooling Design Air Flow Rate
    0.000762,                 !- Cooling Minimum Air Flow per Zone Floor Area
    0,                        !- Cooling Minimum Air Flow
    0.2,                      !- Cooling Minimum Air Flow Fraction
    DesignDay,                !- Heating Design Air Flow Method
    0,                        !- Heating Design Air Flow Rate
    0.002032,                 !- Heating Maximum Air Flow per Zone Floor Area
    0.1415762,                !- Heating Maximum Air Flow
    0.3,                      !- Heating Maximum Air Flow Fraction
    ,                         !- Design Specification Zone Air Distribution Object Name
    No,                       !- Account for Dedicated Outdoor Air System
    NeutralSupplyAir,         !- Dedicated Outdoor Air System Control Strategy
    autosize,                 !- Dedicated Outdoor Air Low Setpoint Temperature for Design
    autosize,                 !- Dedicated Outdoor Air High Setpoint Temperature for Design
    Sensible Load Only No Latent Load,    !- Zone Load Sizing Method
    HumidityRatioDifference,    !- Zone Latent Cooling Design Supply Air Humidity Ratio Input Method
    ,                         !- Zone Dehumidification Design Supply Air Humidity Ratio
    0.005,                    !- Zone Cooling Design Supply Air Humidity Ratio Difference
    HumidityRatioDifference,    !- Zone Latent Heating Design Supply Air Humidity Ratio Input Method
    ,                         !- Zone Humidification Design Supply Air Humidity Ratio
    0.005;                    !- Zone Humidification Design Supply Air Humidity Ratio Difference

OUTPUT:VARIABLE,
    *,                        !- Key Value
    Zone Ideal Loads Zone Total Heating Energy,    !- Variable Name
    Hourly;                   !- Reporting Frequency

OUTPUT:SQLITE,
    SimpleAndTabular,         !- Option Type
    UseOutputControlTableStyle;    !- Unit Conversion for Tabular Data