!- Windows Line endings 

Version,
    23.1;                     !- Version Identifier

SimulationControl,
    Yes,                      !- Do Zone Sizing Calculation
    Yes,                      !- Do System Sizing Calculation
    Yes,                      !- Do Plant Sizing Calculation
    No,                       !- Run Simulation for Sizing Periods
    Yes,                      !- Run Simulation for Weather File Run Periods
    No,                       !- Do HVAC Sizing Simulation for Sizing Periods
    1;                        !- Maximum Number of HVAC Sizing Simulation Passes

Building,
    EU S2 Campaign,           !- Name
    0,                        !- North Axis
    City,                     !- Terrain
    ,                         !- Loads Convergence Tolerance Value
    ,                         !- Temperature Convergence Tolerance Value
    FullExterior,             !- Solar Distribution
    ,                         !- Maximum Number of Warmup Days
    ;                         !- Minimum Number of Warmup Days

ShadowCalculation,
    PolygonClipping,          !- Shading Calculation Method
    Periodic,                 !- Shading Calculation Update Frequency Method
    1;                        !- Shading Calculation Update Frequency

HeatBalanceAlgorithm,
    ConductionTransferFunction,    !- Algorithm
    200,                      !- Surface Temperature Upper Limit
    0.1,                      !- Minimum Surface Convection Heat Transfer Coefficient Value
    10000000;                 !- Maximum Surface Convection Heat Transfer Coefficient Value

Timestep,
    12;                       !- Number of Timesteps per Hour

Site:Location,
    Lyon-Bron,                !- Name
    45.75,                    !- Latitude
    5,                        !- Longitude
    1,                        !- Time Zone
    198;                      !- Elevation

SizingPeriod:WeatherFileDays,
    AnnualSizingPeriod,       !- Name
    1,                        !- Begin Month
    1,                        !- Begin Day of Month
    12,                       !- End Month
    31,                       !- End Day of Month
    Monday,                   !- Day of Week for Start Day
    No,                       !- Use Weather File Daylight Saving Period
    No;                       !- Use Weather File Rain and Snow Indicators

RunPeriod,
    RunPeriod1,               !- Name
    1,                        !- Begin Month
    1,                        !- Begin Day of Month
    ,                         !- Begin Year
    12,                       !- End Month
    31,                       !- End Day of Month
    ,                         !- End Year
    Sunday,                   !- Day of Week for Start Day
    No,                       !- Use Weather File Holidays and Special Days
    No,                       !- Use Weather File Daylight Saving Period
    No,                       !- Apply Weekend Holiday Rule
    Yes,                      !- Use Weather File Rain Indicators
    Yes;                      !- Use Weather File Snow Indicators

ScheduleTypeLimits,
    Any Number;               !- Name

SCHEDULETYPELIMITS,
    EU_Step8_AnyNumber_Wm2,    !- Name
    ,                         !- Lower Limit Value
    ,                         !- Upper Limit Value
    Continuous,               !- Numeric Type
    Dimensionless;            !- Unit Type

SCHEDULE:CONSTANT,
    EU_AlwaysOn,              !- Name
    ,                         !- Schedule Type Limits Name
    1;                        !- Hourly Value

SCHEDULE:CONSTANT,
    EU_CoolingOff,            !- Name
    ,                         !- Schedule Type Limits Name
    0;                        !- Hourly Value

SCHEDULE:FILE,
    EU_Step8_GainSchedule_ad7ec0e9ad045058_F0_dwelling_0_f000,    !- Name
    EU_Step8_AnyNumber_Wm2,    !- Schedule Type Limits Name
    ../../schedules/ad7ec0e9ad045058/ad7ec0e9ad045058_F0_dwelling_0_f000_gain.csv,    !- File Name
    1,                        !- Column Number
    0,                        !- Rows to Skip at Top
    8760,                     !- Number of Hours of Data
    Comma,                    !- Column Separator
    No,                       !- Interpolate to Timestep
    60,                       !- Minutes per Item
    Yes;                      !- Adjust Schedule for Daylight Savings

SCHEDULE:FILE,
    EU_Step8_GainSchedule_ad7ec0e9ad045058_F1_dwelling_0_f000,    !- Name
    EU_Step8_AnyNumber_Wm2,    !- Schedule Type Limits Name
    ../../schedules/ad7ec0e9ad045058/ad7ec0e9ad045058_F1_dwelling_0_f000_gain.csv,    !- File Name
    1,                        !- Column Number
    0,                        !- Rows to Skip at Top
    8760,                     !- Number of Hours of Data
    Comma,                    !- Column Separator
    No,                       !- Interpolate to Timestep
    60,                       !- Minutes per Item
    Yes;                      !- Adjust Schedule for Daylight Savings

SCHEDULE:FILE,
    EU_Step8_GainSchedule_ad7ec0e9ad045058_F2_dwelling_0_f000,    !- Name
    EU_Step8_AnyNumber_Wm2,    !- Schedule Type Limits Name
    ../../schedules/ad7ec0e9ad045058/ad7ec0e9ad045058_F2_dwelling_0_f000_gain.csv,    !- File Name
    1,                        !- Column Number
    0,                        !- Rows to Skip at Top
    8760,                     !- Number of Hours of Data
    Comma,                    !- Column Separator
    No,                       !- Interpolate to Timestep
    60,                       !- Minutes per Item
    Yes;                      !- Adjust Schedule for Daylight Savings

SCHEDULE:FILE,
    EU_Step8_GainSchedule_ad7ec0e9ad045058_F3_dwelling_0_f000,    !- Name
    EU_Step8_AnyNumber_Wm2,    !- Schedule Type Limits Name
    ../../schedules/ad7ec0e9ad045058/ad7ec0e9ad045058_F3_dwelling_0_f000_gain.csv,    !- File Name
    1,                        !- Column Number
    0,                        !- Rows to Skip at Top
    8760,                     !- Number of Hours of Data
    Comma,                    !- Column Separator
    No,                       !- Interpolate to Timestep
    60,                       !- Minutes per Item
    Yes;                      !- Adjust Schedule for Daylight Savings

MATERIAL,
    EU_InternalMass_Material,    !- Name
    MediumRough,              !- Roughness
    0.1,                      !- Thickness
    1,                        !- Conductivity
    1800,                     !- Density
    900,                      !- Specific Heat
    0.9,                      !- Thermal Absorptance
    0.7,                      !- Solar Absorptance
    0.7;                      !- Visible Absorptance

MATERIAL:NOMASS,
    EU_wall_NoMass,           !- Name
    MediumRough,              !- Roughness
    0.8714596949891068,       !- Thermal Resistance
    0.9,                      !- Thermal Absorptance
    0.7,                      !- Solar Absorptance
    0.7;                      !- Visible Absorptance

MATERIAL:NOMASS,
    EU_roof_NoMass,           !- Name
    MediumRough,              !- Roughness
    0.8422755303938418,       !- Thermal Resistance
    0.9,                      !- Thermal Absorptance
    0.7,                      !- Solar Absorptance
    0.7;                      !- Visible Absorptance

MATERIAL:NOMASS,
    EU_floor_NoMass,          !- Name
    MediumRough,              !- Roughness
    4.969986e-01,             !- Thermal Resistance
    0.9,                      !- Thermal Absorptance
    0.7,                      !- Solar Absorptance
    0.7;                      !- Visible Absorptance

CONSTRUCTION,
    EU_wall_Construction,     !- Name
    EU_wall_NoMass;           !- Outside Layer

CONSTRUCTION,
    EU_roof_Construction,     !- Name
    EU_roof_NoMass;           !- Outside Layer

CONSTRUCTION,
    EU_floor_Construction,    !- Name
    EU_floor_NoMass;          !- Outside Layer

CONSTRUCTION,
    EU_InternalMass_Construction,    !- Name
    EU_InternalMass_Material;    !- Outside Layer

GlobalGeometryRules,
    UpperLeftCorner,          !- Starting Vertex Position
    CounterClockWise,         !- Vertex Entry Direction
    World;                    !- Coordinate System

ZONE,
    ad7ec0e9ad045058_F0_dwelling_0,    !- Name
    0,                        !- Direction of Relative North
    0,                        !- X Origin
    0,                        !- Y Origin
    0,                        !- Z Origin
    1,                        !- Type
    1,                        !- Multiplier
    autocalculate,            !- Ceiling Height
    205.40478515625,          !- Volume
    autocalculate,            !- Floor Area
    ,                         !- Zone Inside Convection Algorithm
    ,                         !- Zone Outside Convection Algorithm
    Yes;                      !- Part of Total Floor Area

ZONE,
    ad7ec0e9ad045058_F1_dwelling_0,    !- Name
    0,                        !- Direction of Relative North
    0,                        !- X Origin
    0,                        !- Y Origin
    0,                        !- Z Origin
    1,                        !- Type
    1,                        !- Multiplier
    autocalculate,            !- Ceiling Height
    205.40478515625,          !- Volume
    autocalculate,            !- Floor Area
    ,                         !- Zone Inside Convection Algorithm
    ,                         !- Zone Outside Convection Algorithm
    Yes;                      !- Part of Total Floor Area

ZONE,
    ad7ec0e9ad045058_F2_dwelling_0,    !- Name
    0,                        !- Direction of Relative North
    0,                        !- X Origin
    0,                        !- Y Origin
    0,                        !- Z Origin
    1,                        !- Type
    1,                        !- Multiplier
    autocalculate,            !- Ceiling Height
    205.40478515625,          !- Volume
    autocalculate,            !- Floor Area
    ,                         !- Zone Inside Convection Algorithm
    ,                         !- Zone Outside Convection Algorithm
    Yes;                      !- Part of Total Floor Area

ZONE,
    ad7ec0e9ad045058_F3_dwelling_0,    !- Name
    0,                        !- Direction of Relative North
    0,                        !- X Origin
    0,                        !- Y Origin
    0,                        !- Z Origin
    1,                        !- Type
    1,                        !- Multiplier
    autocalculate,            !- Ceiling Height
    205.40478515625,          !- Volume
    autocalculate,            !- Floor Area
    ,                         !- Zone Inside Convection Algorithm
    ,                         !- Zone Outside Convection Algorithm
    Yes;                      !- Part of Total Floor Area

BUILDINGSURFACE:DETAILED,
    Block ad7ec0e9ad045058_0 Storey 0 Wall 0001,    !- Name
    wall,                     !- Surface Type
    EU_wall_Construction,     !- Construction Name
    ad7ec0e9ad045058_F0_dwelling_0,    !- Zone Name
    ,                         !- Space Name
    Adiabatic,                !- Outside Boundary Condition
    ,                         !- Outside Boundary Condition Object
    NoSun,                    !- Sun Exposure
    NoWind,                   !- Wind Exposure
    autocalculate,            !- View Factor to Ground
    autocalculate,            !- Number of Vertices
    642654.4850604632,        !- Vertex 1 Xcoordinate
    5070596.123009528,        !- Vertex 1 Ycoordinate
    3,                        !- Vertex 1 Zcoordinate
    642654.4850604632,        !- Vertex 2 Xcoordinate
    5070596.123009528,        !- Vertex 2 Ycoordinate
    0,                        !- Vertex 2 Zcoordinate
    642645.6806079755,        !- Vertex 3 Xcoordinate
    5070601.128719809,        !- Vertex 3 Ycoordinate
    0,                        !- Vertex 3 Zcoordinate
    642645.6806079755,        !- Vertex 4 Xcoordinate
    5070601.128719809,        !- Vertex 4 Ycoordinate
    3;                        !- Vertex 4 Zcoordinate

BUILDINGSURFACE:DETAILED,
    Block ad7ec0e9ad045058_0 Storey 0 Wall 0002,    !- Name
    wall,                     !- Surface Type
    EU_wall_Construction,     !- Construction Name
    ad7ec0e9ad045058_F0_dwelling_0,    !- Zone Name
    ,                         !- Space Name
    outdoors,                 !- Outside Boundary Condition
    ,                         !- Outside Boundary Condition Object
    SunExposed,               !- Sun Exposure
    WindExposed,              !- Wind Exposure
    autocalculate,            !- View Factor to Ground
    autocalculate,            !- Number of Vertices
    642645.6806079755,        !- Vertex 1 Xcoordinate
    5070601.128719809,        !- Vertex 1 Ycoordinate
    3,                        !- Vertex 1 Zcoordinate
    642645.6806079755,        !- Vertex 2 Xcoordinate
    5070601.128719809,        !- Vertex 2 Ycoordinate
    0,                        !- Vertex 2 Zcoordinate
    642644.2769510756,        !- Vertex 3 Xcoordinate
    5070593.724398953,        !- Vertex 3 Ycoordinate
    0,                        !- Vertex 3 Zcoordinate
    642644.2769510756,        !- Vertex 4 Xcoordinate
    5070593.724398953,        !- Vertex 4 Ycoordinate
    3;                        !- Vertex 4 Zcoordinate

BUILDINGSURFACE:DETAILED,
    Block ad7ec0e9ad045058_0 Storey 0 Wall 0003,    !- Name
    wall,                     !- Surface Type
    EU_wall_Construction,     !- Construction Name
    ad7ec0e9ad045058_F0_dwelling_0,    !- Zone Name
    ,                         !- Space Name
    Adiabatic,                !- Outside Boundary Condition
    ,                         !- Outside Boundary Condition Object
    NoSun,                    !- Sun Exposure
    NoWind,                   !- Wind Exposure
    autocalculate,            !- View Factor to Ground
    autocalculate,            !- Number of Vertices
    642644.2769510756,        !- Vertex 1 Xcoordinate
    5070593.724398953,        !- Vertex 1 Ycoordinate
    3,                        !- Vertex 1 Zcoordinate
    642644.2769510756,        !- Vertex 2 Xcoordinate
    5070593.724398953,        !- Vertex 2 Ycoordinate
    0,                        !- Vertex 2 Zcoordinate
    642652.0812766546,        !- Vertex 3 Xcoordinate
    5070589.218177028,        !- Vertex 3 Ycoordinate
    0,                        !- Vertex 3 Zcoordinate
    642652.0812766546,        !- Vertex 4 Xcoordinate
    5070589.218177028,        !- Vertex 4 Ycoordinate
    3;                        !- Vertex 4 Zcoordinate

BUILDINGSURFACE:DETAILED,
    Block ad7ec0e9ad045058_0 Storey 0 Wall 0004,    !- Name
    wall,                     !- Surface Type
    EU_wall_Construction,     !- Construction Name
    ad7ec0e9ad045058_F0_dwelling_0,    !- Zone Name
    ,                         !- Space Name
    outdoors,                 !- Outside Boundary Condition
    ,                         !- Outside Boundary Condition Object
    SunExposed,               !- Sun Exposure
    WindExposed,              !- Wind Exposure
    autocalculate,            !- View Factor to Ground
    autocalculate,            !- Number of Vertices
    642652.0812766546,        !- Vertex 1 Xcoordinate
    5070589.218177028,        !- Vertex 1 Ycoordinate
    3,                        !- Vertex 1 Zcoordinate
    642652.0812766546,        !- Vertex 2 Xcoordinate
    5070589.218177028,        !- Vertex 2 Ycoordinate
    0,                        !- Vertex 2 Zcoordinate
    642654.4850604632,        !- Vertex 3 Xcoordinate
    5070596.123009528,        !- Vertex 3 Ycoordinate
    0,                        !- Vertex 3 Zcoordinate
    642654.4850604632,        !- Vertex 4 Xcoordinate
    5070596.123009528,        !- Vertex 4 Ycoordinate
    3;                        !- Vertex 4 Zcoordinate

BUILDINGSURFACE:DETAILED,
    Block ad7ec0e9ad045058_0 Storey 0 Floor 0001,    !- Name
    floor,                    !- Surface Type
    EU_floor_Construction,    !- Construction Name
    ad7ec0e9ad045058_F0_dwelling_0,    !- Zone Name
    ,                         !- Space Name
    ground,                   !- Outside Boundary Condition
    ,                         !- Outside Boundary Condition Object
    NoSun,                    !- Sun Exposure
    NoWind,                   !- Wind Exposure
    autocalculate,            !- View Factor to Ground
    autocalculate,            !- Number of Vertices
    642654.4850604632,        !- Vertex 1 Xcoordinate
    5070596.123009528,        !- Vertex 1 Ycoordinate
    0,                        !- Vertex 1 Zcoordinate
    642652.0812766546,        !- Vertex 2 Xcoordinate
    5070589.218177028,        !- Vertex 2 Ycoordinate
    0,                        !- Vertex 2 Zcoordinate
    642644.2769510756,        !- Vertex 3 Xcoordinate
    5070593.724398953,        !- Vertex 3 Ycoordinate
    0,                        !- Vertex 3 Zcoordinate
    642645.6806079755,        !- Vertex 4 Xcoordinate
    5070601.128719809,        !- Vertex 4 Ycoordinate
    0;                        !- Vertex 4 Zcoordinate

BUILDINGSURFACE:DETAILED,
    Block ad7ec0e9ad045058_0 Storey 1 Wall 0001,    !- Name
    wall,                     !- Surface Type
    EU_wall_Construction,     !- Construction Name
    ad7ec0e9ad045058_F1_dwelling_0,    !- Zone Name
    ,                         !- Space Name
    Adiabatic,                !- Outside Boundary Condition
    ,                         !- Outside Boundary Condition Object
    NoSun,                    !- Sun Exposure
    NoWind,                   !- Wind Exposure
    autocalculate,            !- View Factor to Ground
    autocalculate,            !- Number of Vertices
    642654.4850604632,        !- Vertex 1 Xcoordinate
    5070596.123009528,        !- Vertex 1 Ycoordinate
    6,                        !- Vertex 1 Zcoordinate
    642654.4850604632,        !- Vertex 2 Xcoordinate
    5070596.123009528,        !- Vertex 2 Ycoordinate
    3,                        !- Vertex 2 Zcoordinate
    642645.6806079755,        !- Vertex 3 Xcoordinate
    5070601.128719809,        !- Vertex 3 Ycoordinate
    3,                        !- Vertex 3 Zcoordinate
    642645.6806079755,        !- Vertex 4 Xcoordinate
    5070601.128719809,        !- Vertex 4 Ycoordinate
    6;                        !- Vertex 4 Zcoordinate

BUILDINGSURFACE:DETAILED,
    Block ad7ec0e9ad045058_0 Storey 1 Wall 0002,    !- Name
    wall,                     !- Surface Type
    EU_wall_Construction,     !- Construction Name
    ad7ec0e9ad045058_F1_dwelling_0,    !- Zone Name
    ,                         !- Space Name
    outdoors,                 !- Outside Boundary Condition
    ,                         !- Outside Boundary Condition Object
    SunExposed,               !- Sun Exposure
    WindExposed,              !- Wind Exposure
    autocalculate,            !- View Factor to Ground
    autocalculate,            !- Number of Vertices
    642645.6806079755,        !- Vertex 1 Xcoordinate
    5070601.128719809,        !- Vertex 1 Ycoordinate
    6,                        !- Vertex 1 Zcoordinate
    642645.6806079755,        !- Vertex 2 Xcoordinate
    5070601.128719809,        !- Vertex 2 Ycoordinate
    3,                        !- Vertex 2 Zcoordinate
    642644.2769510756,        !- Vertex 3 Xcoordinate
    5070593.724398953,        !- Vertex 3 Ycoordinate
    3,                        !- Vertex 3 Zcoordinate
    642644.2769510756,        !- Vertex 4 Xcoordinate
    5070593.724398953,        !- Vertex 4 Ycoordinate
    6;                        !- Vertex 4 Zcoordinate

BUILDINGSURFACE:DETAILED,
    Block ad7ec0e9ad045058_0 Storey 1 Wall 0003,    !- Name
    wall,                     !- Surface Type
    EU_wall_Construction,     !- Construction Name
    ad7ec0e9ad045058_F1_dwelling_0,    !- Zone Name
    ,                         !- Space Name
    Adiabatic,                !- Outside Boundary Condition
    ,                         !- Outside Boundary Condition Object
    NoSun,                    !- Sun Exposure
    NoWind,                   !- Wind Exposure
    autocalculate,            !- View Factor to Ground
    autocalculate,            !- Number of Vertices
    642644.2769510756,        !- Vertex 1 Xcoordinate
    5070593.724398953,        !- Vertex 1 Ycoordinate
    6,                        !- Vertex 1 Zcoordinate
    642644.2769510756,        !- Vertex 2 Xcoordinate
    5070593.724398953,        !- Vertex 2 Ycoordinate
    3,                        !- Vertex 2 Zcoordinate
    642652.0812766546,        !- Vertex 3 Xcoordinate
    5070589.218177028,        !- Vertex 3 Ycoordinate
    3,                        !- Vertex 3 Zcoordinate
    642652.0812766546,        !- Vertex 4 Xcoordinate
    5070589.218177028,        !- Vertex 4 Ycoordinate
    6;                        !- Vertex 4 Zcoordinate

BUILDINGSURFACE:DETAILED,
    Block ad7ec0e9ad045058_0 Storey 1 Wall 0004,    !- Name
    wall,                     !- Surface Type
    EU_wall_Construction,     !- Construction Name
    ad7ec0e9ad045058_F1_dwelling_0,    !- Zone Name
    ,                         !- Space Name
    outdoors,                 !- Outside Boundary Condition
    ,                         !- Outside Boundary Condition Object
    SunExposed,               !- Sun Exposure
    WindExposed,              !- Wind Exposure
    autocalculate,            !- View Factor to Ground
    autocalculate,            !- Number of Vertices
    642652.0812766546,        !- Vertex 1 Xcoordinate
    5070589.218177028,        !- Vertex 1 Ycoordinate
    6,                        !- Vertex 1 Zcoordinate
    642652.0812766546,        !- Vertex 2 Xcoordinate
    5070589.218177028,        !- Vertex 2 Ycoordinate
    3,                        !- Vertex 2 Zcoordinate
    642654.4850604632,        !- Vertex 3 Xcoordinate
    5070596.123009528,        !- Vertex 3 Ycoordinate
    3,                        !- Vertex 3 Zcoordinate
    642654.4850604632,        !- Vertex 4 Xcoordinate
    5070596.123009528,        !- Vertex 4 Ycoordinate
    6;                        !- Vertex 4 Zcoordinate

BUILDINGSURFACE:DETAILED,
    Block ad7ec0e9ad045058_0 Storey 2 Wall 0001,    !- Name
    wall,                     !- Surface Type
    EU_wall_Construction,     !- Construction Name
    ad7ec0e9ad045058_F2_dwelling_0,    !- Zone Name
    ,                         !- Space Name
    Adiabatic,                !- Outside Boundary Condition
    ,                         !- Outside Boundary Condition Object
    NoSun,                    !- Sun Exposure
    NoWind,                   !- Wind Exposure
    autocalculate,            !- View Factor to Ground
    autocalculate,            !- Number of Vertices
    642654.4850604632,        !- Vertex 1 Xcoordinate
    5070596.123009528,        !- Vertex 1 Ycoordinate
    9,                        !- Vertex 1 Zcoordinate
    642654.4850604632,        !- Vertex 2 Xcoordinate
    5070596.123009528,        !- Vertex 2 Ycoordinate
    6,                        !- Vertex 2 Zcoordinate
    642645.6806079755,        !- Vertex 3 Xcoordinate
    5070601.128719809,        !- Vertex 3 Ycoordinate
    6,                        !- Vertex 3 Zcoordinate
    642645.6806079755,        !- Vertex 4 Xcoordinate
    5070601.128719809,        !- Vertex 4 Ycoordinate
    9;                        !- Vertex 4 Zcoordinate

BUILDINGSURFACE:DETAILED,
    Block ad7ec0e9ad045058_0 Storey 2 Wall 0002,    !- Name
    wall,                     !- Surface Type
    EU_wall_Construction,     !- Construction Name
    ad7ec0e9ad045058_F2_dwelling_0,    !- Zone Name
    ,                         !- Space Name
    outdoors,                 !- Outside Boundary Condition
    ,                         !- Outside Boundary Condition Object
    SunExposed,               !- Sun Exposure
    WindExposed,              !- Wind Exposure
    autocalculate,            !- View Factor to Ground
    autocalculate,            !- Number of Vertices
    642645.6806079755,        !- Vertex 1 Xcoordinate
    5070601.128719809,        !- Vertex 1 Ycoordinate
    9,                        !- Vertex 1 Zcoordinate
    642645.6806079755,        !- Vertex 2 Xcoordinate
    5070601.128719809,        !- Vertex 2 Ycoordinate
    6,                        !- Vertex 2 Zcoordinate
    642644.2769510756,        !- Vertex 3 Xcoordinate
    5070593.724398953,        !- Vertex 3 Ycoordinate
    6,                        !- Vertex 3 Zcoordinate
    642644.2769510756,        !- Vertex 4 Xcoordinate
    5070593.724398953,        !- Vertex 4 Ycoordinate
    9;                        !- Vertex 4 Zcoordinate

BUILDINGSURFACE:DETAILED,
    Block ad7ec0e9ad045058_0 Storey 2 Wall 0003,    !- Name
    wall,                     !- Surface Type
    EU_wall_Construction,     !- Construction Name
    ad7ec0e9ad045058_F2_dwelling_0,    !- Zone Name
    ,                         !- Space Name
    Adiabatic,                !- Outside Boundary Condition
    ,                         !- Outside Boundary Condition Object
    NoSun,                    !- Sun Exposure
    NoWind,                   !- Wind Exposure
    autocalculate,            !- View Factor to Ground
    autocalculate,            !- Number of Vertices
    642644.2769510756,        !- Vertex 1 Xcoordinate
    5070593.724398953,        !- Vertex 1 Ycoordinate
    9,                        !- Vertex 1 Zcoordinate
    642644.2769510756,        !- Vertex 2 Xcoordinate
    5070593.724398953,        !- Vertex 2 Ycoordinate
    6,                        !- Vertex 2 Zcoordinate
    642652.0812766546,        !- Vertex 3 Xcoordinate
    5070589.218177028,        !- Vertex 3 Ycoordinate
    6,                        !- Vertex 3 Zcoordinate
    642652.0812766546,        !- Vertex 4 Xcoordinate
    5070589.218177028,        !- Vertex 4 Ycoordinate
    9;                        !- Vertex 4 Zcoordinate

BUILDINGSURFACE:DETAILED,
    Block ad7ec0e9ad045058_0 Storey 2 Wall 0004,    !- Name
    wall,                     !- Surface Type
    EU_wall_Construction,     !- Construction Name
    ad7ec0e9ad045058_F2_dwelling_0,    !- Zone Name
    ,                         !- Space Name
    outdoors,                 !- Outside Boundary Condition
    ,                         !- Outside Boundary Condition Object
    SunExposed,               !- Sun Exposure
    WindExposed,              !- Wind Exposure
    autocalculate,            !- View Factor to Ground
    autocalculate,            !- Number of Vertices
    642652.0812766546,        !- Vertex 1 Xcoordinate
    5070589.218177028,        !- Vertex 1 Ycoordinate
    9,                        !- Vertex 1 Zcoordinate
    642652.0812766546,        !- Vertex 2 Xcoordinate
    5070589.218177028,        !- Vertex 2 Ycoordinate
    6,                        !- Vertex 2 Zcoordinate
    642654.4850604632,        !- Vertex 3 Xcoordinate
    5070596.123009528,        !- Vertex 3 Ycoordinate
    6,                        !- Vertex 3 Zcoordinate
    642654.4850604632,        !- Vertex 4 Xcoordinate
    5070596.123009528,        !- Vertex 4 Ycoordinate
    9;                        !- Vertex 4 Zcoordinate

BUILDINGSURFACE:DETAILED,
    Block ad7ec0e9ad045058_0 Storey 3 Wall 0001,    !- Name
    wall,                     !- Surface Type
    EU_wall_Construction,     !- Construction Name
    ad7ec0e9ad045058_F3_dwelling_0,    !- Zone Name
    ,                         !- Space Name
    Adiabatic,                !- Outside Boundary Condition
    ,                         !- Outside Boundary Condition Object
    NoSun,                    !- Sun Exposure
    NoWind,                   !- Wind Exposure
    autocalculate,            !- View Factor to Ground
    autocalculate,            !- Number of Vertices
    642654.4850604632,        !- Vertex 1 Xcoordinate
    5070596.123009528,        !- Vertex 1 Ycoordinate
    12,                       !- Vertex 1 Zcoordinate
    642654.4850604632,        !- Vertex 2 Xcoordinate
    5070596.123009528,        !- Vertex 2 Ycoordinate
    9,                        !- Vertex 2 Zcoordinate
    642645.6806079755,        !- Vertex 3 Xcoordinate
    5070601.128719809,        !- Vertex 3 Ycoordinate
    9,                        !- Vertex 3 Zcoordinate
    642645.6806079755,        !- Vertex 4 Xcoordinate
    5070601.128719809,        !- Vertex 4 Ycoordinate
    12;                       !- Vertex 4 Zcoordinate

BUILDINGSURFACE:DETAILED,
    Block ad7ec0e9ad045058_0 Storey 3 Wall 0002,    !- Name
    wall,                     !- Surface Type
    EU_wall_Construction,     !- Construction Name
    ad7ec0e9ad045058_F3_dwelling_0,    !- Zone Name
    ,                         !- Space Name
    outdoors,                 !- Outside Boundary Condition
    ,                         !- Outside Boundary Condition Object
    SunExposed,               !- Sun Exposure
    WindExposed,              !- Wind Exposure
    autocalculate,            !- View Factor to Ground
    autocalculate,            !- Number of Vertices
    642645.6806079755,        !- Vertex 1 Xcoordinate
    5070601.128719809,        !- Vertex 1 Ycoordinate
    12,                       !- Vertex 1 Zcoordinate
    642645.6806079755,        !- Vertex 2 Xcoordinate
    5070601.128719809,        !- Vertex 2 Ycoordinate
    9,                        !- Vertex 2 Zcoordinate
    642644.2769510756,        !- Vertex 3 Xcoordinate
    5070593.724398953,        !- Vertex 3 Ycoordinate
    9,                        !- Vertex 3 Zcoordinate
    642644.2769510756,        !- Vertex 4 Xcoordinate
    5070593.724398953,        !- Vertex 4 Ycoordinate
    12;                       !- Vertex 4 Zcoordinate

BUILDINGSURFACE:DETAILED,
    Block ad7ec0e9ad045058_0 Storey 3 Wall 0003,    !- Name
    wall,                     !- Surface Type
    EU_wall_Construction,     !- Construction Name
    ad7ec0e9ad045058_F3_dwelling_0,    !- Zone Name
    ,                         !- Space Name
    Adiabatic,                !- Outside Boundary Condition
    ,                         !- Outside Boundary Condition Object
    NoSun,                    !- Sun Exposure
    NoWind,                   !- Wind Exposure
    autocalculate,            !- View Factor to Ground
    autocalculate,            !- Number of Vertices
    642644.2769510756,        !- Vertex 1 Xcoordinate
    5070593.724398953,        !- Vertex 1 Ycoordinate
    12,                       !- Vertex 1 Zcoordinate
    642644.2769510756,        !- Vertex 2 Xcoordinate
    5070593.724398953,        !- Vertex 2 Ycoordinate
    9,                        !- Vertex 2 Zcoordinate
    642652.0812766546,        !- Vertex 3 Xcoordinate
    5070589.218177028,        !- Vertex 3 Ycoordinate
    9,                        !- Vertex 3 Zcoordinate
    642652.0812766546,        !- Vertex 4 Xcoordinate
    5070589.218177028,        !- Vertex 4 Ycoordinate
    12;                       !- Vertex 4 Zcoordinate

BUILDINGSURFACE:DETAILED,
    Block ad7ec0e9ad045058_0 Storey 3 Wall 0004,    !- Name
    wall,                     !- Surface Type
    EU_wall_Construction,     !- Construction Name
    ad7ec0e9ad045058_F3_dwelling_0,    !- Zone Name
    ,                         !- Space Name
    outdoors,                 !- Outside Boundary Condition
    ,                         !- Outside Boundary Condition Object
    SunExposed,               !- Sun Exposure
    WindExposed,              !- Wind Exposure
    autocalculate,            !- View Factor to Ground
    autocalculate,            !- Number of Vertices
    642652.0812766546,        !- Vertex 1 Xcoordinate
    5070589.218177028,        !- Vertex 1 Ycoordinate
    12,                       !- Vertex 1 Zcoordinate
    642652.0812766546,        !- Vertex 2 Xcoordinate
    5070589.218177028,        !- Vertex 2 Ycoordinate
    9,                        !- Vertex 2 Zcoordinate
    642654.4850604632,        !- Vertex 3 Xcoordinate
    5070596.123009528,        !- Vertex 3 Ycoordinate
    9,                        !- Vertex 3 Zcoordinate
    642654.4850604632,        !- Vertex 4 Xcoordinate
    5070596.123009528,        !- Vertex 4 Ycoordinate
    12;                       !- Vertex 4 Zcoordinate

BUILDINGSURFACE:DETAILED,
    Block ad7ec0e9ad045058_0 Storey 3 Roof 0001,    !- Name
    roof,                     !- Surface Type
    EU_roof_Construction,     !- Construction Name
    ad7ec0e9ad045058_F3_dwelling_0,    !- Zone Name
    ,                         !- Space Name
    outdoors,                 !- Outside Boundary Condition
    ,                         !- Outside Boundary Condition Object
    SunExposed,               !- Sun Exposure
    WindExposed,              !- Wind Exposure
    autocalculate,            !- View Factor to Ground
    autocalculate,            !- Number of Vertices
    642652.0812766546,        !- Vertex 1 Xcoordinate
    5070589.218177028,        !- Vertex 1 Ycoordinate
    12,                       !- Vertex 1 Zcoordinate
    642654.4850604632,        !- Vertex 2 Xcoordinate
    5070596.123009528,        !- Vertex 2 Ycoordinate
    12,                       !- Vertex 2 Zcoordinate
    642645.6806079755,        !- Vertex 3 Xcoordinate
    5070601.128719809,        !- Vertex 3 Ycoordinate
    12,                       !- Vertex 3 Zcoordinate
    642644.2769510756,        !- Vertex 4 Xcoordinate
    5070593.724398953,        !- Vertex 4 Ycoordinate
    12;                       !- Vertex 4 Zcoordinate

BUILDINGSURFACE:DETAILED,
    Block ad7ec0e9ad045058_0 Storey 0 Ceiling 0001_1,    !- Name
    ceiling,                  !- Surface Type
    EU_floor_Construction,    !- Construction Name
    ad7ec0e9ad045058_F0_dwelling_0,    !- Zone Name
    ,                         !- Space Name
    Surface,                  !- Outside Boundary Condition
    Block ad7ec0e9ad045058_0 Storey 1 Floor 0001_1,    !- Outside Boundary Condition Object
    NoSun,                    !- Sun Exposure
    NoWind,                   !- Wind Exposure
    autocalculate,            !- View Factor to Ground
    autocalculate,            !- Number of Vertices
    642652.0812766543,        !- Vertex 1 Xcoordinate
    5070589.218177028,        !- Vertex 1 Ycoordinate
    3,                        !- Vertex 1 Zcoordinate
    642654.4850604632,        !- Vertex 2 Xcoordinate
    5070596.123009528,        !- Vertex 2 Ycoordinate
    3,                        !- Vertex 2 Zcoordinate
    642645.6806079755,        !- Vertex 3 Xcoordinate
    5070601.128719809,        !- Vertex 3 Ycoordinate
    3,                        !- Vertex 3 Zcoordinate
    642644.2769510755,        !- Vertex 4 Xcoordinate
    5070593.724398953,        !- Vertex 4 Ycoordinate
    3;                        !- Vertex 4 Zcoordinate

BUILDINGSURFACE:DETAILED,
    Block ad7ec0e9ad045058_0 Storey 1 Floor 0001_1,    !- Name
    floor,                    !- Surface Type
    EU_floor_Construction,    !- Construction Name
    ad7ec0e9ad045058_F1_dwelling_0,    !- Zone Name
    ,                         !- Space Name
    Surface,                  !- Outside Boundary Condition
    Block ad7ec0e9ad045058_0 Storey 0 Ceiling 0001_1,    !- Outside Boundary Condition Object
    NoSun,                    !- Sun Exposure
    NoWind,                   !- Wind Exposure
    autocalculate,            !- View Factor to Ground
    autocalculate,            !- Number of Vertices
    642654.4850604632,        !- Vertex 1 Xcoordinate
    5070596.123009528,        !- Vertex 1 Ycoordinate
    3,                        !- Vertex 1 Zcoordinate
    642652.0812766543,        !- Vertex 2 Xcoordinate
    5070589.218177028,        !- Vertex 2 Ycoordinate
    3,                        !- Vertex 2 Zcoordinate
    642644.2769510755,        !- Vertex 3 Xcoordinate
    5070593.724398953,        !- Vertex 3 Ycoordinate
    3,                        !- Vertex 3 Zcoordinate
    642645.6806079755,        !- Vertex 4 Xcoordinate
    5070601.128719809,        !- Vertex 4 Ycoordinate
    3;                        !- Vertex 4 Zcoordinate

BUILDINGSURFACE:DETAILED,
    Block ad7ec0e9ad045058_0 Storey 1 Ceiling 0001_1,    !- Name
    ceiling,                  !- Surface Type
    EU_floor_Construction,    !- Construction Name
    ad7ec0e9ad045058_F1_dwelling_0,    !- Zone Name
    ,                         !- Space Name
    Surface,                  !- Outside Boundary Condition
    Block ad7ec0e9ad045058_0 Storey 2 Floor 0001_1,    !- Outside Boundary Condition Object
    NoSun,                    !- Sun Exposure
    NoWind,                   !- Wind Exposure
    autocalculate,            !- View Factor to Ground
    autocalculate,            !- Number of Vertices
    642652.0812766543,        !- Vertex 1 Xcoordinate
    5070589.218177028,        !- Vertex 1 Ycoordinate
    6,                        !- Vertex 1 Zcoordinate
    642654.4850604632,        !- Vertex 2 Xcoordinate
    5070596.123009528,        !- Vertex 2 Ycoordinate
    6,                        !- Vertex 2 Zcoordinate
    642645.6806079755,        !- Vertex 3 Xcoordinate
    5070601.128719809,        !- Vertex 3 Ycoordinate
    6,                        !- Vertex 3 Zcoordinate
    642644.2769510755,        !- Vertex 4 Xcoordinate
    5070593.724398953,        !- Vertex 4 Ycoordinate
    6;                        !- Vertex 4 Zcoordinate

BUILDINGSURFACE:DETAILED,
    Block ad7ec0e9ad045058_0 Storey 2 Floor 0001_1,    !- Name
    floor,                    !- Surface Type
    EU_floor_Construction,    !- Construction Name
    ad7ec0e9ad045058_F2_dwelling_0,    !- Zone Name
    ,                         !- Space Name
    Surface,                  !- Outside Boundary Condition
    Block ad7ec0e9ad045058_0 Storey 1 Ceiling 0001_1,    !- Outside Boundary Condition Object
    NoSun,                    !- Sun Exposure
    NoWind,                   !- Wind Exposure
    autocalculate,            !- View Factor to Ground
    autocalculate,            !- Number of Vertices
    642654.4850604632,        !- Vertex 1 Xcoordinate
    5070596.123009528,        !- Vertex 1 Ycoordinate
    6,                        !- Vertex 1 Zcoordinate
    642652.0812766543,        !- Vertex 2 Xcoordinate
    5070589.218177028,        !- Vertex 2 Ycoordinate
    6,                        !- Vertex 2 Zcoordinate
    642644.2769510755,        !- Vertex 3 Xcoordinate
    5070593.724398953,        !- Vertex 3 Ycoordinate
    6,                        !- Vertex 3 Zcoordinate
    642645.6806079755,        !- Vertex 4 Xcoordinate
    5070601.128719809,        !- Vertex 4 Ycoordinate
    6;                        !- Vertex 4 Zcoordinate

BUILDINGSURFACE:DETAILED,
    Block ad7ec0e9ad045058_0 Storey 2 Ceiling 0001_1,    !- Name
    ceiling,                  !- Surface Type
    EU_floor_Construction,    !- Construction Name
    ad7ec0e9ad045058_F2_dwelling_0,    !- Zone Name
    ,                         !- Space Name
    Surface,                  !- Outside Boundary Condition
    Block ad7ec0e9ad045058_0 Storey 3 Floor 0001_1,    !- Outside Boundary Condition Object
    NoSun,                    !- Sun Exposure
    NoWind,                   !- Wind Exposure
    autocalculate,            !- View Factor to Ground
    autocalculate,            !- Number of Vertices
    642652.0812766543,        !- Vertex 1 Xcoordinate
    5070589.218177028,        !- Vertex 1 Ycoordinate
    9,                        !- Vertex 1 Zcoordinate
    642654.4850604632,        !- Vertex 2 Xcoordinate
    5070596.123009528,        !- Vertex 2 Ycoordinate
    9,                        !- Vertex 2 Zcoordinate
    642645.6806079755,        !- Vertex 3 Xcoordinate
    5070601.128719809,        !- Vertex 3 Ycoordinate
    9,                        !- Vertex 3 Zcoordinate
    642644.2769510755,        !- Vertex 4 Xcoordinate
    5070593.724398953,        !- Vertex 4 Ycoordinate
    9;                        !- Vertex 4 Zcoordinate

BUILDINGSURFACE:DETAILED,
    Block ad7ec0e9ad045058_0 Storey 3 Floor 0001_1,    !- Name
    floor,                    !- Surface Type
    EU_floor_Construction,    !- Construction Name
    ad7ec0e9ad045058_F3_dwelling_0,    !- Zone Name
    ,                         !- Space Name
    Surface,                  !- Outside Boundary Condition
    Block ad7ec0e9ad045058_0 Storey 2 Ceiling 0001_1,    !- Outside Boundary Condition Object
    NoSun,                    !- Sun Exposure
    NoWind,                   !- Wind Exposure
    autocalculate,            !- View Factor to Ground
    autocalculate,            !- Number of Vertices
    642654.4850604632,        !- Vertex 1 Xcoordinate
    5070596.123009528,        !- Vertex 1 Ycoordinate
    9,                        !- Vertex 1 Zcoordinate
    642652.0812766543,        !- Vertex 2 Xcoordinate
    5070589.218177028,        !- Vertex 2 Ycoordinate
    9,                        !- Vertex 2 Zcoordinate
    642644.2769510755,        !- Vertex 3 Xcoordinate
    5070593.724398953,        !- Vertex 3 Ycoordinate
    9,                        !- Vertex 3 Zcoordinate
    642645.6806079755,        !- Vertex 4 Xcoordinate
    5070601.128719809,        !- Vertex 4 Ycoordinate
    9;                        !- Vertex 4 Zcoordinate

INTERNALMASS,
    ad7ec0e9ad045058_F0_dwelling_0_EU_InternalMass,    !- Name
    EU_InternalMass_Construction,    !- Construction Name
    ad7ec0e9ad045058_F0_dwelling_0,    !- Zone or ZoneList Name
    ,                         !- Space or SpaceList Name
    68.46841757996282;        !- Surface Area

INTERNALMASS,
    ad7ec0e9ad045058_F1_dwelling_0_EU_InternalMass,    !- Name
    EU_InternalMass_Construction,    !- Construction Name
    ad7ec0e9ad045058_F1_dwelling_0,    !- Zone or ZoneList Name
    ,                         !- Space or SpaceList Name
    68.46841757996282;        !- Surface Area

INTERNALMASS,
    ad7ec0e9ad045058_F2_dwelling_0_EU_InternalMass,    !- Name
    EU_InternalMass_Construction,    !- Construction Name
    ad7ec0e9ad045058_F2_dwelling_0,    !- Zone or ZoneList Name
    ,                         !- Space or SpaceList Name
    68.46841757996282;        !- Surface Area

INTERNALMASS,
    ad7ec0e9ad045058_F3_dwelling_0_EU_InternalMass,    !- Name
    EU_InternalMass_Construction,    !- Construction Name
    ad7ec0e9ad045058_F3_dwelling_0,    !- Zone or ZoneList Name
    ,                         !- Space or SpaceList Name
    68.46841757996282;        !- Surface Area

SHADING:SITE:DETAILED,
    shade_BATIMENT0000000240880057_part0_1,    !- Name
    ,                         !- Transmittance Schedule Name
    autocalculate,            !- Number of Vertices
    642557.2800598374,        !- Vertex 1 Xcoordinate
    5070594.952853104,        !- Vertex 1 Ycoordinate
    8.1,                      !- Vertex 1 Zcoordinate
    642557.2800598374,        !- Vertex 2 Xcoordinate
    5070594.952853104,        !- Vertex 2 Ycoordinate
    0,                        !- Vertex 2 Zcoordinate
    642633.393885998,         !- Vertex 3 Xcoordinate
    5070604.866129054,        !- Vertex 3 Ycoordinate
    0,                        !- Vertex 3 Zcoordinate
    642633.393885998,         !- Vertex 4 Xcoordinate
    5070604.866129054,        !- Vertex 4 Ycoordinate
    8.1;                      !- Vertex 4 Zcoordinate

SHADING:SITE:DETAILED,
    shade_BATIMENT0000000240880057_part0_2,    !- Name
    ,                         !- Transmittance Schedule Name
    autocalculate,            !- Number of Vertices
    642633.393885998,         !- Vertex 1 Xcoordinate
    5070604.866129054,        !- Vertex 1 Ycoordinate
    8.1,                      !- Vertex 1 Zcoordinate
    642633.393885998,         !- Vertex 2 Xcoordinate
    5070604.866129054,        !- Vertex 2 Ycoordinate
    0,                        !- Vertex 2 Zcoordinate
    642640.5601423662,        !- Vertex 3 Xcoordinate
    5070549.843834287,        !- Vertex 3 Ycoordinate
    0,                        !- Vertex 3 Zcoordinate
    642640.5601423662,        !- Vertex 4 Xcoordinate
    5070549.843834287,        !- Vertex 4 Ycoordinate
    8.1;                      !- Vertex 4 Zcoordinate

SHADING:SITE:DETAILED,
    shade_BATIMENT0000000240880057_part0_3,    !- Name
    ,                         !- Transmittance Schedule Name
    autocalculate,            !- Number of Vertices
    642640.5601423662,        !- Vertex 1 Xcoordinate
    5070549.843834287,        !- Vertex 1 Ycoordinate
    8.1,                      !- Vertex 1 Zcoordinate
    642640.5601423662,        !- Vertex 2 Xcoordinate
    5070549.843834287,        !- Vertex 2 Ycoordinate
    0,                        !- Vertex 2 Zcoordinate
    642564.4463162054,        !- Vertex 3 Xcoordinate
    5070539.930558337,        !- Vertex 3 Ycoordinate
    0,                        !- Vertex 3 Zcoordinate
    642564.4463162054,        !- Vertex 4 Xcoordinate
    5070539.930558337,        !- Vertex 4 Ycoordinate
    8.1;                      !- Vertex 4 Zcoordinate

SHADING:SITE:DETAILED,
    shade_BATIMENT0000000240880057_part0_4,    !- Name
    ,                         !- Transmittance Schedule Name
    autocalculate,            !- Number of Vertices
    642564.4463162054,        !- Vertex 1 Xcoordinate
    5070539.930558337,        !- Vertex 1 Ycoordinate
    8.1,                      !- Vertex 1 Zcoordinate
    642564.4463162054,        !- Vertex 2 Xcoordinate
    5070539.930558337,        !- Vertex 2 Ycoordinate
    0,                        !- Vertex 2 Zcoordinate
    642557.2800598374,        !- Vertex 3 Xcoordinate
    5070594.952853104,        !- Vertex 3 Ycoordinate
    0,                        !- Vertex 3 Zcoordinate
    642557.2800598374,        !- Vertex 4 Xcoordinate
    5070594.952853104,        !- Vertex 4 Ycoordinate
    8.1;                      !- Vertex 4 Zcoordinate

SHADING:SITE:DETAILED,
    shade_BATIMENT0000000240882145_part0_1,    !- Name
    ,                         !- Transmittance Schedule Name
    autocalculate,            !- Number of Vertices
    642663.0874300328,        !- Vertex 1 Xcoordinate
    5070582.911320858,        !- Vertex 1 Ycoordinate
    18.4,                     !- Vertex 1 Zcoordinate
    642663.0874300328,        !- Vertex 2 Xcoordinate
    5070582.911320858,        !- Vertex 2 Ycoordinate
    0,                        !- Vertex 2 Zcoordinate
    642649.872017952,         !- Vertex 3 Xcoordinate
    5070561.199724394,        !- Vertex 3 Ycoordinate
    0,                        !- Vertex 3 Zcoordinate
    642649.872017952,         !- Vertex 4 Xcoordinate
    5070561.199724394,        !- Vertex 4 Ycoordinate
    18.4;                     !- Vertex 4 Zcoordinate

SHADING:SITE:DETAILED,
    shade_BATIMENT0000000240882145_part0_2,    !- Name
    ,                         !- Transmittance Schedule Name
    autocalculate,            !- Number of Vertices
    642649.872017952,         !- Vertex 1 Xcoordinate
    5070561.199724394,        !- Vertex 1 Ycoordinate
    18.4,                     !- Vertex 1 Zcoordinate
    642649.872017952,         !- Vertex 2 Xcoordinate
    5070561.199724394,        !- Vertex 2 Ycoordinate
    0,                        !- Vertex 2 Zcoordinate
    642640.5534913533,        !- Vertex 3 Xcoordinate
    5070566.87174145,         !- Vertex 3 Ycoordinate
    0,                        !- Vertex 3 Zcoordinate
    642640.5534913533,        !- Vertex 4 Xcoordinate
    5070566.87174145,         !- Vertex 4 Ycoordinate
    18.4;                     !- Vertex 4 Zcoordinate

SHADING:SITE:DETAILED,
    shade_BATIMENT0000000240882145_part0_3,    !- Name
    ,                         !- Transmittance Schedule Name
    autocalculate,            !- Number of Vertices
    642640.5534913533,        !- Vertex 1 Xcoordinate
    5070566.87174145,         !- Vertex 1 Ycoordinate
    18.4,                     !- Vertex 1 Zcoordinate
    642640.5534913533,        !- Vertex 2 Xcoordinate
    5070566.87174145,         !- Vertex 2 Ycoordinate
    0,                        !- Vertex 2 Zcoordinate
    642653.7689034337,        !- Vertex 3 Xcoordinate
    5070588.583337914,        !- Vertex 3 Ycoordinate
    0,                        !- Vertex 3 Zcoordinate
    642653.7689034337,        !- Vertex 4 Xcoordinate
    5070588.583337914,        !- Vertex 4 Ycoordinate
    18.4;                     !- Vertex 4 Zcoordinate

SHADING:SITE:DETAILED,
    shade_BATIMENT0000000240882145_part0_4,    !- Name
    ,                         !- Transmittance Schedule Name
    autocalculate,            !- Number of Vertices
    642653.7689034337,        !- Vertex 1 Xcoordinate
    5070588.583337914,        !- Vertex 1 Ycoordinate
    18.4,                     !- Vertex 1 Zcoordinate
    642653.7689034337,        !- Vertex 2 Xcoordinate
    5070588.583337914,        !- Vertex 2 Ycoordinate
    0,                        !- Vertex 2 Zcoordinate
    642663.0874300328,        !- Vertex 3 Xcoordinate
    5070582.911320858,        !- Vertex 3 Ycoordinate
    0,                        !- Vertex 3 Zcoordinate
    642663.0874300328,        !- Vertex 4 Xcoordinate
    5070582.911320858,        !- Vertex 4 Ycoordinate
    18.4;                     !- Vertex 4 Zcoordinate

SHADING:SITE:DETAILED,
    shade_BATIMENT0000000240882146_part0_1,    !- Name
    ,                         !- Transmittance Schedule Name
    autocalculate,            !- Number of Vertices
    642644.4747856082,        !- Vertex 1 Xcoordinate
    5070572.975644438,        !- Vertex 1 Ycoordinate
    18,                       !- Vertex 1 Zcoordinate
    642644.4747856082,        !- Vertex 2 Xcoordinate
    5070572.975644438,        !- Vertex 2 Ycoordinate
    0,                        !- Vertex 2 Zcoordinate
    642644.2769510756,        !- Vertex 3 Xcoordinate
    5070593.724398953,        !- Vertex 3 Ycoordinate
    0,                        !- Vertex 3 Zcoordinate
    642644.2769510756,        !- Vertex 4 Xcoordinate
    5070593.724398953,        !- Vertex 4 Ycoordinate
    18;                       !- Vertex 4 Zcoordinate

SHADING:SITE:DETAILED,
    shade_BATIMENT0000000240882146_part0_2,    !- Name
    ,                         !- Transmittance Schedule Name
    autocalculate,            !- Number of Vertices
    642644.2769510756,        !- Vertex 1 Xcoordinate
    5070593.724398953,        !- Vertex 1 Ycoordinate
    18,                       !- Vertex 1 Zcoordinate
    642644.2769510756,        !- Vertex 2 Xcoordinate
    5070593.724398953,        !- Vertex 2 Ycoordinate
    0,                        !- Vertex 2 Zcoordinate
    642652.0373943052,        !- Vertex 3 Xcoordinate
    5070593.798628254,        !- Vertex 3 Ycoordinate
    0,                        !- Vertex 3 Zcoordinate
    642652.0373943052,        !- Vertex 4 Xcoordinate
    5070593.798628254,        !- Vertex 4 Ycoordinate
    18;                       !- Vertex 4 Zcoordinate

SHADING:SITE:DETAILED,
    shade_BATIMENT0000000240882146_part0_3,    !- Name
    ,                         !- Transmittance Schedule Name
    autocalculate,            !- Number of Vertices
    642652.0373943052,        !- Vertex 1 Xcoordinate
    5070593.798628254,        !- Vertex 1 Ycoordinate
    18,                       !- Vertex 1 Zcoordinate
    642652.0373943052,        !- Vertex 2 Xcoordinate
    5070593.798628254,        !- Vertex 2 Ycoordinate
    0,                        !- Vertex 2 Zcoordinate
    642652.2354015113,        !- Vertex 3 Xcoordinate
    5070573.04970408,         !- Vertex 3 Ycoordinate
    0,                        !- Vertex 3 Zcoordinate
    642652.2354015113,        !- Vertex 4 Xcoordinate
    5070573.04970408,         !- Vertex 4 Ycoordinate
    18;                       !- Vertex 4 Zcoordinate

SHADING:SITE:DETAILED,
    shade_BATIMENT0000000240882146_part0_4,    !- Name
    ,                         !- Transmittance Schedule Name
    autocalculate,            !- Number of Vertices
    642652.2354015113,        !- Vertex 1 Xcoordinate
    5070573.04970408,         !- Vertex 1 Ycoordinate
    18,                       !- Vertex 1 Zcoordinate
    642652.2354015113,        !- Vertex 2 Xcoordinate
    5070573.04970408,         !- Vertex 2 Ycoordinate
    0,                        !- Vertex 2 Zcoordinate
    642644.4747856082,        !- Vertex 3 Xcoordinate
    5070572.975644438,        !- Vertex 3 Ycoordinate
    0,                        !- Vertex 3 Zcoordinate
    642644.4747856082,        !- Vertex 4 Xcoordinate
    5070572.975644438,        !- Vertex 4 Ycoordinate
    18;                       !- Vertex 4 Zcoordinate

SHADING:SITE:DETAILED,
    shade_BATIMENT0000000240881377_part0_1,    !- Name
    ,                         !- Transmittance Schedule Name
    autocalculate,            !- Number of Vertices
    642660.8908739634,        !- Vertex 1 Xcoordinate
    5070600.524143831,        !- Vertex 1 Ycoordinate
    19,                       !- Vertex 1 Zcoordinate
    642660.8908739634,        !- Vertex 2 Xcoordinate
    5070600.524143831,        !- Vertex 2 Ycoordinate
    0,                        !- Vertex 2 Zcoordinate
    642670.2964261813,        !- Vertex 3 Xcoordinate
    5070594.917542873,        !- Vertex 3 Ycoordinate
    0,                        !- Vertex 3 Zcoordinate
    642670.2964261813,        !- Vertex 4 Xcoordinate
    5070594.917542873,        !- Vertex 4 Ycoordinate
    19;                       !- Vertex 4 Zcoordinate

SHADING:SITE:DETAILED,
    shade_BATIMENT0000000240881377_part0_2,    !- Name
    ,                         !- Transmittance Schedule Name
    autocalculate,            !- Number of Vertices
    642670.2964261813,        !- Vertex 1 Xcoordinate
    5070594.917542873,        !- Vertex 1 Ycoordinate
    19,                       !- Vertex 1 Zcoordinate
    642670.2964261813,        !- Vertex 2 Xcoordinate
    5070594.917542873,        !- Vertex 2 Ycoordinate
    0,                        !- Vertex 2 Zcoordinate
    642663.034566903,         !- Vertex 3 Xcoordinate
    5070582.735001749,        !- Vertex 3 Ycoordinate
    0,                        !- Vertex 3 Zcoordinate
    642663.034566903,         !- Vertex 4 Xcoordinate
    5070582.735001749,        !- Vertex 4 Ycoordinate
    19;                       !- Vertex 4 Zcoordinate

SHADING:SITE:DETAILED,
    shade_BATIMENT0000000240881377_part0_3,    !- Name
    ,                         !- Transmittance Schedule Name
    autocalculate,            !- Number of Vertices
    642663.034566903,         !- Vertex 1 Xcoordinate
    5070582.735001749,        !- Vertex 1 Ycoordinate
    19,                       !- Vertex 1 Zcoordinate
    642663.034566903,         !- Vertex 2 Xcoordinate
    5070582.735001749,        !- Vertex 2 Ycoordinate
    0,                        !- Vertex 2 Zcoordinate
    642653.6290146832,        !- Vertex 3 Xcoordinate
    5070588.341602704,        !- Vertex 3 Ycoordinate
    0,                        !- Vertex 3 Zcoordinate
    642653.6290146832,        !- Vertex 4 Xcoordinate
    5070588.341602704,        !- Vertex 4 Ycoordinate
    19;                       !- Vertex 4 Zcoordinate

SHADING:SITE:DETAILED,
    shade_BATIMENT0000000240881377_part0_4,    !- Name
    ,                         !- Transmittance Schedule Name
    autocalculate,            !- Number of Vertices
    642653.6290146832,        !- Vertex 1 Xcoordinate
    5070588.341602704,        !- Vertex 1 Ycoordinate
    19,                       !- Vertex 1 Zcoordinate
    642653.6290146832,        !- Vertex 2 Xcoordinate
    5070588.341602704,        !- Vertex 2 Ycoordinate
    0,                        !- Vertex 2 Zcoordinate
    642660.8908739634,        !- Vertex 3 Xcoordinate
    5070600.524143831,        !- Vertex 3 Ycoordinate
    0,                        !- Vertex 3 Zcoordinate
    642660.8908739634,        !- Vertex 4 Xcoordinate
    5070600.524143831,        !- Vertex 4 Ycoordinate
    19;                       !- Vertex 4 Zcoordinate

SHADING:SITE:DETAILED,
    shade_BATIMENT0000000240881396_part0_1,    !- Name
    ,                         !- Transmittance Schedule Name
    autocalculate,            !- Number of Vertices
    642646.9830782389,        !- Vertex 1 Xcoordinate
    5070608.434009651,        !- Vertex 1 Ycoordinate
    18.7,                     !- Vertex 1 Zcoordinate
    642646.9830782389,        !- Vertex 2 Xcoordinate
    5070608.434009651,        !- Vertex 2 Ycoordinate
    0,                        !- Vertex 2 Zcoordinate
    642657.9399362965,        !- Vertex 3 Xcoordinate
    5070602.453046693,        !- Vertex 3 Ycoordinate
    0,                        !- Vertex 3 Zcoordinate
    642657.9399362965,        !- Vertex 4 Xcoordinate
    5070602.453046693,        !- Vertex 4 Ycoordinate
    18.7;                     !- Vertex 4 Zcoordinate

SHADING:SITE:DETAILED,
    shade_BATIMENT0000000240881396_part0_2,    !- Name
    ,                         !- Transmittance Schedule Name
    autocalculate,            !- Number of Vertices
    642657.9399362965,        !- Vertex 1 Xcoordinate
    5070602.453046693,        !- Vertex 1 Ycoordinate
    18.7,                     !- Vertex 1 Zcoordinate
    642657.9399362965,        !- Vertex 2 Xcoordinate
    5070602.453046693,        !- Vertex 2 Ycoordinate
    0,                        !- Vertex 2 Zcoordinate
    642654.4850604632,        !- Vertex 3 Xcoordinate
    5070596.123009528,        !- Vertex 3 Ycoordinate
    0,                        !- Vertex 3 Zcoordinate
    642654.4850604632,        !- Vertex 4 Xcoordinate
    5070596.123009528,        !- Vertex 4 Ycoordinate
    18.7;                     !- Vertex 4 Zcoordinate

SHADING:SITE:DETAILED,
    shade_BATIMENT0000000240881396_part0_3,    !- Name
    ,                         !- Transmittance Schedule Name
    autocalculate,            !- Number of Vertices
    642654.4850604632,        !- Vertex 1 Xcoordinate
    5070596.123009528,        !- Vertex 1 Ycoordinate
    18.7,                     !- Vertex 1 Zcoordinate
    642654.4850604632,        !- Vertex 2 Xcoordinate
    5070596.123009528,        !- Vertex 2 Ycoordinate
    0,                        !- Vertex 2 Zcoordinate
    642643.5274773095,        !- Vertex 3 Xcoordinate
    5070602.104496443,        !- Vertex 3 Ycoordinate
    0,                        !- Vertex 3 Zcoordinate
    642643.5274773095,        !- Vertex 4 Xcoordinate
    5070602.104496443,        !- Vertex 4 Ycoordinate
    18.7;                     !- Vertex 4 Zcoordinate

SHADING:SITE:DETAILED,
    shade_BATIMENT0000000240881396_part0_4,    !- Name
    ,                         !- Transmittance Schedule Name
    autocalculate,            !- Number of Vertices
    642643.5274773095,        !- Vertex 1 Xcoordinate
    5070602.104496443,        !- Vertex 1 Ycoordinate
    18.7,                     !- Vertex 1 Zcoordinate
    642643.5274773095,        !- Vertex 2 Xcoordinate
    5070602.104496443,        !- Vertex 2 Ycoordinate
    0,                        !- Vertex 2 Zcoordinate
    642646.9830782389,        !- Vertex 3 Xcoordinate
    5070608.434009651,        !- Vertex 3 Ycoordinate
    0,                        !- Vertex 3 Zcoordinate
    642646.9830782389,        !- Vertex 4 Xcoordinate
    5070608.434009651,        !- Vertex 4 Ycoordinate
    18.7;                     !- Vertex 4 Zcoordinate

SHADING:SITE:DETAILED,
    shade_BATIMENT0000000240881448_part0_1,    !- Name
    ,                         !- Transmittance Schedule Name
    autocalculate,            !- Number of Vertices
    642634.7099060781,        !- Vertex 1 Xcoordinate
    5070602.808198311,        !- Vertex 1 Ycoordinate
    19.4,                     !- Vertex 1 Zcoordinate
    642634.7099060781,        !- Vertex 2 Xcoordinate
    5070602.808198311,        !- Vertex 2 Ycoordinate
    0,                        !- Vertex 2 Zcoordinate
    642628.4681786441,        !- Vertex 3 Xcoordinate
    5070601.934152172,        !- Vertex 3 Ycoordinate
    0,                        !- Vertex 3 Zcoordinate
    642628.4681786441,        !- Vertex 4 Xcoordinate
    5070601.934152172,        !- Vertex 4 Ycoordinate
    19.4;                     !- Vertex 4 Zcoordinate

SHADING:SITE:DETAILED,
    shade_BATIMENT0000000240881448_part0_2,    !- Name
    ,                         !- Transmittance Schedule Name
    autocalculate,            !- Number of Vertices
    642628.4681786441,        !- Vertex 1 Xcoordinate
    5070601.934152172,        !- Vertex 1 Ycoordinate
    19.4,                     !- Vertex 1 Zcoordinate
    642628.4681786441,        !- Vertex 2 Xcoordinate
    5070601.934152172,        !- Vertex 2 Ycoordinate
    0,                        !- Vertex 2 Zcoordinate
    642627.9325861961,        !- Vertex 3 Xcoordinate
    5070605.761653106,        !- Vertex 3 Ycoordinate
    0,                        !- Vertex 3 Zcoordinate
    642627.9325861961,        !- Vertex 4 Xcoordinate
    5070605.761653106,        !- Vertex 4 Ycoordinate
    19.4;                     !- Vertex 4 Zcoordinate

SHADING:SITE:DETAILED,
    shade_BATIMENT0000000240881448_part0_3,    !- Name
    ,                         !- Transmittance Schedule Name
    autocalculate,            !- Number of Vertices
    642627.9325861961,        !- Vertex 1 Xcoordinate
    5070605.761653106,        !- Vertex 1 Ycoordinate
    19.4,                     !- Vertex 1 Zcoordinate
    642627.9325861961,        !- Vertex 2 Xcoordinate
    5070605.761653106,        !- Vertex 2 Ycoordinate
    0,                        !- Vertex 2 Zcoordinate
    642634.1732449778,        !- Vertex 3 Xcoordinate
    5070606.635979276,        !- Vertex 3 Ycoordinate
    0,                        !- Vertex 3 Zcoordinate
    642634.1732449778,        !- Vertex 4 Xcoordinate
    5070606.635979276,        !- Vertex 4 Ycoordinate
    19.4;                     !- Vertex 4 Zcoordinate

SHADING:SITE:DETAILED,
    shade_BATIMENT0000000240881448_part0_4,    !- Name
    ,                         !- Transmittance Schedule Name
    autocalculate,            !- Number of Vertices
    642634.1732449778,        !- Vertex 1 Xcoordinate
    5070606.635979276,        !- Vertex 1 Ycoordinate
    19.4,                     !- Vertex 1 Zcoordinate
    642634.1732449778,        !- Vertex 2 Xcoordinate
    5070606.635979276,        !- Vertex 2 Ycoordinate
    0,                        !- Vertex 2 Zcoordinate
    642634.7099060781,        !- Vertex 3 Xcoordinate
    5070602.808198311,        !- Vertex 3 Ycoordinate
    0,                        !- Vertex 3 Zcoordinate
    642634.7099060781,        !- Vertex 4 Xcoordinate
    5070602.808198311,        !- Vertex 4 Ycoordinate
    19.4;                     !- Vertex 4 Zcoordinate

SHADING:SITE:DETAILED,
    shade_BATIMENT0000000357175644_part0_1,    !- Name
    ,                         !- Transmittance Schedule Name
    autocalculate,            !- Number of Vertices
    642627.664567093,         !- Vertex 1 Xcoordinate
    5070594.965484377,        !- Vertex 1 Ycoordinate
    24.7,                     !- Vertex 1 Zcoordinate
    642627.664567093,         !- Vertex 2 Xcoordinate
    5070594.965484377,        !- Vertex 2 Ycoordinate
    0,                        !- Vertex 2 Zcoordinate
    642570.6341398362,        !- Vertex 3 Xcoordinate
    5070587.50366222,         !- Vertex 3 Ycoordinate
    0,                        !- Vertex 3 Zcoordinate
    642570.6341398362,        !- Vertex 4 Xcoordinate
    5070587.50366222,         !- Vertex 4 Ycoordinate
    24.7;                     !- Vertex 4 Zcoordinate

SHADING:SITE:DETAILED,
    shade_BATIMENT0000000357175644_part0_2,    !- Name
    ,                         !- Transmittance Schedule Name
    autocalculate,            !- Number of Vertices
    642570.6341398362,        !- Vertex 1 Xcoordinate
    5070587.50366222,         !- Vertex 1 Ycoordinate
    24.7,                     !- Vertex 1 Zcoordinate
    642570.6341398362,        !- Vertex 2 Xcoordinate
    5070587.50366222,         !- Vertex 2 Ycoordinate
    0,                        !- Vertex 2 Zcoordinate
    642567.7996375527,        !- Vertex 3 Xcoordinate
    5070609.167656967,        !- Vertex 3 Ycoordinate
    0,                        !- Vertex 3 Zcoordinate
    642567.7996375527,        !- Vertex 4 Xcoordinate
    5070609.167656967,        !- Vertex 4 Ycoordinate
    24.7;                     !- Vertex 4 Zcoordinate

SHADING:SITE:DETAILED,
    shade_BATIMENT0000000357175644_part0_3,    !- Name
    ,                         !- Transmittance Schedule Name
    autocalculate,            !- Number of Vertices
    642567.7996375527,        !- Vertex 1 Xcoordinate
    5070609.167656967,        !- Vertex 1 Ycoordinate
    24.7,                     !- Vertex 1 Zcoordinate
    642567.7996375527,        !- Vertex 2 Xcoordinate
    5070609.167656967,        !- Vertex 2 Ycoordinate
    0,                        !- Vertex 2 Zcoordinate
    642624.8300648095,        !- Vertex 3 Xcoordinate
    5070616.629479124,        !- Vertex 3 Ycoordinate
    0,                        !- Vertex 3 Zcoordinate
    642624.8300648095,        !- Vertex 4 Xcoordinate
    5070616.629479124,        !- Vertex 4 Ycoordinate
    24.7;                     !- Vertex 4 Zcoordinate

SHADING:SITE:DETAILED,
    shade_BATIMENT0000000357175644_part0_4,    !- Name
    ,                         !- Transmittance Schedule Name
    autocalculate,            !- Number of Vertices
    642624.8300648095,        !- Vertex 1 Xcoordinate
    5070616.629479124,        !- Vertex 1 Ycoordinate
    24.7,                     !- Vertex 1 Zcoordinate
    642624.8300648095,        !- Vertex 2 Xcoordinate
    5070616.629479124,        !- Vertex 2 Ycoordinate
    0,                        !- Vertex 2 Zcoordinate
    642627.664567093,         !- Vertex 3 Xcoordinate
    5070594.965484377,        !- Vertex 3 Ycoordinate
    0,                        !- Vertex 3 Zcoordinate
    642627.664567093,         !- Vertex 4 Xcoordinate
    5070594.965484377,        !- Vertex 4 Ycoordinate
    24.7;                     !- Vertex 4 Zcoordinate

SHADING:SITE:DETAILED,
    shade_BATIMENT0000000240881367_part0_1,    !- Name
    ,                         !- Transmittance Schedule Name
    autocalculate,            !- Number of Vertices
    642663.496951849,         !- Vertex 1 Xcoordinate
    5070614.033166964,        !- Vertex 1 Ycoordinate
    19.6,                     !- Vertex 1 Zcoordinate
    642663.496951849,         !- Vertex 2 Xcoordinate
    5070614.033166964,        !- Vertex 2 Ycoordinate
    0,                        !- Vertex 2 Zcoordinate
    642678.7678335133,        !- Vertex 3 Xcoordinate
    5070608.804707005,        !- Vertex 3 Ycoordinate
    0,                        !- Vertex 3 Zcoordinate
    642678.7678335133,        !- Vertex 4 Xcoordinate
    5070608.804707005,        !- Vertex 4 Ycoordinate
    19.6;                     !- Vertex 4 Zcoordinate

SHADING:SITE:DETAILED,
    shade_BATIMENT0000000240881367_part0_2,    !- Name
    ,                         !- Transmittance Schedule Name
    autocalculate,            !- Number of Vertices
    642678.7678335133,        !- Vertex 1 Xcoordinate
    5070608.804707005,        !- Vertex 1 Ycoordinate
    19.6,                     !- Vertex 1 Zcoordinate
    642678.7678335133,        !- Vertex 2 Xcoordinate
    5070608.804707005,        !- Vertex 2 Ycoordinate
    0,                        !- Vertex 2 Zcoordinate
    642673.6229815189,        !- Vertex 3 Xcoordinate
    5070593.778807541,        !- Vertex 3 Ycoordinate
    0,                        !- Vertex 3 Zcoordinate
    642673.6229815189,        !- Vertex 4 Xcoordinate
    5070593.778807541,        !- Vertex 4 Ycoordinate
    19.6;                     !- Vertex 4 Zcoordinate

SHADING:SITE:DETAILED,
    shade_BATIMENT0000000240881367_part0_3,    !- Name
    ,                         !- Transmittance Schedule Name
    autocalculate,            !- Number of Vertices
    642673.6229815189,        !- Vertex 1 Xcoordinate
    5070593.778807541,        !- Vertex 1 Ycoordinate
    19.6,                     !- Vertex 1 Zcoordinate
    642673.6229815189,        !- Vertex 2 Xcoordinate
    5070593.778807541,        !- Vertex 2 Ycoordinate
    0,                        !- Vertex 2 Zcoordinate
    642658.3523644485,        !- Vertex 3 Xcoordinate
    5070599.007450578,        !- Vertex 3 Ycoordinate
    0,                        !- Vertex 3 Zcoordinate
    642658.3523644485,        !- Vertex 4 Xcoordinate
    5070599.007450578,        !- Vertex 4 Ycoordinate
    19.6;                     !- Vertex 4 Zcoordinate

SHADING:SITE:DETAILED,
    shade_BATIMENT0000000240881367_part0_4,    !- Name
    ,                         !- Transmittance Schedule Name
    autocalculate,            !- Number of Vertices
    642658.3523644485,        !- Vertex 1 Xcoordinate
    5070599.007450578,        !- Vertex 1 Ycoordinate
    19.6,                     !- Vertex 1 Zcoordinate
    642658.3523644485,        !- Vertex 2 Xcoordinate
    5070599.007450578,        !- Vertex 2 Ycoordinate
    0,                        !- Vertex 2 Zcoordinate
    642663.496951849,         !- Vertex 3 Xcoordinate
    5070614.033166964,        !- Vertex 3 Ycoordinate
    0,                        !- Vertex 3 Zcoordinate
    642663.496951849,         !- Vertex 4 Xcoordinate
    5070614.033166964,        !- Vertex 4 Ycoordinate
    19.6;                     !- Vertex 4 Zcoordinate

SHADING:SITE:DETAILED,
    shade_BATIMENT0000000240881451_part0_1,    !- Name
    ,                         !- Transmittance Schedule Name
    autocalculate,            !- Number of Vertices
    642648.9016503539,        !- Vertex 1 Xcoordinate
    5070619.070782517,        !- Vertex 1 Ycoordinate
    18.7,                     !- Vertex 1 Zcoordinate
    642648.9016503539,        !- Vertex 2 Xcoordinate
    5070619.070782517,        !- Vertex 2 Ycoordinate
    0,                        !- Vertex 2 Zcoordinate
    642663.66024615,          !- Vertex 3 Xcoordinate
    5070613.976623836,        !- Vertex 3 Ycoordinate
    0,                        !- Vertex 3 Zcoordinate
    642663.66024615,          !- Vertex 4 Xcoordinate
    5070613.976623836,        !- Vertex 4 Ycoordinate
    18.7;                     !- Vertex 4 Zcoordinate

SHADING:SITE:DETAILED,
    shade_BATIMENT0000000240881451_part0_2,    !- Name
    ,                         !- Transmittance Schedule Name
    autocalculate,            !- Number of Vertices
    642663.66024615,          !- Vertex 1 Xcoordinate
    5070613.976623836,        !- Vertex 1 Ycoordinate
    18.7,                     !- Vertex 1 Zcoordinate
    642663.66024615,          !- Vertex 2 Xcoordinate
    5070613.976623836,        !- Vertex 2 Ycoordinate
    0,                        !- Vertex 2 Zcoordinate
    642659.5621639442,        !- Vertex 3 Xcoordinate
    5070602.103821545,        !- Vertex 3 Ycoordinate
    0,                        !- Vertex 3 Zcoordinate
    642659.5621639442,        !- Vertex 4 Xcoordinate
    5070602.103821545,        !- Vertex 4 Ycoordinate
    18.7;                     !- Vertex 4 Zcoordinate

SHADING:SITE:DETAILED,
    shade_BATIMENT0000000240881451_part0_3,    !- Name
    ,                         !- Transmittance Schedule Name
    autocalculate,            !- Number of Vertices
    642659.5621639442,        !- Vertex 1 Xcoordinate
    5070602.103821545,        !- Vertex 1 Ycoordinate
    18.7,                     !- Vertex 1 Zcoordinate
    642659.5621639442,        !- Vertex 2 Xcoordinate
    5070602.103821545,        !- Vertex 2 Ycoordinate
    0,                        !- Vertex 2 Zcoordinate
    642644.8035681482,        !- Vertex 3 Xcoordinate
    5070607.197980226,        !- Vertex 3 Ycoordinate
    0,                        !- Vertex 3 Zcoordinate
    642644.8035681482,        !- Vertex 4 Xcoordinate
    5070607.197980226,        !- Vertex 4 Ycoordinate
    18.7;                     !- Vertex 4 Zcoordinate

SHADING:SITE:DETAILED,
    shade_BATIMENT0000000240881451_part0_4,    !- Name
    ,                         !- Transmittance Schedule Name
    autocalculate,            !- Number of Vertices
    642644.8035681482,        !- Vertex 1 Xcoordinate
    5070607.197980226,        !- Vertex 1 Ycoordinate
    18.7,                     !- Vertex 1 Zcoordinate
    642644.8035681482,        !- Vertex 2 Xcoordinate
    5070607.197980226,        !- Vertex 2 Ycoordinate
    0,                        !- Vertex 2 Zcoordinate
    642648.9016503539,        !- Vertex 3 Xcoordinate
    5070619.070782517,        !- Vertex 3 Ycoordinate
    0,                        !- Vertex 3 Zcoordinate
    642648.9016503539,        !- Vertex 4 Xcoordinate
    5070619.070782517,        !- Vertex 4 Ycoordinate
    18.7;                     !- Vertex 4 Zcoordinate

OTHEREQUIPMENT,
    EU_Step8_InternalGain_ad7ec0e9ad045058_F0_dwelling_0_f000,    !- Name
    Electricity,              !- Fuel Type
    ad7ec0e9ad045058_F0_dwelling_0,    !- Zone or ZoneList or Space or SpaceList Name
    EU_Step8_GainSchedule_ad7ec0e9ad045058_F0_dwelling_0_f000,    !- Schedule Name
    Watts/Area,               !- Design Level Calculation Method
    ,                         !- Design Level
    1,                        !- Power per Zone Floor Area
    ,                         !- Power per Person
    0,                        !- Fraction Latent
    0,                        !- Fraction Radiant
    0,                        !- Fraction Lost
    0,                        !- Carbon Dioxide Generation Rate
    EU_Step8_InternalGains;    !- EndUse Subcategory

OTHEREQUIPMENT,
    EU_Step8_InternalGain_ad7ec0e9ad045058_F1_dwelling_0_f000,    !- Name
    Electricity,              !- Fuel Type
    ad7ec0e9ad045058_F1_dwelling_0,    !- Zone or ZoneList or Space or SpaceList Name
    EU_Step8_GainSchedule_ad7ec0e9ad045058_F1_dwelling_0_f000,    !- Schedule Name
    Watts/Area,               !- Design Level Calculation Method
    ,                         !- Design Level
    1,                        !- Power per Zone Floor Area
    ,                         !- Power per Person
    0,                        !- Fraction Latent
    0,                        !- Fraction Radiant
    0,                        !- Fraction Lost
    0,                        !- Carbon Dioxide Generation Rate
    EU_Step8_InternalGains;    !- EndUse Subcategory

OTHEREQUIPMENT,
    EU_Step8_InternalGain_ad7ec0e9ad045058_F2_dwelling_0_f000,    !- Name
    Electricity,              !- Fuel Type
    ad7ec0e9ad045058_F2_dwelling_0,    !- Zone or ZoneList or Space or SpaceList Name
    EU_Step8_GainSchedule_ad7ec0e9ad045058_F2_dwelling_0_f000,    !- Schedule Name
    Watts/Area,               !- Design Level Calculation Method
    ,                         !- Design Level
    1,                        !- Power per Zone Floor Area
    ,                         !- Power per Person
    0,                        !- Fraction Latent
    0,                        !- Fraction Radiant
    0,                        !- Fraction Lost
    0,                        !- Carbon Dioxide Generation Rate
    EU_Step8_InternalGains;    !- EndUse Subcategory

OTHEREQUIPMENT,
    EU_Step8_InternalGain_ad7ec0e9ad045058_F3_dwelling_0_f000,    !- Name
    Electricity,              !- Fuel Type
    ad7ec0e9ad045058_F3_dwelling_0,    !- Zone or ZoneList or Space or SpaceList Name
    EU_Step8_GainSchedule_ad7ec0e9ad045058_F3_dwelling_0_f000,    !- Schedule Name
    Watts/Area,               !- Design Level Calculation Method
    ,                         !- Design Level
    1,                        !- Power per Zone Floor Area
    ,                         !- Power per Person
    0,                        !- Fraction Latent
    0,                        !- Fraction Radiant
    0,                        !- Fraction Lost
    0,                        !- Carbon Dioxide Generation Rate
    EU_Step8_InternalGains;    !- EndUse Subcategory

ZONEVENTILATION:DESIGNFLOWRATE,
    EU_ConstantAir_ad7ec0e9ad045058_F0_dwelling_0,    !- Name
    ad7ec0e9ad045058_F0_dwelling_0,    !- Zone or ZoneList or Space or SpaceList Name
    EU_AlwaysOn,              !- Schedule Name
    AirChanges/Hour,          !- Design Flow Rate Calculation Method
    ,                         !- Design Flow Rate
    ,                         !- Flow Rate per Floor Area
    ,                         !- Flow Rate per Person
    0.425,                    !- Air Changes per Hour
    Natural,                  !- Ventilation Type
    0,                        !- Fan Pressure Rise
    1,                        !- Fan Total Efficiency
    1,                        !- Constant Term Coefficient
    0,                        !- Temperature Term Coefficient
    0,                        !- Velocity Term Coefficient
    0,                        !- Velocity Squared Term Coefficient
    -100,                     !- Minimum Indoor Temperature
    ,                         !- Minimum Indoor Temperature Schedule Name
    100,                      !- Maximum Indoor Temperature
    ,                         !- Maximum Indoor Temperature Schedule Name
    -100,                     !- Delta Temperature
    ,                         !- Delta Temperature Schedule Name
    -100,                     !- Minimum Outdoor Temperature
    ,                         !- Minimum Outdoor Temperature Schedule Name
    100,                      !- Maximum Outdoor Temperature
    ,                         !- Maximum Outdoor Temperature Schedule Name
    40;                       !- Maximum Wind Speed

ZONEVENTILATION:DESIGNFLOWRATE,
    EU_ConstantAir_ad7ec0e9ad045058_F1_dwelling_0,    !- Name
    ad7ec0e9ad045058_F1_dwelling_0,    !- Zone or ZoneList or Space or SpaceList Name
    EU_AlwaysOn,              !- Schedule Name
    AirChanges/Hour,          !- Design Flow Rate Calculation Method
    ,                         !- Design Flow Rate
    ,                         !- Flow Rate per Floor Area
    ,                         !- Flow Rate per Person
    0.425,                    !- Air Changes per Hour
    Natural,                  !- Ventilation Type
    0,                        !- Fan Pressure Rise
    1,                        !- Fan Total Efficiency
    1,                        !- Constant Term Coefficient
    0,                        !- Temperature Term Coefficient
    0,                        !- Velocity Term Coefficient
    0,                        !- Velocity Squared Term Coefficient
    -100,                     !- Minimum Indoor Temperature
    ,                         !- Minimum Indoor Temperature Schedule Name
    100,                      !- Maximum Indoor Temperature
    ,                         !- Maximum Indoor Temperature Schedule Name
    -100,                     !- Delta Temperature
    ,                         !- Delta Temperature Schedule Name
    -100,                     !- Minimum Outdoor Temperature
    ,                         !- Minimum Outdoor Temperature Schedule Name
    100,                      !- Maximum Outdoor Temperature
    ,                         !- Maximum Outdoor Temperature Schedule Name
    40;                       !- Maximum Wind Speed

ZONEVENTILATION:DESIGNFLOWRATE,
    EU_ConstantAir_ad7ec0e9ad045058_F2_dwelling_0,    !- Name
    ad7ec0e9ad045058_F2_dwelling_0,    !- Zone or ZoneList or Space or SpaceList Name
    EU_AlwaysOn,              !- Schedule Name
    AirChanges/Hour,          !- Design Flow Rate Calculation Method
    ,                         !- Design Flow Rate
    ,                         !- Flow Rate per Floor Area
    ,                         !- Flow Rate per Person
    0.425,                    !- Air Changes per Hour
    Natural,                  !- Ventilation Type
    0,                        !- Fan Pressure Rise
    1,                        !- Fan Total Efficiency
    1,                        !- Constant Term Coefficient
    0,                        !- Temperature Term Coefficient
    0,                        !- Velocity Term Coefficient
    0,                        !- Velocity Squared Term Coefficient
    -100,                     !- Minimum Indoor Temperature
    ,                         !- Minimum Indoor Temperature Schedule Name
    100,                      !- Maximum Indoor Temperature
    ,                         !- Maximum Indoor Temperature Schedule Name
    -100,                     !- Delta Temperature
    ,                         !- Delta Temperature Schedule Name
    -100,                     !- Minimum Outdoor Temperature
    ,                         !- Minimum Outdoor Temperature Schedule Name
    100,                      !- Maximum Outdoor Temperature
    ,                         !- Maximum Outdoor Temperature Schedule Name
    40;                       !- Maximum Wind Speed

ZONEVENTILATION:DESIGNFLOWRATE,
    EU_ConstantAir_ad7ec0e9ad045058_F3_dwelling_0,    !- Name
    ad7ec0e9ad045058_F3_dwelling_0,    !- Zone or ZoneList or Space or SpaceList Name
    EU_AlwaysOn,              !- Schedule Name
    AirChanges/Hour,          !- Design Flow Rate Calculation Method
    ,                         !- Design Flow Rate
    ,                         !- Flow Rate per Floor Area
    ,                         !- Flow Rate per Person
    0.425,                    !- Air Changes per Hour
    Natural,                  !- Ventilation Type
    0,                        !- Fan Pressure Rise
    1,                        !- Fan Total Efficiency
    1,                        !- Constant Term Coefficient
    0,                        !- Temperature Term Coefficient
    0,                        !- Velocity Term Coefficient
    0,                        !- Velocity Squared Term Coefficient
    -100,                     !- Minimum Indoor Temperature
    ,                         !- Minimum Indoor Temperature Schedule Name
    100,                      !- Maximum Indoor Temperature
    ,                         !- Maximum Indoor Temperature Schedule Name
    -100,                     !- Delta Temperature
    ,                         !- Delta Temperature Schedule Name
    -100,                     !- Minimum Outdoor Temperature
    ,                         !- Minimum Outdoor Temperature Schedule Name
    100,                      !- Maximum Outdoor Temperature
    ,                         !- Maximum Outdoor Temperature Schedule Name
    40;                       !- Maximum Wind Speed

HVACTEMPLATE:THERMOSTAT,
    EU_HeatOnly_ad7ec0e9ad045058_F0_dwelling_0,    !- Name
    ,                         !- Heating Setpoint Schedule Name
    20,                       !- Constant Heating Setpoint
    ,                         !- Cooling Setpoint Schedule Name
    50;                       !- Constant Cooling Setpoint

HVACTEMPLATE:THERMOSTAT,
    EU_HeatOnly_ad7ec0e9ad045058_F1_dwelling_0,    !- Name
    ,                         !- Heating Setpoint Schedule Name
    20,                       !- Constant Heating Setpoint
    ,                         !- Cooling Setpoint Schedule Name
    50;                       !- Constant Cooling Setpoint

HVACTEMPLATE:THERMOSTAT,
    EU_HeatOnly_ad7ec0e9ad045058_F2_dwelling_0,    !- Name
    ,                         !- Heating Setpoint Schedule Name
    20,                       !- Constant Heating Setpoint
    ,                         !- Cooling Setpoint Schedule Name
    50;                       !- Constant Cooling Setpoint

HVACTEMPLATE:THERMOSTAT,
    EU_HeatOnly_ad7ec0e9ad045058_F3_dwelling_0,    !- Name
    ,                         !- Heating Setpoint Schedule Name
    20,                       !- Constant Heating Setpoint
    ,                         !- Cooling Setpoint Schedule Name
    50;                       !- Constant Cooling Setpoint

HVACTEMPLATE:ZONE:IDEALLOADSAIRSYSTEM,
    ad7ec0e9ad045058_F0_dwelling_0,    !- Zone Name
    EU_HeatOnly_ad7ec0e9ad045058_F0_dwelling_0,    !- Template Thermostat Name
    EU_AlwaysOn,              !- System Availability Schedule Name
    50,                       !- Maximum Heating Supply Air Temperature
    13,                       !- Minimum Cooling Supply Air Temperature
    0.0156,                   !- Maximum Heating Supply Air Humidity Ratio
    0.0077,                   !- Minimum Cooling Supply Air Humidity Ratio
    NoLimit,                  !- Heating Limit
    ,                         !- Maximum Heating Air Flow Rate
    ,                         !- Maximum Sensible Heating Capacity
    NoLimit,                  !- Cooling Limit
    ,                         !- Maximum Cooling Air Flow Rate
    ,                         !- Maximum Total Cooling Capacity
    EU_AlwaysOn,              !- Heating Availability Schedule Name
    EU_CoolingOff,            !- Cooling Availability Schedule Name
    ConstantSensibleHeatRatio,    !- Dehumidification Control Type
    0.7,                      !- Cooling Sensible Heat Ratio
    60,                       !- Dehumidification Setpoint
    None,                     !- Humidification Control Type
    30,                       !- Humidification Setpoint
    None,                     !- Outdoor Air Method
    0.00944,                  !- Outdoor Air Flow Rate per Person
    0.0,                      !- Outdoor Air Flow Rate per Zone Floor Area
    0,                        !- Outdoor Air Flow Rate per Zone
    ,                         !- Design Specification Outdoor Air Object Name
    None,                     !- Demand Controlled Ventilation Type
    NoEconomizer,             !- Outdoor Air Economizer Type
    None,                     !- Heat Recovery Type
    0.70,                     !- Sensible Heat Recovery Effectiveness
    0.65;                     !- Latent Heat Recovery Effectiveness

HVACTEMPLATE:ZONE:IDEALLOADSAIRSYSTEM,
    ad7ec0e9ad045058_F1_dwelling_0,    !- Zone Name
    EU_HeatOnly_ad7ec0e9ad045058_F1_dwelling_0,    !- Template Thermostat Name
    EU_AlwaysOn,              !- System Availability Schedule Name
    50,                       !- Maximum Heating Supply Air Temperature
    13,                       !- Minimum Cooling Supply Air Temperature
    0.0156,                   !- Maximum Heating Supply Air Humidity Ratio
    0.0077,                   !- Minimum Cooling Supply Air Humidity Ratio
    NoLimit,                  !- Heating Limit
    ,                         !- Maximum Heating Air Flow Rate
    ,                         !- Maximum Sensible Heating Capacity
    NoLimit,                  !- Cooling Limit
    ,                         !- Maximum Cooling Air Flow Rate
    ,                         !- Maximum Total Cooling Capacity
    EU_AlwaysOn,              !- Heating Availability Schedule Name
    EU_CoolingOff,            !- Cooling Availability Schedule Name
    ConstantSensibleHeatRatio,    !- Dehumidification Control Type
    0.7,                      !- Cooling Sensible Heat Ratio
    60,                       !- Dehumidification Setpoint
    None,                     !- Humidification Control Type
    30,                       !- Humidification Setpoint
    None,                     !- Outdoor Air Method
    0.00944,                  !- Outdoor Air Flow Rate per Person
    0.0,                      !- Outdoor Air Flow Rate per Zone Floor Area
    0,                        !- Outdoor Air Flow Rate per Zone
    ,                         !- Design Specification Outdoor Air Object Name
    None,                     !- Demand Controlled Ventilation Type
    NoEconomizer,             !- Outdoor Air Economizer Type
    None,                     !- Heat Recovery Type
    0.70,                     !- Sensible Heat Recovery Effectiveness
    0.65;                     !- Latent Heat Recovery Effectiveness

HVACTEMPLATE:ZONE:IDEALLOADSAIRSYSTEM,
    ad7ec0e9ad045058_F2_dwelling_0,    !- Zone Name
    EU_HeatOnly_ad7ec0e9ad045058_F2_dwelling_0,    !- Template Thermostat Name
    EU_AlwaysOn,              !- System Availability Schedule Name
    50,                       !- Maximum Heating Supply Air Temperature
    13,                       !- Minimum Cooling Supply Air Temperature
    0.0156,                   !- Maximum Heating Supply Air Humidity Ratio
    0.0077,                   !- Minimum Cooling Supply Air Humidity Ratio
    NoLimit,                  !- Heating Limit
    ,                         !- Maximum Heating Air Flow Rate
    ,                         !- Maximum Sensible Heating Capacity
    NoLimit,                  !- Cooling Limit
    ,                         !- Maximum Cooling Air Flow Rate
    ,                         !- Maximum Total Cooling Capacity
    EU_AlwaysOn,              !- Heating Availability Schedule Name
    EU_CoolingOff,            !- Cooling Availability Schedule Name
    ConstantSensibleHeatRatio,    !- Dehumidification Control Type
    0.7,                      !- Cooling Sensible Heat Ratio
    60,                       !- Dehumidification Setpoint
    None,                     !- Humidification Control Type
    30,                       !- Humidification Setpoint
    None,                     !- Outdoor Air Method
    0.00944,                  !- Outdoor Air Flow Rate per Person
    0.0,                      !- Outdoor Air Flow Rate per Zone Floor Area
    0,                        !- Outdoor Air Flow Rate per Zone
    ,                         !- Design Specification Outdoor Air Object Name
    None,                     !- Demand Controlled Ventilation Type
    NoEconomizer,             !- Outdoor Air Economizer Type
    None,                     !- Heat Recovery Type
    0.70,                     !- Sensible Heat Recovery Effectiveness
    0.65;                     !- Latent Heat Recovery Effectiveness

HVACTEMPLATE:ZONE:IDEALLOADSAIRSYSTEM,
    ad7ec0e9ad045058_F3_dwelling_0,    !- Zone Name
    EU_HeatOnly_ad7ec0e9ad045058_F3_dwelling_0,    !- Template Thermostat Name
    EU_AlwaysOn,              !- System Availability Schedule Name
    50,                       !- Maximum Heating Supply Air Temperature
    13,                       !- Minimum Cooling Supply Air Temperature
    0.0156,                   !- Maximum Heating Supply Air Humidity Ratio
    0.0077,                   !- Minimum Cooling Supply Air Humidity Ratio
    NoLimit,                  !- Heating Limit
    ,                         !- Maximum Heating Air Flow Rate
    ,                         !- Maximum Sensible Heating Capacity
    NoLimit,                  !- Cooling Limit
    ,                         !- Maximum Cooling Air Flow Rate
    ,                         !- Maximum Total Cooling Capacity
    EU_AlwaysOn,              !- Heating Availability Schedule Name
    EU_CoolingOff,            !- Cooling Availability Schedule Name
    ConstantSensibleHeatRatio,    !- Dehumidification Control Type
    0.7,                      !- Cooling Sensible Heat Ratio
    60,                       !- Dehumidification Setpoint
    None,                     !- Humidification Control Type
    30,                       !- Humidification Setpoint
    None,                     !- Outdoor Air Method
    0.00944,                  !- Outdoor Air Flow Rate per Person
    0.0,                      !- Outdoor Air Flow Rate per Zone Floor Area
    0,                        !- Outdoor Air Flow Rate per Zone
    ,                         !- Design Specification Outdoor Air Object Name
    None,                     !- Demand Controlled Ventilation Type
    NoEconomizer,             !- Outdoor Air Economizer Type
    None,                     !- Heat Recovery Type
    0.70,                     !- Sensible Heat Recovery Effectiveness
    0.65;                     !- Latent Heat Recovery Effectiveness

SIZING:ZONE,
    ad7ec0e9ad045058_F0_dwelling_0,    !- Zone or ZoneList Name
    SupplyAirTemperature,     !- Zone Cooling Design Supply Air Temperature Input Method
    13,                       !- Zone Cooling Design Supply Air Temperature
    ,                         !- Zone Cooling Design Supply Air Temperature Difference
    SupplyAirTemperature,     !- Zone Heating Design Supply Air Temperature Input Method
    50,                       !- Zone Heating Design Supply Air Temperature
    ,                         !- Zone Heating Design Supply Air Temperature Difference
    0.008,                    !- Zone Cooling Design Supply Air Humidity Ratio
    0.008,                    !- Zone Heating Design Supply Air Humidity Ratio
    ,                         !- Design Specification Outdoor Air Object Name
    ,                         !- Zone Heating Sizing Factor
    ,                         !- Zone Cooling Sizing Factor
    DesignDay,                !- Cooling Design Air Flow Method
    0,                        !- Cooling Design Air Flow Rate
    0.000762,                 !- Cooling Minimum Air Flow per Zone Floor Area
    0,                        !- Cooling Minimum Air Flow
    0.2,                      !- Cooling Minimum Air Flow Fraction
    DesignDay,                !- Heating Design Air Flow Method
    0,                        !- Heating Design Air Flow Rate
    0.002032,                 !- Heating Maximum Air Flow per Zone Floor Area
    0.1415762,                !- Heating Maximum Air Flow
    0.3,                      !- Heating Maximum Air Flow Fraction
    ,                         !- Design Specification Zone Air Distribution Object Name
    No,                       !- Account for Dedicated Outdoor Air System
    NeutralSupplyAir,         !- Dedicated Outdoor Air System Control Strategy
    autosize,                 !- Dedicated Outdoor Air Low Setpoint Temperature for Design
    autosize,                 !- Dedicated Outdoor Air High Setpoint Temperature for Design
    Sensible Load Only No Latent Load,    !- Zone Load Sizing Method
    HumidityRatioDifference,    !- Zone Latent Cooling Design Supply Air Humidity Ratio Input Method
    ,                         !- Zone Dehumidification Design Supply Air Humidity Ratio
    0.005,                    !- Zone Cooling Design Supply Air Humidity Ratio Difference
    HumidityRatioDifference,    !- Zone Latent Heating Design Supply Air Humidity Ratio Input Method
    ,                         !- Zone Humidification Design Supply Air Humidity Ratio
    0.005;                    !- Zone Humidification Design Supply Air Humidity Ratio Difference

SIZING:ZONE,
    ad7ec0e9ad045058_F1_dwelling_0,    !- Zone or ZoneList Name
    SupplyAirTemperature,     !- Zone Cooling Design Supply Air Temperature Input Method
    13,                       !- Zone Cooling Design Supply Air Temperature
    ,                         !- Zone Cooling Design Supply Air Temperature Difference
    SupplyAirTemperature,     !- Zone Heating Design Supply Air Temperature Input Method
    50,                       !- Zone Heating Design Supply Air Temperature
    ,                         !- Zone Heating Design Supply Air Temperature Difference
    0.008,                    !- Zone Cooling Design Supply Air Humidity Ratio
    0.008,                    !- Zone Heating Design Supply Air Humidity Ratio
    ,                         !- Design Specification Outdoor Air Object Name
    ,                         !- Zone Heating Sizing Factor
    ,                         !- Zone Cooling Sizing Factor
    DesignDay,                !- Cooling Design Air Flow Method
    0,                        !- Cooling Design Air Flow Rate
    0.000762,                 !- Cooling Minimum Air Flow per Zone Floor Area
    0,                        !- Cooling Minimum Air Flow
    0.2,                      !- Cooling Minimum Air Flow Fraction
    DesignDay,                !- Heating Design Air Flow Method
    0,                        !- Heating Design Air Flow Rate
    0.002032,                 !- Heating Maximum Air Flow per Zone Floor Area
    0.1415762,                !- Heating Maximum Air Flow
    0.3,                      !- Heating Maximum Air Flow Fraction
    ,                         !- Design Specification Zone Air Distribution Object Name
    No,                       !- Account for Dedicated Outdoor Air System
    NeutralSupplyAir,         !- Dedicated Outdoor Air System Control Strategy
    autosize,                 !- Dedicated Outdoor Air Low Setpoint Temperature for Design
    autosize,                 !- Dedicated Outdoor Air High Setpoint Temperature for Design
    Sensible Load Only No Latent Load,    !- Zone Load Sizing Method
    HumidityRatioDifference,    !- Zone Latent Cooling Design Supply Air Humidity Ratio Input Method
    ,                         !- Zone Dehumidification Design Supply Air Humidity Ratio
    0.005,                    !- Zone Cooling Design Supply Air Humidity Ratio Difference
    HumidityRatioDifference,    !- Zone Latent Heating Design Supply Air Humidity Ratio Input Method
    ,                         !- Zone Humidification Design Supply Air Humidity Ratio
    0.005;                    !- Zone Humidification Design Supply Air Humidity Ratio Difference

SIZING:ZONE,
    ad7ec0e9ad045058_F2_dwelling_0,    !- Zone or ZoneList Name
    SupplyAirTemperature,     !- Zone Cooling Design Supply Air Temperature Input Method
    13,                       !- Zone Cooling Design Supply Air Temperature
    ,                         !- Zone Cooling Design Supply Air Temperature Difference
    SupplyAirTemperature,     !- Zone Heating Design Supply Air Temperature Input Method
    50,                       !- Zone Heating Design Supply Air Temperature
    ,                         !- Zone Heating Design Supply Air Temperature Difference
    0.008,                    !- Zone Cooling Design Supply Air Humidity Ratio
    0.008,                    !- Zone Heating Design Supply Air Humidity Ratio
    ,                         !- Design Specification Outdoor Air Object Name
    ,                         !- Zone Heating Sizing Factor
    ,                         !- Zone Cooling Sizing Factor
    DesignDay,                !- Cooling Design Air Flow Method
    0,                        !- Cooling Design Air Flow Rate
    0.000762,                 !- Cooling Minimum Air Flow per Zone Floor Area
    0,                        !- Cooling Minimum Air Flow
    0.2,                      !- Cooling Minimum Air Flow Fraction
    DesignDay,                !- Heating Design Air Flow Method
    0,                        !- Heating Design Air Flow Rate
    0.002032,                 !- Heating Maximum Air Flow per Zone Floor Area
    0.1415762,                !- Heating Maximum Air Flow
    0.3,                      !- Heating Maximum Air Flow Fraction
    ,                         !- Design Specification Zone Air Distribution Object Name
    No,                       !- Account for Dedicated Outdoor Air System
    NeutralSupplyAir,         !- Dedicated Outdoor Air System Control Strategy
    autosize,                 !- Dedicated Outdoor Air Low Setpoint Temperature for Design
    autosize,                 !- Dedicated Outdoor Air High Setpoint Temperature for Design
    Sensible Load Only No Latent Load,    !- Zone Load Sizing Method
    HumidityRatioDifference,    !- Zone Latent Cooling Design Supply Air Humidity Ratio Input Method
    ,                         !- Zone Dehumidification Design Supply Air Humidity Ratio
    0.005,                    !- Zone Cooling Design Supply Air Humidity Ratio Difference
    HumidityRatioDifference,    !- Zone Latent Heating Design Supply Air Humidity Ratio Input Method
    ,                         !- Zone Humidification Design Supply Air Humidity Ratio
    0.005;                    !- Zone Humidification Design Supply Air Humidity Ratio Difference

SIZING:ZONE,
    ad7ec0e9ad045058_F3_dwelling_0,    !- Zone or ZoneList Name
    SupplyAirTemperature,     !- Zone Cooling Design Supply Air Temperature Input Method
    13,                       !- Zone Cooling Design Supply Air Temperature
    ,                         !- Zone Cooling Design Supply Air Temperature Difference
    SupplyAirTemperature,     !- Zone Heating Design Supply Air Temperature Input Method
    50,                       !- Zone Heating Design Supply Air Temperature
    ,                         !- Zone Heating Design Supply Air Temperature Difference
    0.008,                    !- Zone Cooling Design Supply Air Humidity Ratio
    0.008,                    !- Zone Heating Design Supply Air Humidity Ratio
    ,                         !- Design Specification Outdoor Air Object Name
    ,                         !- Zone Heating Sizing Factor
    ,                         !- Zone Cooling Sizing Factor
    DesignDay,                !- Cooling Design Air Flow Method
    0,                        !- Cooling Design Air Flow Rate
    0.000762,                 !- Cooling Minimum Air Flow per Zone Floor Area
    0,                        !- Cooling Minimum Air Flow
    0.2,                      !- Cooling Minimum Air Flow Fraction
    DesignDay,                !- Heating Design Air Flow Method
    0,                        !- Heating Design Air Flow Rate
    0.002032,                 !- Heating Maximum Air Flow per Zone Floor Area
    0.1415762,                !- Heating Maximum Air Flow
    0.3,                      !- Heating Maximum Air Flow Fraction
    ,                         !- Design Specification Zone Air Distribution Object Name
    No,                       !- Account for Dedicated Outdoor Air System
    NeutralSupplyAir,         !- Dedicated Outdoor Air System Control Strategy
    autosize,                 !- Dedicated Outdoor Air Low Setpoint Temperature for Design
    autosize,                 !- Dedicated Outdoor Air High Setpoint Temperature for Design
    Sensible Load Only No Latent Load,    !- Zone Load Sizing Method
    HumidityRatioDifference,    !- Zone Latent Cooling Design Supply Air Humidity Ratio Input Method
    ,                         !- Zone Dehumidification Design Supply Air Humidity Ratio
    0.005,                    !- Zone Cooling Design Supply Air Humidity Ratio Difference
    HumidityRatioDifference,    !- Zone Latent Heating Design Supply Air Humidity Ratio Input Method
    ,                         !- Zone Humidification Design Supply Air Humidity Ratio
    0.005;                    !- Zone Humidification Design Supply Air Humidity Ratio Difference

OUTPUT:VARIABLE,
    *,                        !- Key Value
    Zone Ideal Loads Zone Total Heating Energy,    !- Variable Name
    Hourly;                   !- Reporting Frequency

OUTPUT:SQLITE,
    SimpleAndTabular,         !- Option Type
    UseOutputControlTableStyle;    !- Unit Conversion for Tabular Data