!- Windows Line endings 

Version,
    23.1;                     !- Version Identifier

SimulationControl,
    Yes,                      !- Do Zone Sizing Calculation
    Yes,                      !- Do System Sizing Calculation
    Yes,                      !- Do Plant Sizing Calculation
    No,                       !- Run Simulation for Sizing Periods
    Yes,                      !- Run Simulation for Weather File Run Periods
    No,                       !- Do HVAC Sizing Simulation for Sizing Periods
    1;                        !- Maximum Number of HVAC Sizing Simulation Passes

Building,
    EU S2 Campaign,           !- Name
    0,                        !- North Axis
    City,                     !- Terrain
    ,                         !- Loads Convergence Tolerance Value
    ,                         !- Temperature Convergence Tolerance Value
    FullExterior,             !- Solar Distribution
    ,                         !- Maximum Number of Warmup Days
    ;                         !- Minimum Number of Warmup Days

ShadowCalculation,
    PolygonClipping,          !- Shading Calculation Method
    Periodic,                 !- Shading Calculation Update Frequency Method
    1;                        !- Shading Calculation Update Frequency

HeatBalanceAlgorithm,
    ConductionTransferFunction,    !- Algorithm
    200,                      !- Surface Temperature Upper Limit
    0.1,                      !- Minimum Surface Convection Heat Transfer Coefficient Value
    10000000;                 !- Maximum Surface Convection Heat Transfer Coefficient Value

Timestep,
    12;                       !- Number of Timesteps per Hour

Site:Location,
    London,                   !- Name
    51.5,                     !- Latitude
    -0.5,                     !- Longitude
    0,                        !- Time Zone
    25;                       !- Elevation

SizingPeriod:WeatherFileDays,
    AnnualSizingPeriod,       !- Name
    1,                        !- Begin Month
    1,                        !- Begin Day of Month
    12,                       !- End Month
    31,                       !- End Day of Month
    Monday,                   !- Day of Week for Start Day
    No,                       !- Use Weather File Daylight Saving Period
    No;                       !- Use Weather File Rain and Snow Indicators

RunPeriod,
    RunPeriod1,               !- Name
    1,                        !- Begin Month
    1,                        !- Begin Day of Month
    ,                         !- Begin Year
    12,                       !- End Month
    31,                       !- End Day of Month
    ,                         !- End Year
    Sunday,                   !- Day of Week for Start Day
    No,                       !- Use Weather File Holidays and Special Days
    No,                       !- Use Weather File Daylight Saving Period
    No,                       !- Apply Weekend Holiday Rule
    Yes,                      !- Use Weather File Rain Indicators
    Yes;                      !- Use Weather File Snow Indicators

ScheduleTypeLimits,
    Any Number;               !- Name

SCHEDULETYPELIMITS,
    EU_Step8_AnyNumber_Wm2,    !- Name
    ,                         !- Lower Limit Value
    ,                         !- Upper Limit Value
    Continuous,               !- Numeric Type
    Dimensionless;            !- Unit Type

SCHEDULE:CONSTANT,
    EU_AlwaysOn,              !- Name
    ,                         !- Schedule Type Limits Name
    1;                        !- Hourly Value

SCHEDULE:CONSTANT,
    EU_CoolingOff,            !- Name
    ,                         !- Schedule Type Limits Name
    0;                        !- Hourly Value

SCHEDULE:FILE,
    EU_Step8_GainSchedule_fbb81926b8daa5bd_F0_whole_f000,    !- Name
    EU_Step8_AnyNumber_Wm2,    !- Schedule Type Limits Name
    ../../schedules/fbb81926b8daa5bd/fbb81926b8daa5bd_F0_whole_f000_gain.csv,    !- File Name
    1,                        !- Column Number
    0,                        !- Rows to Skip at Top
    8760,                     !- Number of Hours of Data
    Comma,                    !- Column Separator
    No,                       !- Interpolate to Timestep
    60,                       !- Minutes per Item
    Yes;                      !- Adjust Schedule for Daylight Savings

SCHEDULE:FILE,
    EU_Step8_GainSchedule_fbb81926b8daa5bd_F1_whole_f000,    !- Name
    EU_Step8_AnyNumber_Wm2,    !- Schedule Type Limits Name
    ../../schedules/fbb81926b8daa5bd/fbb81926b8daa5bd_F1_whole_f000_gain.csv,    !- File Name
    1,                        !- Column Number
    0,                        !- Rows to Skip at Top
    8760,                     !- Number of Hours of Data
    Comma,                    !- Column Separator
    No,                       !- Interpolate to Timestep
    60,                       !- Minutes per Item
    Yes;                      !- Adjust Schedule for Daylight Savings

SCHEDULE:FILE,
    EU_Step8_GainSchedule_fbb81926b8daa5bd_F2_whole_f000,    !- Name
    EU_Step8_AnyNumber_Wm2,    !- Schedule Type Limits Name
    ../../schedules/fbb81926b8daa5bd/fbb81926b8daa5bd_F2_whole_f000_gain.csv,    !- File Name
    1,                        !- Column Number
    0,                        !- Rows to Skip at Top
    8760,                     !- Number of Hours of Data
    Comma,                    !- Column Separator
    No,                       !- Interpolate to Timestep
    60,                       !- Minutes per Item
    Yes;                      !- Adjust Schedule for Daylight Savings

MATERIAL,
    EU_InternalMass_Material,    !- Name
    MediumRough,              !- Roughness
    0.1,                      !- Thickness
    1,                        !- Conductivity
    1800,                     !- Density
    900,                      !- Specific Heat
    0.9,                      !- Thermal Absorptance
    0.7,                      !- Solar Absorptance
    0.7;                      !- Visible Absorptance

MATERIAL:NOMASS,
    EU_wall_NoMass,           !- Name
    MediumRough,              !- Roughness
    1.0467423948334633,       !- Thermal Resistance
    0.9,                      !- Thermal Absorptance
    0.7,                      !- Solar Absorptance
    0.7;                      !- Visible Absorptance

MATERIAL:NOMASS,
    EU_roof_NoMass,           !- Name
    MediumRough,              !- Roughness
    4.324420935091105,        !- Thermal Resistance
    0.9,                      !- Thermal Absorptance
    0.7,                      !- Solar Absorptance
    0.7;                      !- Visible Absorptance

MATERIAL:NOMASS,
    EU_floor_NoMass,          !- Name
    MediumRough,              !- Roughness
    2.046164069677634,        !- Thermal Resistance
    0.9,                      !- Thermal Absorptance
    0.7,                      !- Solar Absorptance
    0.7;                      !- Visible Absorptance

CONSTRUCTION,
    EU_wall_Construction,     !- Name
    EU_wall_NoMass;           !- Outside Layer

CONSTRUCTION,
    EU_roof_Construction,     !- Name
    EU_roof_NoMass;           !- Outside Layer

CONSTRUCTION,
    EU_floor_Construction,    !- Name
    EU_floor_NoMass;          !- Outside Layer

CONSTRUCTION,
    EU_InternalMass_Construction,    !- Name
    EU_InternalMass_Material;    !- Outside Layer

GlobalGeometryRules,
    UpperLeftCorner,          !- Starting Vertex Position
    CounterClockWise,         !- Vertex Entry Direction
    World;                    !- Coordinate System

ZONE,
    fbb81926b8daa5bd_F0_whole,    !- Name
    0,                        !- Direction of Relative North
    0,                        !- X Origin
    0,                        !- Y Origin
    0,                        !- Z Origin
    1,                        !- Type
    1,                        !- Multiplier
    autocalculate,            !- Ceiling Height
    135.264404296875,         !- Volume
    autocalculate,            !- Floor Area
    ,                         !- Zone Inside Convection Algorithm
    ,                         !- Zone Outside Convection Algorithm
    Yes;                      !- Part of Total Floor Area

ZONE,
    fbb81926b8daa5bd_F1_whole,    !- Name
    0,                        !- Direction of Relative North
    0,                        !- X Origin
    0,                        !- Y Origin
    0,                        !- Z Origin
    1,                        !- Type
    1,                        !- Multiplier
    autocalculate,            !- Ceiling Height
    135.264404296875,         !- Volume
    autocalculate,            !- Floor Area
    ,                         !- Zone Inside Convection Algorithm
    ,                         !- Zone Outside Convection Algorithm
    Yes;                      !- Part of Total Floor Area

ZONE,
    fbb81926b8daa5bd_F2_whole,    !- Name
    0,                        !- Direction of Relative North
    0,                        !- X Origin
    0,                        !- Y Origin
    0,                        !- Z Origin
    1,                        !- Type
    1,                        !- Multiplier
    autocalculate,            !- Ceiling Height
    135.264404296875,         !- Volume
    autocalculate,            !- Floor Area
    ,                         !- Zone Inside Convection Algorithm
    ,                         !- Zone Outside Convection Algorithm
    Yes;                      !- Part of Total Floor Area

BUILDINGSURFACE:DETAILED,
    Block fbb81926b8daa5bd_whole Storey 0 Wall 0001,    !- Name
    wall,                     !- Surface Type
    EU_wall_Construction,     !- Construction Name
    fbb81926b8daa5bd_F0_whole,    !- Zone Name
    ,                         !- Space Name
    Adiabatic,                !- Outside Boundary Condition
    ,                         !- Outside Boundary Condition Object
    NoSun,                    !- Sun Exposure
    NoWind,                   !- Wind Exposure
    autocalculate,            !- View Factor to Ground
    autocalculate,            !- Number of Vertices
    704852.645,               !- Vertex 1 Xcoordinate
    5711951.355,              !- Vertex 1 Ycoordinate
    3,                        !- Vertex 1 Zcoordinate
    704852.645,               !- Vertex 2 Xcoordinate
    5711951.355,              !- Vertex 2 Ycoordinate
    0,                        !- Vertex 2 Zcoordinate
    704850.04,                !- Vertex 3 Xcoordinate
    5711959.085,              !- Vertex 3 Ycoordinate
    0,                        !- Vertex 3 Zcoordinate
    704850.04,                !- Vertex 4 Xcoordinate
    5711959.085,              !- Vertex 4 Ycoordinate
    3;                        !- Vertex 4 Zcoordinate

BUILDINGSURFACE:DETAILED,
    Block fbb81926b8daa5bd_whole Storey 0 Wall 0002,    !- Name
    wall,                     !- Surface Type
    EU_wall_Construction,     !- Construction Name
    fbb81926b8daa5bd_F0_whole,    !- Zone Name
    ,                         !- Space Name
    outdoors,                 !- Outside Boundary Condition
    ,                         !- Outside Boundary Condition Object
    SunExposed,               !- Sun Exposure
    WindExposed,              !- Wind Exposure
    autocalculate,            !- View Factor to Ground
    autocalculate,            !- Number of Vertices
    704850.04,                !- Vertex 1 Xcoordinate
    5711959.085,              !- Vertex 1 Ycoordinate
    3,                        !- Vertex 1 Zcoordinate
    704850.04,                !- Vertex 2 Xcoordinate
    5711959.085,              !- Vertex 2 Ycoordinate
    0,                        !- Vertex 2 Zcoordinate
    704855.275,               !- Vertex 3 Xcoordinate
    5711960.85,               !- Vertex 3 Ycoordinate
    0,                        !- Vertex 3 Zcoordinate
    704855.275,               !- Vertex 4 Xcoordinate
    5711960.85,               !- Vertex 4 Ycoordinate
    3;                        !- Vertex 4 Zcoordinate

BUILDINGSURFACE:DETAILED,
    Block fbb81926b8daa5bd_whole Storey 0 Wall 0003,    !- Name
    wall,                     !- Surface Type
    EU_wall_Construction,     !- Construction Name
    fbb81926b8daa5bd_F0_whole,    !- Zone Name
    ,                         !- Space Name
    Adiabatic,                !- Outside Boundary Condition
    ,                         !- Outside Boundary Condition Object
    NoSun,                    !- Sun Exposure
    NoWind,                   !- Wind Exposure
    autocalculate,            !- View Factor to Ground
    autocalculate,            !- Number of Vertices
    704855.275,               !- Vertex 1 Xcoordinate
    5711960.85,               !- Vertex 1 Ycoordinate
    3,                        !- Vertex 1 Zcoordinate
    704855.275,               !- Vertex 2 Xcoordinate
    5711960.85,               !- Vertex 2 Ycoordinate
    0,                        !- Vertex 2 Zcoordinate
    704857.885,               !- Vertex 3 Xcoordinate
    5711953.12,               !- Vertex 3 Ycoordinate
    0,                        !- Vertex 3 Zcoordinate
    704857.885,               !- Vertex 4 Xcoordinate
    5711953.12,               !- Vertex 4 Ycoordinate
    3;                        !- Vertex 4 Zcoordinate

BUILDINGSURFACE:DETAILED,
    Block fbb81926b8daa5bd_whole Storey 0 Wall 0004,    !- Name
    wall,                     !- Surface Type
    EU_wall_Construction,     !- Construction Name
    fbb81926b8daa5bd_F0_whole,    !- Zone Name
    ,                         !- Space Name
    outdoors,                 !- Outside Boundary Condition
    ,                         !- Outside Boundary Condition Object
    SunExposed,               !- Sun Exposure
    WindExposed,              !- Wind Exposure
    autocalculate,            !- View Factor to Ground
    autocalculate,            !- Number of Vertices
    704857.885,               !- Vertex 1 Xcoordinate
    5711953.12,               !- Vertex 1 Ycoordinate
    3,                        !- Vertex 1 Zcoordinate
    704857.885,               !- Vertex 2 Xcoordinate
    5711953.12,               !- Vertex 2 Ycoordinate
    0,                        !- Vertex 2 Zcoordinate
    704852.645,               !- Vertex 3 Xcoordinate
    5711951.355,              !- Vertex 3 Ycoordinate
    0,                        !- Vertex 3 Zcoordinate
    704852.645,               !- Vertex 4 Xcoordinate
    5711951.355,              !- Vertex 4 Ycoordinate
    3;                        !- Vertex 4 Zcoordinate

BUILDINGSURFACE:DETAILED,
    Block fbb81926b8daa5bd_whole Storey 0 Floor 0001,    !- Name
    floor,                    !- Surface Type
    EU_floor_Construction,    !- Construction Name
    fbb81926b8daa5bd_F0_whole,    !- Zone Name
    ,                         !- Space Name
    ground,                   !- Outside Boundary Condition
    ,                         !- Outside Boundary Condition Object
    NoSun,                    !- Sun Exposure
    NoWind,                   !- Wind Exposure
    autocalculate,            !- View Factor to Ground
    autocalculate,            !- Number of Vertices
    704857.885,               !- Vertex 1 Xcoordinate
    5711953.12,               !- Vertex 1 Ycoordinate
    0,                        !- Vertex 1 Zcoordinate
    704855.275,               !- Vertex 2 Xcoordinate
    5711960.85,               !- Vertex 2 Ycoordinate
    0,                        !- Vertex 2 Zcoordinate
    704850.04,                !- Vertex 3 Xcoordinate
    5711959.085,              !- Vertex 3 Ycoordinate
    0,                        !- Vertex 3 Zcoordinate
    704852.645,               !- Vertex 4 Xcoordinate
    5711951.355,              !- Vertex 4 Ycoordinate
    0;                        !- Vertex 4 Zcoordinate

BUILDINGSURFACE:DETAILED,
    Block fbb81926b8daa5bd_whole Storey 1 Wall 0001,    !- Name
    wall,                     !- Surface Type
    EU_wall_Construction,     !- Construction Name
    fbb81926b8daa5bd_F1_whole,    !- Zone Name
    ,                         !- Space Name
    Adiabatic,                !- Outside Boundary Condition
    ,                         !- Outside Boundary Condition Object
    NoSun,                    !- Sun Exposure
    NoWind,                   !- Wind Exposure
    autocalculate,            !- View Factor to Ground
    autocalculate,            !- Number of Vertices
    704852.645,               !- Vertex 1 Xcoordinate
    5711951.355,              !- Vertex 1 Ycoordinate
    6,                        !- Vertex 1 Zcoordinate
    704852.645,               !- Vertex 2 Xcoordinate
    5711951.355,              !- Vertex 2 Ycoordinate
    3,                        !- Vertex 2 Zcoordinate
    704850.04,                !- Vertex 3 Xcoordinate
    5711959.085,              !- Vertex 3 Ycoordinate
    3,                        !- Vertex 3 Zcoordinate
    704850.04,                !- Vertex 4 Xcoordinate
    5711959.085,              !- Vertex 4 Ycoordinate
    6;                        !- Vertex 4 Zcoordinate

BUILDINGSURFACE:DETAILED,
    Block fbb81926b8daa5bd_whole Storey 1 Wall 0002,    !- Name
    wall,                     !- Surface Type
    EU_wall_Construction,     !- Construction Name
    fbb81926b8daa5bd_F1_whole,    !- Zone Name
    ,                         !- Space Name
    outdoors,                 !- Outside Boundary Condition
    ,                         !- Outside Boundary Condition Object
    SunExposed,               !- Sun Exposure
    WindExposed,              !- Wind Exposure
    autocalculate,            !- View Factor to Ground
    autocalculate,            !- Number of Vertices
    704850.04,                !- Vertex 1 Xcoordinate
    5711959.085,              !- Vertex 1 Ycoordinate
    6,                        !- Vertex 1 Zcoordinate
    704850.04,                !- Vertex 2 Xcoordinate
    5711959.085,              !- Vertex 2 Ycoordinate
    3,                        !- Vertex 2 Zcoordinate
    704855.275,               !- Vertex 3 Xcoordinate
    5711960.85,               !- Vertex 3 Ycoordinate
    3,                        !- Vertex 3 Zcoordinate
    704855.275,               !- Vertex 4 Xcoordinate
    5711960.85,               !- Vertex 4 Ycoordinate
    6;                        !- Vertex 4 Zcoordinate

BUILDINGSURFACE:DETAILED,
    Block fbb81926b8daa5bd_whole Storey 1 Wall 0003,    !- Name
    wall,                     !- Surface Type
    EU_wall_Construction,     !- Construction Name
    fbb81926b8daa5bd_F1_whole,    !- Zone Name
    ,                         !- Space Name
    Adiabatic,                !- Outside Boundary Condition
    ,                         !- Outside Boundary Condition Object
    NoSun,                    !- Sun Exposure
    NoWind,                   !- Wind Exposure
    autocalculate,            !- View Factor to Ground
    autocalculate,            !- Number of Vertices
    704855.275,               !- Vertex 1 Xcoordinate
    5711960.85,               !- Vertex 1 Ycoordinate
    6,                        !- Vertex 1 Zcoordinate
    704855.275,               !- Vertex 2 Xcoordinate
    5711960.85,               !- Vertex 2 Ycoordinate
    3,                        !- Vertex 2 Zcoordinate
    704857.885,               !- Vertex 3 Xcoordinate
    5711953.12,               !- Vertex 3 Ycoordinate
    3,                        !- Vertex 3 Zcoordinate
    704857.885,               !- Vertex 4 Xcoordinate
    5711953.12,               !- Vertex 4 Ycoordinate
    6;                        !- Vertex 4 Zcoordinate

BUILDINGSURFACE:DETAILED,
    Block fbb81926b8daa5bd_whole Storey 1 Wall 0004,    !- Name
    wall,                     !- Surface Type
    EU_wall_Construction,     !- Construction Name
    fbb81926b8daa5bd_F1_whole,    !- Zone Name
    ,                         !- Space Name
    outdoors,                 !- Outside Boundary Condition
    ,                         !- Outside Boundary Condition Object
    SunExposed,               !- Sun Exposure
    WindExposed,              !- Wind Exposure
    autocalculate,            !- View Factor to Ground
    autocalculate,            !- Number of Vertices
    704857.885,               !- Vertex 1 Xcoordinate
    5711953.12,               !- Vertex 1 Ycoordinate
    6,                        !- Vertex 1 Zcoordinate
    704857.885,               !- Vertex 2 Xcoordinate
    5711953.12,               !- Vertex 2 Ycoordinate
    3,                        !- Vertex 2 Zcoordinate
    704852.645,               !- Vertex 3 Xcoordinate
    5711951.355,              !- Vertex 3 Ycoordinate
    3,                        !- Vertex 3 Zcoordinate
    704852.645,               !- Vertex 4 Xcoordinate
    5711951.355,              !- Vertex 4 Ycoordinate
    6;                        !- Vertex 4 Zcoordinate

BUILDINGSURFACE:DETAILED,
    Block fbb81926b8daa5bd_whole Storey 2 Wall 0001,    !- Name
    wall,                     !- Surface Type
    EU_wall_Construction,     !- Construction Name
    fbb81926b8daa5bd_F2_whole,    !- Zone Name
    ,                         !- Space Name
    Adiabatic,                !- Outside Boundary Condition
    ,                         !- Outside Boundary Condition Object
    NoSun,                    !- Sun Exposure
    NoWind,                   !- Wind Exposure
    autocalculate,            !- View Factor to Ground
    autocalculate,            !- Number of Vertices
    704852.645,               !- Vertex 1 Xcoordinate
    5711951.355,              !- Vertex 1 Ycoordinate
    9,                        !- Vertex 1 Zcoordinate
    704852.645,               !- Vertex 2 Xcoordinate
    5711951.355,              !- Vertex 2 Ycoordinate
    6,                        !- Vertex 2 Zcoordinate
    704850.04,                !- Vertex 3 Xcoordinate
    5711959.085,              !- Vertex 3 Ycoordinate
    6,                        !- Vertex 3 Zcoordinate
    704850.04,                !- Vertex 4 Xcoordinate
    5711959.085,              !- Vertex 4 Ycoordinate
    9;                        !- Vertex 4 Zcoordinate

BUILDINGSURFACE:DETAILED,
    Block fbb81926b8daa5bd_whole Storey 2 Wall 0002,    !- Name
    wall,                     !- Surface Type
    EU_wall_Construction,     !- Construction Name
    fbb81926b8daa5bd_F2_whole,    !- Zone Name
    ,                         !- Space Name
    outdoors,                 !- Outside Boundary Condition
    ,                         !- Outside Boundary Condition Object
    SunExposed,               !- Sun Exposure
    WindExposed,              !- Wind Exposure
    autocalculate,            !- View Factor to Ground
    autocalculate,            !- Number of Vertices
    704850.04,                !- Vertex 1 Xcoordinate
    5711959.085,              !- Vertex 1 Ycoordinate
    9,                        !- Vertex 1 Zcoordinate
    704850.04,                !- Vertex 2 Xcoordinate
    5711959.085,              !- Vertex 2 Ycoordinate
    6,                        !- Vertex 2 Zcoordinate
    704855.275,               !- Vertex 3 Xcoordinate
    5711960.85,               !- Vertex 3 Ycoordinate
    6,                        !- Vertex 3 Zcoordinate
    704855.275,               !- Vertex 4 Xcoordinate
    5711960.85,               !- Vertex 4 Ycoordinate
    9;                        !- Vertex 4 Zcoordinate

BUILDINGSURFACE:DETAILED,
    Block fbb81926b8daa5bd_whole Storey 2 Wall 0003,    !- Name
    wall,                     !- Surface Type
    EU_wall_Construction,     !- Construction Name
    fbb81926b8daa5bd_F2_whole,    !- Zone Name
    ,                         !- Space Name
    Adiabatic,                !- Outside Boundary Condition
    ,                         !- Outside Boundary Condition Object
    NoSun,                    !- Sun Exposure
    NoWind,                   !- Wind Exposure
    autocalculate,            !- View Factor to Ground
    autocalculate,            !- Number of Vertices
    704855.275,               !- Vertex 1 Xcoordinate
    5711960.85,               !- Vertex 1 Ycoordinate
    9,                        !- Vertex 1 Zcoordinate
    704855.275,               !- Vertex 2 Xcoordinate
    5711960.85,               !- Vertex 2 Ycoordinate
    6,                        !- Vertex 2 Zcoordinate
    704857.885,               !- Vertex 3 Xcoordinate
    5711953.12,               !- Vertex 3 Ycoordinate
    6,                        !- Vertex 3 Zcoordinate
    704857.885,               !- Vertex 4 Xcoordinate
    5711953.12,               !- Vertex 4 Ycoordinate
    9;                        !- Vertex 4 Zcoordinate

BUILDINGSURFACE:DETAILED,
    Block fbb81926b8daa5bd_whole Storey 2 Wall 0004,    !- Name
    wall,                     !- Surface Type
    EU_wall_Construction,     !- Construction Name
    fbb81926b8daa5bd_F2_whole,    !- Zone Name
    ,                         !- Space Name
    outdoors,                 !- Outside Boundary Condition
    ,                         !- Outside Boundary Condition Object
    SunExposed,               !- Sun Exposure
    WindExposed,              !- Wind Exposure
    autocalculate,            !- View Factor to Ground
    autocalculate,            !- Number of Vertices
    704857.885,               !- Vertex 1 Xcoordinate
    5711953.12,               !- Vertex 1 Ycoordinate
    9,                        !- Vertex 1 Zcoordinate
    704857.885,               !- Vertex 2 Xcoordinate
    5711953.12,               !- Vertex 2 Ycoordinate
    6,                        !- Vertex 2 Zcoordinate
    704852.645,               !- Vertex 3 Xcoordinate
    5711951.355,              !- Vertex 3 Ycoordinate
    6,                        !- Vertex 3 Zcoordinate
    704852.645,               !- Vertex 4 Xcoordinate
    5711951.355,              !- Vertex 4 Ycoordinate
    9;                        !- Vertex 4 Zcoordinate

BUILDINGSURFACE:DETAILED,
    Block fbb81926b8daa5bd_whole Storey 2 Roof 0001,    !- Name
    roof,                     !- Surface Type
    EU_roof_Construction,     !- Construction Name
    fbb81926b8daa5bd_F2_whole,    !- Zone Name
    ,                         !- Space Name
    outdoors,                 !- Outside Boundary Condition
    ,                         !- Outside Boundary Condition Object
    NoSun,                    !- Sun Exposure
    WindExposed,              !- Wind Exposure
    autocalculate,            !- View Factor to Ground
    autocalculate,            !- Number of Vertices
    704855.275,               !- Vertex 1 Xcoordinate
    5711960.85,               !- Vertex 1 Ycoordinate
    9,                        !- Vertex 1 Zcoordinate
    704857.885,               !- Vertex 2 Xcoordinate
    5711953.12,               !- Vertex 2 Ycoordinate
    9,                        !- Vertex 2 Zcoordinate
    704852.645,               !- Vertex 3 Xcoordinate
    5711951.355,              !- Vertex 3 Ycoordinate
    9,                        !- Vertex 3 Zcoordinate
    704850.04,                !- Vertex 4 Xcoordinate
    5711959.085,              !- Vertex 4 Ycoordinate
    9;                        !- Vertex 4 Zcoordinate

BUILDINGSURFACE:DETAILED,
    Block fbb81926b8daa5bd_whole Storey 0 Ceiling 0001_1,    !- Name
    ceiling,                  !- Surface Type
    EU_floor_Construction,    !- Construction Name
    fbb81926b8daa5bd_F0_whole,    !- Zone Name
    ,                         !- Space Name
    Surface,                  !- Outside Boundary Condition
    Block fbb81926b8daa5bd_whole Storey 1 Floor 0001_1,    !- Outside Boundary Condition Object
    NoSun,                    !- Sun Exposure
    NoWind,                   !- Wind Exposure
    autocalculate,            !- View Factor to Ground
    autocalculate,            !- Number of Vertices
    704855.2749999999,        !- Vertex 1 Xcoordinate
    5711960.85,               !- Vertex 1 Ycoordinate
    3,                        !- Vertex 1 Zcoordinate
    704857.8849999998,        !- Vertex 2 Xcoordinate
    5711953.12,               !- Vertex 2 Ycoordinate
    3,                        !- Vertex 2 Zcoordinate
    704852.645,               !- Vertex 3 Xcoordinate
    5711951.355,              !- Vertex 3 Ycoordinate
    3,                        !- Vertex 3 Zcoordinate
    704850.04,                !- Vertex 4 Xcoordinate
    5711959.085,              !- Vertex 4 Ycoordinate
    3;                        !- Vertex 4 Zcoordinate

BUILDINGSURFACE:DETAILED,
    Block fbb81926b8daa5bd_whole Storey 1 Floor 0001_1,    !- Name
    floor,                    !- Surface Type
    EU_floor_Construction,    !- Construction Name
    fbb81926b8daa5bd_F1_whole,    !- Zone Name
    ,                         !- Space Name
    Surface,                  !- Outside Boundary Condition
    Block fbb81926b8daa5bd_whole Storey 0 Ceiling 0001_1,    !- Outside Boundary Condition Object
    NoSun,                    !- Sun Exposure
    NoWind,                   !- Wind Exposure
    autocalculate,            !- View Factor to Ground
    autocalculate,            !- Number of Vertices
    704857.8849999998,        !- Vertex 1 Xcoordinate
    5711953.12,               !- Vertex 1 Ycoordinate
    3,                        !- Vertex 1 Zcoordinate
    704855.2749999999,        !- Vertex 2 Xcoordinate
    5711960.85,               !- Vertex 2 Ycoordinate
    3,                        !- Vertex 2 Zcoordinate
    704850.04,                !- Vertex 3 Xcoordinate
    5711959.085,              !- Vertex 3 Ycoordinate
    3,                        !- Vertex 3 Zcoordinate
    704852.645,               !- Vertex 4 Xcoordinate
    5711951.355,              !- Vertex 4 Ycoordinate
    3;                        !- Vertex 4 Zcoordinate

BUILDINGSURFACE:DETAILED,
    Block fbb81926b8daa5bd_whole Storey 1 Ceiling 0001_1,    !- Name
    ceiling,                  !- Surface Type
    EU_floor_Construction,    !- Construction Name
    fbb81926b8daa5bd_F1_whole,    !- Zone Name
    ,                         !- Space Name
    Surface,                  !- Outside Boundary Condition
    Block fbb81926b8daa5bd_whole Storey 2 Floor 0001_1,    !- Outside Boundary Condition Object
    NoSun,                    !- Sun Exposure
    NoWind,                   !- Wind Exposure
    autocalculate,            !- View Factor to Ground
    autocalculate,            !- Number of Vertices
    704855.2749999999,        !- Vertex 1 Xcoordinate
    5711960.85,               !- Vertex 1 Ycoordinate
    6,                        !- Vertex 1 Zcoordinate
    704857.8849999998,        !- Vertex 2 Xcoordinate
    5711953.12,               !- Vertex 2 Ycoordinate
    6,                        !- Vertex 2 Zcoordinate
    704852.645,               !- Vertex 3 Xcoordinate
    5711951.355,              !- Vertex 3 Ycoordinate
    6,                        !- Vertex 3 Zcoordinate
    704850.04,                !- Vertex 4 Xcoordinate
    5711959.085,              !- Vertex 4 Ycoordinate
    6;                        !- Vertex 4 Zcoordinate

BUILDINGSURFACE:DETAILED,
    Block fbb81926b8daa5bd_whole Storey 2 Floor 0001_1,    !- Name
    floor,                    !- Surface Type
    EU_floor_Construction,    !- Construction Name
    fbb81926b8daa5bd_F2_whole,    !- Zone Name
    ,                         !- Space Name
    Surface,                  !- Outside Boundary Condition
    Block fbb81926b8daa5bd_whole Storey 1 Ceiling 0001_1,    !- Outside Boundary Condition Object
    NoSun,                    !- Sun Exposure
    NoWind,                   !- Wind Exposure
    autocalculate,            !- View Factor to Ground
    autocalculate,            !- Number of Vertices
    704857.8849999998,        !- Vertex 1 Xcoordinate
    5711953.12,               !- Vertex 1 Ycoordinate
    6,                        !- Vertex 1 Zcoordinate
    704855.2749999999,        !- Vertex 2 Xcoordinate
    5711960.85,               !- Vertex 2 Ycoordinate
    6,                        !- Vertex 2 Zcoordinate
    704850.04,                !- Vertex 3 Xcoordinate
    5711959.085,              !- Vertex 3 Ycoordinate
    6,                        !- Vertex 3 Zcoordinate
    704852.645,               !- Vertex 4 Xcoordinate
    5711951.355,              !- Vertex 4 Ycoordinate
    6;                        !- Vertex 4 Zcoordinate

INTERNALMASS,
    fbb81926b8daa5bd_F0_whole_EU_InternalMass,    !- Name
    EU_InternalMass_Construction,    !- Construction Name
    fbb81926b8daa5bd_F0_whole,    !- Zone or ZoneList Name
    ,                         !- Space or SpaceList Name
    45.08811249647056;        !- Surface Area

INTERNALMASS,
    fbb81926b8daa5bd_F1_whole_EU_InternalMass,    !- Name
    EU_InternalMass_Construction,    !- Construction Name
    fbb81926b8daa5bd_F1_whole,    !- Zone or ZoneList Name
    ,                         !- Space or SpaceList Name
    45.08811249647056;        !- Surface Area

INTERNALMASS,
    fbb81926b8daa5bd_F2_whole_EU_InternalMass,    !- Name
    EU_InternalMass_Construction,    !- Construction Name
    fbb81926b8daa5bd_F2_whole,    !- Zone or ZoneList Name
    ,                         !- Space or SpaceList Name
    45.08811249647056;        !- Surface Area

SHADING:SITE:DETAILED,
    shade_way/393614551_1,    !- Name
    ,                         !- Transmittance Schedule Name
    autocalculate,            !- Number of Vertices
    704880.892604304,         !- Vertex 1 Xcoordinate
    5711941.748569838,        !- Vertex 1 Ycoordinate
    9,                        !- Vertex 1 Zcoordinate
    704880.892604304,         !- Vertex 2 Xcoordinate
    5711941.748569838,        !- Vertex 2 Ycoordinate
    0,                        !- Vertex 2 Zcoordinate
    704854.6003941179,        !- Vertex 3 Xcoordinate
    5711924.846342236,        !- Vertex 3 Ycoordinate
    0,                        !- Vertex 3 Zcoordinate
    704854.6003941179,        !- Vertex 4 Xcoordinate
    5711924.846342236,        !- Vertex 4 Ycoordinate
    9;                        !- Vertex 4 Zcoordinate

SHADING:SITE:DETAILED,
    shade_way/393614551_2,    !- Name
    ,                         !- Transmittance Schedule Name
    autocalculate,            !- Number of Vertices
    704854.6003941179,        !- Vertex 1 Xcoordinate
    5711924.846342236,        !- Vertex 1 Ycoordinate
    9,                        !- Vertex 1 Zcoordinate
    704854.6003941179,        !- Vertex 2 Xcoordinate
    5711924.846342236,        !- Vertex 2 Ycoordinate
    0,                        !- Vertex 2 Zcoordinate
    704846.1381895904,        !- Vertex 3 Xcoordinate
    5711938.009699476,        !- Vertex 3 Ycoordinate
    0,                        !- Vertex 3 Zcoordinate
    704846.1381895904,        !- Vertex 4 Xcoordinate
    5711938.009699476,        !- Vertex 4 Ycoordinate
    9;                        !- Vertex 4 Zcoordinate

SHADING:SITE:DETAILED,
    shade_way/393614551_3,    !- Name
    ,                         !- Transmittance Schedule Name
    autocalculate,            !- Number of Vertices
    704846.1381895904,        !- Vertex 1 Xcoordinate
    5711938.009699476,        !- Vertex 1 Ycoordinate
    9,                        !- Vertex 1 Zcoordinate
    704846.1381895904,        !- Vertex 2 Xcoordinate
    5711938.009699476,        !- Vertex 2 Ycoordinate
    0,                        !- Vertex 2 Zcoordinate
    704872.4303997764,        !- Vertex 3 Xcoordinate
    5711954.911927078,        !- Vertex 3 Ycoordinate
    0,                        !- Vertex 3 Zcoordinate
    704872.4303997764,        !- Vertex 4 Xcoordinate
    5711954.911927078,        !- Vertex 4 Ycoordinate
    9;                        !- Vertex 4 Zcoordinate

SHADING:SITE:DETAILED,
    shade_way/393614551_4,    !- Name
    ,                         !- Transmittance Schedule Name
    autocalculate,            !- Number of Vertices
    704872.4303997764,        !- Vertex 1 Xcoordinate
    5711954.911927078,        !- Vertex 1 Ycoordinate
    9,                        !- Vertex 1 Zcoordinate
    704872.4303997764,        !- Vertex 2 Xcoordinate
    5711954.911927078,        !- Vertex 2 Ycoordinate
    0,                        !- Vertex 2 Zcoordinate
    704880.892604304,         !- Vertex 3 Xcoordinate
    5711941.748569838,        !- Vertex 3 Ycoordinate
    0,                        !- Vertex 3 Zcoordinate
    704880.892604304,         !- Vertex 4 Xcoordinate
    5711941.748569838,        !- Vertex 4 Ycoordinate
    9;                        !- Vertex 4 Zcoordinate

SHADING:SITE:DETAILED,
    shade_way/394093237_1,    !- Name
    ,                         !- Transmittance Schedule Name
    autocalculate,            !- Number of Vertices
    704826.6416377553,        !- Vertex 1 Xcoordinate
    5711952.392431457,        !- Vertex 1 Ycoordinate
    9,                        !- Vertex 1 Zcoordinate
    704826.6416377553,        !- Vertex 2 Xcoordinate
    5711952.392431457,        !- Vertex 2 Ycoordinate
    0,                        !- Vertex 2 Zcoordinate
    704836.5310643367,        !- Vertex 3 Xcoordinate
    5711955.230566484,        !- Vertex 3 Ycoordinate
    0,                        !- Vertex 3 Zcoordinate
    704836.5310643367,        !- Vertex 4 Xcoordinate
    5711955.230566484,        !- Vertex 4 Ycoordinate
    9;                        !- Vertex 4 Zcoordinate

SHADING:SITE:DETAILED,
    shade_way/394093237_2,    !- Name
    ,                         !- Transmittance Schedule Name
    autocalculate,            !- Number of Vertices
    704836.5310643367,        !- Vertex 1 Xcoordinate
    5711955.230566484,        !- Vertex 1 Ycoordinate
    9,                        !- Vertex 1 Zcoordinate
    704836.5310643367,        !- Vertex 2 Xcoordinate
    5711955.230566484,        !- Vertex 2 Ycoordinate
    0,                        !- Vertex 2 Zcoordinate
    704838.8942293623,        !- Vertex 3 Xcoordinate
    5711946.999476279,        !- Vertex 3 Ycoordinate
    0,                        !- Vertex 3 Zcoordinate
    704838.8942293623,        !- Vertex 4 Xcoordinate
    5711946.999476279,        !- Vertex 4 Ycoordinate
    9;                        !- Vertex 4 Zcoordinate

SHADING:SITE:DETAILED,
    shade_way/394093237_3,    !- Name
    ,                         !- Transmittance Schedule Name
    autocalculate,            !- Number of Vertices
    704838.8942293623,        !- Vertex 1 Xcoordinate
    5711946.999476279,        !- Vertex 1 Ycoordinate
    9,                        !- Vertex 1 Zcoordinate
    704838.8942293623,        !- Vertex 2 Xcoordinate
    5711946.999476279,        !- Vertex 2 Ycoordinate
    0,                        !- Vertex 2 Zcoordinate
    704829.0048027802,        !- Vertex 3 Xcoordinate
    5711944.161341253,        !- Vertex 3 Ycoordinate
    0,                        !- Vertex 3 Zcoordinate
    704829.0048027802,        !- Vertex 4 Xcoordinate
    5711944.161341253,        !- Vertex 4 Ycoordinate
    9;                        !- Vertex 4 Zcoordinate

SHADING:SITE:DETAILED,
    shade_way/394093237_4,    !- Name
    ,                         !- Transmittance Schedule Name
    autocalculate,            !- Number of Vertices
    704829.0048027802,        !- Vertex 1 Xcoordinate
    5711944.161341253,        !- Vertex 1 Ycoordinate
    9,                        !- Vertex 1 Zcoordinate
    704829.0048027802,        !- Vertex 2 Xcoordinate
    5711944.161341253,        !- Vertex 2 Ycoordinate
    0,                        !- Vertex 2 Zcoordinate
    704826.6416377553,        !- Vertex 3 Xcoordinate
    5711952.392431457,        !- Vertex 3 Ycoordinate
    0,                        !- Vertex 3 Zcoordinate
    704826.6416377553,        !- Vertex 4 Xcoordinate
    5711952.392431457,        !- Vertex 4 Ycoordinate
    9;                        !- Vertex 4 Zcoordinate

SHADING:SITE:DETAILED,
    shade_way/394093243_1,    !- Name
    ,                         !- Transmittance Schedule Name
    autocalculate,            !- Number of Vertices
    704838.8709041027,        !- Vertex 1 Xcoordinate
    5711947.006325397,        !- Vertex 1 Ycoordinate
    9,                        !- Vertex 1 Zcoordinate
    704838.8709041027,        !- Vertex 2 Xcoordinate
    5711947.006325397,        !- Vertex 2 Ycoordinate
    0,                        !- Vertex 2 Zcoordinate
    704836.5310643367,        !- Vertex 3 Xcoordinate
    5711955.230566484,        !- Vertex 3 Ycoordinate
    0,                        !- Vertex 3 Zcoordinate
    704836.5310643367,        !- Vertex 4 Xcoordinate
    5711955.230566484,        !- Vertex 4 Ycoordinate
    9;                        !- Vertex 4 Zcoordinate

SHADING:SITE:DETAILED,
    shade_way/394093243_2,    !- Name
    ,                         !- Transmittance Schedule Name
    autocalculate,            !- Number of Vertices
    704836.5310643367,        !- Vertex 1 Xcoordinate
    5711955.230566484,        !- Vertex 1 Ycoordinate
    9,                        !- Vertex 1 Zcoordinate
    704836.5310643367,        !- Vertex 2 Xcoordinate
    5711955.230566484,        !- Vertex 2 Ycoordinate
    0,                        !- Vertex 2 Zcoordinate
    704840.898046734,         !- Vertex 3 Xcoordinate
    5711956.472994798,        !- Vertex 3 Ycoordinate
    0,                        !- Vertex 3 Zcoordinate
    704840.898046734,         !- Vertex 4 Xcoordinate
    5711956.472994798,        !- Vertex 4 Ycoordinate
    9;                        !- Vertex 4 Zcoordinate

SHADING:SITE:DETAILED,
    shade_way/394093243_3,    !- Name
    ,                         !- Transmittance Schedule Name
    autocalculate,            !- Number of Vertices
    704840.898046734,         !- Vertex 1 Xcoordinate
    5711956.472994798,        !- Vertex 1 Ycoordinate
    9,                        !- Vertex 1 Zcoordinate
    704840.898046734,         !- Vertex 2 Xcoordinate
    5711956.472994798,        !- Vertex 2 Ycoordinate
    0,                        !- Vertex 2 Zcoordinate
    704843.2378865003,        !- Vertex 3 Xcoordinate
    5711948.24875371,         !- Vertex 3 Ycoordinate
    0,                        !- Vertex 3 Zcoordinate
    704843.2378865003,        !- Vertex 4 Xcoordinate
    5711948.24875371,         !- Vertex 4 Ycoordinate
    9;                        !- Vertex 4 Zcoordinate

SHADING:SITE:DETAILED,
    shade_way/394093243_4,    !- Name
    ,                         !- Transmittance Schedule Name
    autocalculate,            !- Number of Vertices
    704843.2378865003,        !- Vertex 1 Xcoordinate
    5711948.24875371,         !- Vertex 1 Ycoordinate
    9,                        !- Vertex 1 Zcoordinate
    704843.2378865003,        !- Vertex 2 Xcoordinate
    5711948.24875371,         !- Vertex 2 Ycoordinate
    0,                        !- Vertex 2 Zcoordinate
    704838.8709041027,        !- Vertex 3 Xcoordinate
    5711947.006325397,        !- Vertex 3 Ycoordinate
    0,                        !- Vertex 3 Zcoordinate
    704838.8709041027,        !- Vertex 4 Xcoordinate
    5711947.006325397,        !- Vertex 4 Ycoordinate
    9;                        !- Vertex 4 Zcoordinate

SHADING:SITE:DETAILED,
    shade_way/394093242_1,    !- Name
    ,                         !- Transmittance Schedule Name
    autocalculate,            !- Number of Vertices
    704843.2151128843,        !- Vertex 1 Xcoordinate
    5711948.328768612,        !- Vertex 1 Ycoordinate
    9,                        !- Vertex 1 Zcoordinate
    704843.2151128843,        !- Vertex 2 Xcoordinate
    5711948.328768612,        !- Vertex 2 Ycoordinate
    0,                        !- Vertex 2 Zcoordinate
    704840.8390381001,        !- Vertex 3 Xcoordinate
    5711956.417910903,        !- Vertex 3 Ycoordinate
    0,                        !- Vertex 3 Zcoordinate
    704840.8390381001,        !- Vertex 4 Xcoordinate
    5711956.417910903,        !- Vertex 4 Ycoordinate
    9;                        !- Vertex 4 Zcoordinate

SHADING:SITE:DETAILED,
    shade_way/394093242_2,    !- Name
    ,                         !- Transmittance Schedule Name
    autocalculate,            !- Number of Vertices
    704840.8390381001,        !- Vertex 1 Xcoordinate
    5711956.417910903,        !- Vertex 1 Ycoordinate
    9,                        !- Vertex 1 Zcoordinate
    704840.8390381001,        !- Vertex 2 Xcoordinate
    5711956.417910903,        !- Vertex 2 Ycoordinate
    0,                        !- Vertex 2 Zcoordinate
    704844.9162055826,        !- Vertex 3 Xcoordinate
    5711957.615411134,        !- Vertex 3 Ycoordinate
    0,                        !- Vertex 3 Zcoordinate
    704844.9162055826,        !- Vertex 4 Xcoordinate
    5711957.615411134,        !- Vertex 4 Ycoordinate
    9;                        !- Vertex 4 Zcoordinate

SHADING:SITE:DETAILED,
    shade_way/394093242_3,    !- Name
    ,                         !- Transmittance Schedule Name
    autocalculate,            !- Number of Vertices
    704844.9162055826,        !- Vertex 1 Xcoordinate
    5711957.615411134,        !- Vertex 1 Ycoordinate
    9,                        !- Vertex 1 Zcoordinate
    704844.9162055826,        !- Vertex 2 Xcoordinate
    5711957.615411134,        !- Vertex 2 Ycoordinate
    0,                        !- Vertex 2 Zcoordinate
    704847.2922803656,        !- Vertex 3 Xcoordinate
    5711949.526268843,        !- Vertex 3 Ycoordinate
    0,                        !- Vertex 3 Zcoordinate
    704847.2922803656,        !- Vertex 4 Xcoordinate
    5711949.526268843,        !- Vertex 4 Ycoordinate
    9;                        !- Vertex 4 Zcoordinate

SHADING:SITE:DETAILED,
    shade_way/394093242_4,    !- Name
    ,                         !- Transmittance Schedule Name
    autocalculate,            !- Number of Vertices
    704847.2922803656,        !- Vertex 1 Xcoordinate
    5711949.526268843,        !- Vertex 1 Ycoordinate
    9,                        !- Vertex 1 Zcoordinate
    704847.2922803656,        !- Vertex 2 Xcoordinate
    5711949.526268843,        !- Vertex 2 Ycoordinate
    0,                        !- Vertex 2 Zcoordinate
    704843.2151128843,        !- Vertex 3 Xcoordinate
    5711948.328768612,        !- Vertex 3 Ycoordinate
    0,                        !- Vertex 3 Zcoordinate
    704843.2151128843,        !- Vertex 4 Xcoordinate
    5711948.328768612,        !- Vertex 4 Ycoordinate
    9;                        !- Vertex 4 Zcoordinate

SHADING:SITE:DETAILED,
    shade_way/394093241_1,    !- Name
    ,                         !- Transmittance Schedule Name
    autocalculate,            !- Number of Vertices
    704847.2776399289,        !- Vertex 1 Xcoordinate
    5711949.573024086,        !- Vertex 1 Ycoordinate
    9,                        !- Vertex 1 Zcoordinate
    704847.2776399289,        !- Vertex 2 Xcoordinate
    5711949.573024086,        !- Vertex 2 Ycoordinate
    0,                        !- Vertex 2 Zcoordinate
    704844.8362402411,        !- Vertex 3 Xcoordinate
    5711957.559301468,        !- Vertex 3 Ycoordinate
    0,                        !- Vertex 3 Zcoordinate
    704844.8362402411,        !- Vertex 4 Xcoordinate
    5711957.559301468,        !- Vertex 4 Ycoordinate
    9;                        !- Vertex 4 Zcoordinate

SHADING:SITE:DETAILED,
    shade_way/394093241_2,    !- Name
    ,                         !- Transmittance Schedule Name
    autocalculate,            !- Number of Vertices
    704844.8362402411,        !- Vertex 1 Xcoordinate
    5711957.559301468,        !- Vertex 1 Ycoordinate
    9,                        !- Vertex 1 Zcoordinate
    704844.8362402411,        !- Vertex 2 Xcoordinate
    5711957.559301468,        !- Vertex 2 Ycoordinate
    0,                        !- Vertex 2 Zcoordinate
    704850.215027733,         !- Vertex 3 Xcoordinate
    5711959.203616912,        !- Vertex 3 Ycoordinate
    0,                        !- Vertex 3 Zcoordinate
    704850.215027733,         !- Vertex 4 Xcoordinate
    5711959.203616912,        !- Vertex 4 Ycoordinate
    9;                        !- Vertex 4 Zcoordinate

SHADING:SITE:DETAILED,
    shade_way/394093241_3,    !- Name
    ,                         !- Transmittance Schedule Name
    autocalculate,            !- Number of Vertices
    704850.215027733,         !- Vertex 1 Xcoordinate
    5711959.203616912,        !- Vertex 1 Ycoordinate
    9,                        !- Vertex 1 Zcoordinate
    704850.215027733,         !- Vertex 2 Xcoordinate
    5711959.203616912,        !- Vertex 2 Ycoordinate
    0,                        !- Vertex 2 Zcoordinate
    704852.6564274214,        !- Vertex 3 Xcoordinate
    5711951.217339529,        !- Vertex 3 Ycoordinate
    0,                        !- Vertex 3 Zcoordinate
    704852.6564274214,        !- Vertex 4 Xcoordinate
    5711951.217339529,        !- Vertex 4 Ycoordinate
    9;                        !- Vertex 4 Zcoordinate

SHADING:SITE:DETAILED,
    shade_way/394093241_4,    !- Name
    ,                         !- Transmittance Schedule Name
    autocalculate,            !- Number of Vertices
    704852.6564274214,        !- Vertex 1 Xcoordinate
    5711951.217339529,        !- Vertex 1 Ycoordinate
    9,                        !- Vertex 1 Zcoordinate
    704852.6564274214,        !- Vertex 2 Xcoordinate
    5711951.217339529,        !- Vertex 2 Ycoordinate
    0,                        !- Vertex 2 Zcoordinate
    704847.2776399289,        !- Vertex 3 Xcoordinate
    5711949.573024086,        !- Vertex 3 Ycoordinate
    0,                        !- Vertex 3 Zcoordinate
    704847.2776399289,        !- Vertex 4 Xcoordinate
    5711949.573024086,        !- Vertex 4 Ycoordinate
    9;                        !- Vertex 4 Zcoordinate

SHADING:SITE:DETAILED,
    shade_way/394093239_1,    !- Name
    ,                         !- Transmittance Schedule Name
    autocalculate,            !- Number of Vertices
    704857.9725338016,        !- Vertex 1 Xcoordinate
    5711952.952333111,        !- Vertex 1 Ycoordinate
    9,                        !- Vertex 1 Zcoordinate
    704857.9725338016,        !- Vertex 2 Xcoordinate
    5711952.952333111,        !- Vertex 2 Ycoordinate
    0,                        !- Vertex 2 Zcoordinate
    704855.2970418063,        !- Vertex 3 Xcoordinate
    5711960.698951154,        !- Vertex 3 Ycoordinate
    0,                        !- Vertex 3 Zcoordinate
    704855.2970418063,        !- Vertex 4 Xcoordinate
    5711960.698951154,        !- Vertex 4 Ycoordinate
    9;                        !- Vertex 4 Zcoordinate

SHADING:SITE:DETAILED,
    shade_way/394093239_2,    !- Name
    ,                         !- Transmittance Schedule Name
    autocalculate,            !- Number of Vertices
    704855.2970418063,        !- Vertex 1 Xcoordinate
    5711960.698951154,        !- Vertex 1 Ycoordinate
    9,                        !- Vertex 1 Zcoordinate
    704855.2970418063,        !- Vertex 2 Xcoordinate
    5711960.698951154,        !- Vertex 2 Ycoordinate
    0,                        !- Vertex 2 Zcoordinate
    704860.1697199167,        !- Vertex 3 Xcoordinate
    5711962.3814174915,       !- Vertex 3 Ycoordinate
    0,                        !- Vertex 3 Zcoordinate
    704860.1697199167,        !- Vertex 4 Xcoordinate
    5711962.3814174915,       !- Vertex 4 Ycoordinate
    9;                        !- Vertex 4 Zcoordinate

SHADING:SITE:DETAILED,
    shade_way/394093239_3,    !- Name
    ,                         !- Transmittance Schedule Name
    autocalculate,            !- Number of Vertices
    704860.1697199167,        !- Vertex 1 Xcoordinate
    5711962.3814174915,       !- Vertex 1 Ycoordinate
    9,                        !- Vertex 1 Zcoordinate
    704860.1697199167,        !- Vertex 2 Xcoordinate
    5711962.3814174915,       !- Vertex 2 Ycoordinate
    0,                        !- Vertex 2 Zcoordinate
    704862.8435189209,        !- Vertex 3 Xcoordinate
    5711954.633809589,        !- Vertex 3 Ycoordinate
    0,                        !- Vertex 3 Zcoordinate
    704862.8435189209,        !- Vertex 4 Xcoordinate
    5711954.633809589,        !- Vertex 4 Ycoordinate
    9;                        !- Vertex 4 Zcoordinate

SHADING:SITE:DETAILED,
    shade_way/394093239_4,    !- Name
    ,                         !- Transmittance Schedule Name
    autocalculate,            !- Number of Vertices
    704862.8435189209,        !- Vertex 1 Xcoordinate
    5711954.633809589,        !- Vertex 1 Ycoordinate
    9,                        !- Vertex 1 Zcoordinate
    704862.8435189209,        !- Vertex 2 Xcoordinate
    5711954.633809589,        !- Vertex 2 Ycoordinate
    0,                        !- Vertex 2 Zcoordinate
    704857.9725338016,        !- Vertex 3 Xcoordinate
    5711952.952333111,        !- Vertex 3 Ycoordinate
    0,                        !- Vertex 3 Zcoordinate
    704857.9725338016,        !- Vertex 4 Xcoordinate
    5711952.952333111,        !- Vertex 4 Ycoordinate
    9;                        !- Vertex 4 Zcoordinate

SHADING:SITE:DETAILED,
    shade_way/394093238_1,    !- Name
    ,                         !- Transmittance Schedule Name
    autocalculate,            !- Number of Vertices
    704866.6658967115,        !- Vertex 1 Xcoordinate
    5711965.906894976,        !- Vertex 1 Ycoordinate
    9,                        !- Vertex 1 Zcoordinate
    704866.6658967115,        !- Vertex 2 Xcoordinate
    5711965.906894976,        !- Vertex 2 Ycoordinate
    0,                        !- Vertex 2 Zcoordinate
    704873.1972577508,        !- Vertex 3 Xcoordinate
    5711953.715603804,        !- Vertex 3 Ycoordinate
    0,                        !- Vertex 3 Zcoordinate
    704873.1972577508,        !- Vertex 4 Xcoordinate
    5711953.715603804,        !- Vertex 4 Ycoordinate
    9;                        !- Vertex 4 Zcoordinate

SHADING:SITE:DETAILED,
    shade_way/394093238_2,    !- Name
    ,                         !- Transmittance Schedule Name
    autocalculate,            !- Number of Vertices
    704873.1972577508,        !- Vertex 1 Xcoordinate
    5711953.715603804,        !- Vertex 1 Ycoordinate
    9,                        !- Vertex 1 Zcoordinate
    704873.1972577508,        !- Vertex 2 Xcoordinate
    5711953.715603804,        !- Vertex 2 Ycoordinate
    0,                        !- Vertex 2 Zcoordinate
    704865.535309173,         !- Vertex 3 Xcoordinate
    5711949.610477634,        !- Vertex 3 Ycoordinate
    0,                        !- Vertex 3 Zcoordinate
    704865.535309173,         !- Vertex 4 Xcoordinate
    5711949.610477634,        !- Vertex 4 Ycoordinate
    9;                        !- Vertex 4 Zcoordinate

SHADING:SITE:DETAILED,
    shade_way/394093238_3,    !- Name
    ,                         !- Transmittance Schedule Name
    autocalculate,            !- Number of Vertices
    704865.535309173,         !- Vertex 1 Xcoordinate
    5711949.610477634,        !- Vertex 1 Ycoordinate
    9,                        !- Vertex 1 Zcoordinate
    704865.535309173,         !- Vertex 2 Xcoordinate
    5711949.610477634,        !- Vertex 2 Ycoordinate
    0,                        !- Vertex 2 Zcoordinate
    704859.0036014847,        !- Vertex 3 Xcoordinate
    5711961.801634722,        !- Vertex 3 Ycoordinate
    0,                        !- Vertex 3 Zcoordinate
    704859.0036014847,        !- Vertex 4 Xcoordinate
    5711961.801634722,        !- Vertex 4 Ycoordinate
    9;                        !- Vertex 4 Zcoordinate

SHADING:SITE:DETAILED,
    shade_way/394093238_4,    !- Name
    ,                         !- Transmittance Schedule Name
    autocalculate,            !- Number of Vertices
    704859.0036014847,        !- Vertex 1 Xcoordinate
    5711961.801634722,        !- Vertex 1 Ycoordinate
    9,                        !- Vertex 1 Zcoordinate
    704859.0036014847,        !- Vertex 2 Xcoordinate
    5711961.801634722,        !- Vertex 2 Ycoordinate
    0,                        !- Vertex 2 Zcoordinate
    704866.6658967115,        !- Vertex 3 Xcoordinate
    5711965.906894976,        !- Vertex 3 Ycoordinate
    0,                        !- Vertex 3 Zcoordinate
    704866.6658967115,        !- Vertex 4 Xcoordinate
    5711965.906894976,        !- Vertex 4 Ycoordinate
    9;                        !- Vertex 4 Zcoordinate

OTHEREQUIPMENT,
    EU_Step8_InternalGain_fbb81926b8daa5bd_F0_whole_f000,    !- Name
    Electricity,              !- Fuel Type
    fbb81926b8daa5bd_F0_whole,    !- Zone or ZoneList or Space or SpaceList Name
    EU_Step8_GainSchedule_fbb81926b8daa5bd_F0_whole_f000,    !- Schedule Name
    Watts/Area,               !- Design Level Calculation Method
    ,                         !- Design Level
    1,                        !- Power per Zone Floor Area
    ,                         !- Power per Person
    0,                        !- Fraction Latent
    0,                        !- Fraction Radiant
    0,                        !- Fraction Lost
    0,                        !- Carbon Dioxide Generation Rate
    EU_Step8_InternalGains;    !- EndUse Subcategory

OTHEREQUIPMENT,
    EU_Step8_InternalGain_fbb81926b8daa5bd_F1_whole_f000,    !- Name
    Electricity,              !- Fuel Type
    fbb81926b8daa5bd_F1_whole,    !- Zone or ZoneList or Space or SpaceList Name
    EU_Step8_GainSchedule_fbb81926b8daa5bd_F1_whole_f000,    !- Schedule Name
    Watts/Area,               !- Design Level Calculation Method
    ,                         !- Design Level
    1,                        !- Power per Zone Floor Area
    ,                         !- Power per Person
    0,                        !- Fraction Latent
    0,                        !- Fraction Radiant
    0,                        !- Fraction Lost
    0,                        !- Carbon Dioxide Generation Rate
    EU_Step8_InternalGains;    !- EndUse Subcategory

OTHEREQUIPMENT,
    EU_Step8_InternalGain_fbb81926b8daa5bd_F2_whole_f000,    !- Name
    Electricity,              !- Fuel Type
    fbb81926b8daa5bd_F2_whole,    !- Zone or ZoneList or Space or SpaceList Name
    EU_Step8_GainSchedule_fbb81926b8daa5bd_F2_whole_f000,    !- Schedule Name
    Watts/Area,               !- Design Level Calculation Method
    ,                         !- Design Level
    1,                        !- Power per Zone Floor Area
    ,                         !- Power per Person
    0,                        !- Fraction Latent
    0,                        !- Fraction Radiant
    0,                        !- Fraction Lost
    0,                        !- Carbon Dioxide Generation Rate
    EU_Step8_InternalGains;    !- EndUse Subcategory

ZONEVENTILATION:DESIGNFLOWRATE,
    EU_ConstantAir_fbb81926b8daa5bd_F0_whole,    !- Name
    fbb81926b8daa5bd_F0_whole,    !- Zone or ZoneList or Space or SpaceList Name
    EU_AlwaysOn,              !- Schedule Name
    AirChanges/Hour,          !- Design Flow Rate Calculation Method
    ,                         !- Design Flow Rate
    ,                         !- Flow Rate per Floor Area
    ,                         !- Flow Rate per Person
    4.887194e-01,             !- Air Changes per Hour
    Natural,                  !- Ventilation Type
    0,                        !- Fan Pressure Rise
    1,                        !- Fan Total Efficiency
    1,                        !- Constant Term Coefficient
    0,                        !- Temperature Term Coefficient
    0,                        !- Velocity Term Coefficient
    0,                        !- Velocity Squared Term Coefficient
    -100,                     !- Minimum Indoor Temperature
    ,                         !- Minimum Indoor Temperature Schedule Name
    100,                      !- Maximum Indoor Temperature
    ,                         !- Maximum Indoor Temperature Schedule Name
    -100,                     !- Delta Temperature
    ,                         !- Delta Temperature Schedule Name
    -100,                     !- Minimum Outdoor Temperature
    ,                         !- Minimum Outdoor Temperature Schedule Name
    100,                      !- Maximum Outdoor Temperature
    ,                         !- Maximum Outdoor Temperature Schedule Name
    40;                       !- Maximum Wind Speed

ZONEVENTILATION:DESIGNFLOWRATE,
    EU_ConstantAir_fbb81926b8daa5bd_F1_whole,    !- Name
    fbb81926b8daa5bd_F1_whole,    !- Zone or ZoneList or Space or SpaceList Name
    EU_AlwaysOn,              !- Schedule Name
    AirChanges/Hour,          !- Design Flow Rate Calculation Method
    ,                         !- Design Flow Rate
    ,                         !- Flow Rate per Floor Area
    ,                         !- Flow Rate per Person
    4.887194e-01,             !- Air Changes per Hour
    Natural,                  !- Ventilation Type
    0,                        !- Fan Pressure Rise
    1,                        !- Fan Total Efficiency
    1,                        !- Constant Term Coefficient
    0,                        !- Temperature Term Coefficient
    0,                        !- Velocity Term Coefficient
    0,                        !- Velocity Squared Term Coefficient
    -100,                     !- Minimum Indoor Temperature
    ,                         !- Minimum Indoor Temperature Schedule Name
    100,                      !- Maximum Indoor Temperature
    ,                         !- Maximum Indoor Temperature Schedule Name
    -100,                     !- Delta Temperature
    ,                         !- Delta Temperature Schedule Name
    -100,                     !- Minimum Outdoor Temperature
    ,                         !- Minimum Outdoor Temperature Schedule Name
    100,                      !- Maximum Outdoor Temperature
    ,                         !- Maximum Outdoor Temperature Schedule Name
    40;                       !- Maximum Wind Speed

ZONEVENTILATION:DESIGNFLOWRATE,
    EU_ConstantAir_fbb81926b8daa5bd_F2_whole,    !- Name
    fbb81926b8daa5bd_F2_whole,    !- Zone or ZoneList or Space or SpaceList Name
    EU_AlwaysOn,              !- Schedule Name
    AirChanges/Hour,          !- Design Flow Rate Calculation Method
    ,                         !- Design Flow Rate
    ,                         !- Flow Rate per Floor Area
    ,                         !- Flow Rate per Person
    4.887194e-01,             !- Air Changes per Hour
    Natural,                  !- Ventilation Type
    0,                        !- Fan Pressure Rise
    1,                        !- Fan Total Efficiency
    1,                        !- Constant Term Coefficient
    0,                        !- Temperature Term Coefficient
    0,                        !- Velocity Term Coefficient
    0,                        !- Velocity Squared Term Coefficient
    -100,                     !- Minimum Indoor Temperature
    ,                         !- Minimum Indoor Temperature Schedule Name
    100,                      !- Maximum Indoor Temperature
    ,                         !- Maximum Indoor Temperature Schedule Name
    -100,                     !- Delta Temperature
    ,                         !- Delta Temperature Schedule Name
    -100,                     !- Minimum Outdoor Temperature
    ,                         !- Minimum Outdoor Temperature Schedule Name
    100,                      !- Maximum Outdoor Temperature
    ,                         !- Maximum Outdoor Temperature Schedule Name
    40;                       !- Maximum Wind Speed

HVACTEMPLATE:THERMOSTAT,
    EU_HeatOnly_fbb81926b8daa5bd_F0_whole,    !- Name
    ,                         !- Heating Setpoint Schedule Name
    20,                       !- Constant Heating Setpoint
    ,                         !- Cooling Setpoint Schedule Name
    50;                       !- Constant Cooling Setpoint

HVACTEMPLATE:THERMOSTAT,
    EU_HeatOnly_fbb81926b8daa5bd_F1_whole,    !- Name
    ,                         !- Heating Setpoint Schedule Name
    20,                       !- Constant Heating Setpoint
    ,                         !- Cooling Setpoint Schedule Name
    50;                       !- Constant Cooling Setpoint

HVACTEMPLATE:THERMOSTAT,
    EU_HeatOnly_fbb81926b8daa5bd_F2_whole,    !- Name
    ,                         !- Heating Setpoint Schedule Name
    20,                       !- Constant Heating Setpoint
    ,                         !- Cooling Setpoint Schedule Name
    50;                       !- Constant Cooling Setpoint

HVACTEMPLATE:ZONE:IDEALLOADSAIRSYSTEM,
    fbb81926b8daa5bd_F0_whole,    !- Zone Name
    EU_HeatOnly_fbb81926b8daa5bd_F0_whole,    !- Template Thermostat Name
    EU_AlwaysOn,              !- System Availability Schedule Name
    50,                       !- Maximum Heating Supply Air Temperature
    13,                       !- Minimum Cooling Supply Air Temperature
    0.0156,                   !- Maximum Heating Supply Air Humidity Ratio
    0.0077,                   !- Minimum Cooling Supply Air Humidity Ratio
    NoLimit,                  !- Heating Limit
    ,                         !- Maximum Heating Air Flow Rate
    ,                         !- Maximum Sensible Heating Capacity
    NoLimit,                  !- Cooling Limit
    ,                         !- Maximum Cooling Air Flow Rate
    ,                         !- Maximum Total Cooling Capacity
    EU_AlwaysOn,              !- Heating Availability Schedule Name
    EU_CoolingOff,            !- Cooling Availability Schedule Name
    ConstantSensibleHeatRatio,    !- Dehumidification Control Type
    0.7,                      !- Cooling Sensible Heat Ratio
    60,                       !- Dehumidification Setpoint
    None,                     !- Humidification Control Type
    30,                       !- Humidification Setpoint
    None,                     !- Outdoor Air Method
    0.00944,                  !- Outdoor Air Flow Rate per Person
    0.0,                      !- Outdoor Air Flow Rate per Zone Floor Area
    0,                        !- Outdoor Air Flow Rate per Zone
    ,                         !- Design Specification Outdoor Air Object Name
    None,                     !- Demand Controlled Ventilation Type
    NoEconomizer,             !- Outdoor Air Economizer Type
    None,                     !- Heat Recovery Type
    0.70,                     !- Sensible Heat Recovery Effectiveness
    0.65;                     !- Latent Heat Recovery Effectiveness

HVACTEMPLATE:ZONE:IDEALLOADSAIRSYSTEM,
    fbb81926b8daa5bd_F1_whole,    !- Zone Name
    EU_HeatOnly_fbb81926b8daa5bd_F1_whole,    !- Template Thermostat Name
    EU_AlwaysOn,              !- System Availability Schedule Name
    50,                       !- Maximum Heating Supply Air Temperature
    13,                       !- Minimum Cooling Supply Air Temperature
    0.0156,                   !- Maximum Heating Supply Air Humidity Ratio
    0.0077,                   !- Minimum Cooling Supply Air Humidity Ratio
    NoLimit,                  !- Heating Limit
    ,                         !- Maximum Heating Air Flow Rate
    ,                         !- Maximum Sensible Heating Capacity
    NoLimit,                  !- Cooling Limit
    ,                         !- Maximum Cooling Air Flow Rate
    ,                         !- Maximum Total Cooling Capacity
    EU_AlwaysOn,              !- Heating Availability Schedule Name
    EU_CoolingOff,            !- Cooling Availability Schedule Name
    ConstantSensibleHeatRatio,    !- Dehumidification Control Type
    0.7,                      !- Cooling Sensible Heat Ratio
    60,                       !- Dehumidification Setpoint
    None,                     !- Humidification Control Type
    30,                       !- Humidification Setpoint
    None,                     !- Outdoor Air Method
    0.00944,                  !- Outdoor Air Flow Rate per Person
    0.0,                      !- Outdoor Air Flow Rate per Zone Floor Area
    0,                        !- Outdoor Air Flow Rate per Zone
    ,                         !- Design Specification Outdoor Air Object Name
    None,                     !- Demand Controlled Ventilation Type
    NoEconomizer,             !- Outdoor Air Economizer Type
    None,                     !- Heat Recovery Type
    0.70,                     !- Sensible Heat Recovery Effectiveness
    0.65;                     !- Latent Heat Recovery Effectiveness

HVACTEMPLATE:ZONE:IDEALLOADSAIRSYSTEM,
    fbb81926b8daa5bd_F2_whole,    !- Zone Name
    EU_HeatOnly_fbb81926b8daa5bd_F2_whole,    !- Template Thermostat Name
    EU_AlwaysOn,              !- System Availability Schedule Name
    50,                       !- Maximum Heating Supply Air Temperature
    13,                       !- Minimum Cooling Supply Air Temperature
    0.0156,                   !- Maximum Heating Supply Air Humidity Ratio
    0.0077,                   !- Minimum Cooling Supply Air Humidity Ratio
    NoLimit,                  !- Heating Limit
    ,                         !- Maximum Heating Air Flow Rate
    ,                         !- Maximum Sensible Heating Capacity
    NoLimit,                  !- Cooling Limit
    ,                         !- Maximum Cooling Air Flow Rate
    ,                         !- Maximum Total Cooling Capacity
    EU_AlwaysOn,              !- Heating Availability Schedule Name
    EU_CoolingOff,            !- Cooling Availability Schedule Name
    ConstantSensibleHeatRatio,    !- Dehumidification Control Type
    0.7,                      !- Cooling Sensible Heat Ratio
    60,                       !- Dehumidification Setpoint
    None,                     !- Humidification Control Type
    30,                       !- Humidification Setpoint
    None,                     !- Outdoor Air Method
    0.00944,                  !- Outdoor Air Flow Rate per Person
    0.0,                      !- Outdoor Air Flow Rate per Zone Floor Area
    0,                        !- Outdoor Air Flow Rate per Zone
    ,                         !- Design Specification Outdoor Air Object Name
    None,                     !- Demand Controlled Ventilation Type
    NoEconomizer,             !- Outdoor Air Economizer Type
    None,                     !- Heat Recovery Type
    0.70,                     !- Sensible Heat Recovery Effectiveness
    0.65;                     !- Latent Heat Recovery Effectiveness

SIZING:ZONE,
    fbb81926b8daa5bd_F0_whole,    !- Zone or ZoneList Name
    SupplyAirTemperature,     !- Zone Cooling Design Supply Air Temperature Input Method
    13,                       !- Zone Cooling Design Supply Air Temperature
    ,                         !- Zone Cooling Design Supply Air Temperature Difference
    SupplyAirTemperature,     !- Zone Heating Design Supply Air Temperature Input Method
    50,                       !- Zone Heating Design Supply Air Temperature
    ,                         !- Zone Heating Design Supply Air Temperature Difference
    0.008,                    !- Zone Cooling Design Supply Air Humidity Ratio
    0.008,                    !- Zone Heating Design Supply Air Humidity Ratio
    ,                         !- Design Specification Outdoor Air Object Name
    ,                         !- Zone Heating Sizing Factor
    ,                         !- Zone Cooling Sizing Factor
    DesignDay,                !- Cooling Design Air Flow Method
    0,                        !- Cooling Design Air Flow Rate
    0.000762,                 !- Cooling Minimum Air Flow per Zone Floor Area
    0,                        !- Cooling Minimum Air Flow
    0.2,                      !- Cooling Minimum Air Flow Fraction
    DesignDay,                !- Heating Design Air Flow Method
    0,                        !- Heating Design Air Flow Rate
    0.002032,                 !- Heating Maximum Air Flow per Zone Floor Area
    0.1415762,                !- Heating Maximum Air Flow
    0.3,                      !- Heating Maximum Air Flow Fraction
    ,                         !- Design Specification Zone Air Distribution Object Name
    No,                       !- Account for Dedicated Outdoor Air System
    NeutralSupplyAir,         !- Dedicated Outdoor Air System Control Strategy
    autosize,                 !- Dedicated Outdoor Air Low Setpoint Temperature for Design
    autosize,                 !- Dedicated Outdoor Air High Setpoint Temperature for Design
    Sensible Load Only No Latent Load,    !- Zone Load Sizing Method
    HumidityRatioDifference,    !- Zone Latent Cooling Design Supply Air Humidity Ratio Input Method
    ,                         !- Zone Dehumidification Design Supply Air Humidity Ratio
    0.005,                    !- Zone Cooling Design Supply Air Humidity Ratio Difference
    HumidityRatioDifference,    !- Zone Latent Heating Design Supply Air Humidity Ratio Input Method
    ,                         !- Zone Humidification Design Supply Air Humidity Ratio
    0.005;                    !- Zone Humidification Design Supply Air Humidity Ratio Difference

SIZING:ZONE,
    fbb81926b8daa5bd_F1_whole,    !- Zone or ZoneList Name
    SupplyAirTemperature,     !- Zone Cooling Design Supply Air Temperature Input Method
    13,                       !- Zone Cooling Design Supply Air Temperature
    ,                         !- Zone Cooling Design Supply Air Temperature Difference
    SupplyAirTemperature,     !- Zone Heating Design Supply Air Temperature Input Method
    50,                       !- Zone Heating Design Supply Air Temperature
    ,                         !- Zone Heating Design Supply Air Temperature Difference
    0.008,                    !- Zone Cooling Design Supply Air Humidity Ratio
    0.008,                    !- Zone Heating Design Supply Air Humidity Ratio
    ,                         !- Design Specification Outdoor Air Object Name
    ,                         !- Zone Heating Sizing Factor
    ,                         !- Zone Cooling Sizing Factor
    DesignDay,                !- Cooling Design Air Flow Method
    0,                        !- Cooling Design Air Flow Rate
    0.000762,                 !- Cooling Minimum Air Flow per Zone Floor Area
    0,                        !- Cooling Minimum Air Flow
    0.2,                      !- Cooling Minimum Air Flow Fraction
    DesignDay,                !- Heating Design Air Flow Method
    0,                        !- Heating Design Air Flow Rate
    0.002032,                 !- Heating Maximum Air Flow per Zone Floor Area
    0.1415762,                !- Heating Maximum Air Flow
    0.3,                      !- Heating Maximum Air Flow Fraction
    ,                         !- Design Specification Zone Air Distribution Object Name
    No,                       !- Account for Dedicated Outdoor Air System
    NeutralSupplyAir,         !- Dedicated Outdoor Air System Control Strategy
    autosize,                 !- Dedicated Outdoor Air Low Setpoint Temperature for Design
    autosize,                 !- Dedicated Outdoor Air High Setpoint Temperature for Design
    Sensible Load Only No Latent Load,    !- Zone Load Sizing Method
    HumidityRatioDifference,    !- Zone Latent Cooling Design Supply Air Humidity Ratio Input Method
    ,                         !- Zone Dehumidification Design Supply Air Humidity Ratio
    0.005,                    !- Zone Cooling Design Supply Air Humidity Ratio Difference
    HumidityRatioDifference,    !- Zone Latent Heating Design Supply Air Humidity Ratio Input Method
    ,                         !- Zone Humidification Design Supply Air Humidity Ratio
    0.005;                    !- Zone Humidification Design Supply Air Humidity Ratio Difference

SIZING:ZONE,
    fbb81926b8daa5bd_F2_whole,    !- Zone or ZoneList Name
    SupplyAirTemperature,     !- Zone Cooling Design Supply Air Temperature Input Method
    13,                       !- Zone Cooling Design Supply Air Temperature
    ,                         !- Zone Cooling Design Supply Air Temperature Difference
    SupplyAirTemperature,     !- Zone Heating Design Supply Air Temperature Input Method
    50,                       !- Zone Heating Design Supply Air Temperature
    ,                         !- Zone Heating Design Supply Air Temperature Difference
    0.008,                    !- Zone Cooling Design Supply Air Humidity Ratio
    0.008,                    !- Zone Heating Design Supply Air Humidity Ratio
    ,                         !- Design Specification Outdoor Air Object Name
    ,                         !- Zone Heating Sizing Factor
    ,                         !- Zone Cooling Sizing Factor
    DesignDay,                !- Cooling Design Air Flow Method
    0,                        !- Cooling Design Air Flow Rate
    0.000762,                 !- Cooling Minimum Air Flow per Zone Floor Area
    0,                        !- Cooling Minimum Air Flow
    0.2,                      !- Cooling Minimum Air Flow Fraction
    DesignDay,                !- Heating Design Air Flow Method
    0,                        !- Heating Design Air Flow Rate
    0.002032,                 !- Heating Maximum Air Flow per Zone Floor Area
    0.1415762,                !- Heating Maximum Air Flow
    0.3,                      !- Heating Maximum Air Flow Fraction
    ,                         !- Design Specification Zone Air Distribution Object Name
    No,                       !- Account for Dedicated Outdoor Air System
    NeutralSupplyAir,         !- Dedicated Outdoor Air System Control Strategy
    autosize,                 !- Dedicated Outdoor Air Low Setpoint Temperature for Design
    autosize,                 !- Dedicated Outdoor Air High Setpoint Temperature for Design
    Sensible Load Only No Latent Load,    !- Zone Load Sizing Method
    HumidityRatioDifference,    !- Zone Latent Cooling Design Supply Air Humidity Ratio Input Method
    ,                         !- Zone Dehumidification Design Supply Air Humidity Ratio
    0.005,                    !- Zone Cooling Design Supply Air Humidity Ratio Difference
    HumidityRatioDifference,    !- Zone Latent Heating Design Supply Air Humidity Ratio Input Method
    ,                         !- Zone Humidification Design Supply Air Humidity Ratio
    0.005;                    !- Zone Humidification Design Supply Air Humidity Ratio Difference

OUTPUT:VARIABLE,
    *,                        !- Key Value
    Zone Ideal Loads Zone Total Heating Energy,    !- Variable Name
    Hourly;                   !- Reporting Frequency

OUTPUT:SQLITE,
    SimpleAndTabular,         !- Option Type
    UseOutputControlTableStyle;    !- Unit Conversion for Tabular Data