!- Windows Line endings 

Version,
    23.1;                     !- Version Identifier

SimulationControl,
    Yes,                      !- Do Zone Sizing Calculation
    Yes,                      !- Do System Sizing Calculation
    Yes,                      !- Do Plant Sizing Calculation
    No,                       !- Run Simulation for Sizing Periods
    Yes,                      !- Run Simulation for Weather File Run Periods
    No,                       !- Do HVAC Sizing Simulation for Sizing Periods
    1;                        !- Maximum Number of HVAC Sizing Simulation Passes

Building,
    EU S2 Campaign,           !- Name
    0,                        !- North Axis
    City,                     !- Terrain
    ,                         !- Loads Convergence Tolerance Value
    ,                         !- Temperature Convergence Tolerance Value
    FullExterior,             !- Solar Distribution
    ,                         !- Maximum Number of Warmup Days
    ;                         !- Minimum Number of Warmup Days

HeatBalanceAlgorithm,
    ConductionTransferFunction,    !- Algorithm
    200,                      !- Surface Temperature Upper Limit
    0.1,                      !- Minimum Surface Convection Heat Transfer Coefficient Value
    10000000;                 !- Maximum Surface Convection Heat Transfer Coefficient Value

Timestep,
    12;                       !- Number of Timesteps per Hour

Site:Location,
    Madrid,                   !- Name
    40.5,                     !- Latitude
    -3.5,                     !- Longitude
    1,                        !- Time Zone
    609;                      !- Elevation

SizingPeriod:WeatherFileDays,
    AnnualSizingPeriod,       !- Name
    1,                        !- Begin Month
    1,                        !- Begin Day of Month
    12,                       !- End Month
    31,                       !- End Day of Month
    Monday,                   !- Day of Week for Start Day
    No,                       !- Use Weather File Daylight Saving Period
    No;                       !- Use Weather File Rain and Snow Indicators

RunPeriod,
    RunPeriod1,               !- Name
    1,                        !- Begin Month
    1,                        !- Begin Day of Month
    ,                         !- Begin Year
    12,                       !- End Month
    31,                       !- End Day of Month
    ,                         !- End Year
    Sunday,                   !- Day of Week for Start Day
    No,                       !- Use Weather File Holidays and Special Days
    No,                       !- Use Weather File Daylight Saving Period
    No,                       !- Apply Weekend Holiday Rule
    Yes,                      !- Use Weather File Rain Indicators
    Yes;                      !- Use Weather File Snow Indicators

ScheduleTypeLimits,
    Any Number;               !- Name

SCHEDULETYPELIMITS,
    EU_Step8_AnyNumber_Wm2,    !- Name
    ,                         !- Lower Limit Value
    ,                         !- Upper Limit Value
    Continuous,               !- Numeric Type
    Dimensionless;            !- Unit Type

SCHEDULE:CONSTANT,
    EU_AlwaysOn,              !- Name
    ,                         !- Schedule Type Limits Name
    1;                        !- Hourly Value

SCHEDULE:CONSTANT,
    EU_CoolingOff,            !- Name
    ,                         !- Schedule Type Limits Name
    0;                        !- Hourly Value

SCHEDULE:FILE,
    EU_Step8_GainSchedule_e15a744ae0043afc_F0_dwelling_0_f000,    !- Name
    EU_Step8_AnyNumber_Wm2,    !- Schedule Type Limits Name
    C:\Users\o_iseri\Desktop\OpenUBEM\openubem\outputs\eu_evidence\EU-11\ES-MAD-BERRUGUETE\idfs\e15a744ae0043afc\e15a744ae0043afc_F0_dwelling_0_f000_gain.csv,    !- File Name
    1,                        !- Column Number
    0,                        !- Rows to Skip at Top
    8760,                     !- Number of Hours of Data
    Comma,                    !- Column Separator
    No,                       !- Interpolate to Timestep
    60,                       !- Minutes per Item
    Yes;                      !- Adjust Schedule for Daylight Savings

SCHEDULE:FILE,
    EU_Step8_GainSchedule_e15a744ae0043afc_F0_dwelling_1_f000,    !- Name
    EU_Step8_AnyNumber_Wm2,    !- Schedule Type Limits Name
    C:\Users\o_iseri\Desktop\OpenUBEM\openubem\outputs\eu_evidence\EU-11\ES-MAD-BERRUGUETE\idfs\e15a744ae0043afc\e15a744ae0043afc_F0_dwelling_1_f000_gain.csv,    !- File Name
    1,                        !- Column Number
    0,                        !- Rows to Skip at Top
    8760,                     !- Number of Hours of Data
    Comma,                    !- Column Separator
    No,                       !- Interpolate to Timestep
    60,                       !- Minutes per Item
    Yes;                      !- Adjust Schedule for Daylight Savings

SCHEDULE:FILE,
    EU_Step8_GainSchedule_e15a744ae0043afc_F0_dwelling_2_f000,    !- Name
    EU_Step8_AnyNumber_Wm2,    !- Schedule Type Limits Name
    C:\Users\o_iseri\Desktop\OpenUBEM\openubem\outputs\eu_evidence\EU-11\ES-MAD-BERRUGUETE\idfs\e15a744ae0043afc\e15a744ae0043afc_F0_dwelling_2_f000_gain.csv,    !- File Name
    1,                        !- Column Number
    0,                        !- Rows to Skip at Top
    8760,                     !- Number of Hours of Data
    Comma,                    !- Column Separator
    No,                       !- Interpolate to Timestep
    60,                       !- Minutes per Item
    Yes;                      !- Adjust Schedule for Daylight Savings

MATERIAL,
    EU_InternalMass_Material,    !- Name
    MediumRough,              !- Roughness
    0.1,                      !- Thickness
    1,                        !- Conductivity
    1800,                     !- Density
    900,                      !- Specific Heat
    0.9,                      !- Thermal Absorptance
    0.7,                      !- Solar Absorptance
    0.7;                      !- Visible Absorptance

MATERIAL:NOMASS,
    EU_wall_NoMass,           !- Name
    MediumRough,              !- Roughness
    1.6002158098852093,       !- Thermal Resistance
    0.9,                      !- Thermal Absorptance
    0.7,                      !- Solar Absorptance
    0.7;                      !- Visible Absorptance

MATERIAL:NOMASS,
    EU_roof_NoMass,           !- Name
    MediumRough,              !- Roughness
    1.5759701157960397,       !- Thermal Resistance
    0.9,                      !- Thermal Absorptance
    0.7,                      !- Solar Absorptance
    0.7;                      !- Visible Absorptance

MATERIAL:NOMASS,
    EU_floor_NoMass,          !- Name
    MediumRough,              !- Roughness
    0.4706517087897675,       !- Thermal Resistance
    0.9,                      !- Thermal Absorptance
    0.7,                      !- Solar Absorptance
    0.7;                      !- Visible Absorptance

CONSTRUCTION,
    EU_wall_Construction,     !- Name
    EU_wall_NoMass;           !- Outside Layer

CONSTRUCTION,
    EU_roof_Construction,     !- Name
    EU_roof_NoMass;           !- Outside Layer

CONSTRUCTION,
    EU_floor_Construction,    !- Name
    EU_floor_NoMass;          !- Outside Layer

CONSTRUCTION,
    EU_InternalMass_Construction,    !- Name
    EU_InternalMass_Material;    !- Outside Layer

GlobalGeometryRules,
    UpperLeftCorner,          !- Starting Vertex Position
    CounterClockWise,         !- Vertex Entry Direction
    World;                    !- Coordinate System

ZONE,
    e15a744ae0043afc_F0_dwelling_0,    !- Name
    0,                        !- Direction of Relative North
    0,                        !- X Origin
    0,                        !- Y Origin
    0,                        !- Z Origin
    1,                        !- Type
    1,                        !- Multiplier
    autocalculate,            !- Ceiling Height
    148.6497802734375,        !- Volume
    autocalculate,            !- Floor Area
    ,                         !- Zone Inside Convection Algorithm
    ,                         !- Zone Outside Convection Algorithm
    Yes;                      !- Part of Total Floor Area

ZONE,
    e15a744ae0043afc_F0_dwelling_1,    !- Name
    0,                        !- Direction of Relative North
    0,                        !- X Origin
    0,                        !- Y Origin
    0,                        !- Z Origin
    1,                        !- Type
    1,                        !- Multiplier
    autocalculate,            !- Ceiling Height
    152.84326171875,          !- Volume
    autocalculate,            !- Floor Area
    ,                         !- Zone Inside Convection Algorithm
    ,                         !- Zone Outside Convection Algorithm
    Yes;                      !- Part of Total Floor Area

ZONE,
    e15a744ae0043afc_F0_dwelling_2,    !- Name
    0,                        !- Direction of Relative North
    0,                        !- X Origin
    0,                        !- Y Origin
    0,                        !- Z Origin
    1,                        !- Type
    1,                        !- Multiplier
    autocalculate,            !- Ceiling Height
    92.010498046875,          !- Volume
    autocalculate,            !- Floor Area
    ,                         !- Zone Inside Convection Algorithm
    ,                         !- Zone Outside Convection Algorithm
    Yes;                      !- Part of Total Floor Area

BUILDINGSURFACE:DETAILED,
    Block e15a744ae0043afc_0 Storey 0 Wall 0001,    !- Name
    wall,                     !- Surface Type
    EU_wall_Construction,     !- Construction Name
    e15a744ae0043afc_F0_dwelling_0,    !- Zone Name
    ,                         !- Space Name
    outdoors,                 !- Outside Boundary Condition
    ,                         !- Outside Boundary Condition Object
    SunExposed,               !- Sun Exposure
    WindExposed,              !- Wind Exposure
    autocalculate,            !- View Factor to Ground
    autocalculate,            !- Number of Vertices
    440210.98148173187,       !- Vertex 1 Xcoordinate
    4478831.317308778,        !- Vertex 1 Ycoordinate
    3,                        !- Vertex 1 Zcoordinate
    440210.98148173187,       !- Vertex 2 Xcoordinate
    4478831.317308778,        !- Vertex 2 Ycoordinate
    0,                        !- Vertex 2 Zcoordinate
    440216.47920020577,       !- Vertex 3 Xcoordinate
    4478823.214261513,        !- Vertex 3 Ycoordinate
    0,                        !- Vertex 3 Zcoordinate
    440216.47920020577,       !- Vertex 4 Xcoordinate
    4478823.214261513,        !- Vertex 4 Ycoordinate
    3;                        !- Vertex 4 Zcoordinate

BUILDINGSURFACE:DETAILED,
    Block e15a744ae0043afc_0 Storey 0 Wall 0002,    !- Name
    wall,                     !- Surface Type
    EU_wall_Construction,     !- Construction Name
    e15a744ae0043afc_F0_dwelling_0,    !- Zone Name
    ,                         !- Space Name
    outdoors,                 !- Outside Boundary Condition
    ,                         !- Outside Boundary Condition Object
    SunExposed,               !- Sun Exposure
    WindExposed,              !- Wind Exposure
    autocalculate,            !- View Factor to Ground
    autocalculate,            !- Number of Vertices
    440216.47920020577,       !- Vertex 1 Xcoordinate
    4478823.214261513,        !- Vertex 1 Ycoordinate
    3,                        !- Vertex 1 Zcoordinate
    440216.47920020577,       !- Vertex 2 Xcoordinate
    4478823.214261513,        !- Vertex 2 Ycoordinate
    0,                        !- Vertex 2 Zcoordinate
    440218.33918613894,       !- Vertex 3 Xcoordinate
    4478824.653605777,        !- Vertex 3 Ycoordinate
    0,                        !- Vertex 3 Zcoordinate
    440218.33918613894,       !- Vertex 4 Xcoordinate
    4478824.653605777,        !- Vertex 4 Ycoordinate
    3;                        !- Vertex 4 Zcoordinate

BUILDINGSURFACE:DETAILED,
    Block e15a744ae0043afc_0 Storey 0 Wall 0003,    !- Name
    wall,                     !- Surface Type
    EU_wall_Construction,     !- Construction Name
    e15a744ae0043afc_F0_dwelling_0,    !- Zone Name
    ,                         !- Space Name
    outdoors,                 !- Outside Boundary Condition
    ,                         !- Outside Boundary Condition Object
    SunExposed,               !- Sun Exposure
    WindExposed,              !- Wind Exposure
    autocalculate,            !- View Factor to Ground
    autocalculate,            !- Number of Vertices
    440218.33918613894,       !- Vertex 1 Xcoordinate
    4478824.653605777,        !- Vertex 1 Ycoordinate
    3,                        !- Vertex 1 Zcoordinate
    440218.33918613894,       !- Vertex 2 Xcoordinate
    4478824.653605777,        !- Vertex 2 Ycoordinate
    0,                        !- Vertex 2 Zcoordinate
    440220.6314776833,        !- Vertex 3 Xcoordinate
    4478826.444093073,        !- Vertex 3 Ycoordinate
    0,                        !- Vertex 3 Zcoordinate
    440220.6314776833,        !- Vertex 4 Xcoordinate
    4478826.444093073,        !- Vertex 4 Ycoordinate
    3;                        !- Vertex 4 Zcoordinate

BUILDINGSURFACE:DETAILED,
    Block e15a744ae0043afc_0 Storey 0 Wall 0005,    !- Name
    wall,                     !- Surface Type
    EU_wall_Construction,     !- Construction Name
    e15a744ae0043afc_F0_dwelling_0,    !- Zone Name
    ,                         !- Space Name
    outdoors,                 !- Outside Boundary Condition
    ,                         !- Outside Boundary Condition Object
    SunExposed,               !- Sun Exposure
    WindExposed,              !- Wind Exposure
    autocalculate,            !- View Factor to Ground
    autocalculate,            !- Number of Vertices
    440214.8192650303,        !- Vertex 1 Xcoordinate
    4478834.274877003,        !- Vertex 1 Ycoordinate
    3,                        !- Vertex 1 Zcoordinate
    440214.8192650303,        !- Vertex 2 Xcoordinate
    4478834.274877003,        !- Vertex 2 Ycoordinate
    0,                        !- Vertex 2 Zcoordinate
    440210.93970844056,       !- Vertex 3 Xcoordinate
    4478831.395347625,        !- Vertex 3 Ycoordinate
    0,                        !- Vertex 3 Zcoordinate
    440210.93970844056,       !- Vertex 4 Xcoordinate
    4478831.395347625,        !- Vertex 4 Ycoordinate
    3;                        !- Vertex 4 Zcoordinate

BUILDINGSURFACE:DETAILED,
    Block e15a744ae0043afc_0 Storey 0 Wall 0006,    !- Name
    wall,                     !- Surface Type
    EU_wall_Construction,     !- Construction Name
    e15a744ae0043afc_F0_dwelling_0,    !- Zone Name
    ,                         !- Space Name
    outdoors,                 !- Outside Boundary Condition
    ,                         !- Outside Boundary Condition Object
    SunExposed,               !- Sun Exposure
    WindExposed,              !- Wind Exposure
    autocalculate,            !- View Factor to Ground
    autocalculate,            !- Number of Vertices
    440210.93970844056,       !- Vertex 1 Xcoordinate
    4478831.395347625,        !- Vertex 1 Ycoordinate
    3,                        !- Vertex 1 Zcoordinate
    440210.93970844056,       !- Vertex 2 Xcoordinate
    4478831.395347625,        !- Vertex 2 Ycoordinate
    0,                        !- Vertex 2 Zcoordinate
    440210.98148173187,       !- Vertex 3 Xcoordinate
    4478831.317308778,        !- Vertex 3 Ycoordinate
    0,                        !- Vertex 3 Zcoordinate
    440210.98148173187,       !- Vertex 4 Xcoordinate
    4478831.317308778,        !- Vertex 4 Ycoordinate
    3;                        !- Vertex 4 Zcoordinate

BUILDINGSURFACE:DETAILED,
    Block e15a744ae0043afc_0 Storey 0 Floor 0001,    !- Name
    floor,                    !- Surface Type
    EU_floor_Construction,    !- Construction Name
    e15a744ae0043afc_F0_dwelling_0,    !- Zone Name
    ,                         !- Space Name
    ground,                   !- Outside Boundary Condition
    ,                         !- Outside Boundary Condition Object
    NoSun,                    !- Sun Exposure
    NoWind,                   !- Wind Exposure
    autocalculate,            !- View Factor to Ground
    autocalculate,            !- Number of Vertices
    440214.8192650303,        !- Vertex 1 Xcoordinate
    4478834.274877003,        !- Vertex 1 Ycoordinate
    0,                        !- Vertex 1 Zcoordinate
    440220.6314776833,        !- Vertex 2 Xcoordinate
    4478826.444093073,        !- Vertex 2 Ycoordinate
    0,                        !- Vertex 2 Zcoordinate
    440218.33918613894,       !- Vertex 3 Xcoordinate
    4478824.653605777,        !- Vertex 3 Ycoordinate
    0,                        !- Vertex 3 Zcoordinate
    440216.47920020577,       !- Vertex 4 Xcoordinate
    4478823.214261513,        !- Vertex 4 Ycoordinate
    0,                        !- Vertex 4 Zcoordinate
    440210.98148173187,       !- Vertex 5 Xcoordinate
    4478831.317308778,        !- Vertex 5 Ycoordinate
    0,                        !- Vertex 5 Zcoordinate
    440210.93970844056,       !- Vertex 6 Xcoordinate
    4478831.395347625,        !- Vertex 6 Ycoordinate
    0;                        !- Vertex 6 Zcoordinate

BUILDINGSURFACE:DETAILED,
    Block e15a744ae0043afc_0 Storey 0 Roof 0001,    !- Name
    roof,                     !- Surface Type
    EU_roof_Construction,     !- Construction Name
    e15a744ae0043afc_F0_dwelling_0,    !- Zone Name
    ,                         !- Space Name
    outdoors,                 !- Outside Boundary Condition
    ,                         !- Outside Boundary Condition Object
    SunExposed,               !- Sun Exposure
    WindExposed,              !- Wind Exposure
    autocalculate,            !- View Factor to Ground
    autocalculate,            !- Number of Vertices
    440218.33918613894,       !- Vertex 1 Xcoordinate
    4478824.653605777,        !- Vertex 1 Ycoordinate
    3,                        !- Vertex 1 Zcoordinate
    440220.6314776833,        !- Vertex 2 Xcoordinate
    4478826.444093073,        !- Vertex 2 Ycoordinate
    3,                        !- Vertex 2 Zcoordinate
    440214.8192650303,        !- Vertex 3 Xcoordinate
    4478834.274877003,        !- Vertex 3 Ycoordinate
    3,                        !- Vertex 3 Zcoordinate
    440210.93970844056,       !- Vertex 4 Xcoordinate
    4478831.395347625,        !- Vertex 4 Ycoordinate
    3,                        !- Vertex 4 Zcoordinate
    440210.98148173187,       !- Vertex 5 Xcoordinate
    4478831.317308778,        !- Vertex 5 Ycoordinate
    3,                        !- Vertex 5 Zcoordinate
    440216.47920020577,       !- Vertex 6 Xcoordinate
    4478823.214261513,        !- Vertex 6 Ycoordinate
    3;                        !- Vertex 6 Zcoordinate

BUILDINGSURFACE:DETAILED,
    Block e15a744ae0043afc_1 Storey 0 Wall 0001,    !- Name
    wall,                     !- Surface Type
    EU_wall_Construction,     !- Construction Name
    e15a744ae0043afc_F0_dwelling_1,    !- Zone Name
    ,                         !- Space Name
    outdoors,                 !- Outside Boundary Condition
    ,                         !- Outside Boundary Condition Object
    SunExposed,               !- Sun Exposure
    WindExposed,              !- Wind Exposure
    autocalculate,            !- View Factor to Ground
    autocalculate,            !- Number of Vertices
    440219.0423144712,        !- Vertex 1 Xcoordinate
    4478837.40935762,         !- Vertex 1 Ycoordinate
    3,                        !- Vertex 1 Zcoordinate
    440219.0423144712,        !- Vertex 2 Xcoordinate
    4478837.40935762,         !- Vertex 2 Ycoordinate
    0,                        !- Vertex 2 Zcoordinate
    440214.8192650303,        !- Vertex 3 Xcoordinate
    4478834.274877003,        !- Vertex 3 Ycoordinate
    0,                        !- Vertex 3 Zcoordinate
    440214.8192650303,        !- Vertex 4 Xcoordinate
    4478834.274877003,        !- Vertex 4 Ycoordinate
    3;                        !- Vertex 4 Zcoordinate

BUILDINGSURFACE:DETAILED,
    Block e15a744ae0043afc_1 Storey 0 Wall 0003,    !- Name
    wall,                     !- Surface Type
    EU_wall_Construction,     !- Construction Name
    e15a744ae0043afc_F0_dwelling_1,    !- Zone Name
    ,                         !- Space Name
    outdoors,                 !- Outside Boundary Condition
    ,                         !- Outside Boundary Condition Object
    SunExposed,               !- Sun Exposure
    WindExposed,              !- Wind Exposure
    autocalculate,            !- View Factor to Ground
    autocalculate,            !- Number of Vertices
    440220.6314776833,        !- Vertex 1 Xcoordinate
    4478826.444093073,        !- Vertex 1 Ycoordinate
    3,                        !- Vertex 1 Zcoordinate
    440220.6314776833,        !- Vertex 2 Xcoordinate
    4478826.444093073,        !- Vertex 2 Ycoordinate
    0,                        !- Vertex 2 Zcoordinate
    440224.77742492827,       !- Vertex 3 Xcoordinate
    4478829.682453343,        !- Vertex 3 Ycoordinate
    0,                        !- Vertex 3 Zcoordinate
    440224.77742492827,       !- Vertex 4 Xcoordinate
    4478829.682453343,        !- Vertex 4 Ycoordinate
    3;                        !- Vertex 4 Zcoordinate

BUILDINGSURFACE:DETAILED,
    Block e15a744ae0043afc_1 Storey 0 Floor 0001,    !- Name
    floor,                    !- Surface Type
    EU_floor_Construction,    !- Construction Name
    e15a744ae0043afc_F0_dwelling_1,    !- Zone Name
    ,                         !- Space Name
    ground,                   !- Outside Boundary Condition
    ,                         !- Outside Boundary Condition Object
    NoSun,                    !- Sun Exposure
    NoWind,                   !- Wind Exposure
    autocalculate,            !- View Factor to Ground
    autocalculate,            !- Number of Vertices
    440219.0423144712,        !- Vertex 1 Xcoordinate
    4478837.40935762,         !- Vertex 1 Ycoordinate
    0,                        !- Vertex 1 Zcoordinate
    440224.77742492827,       !- Vertex 2 Xcoordinate
    4478829.682453343,        !- Vertex 2 Ycoordinate
    0,                        !- Vertex 2 Zcoordinate
    440220.6314776833,        !- Vertex 3 Xcoordinate
    4478826.444093073,        !- Vertex 3 Ycoordinate
    0,                        !- Vertex 3 Zcoordinate
    440214.8192650303,        !- Vertex 4 Xcoordinate
    4478834.274877003,        !- Vertex 4 Ycoordinate
    0;                        !- Vertex 4 Zcoordinate

BUILDINGSURFACE:DETAILED,
    Block e15a744ae0043afc_1 Storey 0 Roof 0001,    !- Name
    roof,                     !- Surface Type
    EU_roof_Construction,     !- Construction Name
    e15a744ae0043afc_F0_dwelling_1,    !- Zone Name
    ,                         !- Space Name
    outdoors,                 !- Outside Boundary Condition
    ,                         !- Outside Boundary Condition Object
    SunExposed,               !- Sun Exposure
    WindExposed,              !- Wind Exposure
    autocalculate,            !- View Factor to Ground
    autocalculate,            !- Number of Vertices
    440224.77742492827,       !- Vertex 1 Xcoordinate
    4478829.682453343,        !- Vertex 1 Ycoordinate
    3,                        !- Vertex 1 Zcoordinate
    440219.0423144712,        !- Vertex 2 Xcoordinate
    4478837.40935762,         !- Vertex 2 Ycoordinate
    3,                        !- Vertex 2 Zcoordinate
    440214.8192650303,        !- Vertex 3 Xcoordinate
    4478834.274877003,        !- Vertex 3 Ycoordinate
    3,                        !- Vertex 3 Zcoordinate
    440220.6314776833,        !- Vertex 4 Xcoordinate
    4478826.444093073,        !- Vertex 4 Ycoordinate
    3;                        !- Vertex 4 Zcoordinate

BUILDINGSURFACE:DETAILED,
    Block e15a744ae0043afc_2 Storey 0 Wall 0001,    !- Name
    wall,                     !- Surface Type
    EU_wall_Construction,     !- Construction Name
    e15a744ae0043afc_F0_dwelling_2,    !- Zone Name
    ,                         !- Space Name
    outdoors,                 !- Outside Boundary Condition
    ,                         !- Outside Boundary Condition Object
    SunExposed,               !- Sun Exposure
    WindExposed,              !- Wind Exposure
    autocalculate,            !- View Factor to Ground
    autocalculate,            !- Number of Vertices
    440223.26536391256,       !- Vertex 1 Xcoordinate
    4478840.5438382365,       !- Vertex 1 Ycoordinate
    3,                        !- Vertex 1 Zcoordinate
    440223.26536391256,       !- Vertex 2 Xcoordinate
    4478840.5438382365,       !- Vertex 2 Ycoordinate
    0,                        !- Vertex 2 Zcoordinate
    440219.0423144712,        !- Vertex 3 Xcoordinate
    4478837.40935762,         !- Vertex 3 Ycoordinate
    0,                        !- Vertex 3 Zcoordinate
    440219.0423144712,        !- Vertex 4 Xcoordinate
    4478837.40935762,         !- Vertex 4 Ycoordinate
    3;                        !- Vertex 4 Zcoordinate

BUILDINGSURFACE:DETAILED,
    Block e15a744ae0043afc_2 Storey 0 Wall 0003,    !- Name
    wall,                     !- Surface Type
    EU_wall_Construction,     !- Construction Name
    e15a744ae0043afc_F0_dwelling_2,    !- Zone Name
    ,                         !- Space Name
    outdoors,                 !- Outside Boundary Condition
    ,                         !- Outside Boundary Condition Object
    SunExposed,               !- Sun Exposure
    WindExposed,              !- Wind Exposure
    autocalculate,            !- View Factor to Ground
    autocalculate,            !- Number of Vertices
    440224.77742492827,       !- Vertex 1 Xcoordinate
    4478829.682453343,        !- Vertex 1 Ycoordinate
    3,                        !- Vertex 1 Zcoordinate
    440224.77742492827,       !- Vertex 2 Xcoordinate
    4478829.682453343,        !- Vertex 2 Ycoordinate
    0,                        !- Vertex 2 Zcoordinate
    440225.66863278765,       !- Vertex 3 Xcoordinate
    4478830.378567392,        !- Vertex 3 Ycoordinate
    0,                        !- Vertex 3 Zcoordinate
    440225.66863278765,       !- Vertex 4 Xcoordinate
    4478830.378567392,        !- Vertex 4 Ycoordinate
    3;                        !- Vertex 4 Zcoordinate

BUILDINGSURFACE:DETAILED,
    Block e15a744ae0043afc_2 Storey 0 Wall 0004,    !- Name
    wall,                     !- Surface Type
    EU_wall_Construction,     !- Construction Name
    e15a744ae0043afc_F0_dwelling_2,    !- Zone Name
    ,                         !- Space Name
    outdoors,                 !- Outside Boundary Condition
    ,                         !- Outside Boundary Condition Object
    SunExposed,               !- Sun Exposure
    WindExposed,              !- Wind Exposure
    autocalculate,            !- View Factor to Ground
    autocalculate,            !- Number of Vertices
    440225.66863278765,       !- Vertex 1 Xcoordinate
    4478830.378567392,        !- Vertex 1 Ycoordinate
    3,                        !- Vertex 1 Zcoordinate
    440225.66863278765,       !- Vertex 2 Xcoordinate
    4478830.378567392,        !- Vertex 2 Ycoordinate
    0,                        !- Vertex 2 Zcoordinate
    440223.26536391256,       !- Vertex 3 Xcoordinate
    4478840.5438382365,       !- Vertex 3 Ycoordinate
    0,                        !- Vertex 3 Zcoordinate
    440223.26536391256,       !- Vertex 4 Xcoordinate
    4478840.5438382365,       !- Vertex 4 Ycoordinate
    3;                        !- Vertex 4 Zcoordinate

BUILDINGSURFACE:DETAILED,
    Block e15a744ae0043afc_2 Storey 0 Floor 0001,    !- Name
    floor,                    !- Surface Type
    EU_floor_Construction,    !- Construction Name
    e15a744ae0043afc_F0_dwelling_2,    !- Zone Name
    ,                         !- Space Name
    ground,                   !- Outside Boundary Condition
    ,                         !- Outside Boundary Condition Object
    NoSun,                    !- Sun Exposure
    NoWind,                   !- Wind Exposure
    autocalculate,            !- View Factor to Ground
    autocalculate,            !- Number of Vertices
    440223.26536391256,       !- Vertex 1 Xcoordinate
    4478840.5438382365,       !- Vertex 1 Ycoordinate
    0,                        !- Vertex 1 Zcoordinate
    440225.66863278765,       !- Vertex 2 Xcoordinate
    4478830.378567392,        !- Vertex 2 Ycoordinate
    0,                        !- Vertex 2 Zcoordinate
    440224.77742492827,       !- Vertex 3 Xcoordinate
    4478829.682453343,        !- Vertex 3 Ycoordinate
    0,                        !- Vertex 3 Zcoordinate
    440219.0423144712,        !- Vertex 4 Xcoordinate
    4478837.40935762,         !- Vertex 4 Ycoordinate
    0;                        !- Vertex 4 Zcoordinate

BUILDINGSURFACE:DETAILED,
    Block e15a744ae0043afc_2 Storey 0 Roof 0001,    !- Name
    roof,                     !- Surface Type
    EU_roof_Construction,     !- Construction Name
    e15a744ae0043afc_F0_dwelling_2,    !- Zone Name
    ,                         !- Space Name
    outdoors,                 !- Outside Boundary Condition
    ,                         !- Outside Boundary Condition Object
    SunExposed,               !- Sun Exposure
    WindExposed,              !- Wind Exposure
    autocalculate,            !- View Factor to Ground
    autocalculate,            !- Number of Vertices
    440225.66863278765,       !- Vertex 1 Xcoordinate
    4478830.378567392,        !- Vertex 1 Ycoordinate
    3,                        !- Vertex 1 Zcoordinate
    440223.26536391256,       !- Vertex 2 Xcoordinate
    4478840.5438382365,       !- Vertex 2 Ycoordinate
    3,                        !- Vertex 2 Zcoordinate
    440219.0423144712,        !- Vertex 3 Xcoordinate
    4478837.40935762,         !- Vertex 3 Ycoordinate
    3,                        !- Vertex 3 Zcoordinate
    440224.77742492827,       !- Vertex 4 Xcoordinate
    4478829.682453343,        !- Vertex 4 Ycoordinate
    3;                        !- Vertex 4 Zcoordinate

BUILDINGSURFACE:DETAILED,
    Block e15a744ae0043afc_0 Storey 0 Wall 0004_1,    !- Name
    wall,                     !- Surface Type
    EU_wall_Construction,     !- Construction Name
    e15a744ae0043afc_F0_dwelling_0,    !- Zone Name
    ,                         !- Space Name
    outdoors,                 !- Outside Boundary Condition
    ,                         !- Outside Boundary Condition Object
    SunExposed,               !- Sun Exposure
    WindExposed,              !- Wind Exposure
    autocalculate,            !- View Factor to Ground
    autocalculate,            !- Number of Vertices
    440220.63147768436,       !- Vertex 1 Xcoordinate
    4478826.444093073,        !- Vertex 1 Ycoordinate
    3,                        !- Vertex 1 Zcoordinate
    440220.63147768436,       !- Vertex 2 Xcoordinate
    4478826.444093073,        !- Vertex 2 Ycoordinate
    0,                        !- Vertex 2 Zcoordinate
    440214.81926503096,       !- Vertex 3 Xcoordinate
    4478834.274877003,        !- Vertex 3 Ycoordinate
    0,                        !- Vertex 3 Zcoordinate
    440214.81926503096,       !- Vertex 4 Xcoordinate
    4478834.274877003,        !- Vertex 4 Ycoordinate
    3;                        !- Vertex 4 Zcoordinate

BUILDINGSURFACE:DETAILED,
    Block e15a744ae0043afc_1 Storey 0 Wall 0002_1,    !- Name
    wall,                     !- Surface Type
    EU_wall_Construction,     !- Construction Name
    e15a744ae0043afc_F0_dwelling_1,    !- Zone Name
    ,                         !- Space Name
    outdoors,                 !- Outside Boundary Condition
    ,                         !- Outside Boundary Condition Object
    SunExposed,               !- Sun Exposure
    WindExposed,              !- Wind Exposure
    autocalculate,            !- View Factor to Ground
    autocalculate,            !- Number of Vertices
    440214.81926503015,       !- Vertex 1 Xcoordinate
    4478834.274877003,        !- Vertex 1 Ycoordinate
    3,                        !- Vertex 1 Zcoordinate
    440214.81926503015,       !- Vertex 2 Xcoordinate
    4478834.274877003,        !- Vertex 2 Ycoordinate
    0,                        !- Vertex 2 Zcoordinate
    440220.63147768297,       !- Vertex 3 Xcoordinate
    4478826.444093073,        !- Vertex 3 Ycoordinate
    0,                        !- Vertex 3 Zcoordinate
    440220.63147768297,       !- Vertex 4 Xcoordinate
    4478826.444093073,        !- Vertex 4 Ycoordinate
    3;                        !- Vertex 4 Zcoordinate

BUILDINGSURFACE:DETAILED,
    Block e15a744ae0043afc_1 Storey 0 Wall 0004_1,    !- Name
    wall,                     !- Surface Type
    EU_wall_Construction,     !- Construction Name
    e15a744ae0043afc_F0_dwelling_1,    !- Zone Name
    ,                         !- Space Name
    surface,                  !- Outside Boundary Condition
    Block e15a744ae0043afc_2 Storey 0 Wall 0002_1,    !- Outside Boundary Condition Object
    NoSun,                    !- Sun Exposure
    NoWind,                   !- Wind Exposure
    autocalculate,            !- View Factor to Ground
    autocalculate,            !- Number of Vertices
    440224.7774249278,        !- Vertex 1 Xcoordinate
    4478829.682453343,        !- Vertex 1 Ycoordinate
    3,                        !- Vertex 1 Zcoordinate
    440224.7774249278,        !- Vertex 2 Xcoordinate
    4478829.682453343,        !- Vertex 2 Ycoordinate
    0,                        !- Vertex 2 Zcoordinate
    440219.0423144712,        !- Vertex 3 Xcoordinate
    4478837.40935762,         !- Vertex 3 Ycoordinate
    0,                        !- Vertex 3 Zcoordinate
    440219.0423144712,        !- Vertex 4 Xcoordinate
    4478837.40935762,         !- Vertex 4 Ycoordinate
    3;                        !- Vertex 4 Zcoordinate

BUILDINGSURFACE:DETAILED,
    Block e15a744ae0043afc_2 Storey 0 Wall 0002_1,    !- Name
    wall,                     !- Surface Type
    EU_wall_Construction,     !- Construction Name
    e15a744ae0043afc_F0_dwelling_2,    !- Zone Name
    ,                         !- Space Name
    surface,                  !- Outside Boundary Condition
    Block e15a744ae0043afc_1 Storey 0 Wall 0004_1,    !- Outside Boundary Condition Object
    NoSun,                    !- Sun Exposure
    NoWind,                   !- Wind Exposure
    autocalculate,            !- View Factor to Ground
    autocalculate,            !- Number of Vertices
    440219.0423144712,        !- Vertex 1 Xcoordinate
    4478837.40935762,         !- Vertex 1 Ycoordinate
    3,                        !- Vertex 1 Zcoordinate
    440219.0423144712,        !- Vertex 2 Xcoordinate
    4478837.40935762,         !- Vertex 2 Ycoordinate
    0,                        !- Vertex 2 Zcoordinate
    440224.7774249278,        !- Vertex 3 Xcoordinate
    4478829.682453343,        !- Vertex 3 Ycoordinate
    0,                        !- Vertex 3 Zcoordinate
    440224.7774249278,        !- Vertex 4 Xcoordinate
    4478829.682453343,        !- Vertex 4 Ycoordinate
    3;                        !- Vertex 4 Zcoordinate

INTERNALMASS,
    e15a744ae0043afc_F0_dwelling_0_EU_InternalMass,    !- Name
    EU_InternalMass_Construction,    !- Construction Name
    e15a744ae0043afc_F0_dwelling_0,    !- Zone or ZoneList Name
    ,                         !- Space or SpaceList Name
    49.54980028816617;        !- Surface Area

INTERNALMASS,
    e15a744ae0043afc_F0_dwelling_1_EU_InternalMass,    !- Name
    EU_InternalMass_Construction,    !- Construction Name
    e15a744ae0043afc_F0_dwelling_1,    !- Zone or ZoneList Name
    ,                         !- Space or SpaceList Name
    50.94787347622054;        !- Surface Area

INTERNALMASS,
    e15a744ae0043afc_F0_dwelling_2_EU_InternalMass,    !- Name
    EU_InternalMass_Construction,    !- Construction Name
    e15a744ae0043afc_F0_dwelling_2,    !- Zone or ZoneList Name
    ,                         !- Space or SpaceList Name
    30.670004924772538;       !- Surface Area

OTHEREQUIPMENT,
    EU_Step8_InternalGain_e15a744ae0043afc_F0_dwelling_0_f000,    !- Name
    Electricity,              !- Fuel Type
    e15a744ae0043afc_F0_dwelling_0,    !- Zone or ZoneList or Space or SpaceList Name
    EU_Step8_GainSchedule_e15a744ae0043afc_F0_dwelling_0_f000,    !- Schedule Name
    Watts/Area,               !- Design Level Calculation Method
    ,                         !- Design Level
    1,                        !- Power per Zone Floor Area
    ,                         !- Power per Person
    0,                        !- Fraction Latent
    0,                        !- Fraction Radiant
    0,                        !- Fraction Lost
    0,                        !- Carbon Dioxide Generation Rate
    EU_Step8_InternalGains;    !- EndUse Subcategory

OTHEREQUIPMENT,
    EU_Step8_InternalGain_e15a744ae0043afc_F0_dwelling_1_f000,    !- Name
    Electricity,              !- Fuel Type
    e15a744ae0043afc_F0_dwelling_1,    !- Zone or ZoneList or Space or SpaceList Name
    EU_Step8_GainSchedule_e15a744ae0043afc_F0_dwelling_1_f000,    !- Schedule Name
    Watts/Area,               !- Design Level Calculation Method
    ,                         !- Design Level
    1,                        !- Power per Zone Floor Area
    ,                         !- Power per Person
    0,                        !- Fraction Latent
    0,                        !- Fraction Radiant
    0,                        !- Fraction Lost
    0,                        !- Carbon Dioxide Generation Rate
    EU_Step8_InternalGains;    !- EndUse Subcategory

OTHEREQUIPMENT,
    EU_Step8_InternalGain_e15a744ae0043afc_F0_dwelling_2_f000,    !- Name
    Electricity,              !- Fuel Type
    e15a744ae0043afc_F0_dwelling_2,    !- Zone or ZoneList or Space or SpaceList Name
    EU_Step8_GainSchedule_e15a744ae0043afc_F0_dwelling_2_f000,    !- Schedule Name
    Watts/Area,               !- Design Level Calculation Method
    ,                         !- Design Level
    1,                        !- Power per Zone Floor Area
    ,                         !- Power per Person
    0,                        !- Fraction Latent
    0,                        !- Fraction Radiant
    0,                        !- Fraction Lost
    0,                        !- Carbon Dioxide Generation Rate
    EU_Step8_InternalGains;    !- EndUse Subcategory

ZONEVENTILATION:DESIGNFLOWRATE,
    EU_ConstantAir_e15a744ae0043afc_F0_dwelling_0,    !- Name
    e15a744ae0043afc_F0_dwelling_0,    !- Zone or ZoneList or Space or SpaceList Name
    EU_AlwaysOn,              !- Schedule Name
    AirChanges/Hour,          !- Design Flow Rate Calculation Method
    ,                         !- Design Flow Rate
    ,                         !- Flow Rate per Floor Area
    ,                         !- Flow Rate per Person
    0.4807043927943379,       !- Air Changes per Hour
    Natural,                  !- Ventilation Type
    0,                        !- Fan Pressure Rise
    1,                        !- Fan Total Efficiency
    1,                        !- Constant Term Coefficient
    0,                        !- Temperature Term Coefficient
    0,                        !- Velocity Term Coefficient
    0,                        !- Velocity Squared Term Coefficient
    -100,                     !- Minimum Indoor Temperature
    ,                         !- Minimum Indoor Temperature Schedule Name
    100,                      !- Maximum Indoor Temperature
    ,                         !- Maximum Indoor Temperature Schedule Name
    -100,                     !- Delta Temperature
    ,                         !- Delta Temperature Schedule Name
    -100,                     !- Minimum Outdoor Temperature
    ,                         !- Minimum Outdoor Temperature Schedule Name
    100,                      !- Maximum Outdoor Temperature
    ,                         !- Maximum Outdoor Temperature Schedule Name
    40;                       !- Maximum Wind Speed

ZONEVENTILATION:DESIGNFLOWRATE,
    EU_ConstantAir_e15a744ae0043afc_F0_dwelling_1,    !- Name
    e15a744ae0043afc_F0_dwelling_1,    !- Zone or ZoneList or Space or SpaceList Name
    EU_AlwaysOn,              !- Schedule Name
    AirChanges/Hour,          !- Design Flow Rate Calculation Method
    ,                         !- Design Flow Rate
    ,                         !- Flow Rate per Floor Area
    ,                         !- Flow Rate per Person
    0.4807043927943379,       !- Air Changes per Hour
    Natural,                  !- Ventilation Type
    0,                        !- Fan Pressure Rise
    1,                        !- Fan Total Efficiency
    1,                        !- Constant Term Coefficient
    0,                        !- Temperature Term Coefficient
    0,                        !- Velocity Term Coefficient
    0,                        !- Velocity Squared Term Coefficient
    -100,                     !- Minimum Indoor Temperature
    ,                         !- Minimum Indoor Temperature Schedule Name
    100,                      !- Maximum Indoor Temperature
    ,                         !- Maximum Indoor Temperature Schedule Name
    -100,                     !- Delta Temperature
    ,                         !- Delta Temperature Schedule Name
    -100,                     !- Minimum Outdoor Temperature
    ,                         !- Minimum Outdoor Temperature Schedule Name
    100,                      !- Maximum Outdoor Temperature
    ,                         !- Maximum Outdoor Temperature Schedule Name
    40;                       !- Maximum Wind Speed

ZONEVENTILATION:DESIGNFLOWRATE,
    EU_ConstantAir_e15a744ae0043afc_F0_dwelling_2,    !- Name
    e15a744ae0043afc_F0_dwelling_2,    !- Zone or ZoneList or Space or SpaceList Name
    EU_AlwaysOn,              !- Schedule Name
    AirChanges/Hour,          !- Design Flow Rate Calculation Method
    ,                         !- Design Flow Rate
    ,                         !- Flow Rate per Floor Area
    ,                         !- Flow Rate per Person
    0.4807043927943379,       !- Air Changes per Hour
    Natural,                  !- Ventilation Type
    0,                        !- Fan Pressure Rise
    1,                        !- Fan Total Efficiency
    1,                        !- Constant Term Coefficient
    0,                        !- Temperature Term Coefficient
    0,                        !- Velocity Term Coefficient
    0,                        !- Velocity Squared Term Coefficient
    -100,                     !- Minimum Indoor Temperature
    ,                         !- Minimum Indoor Temperature Schedule Name
    100,                      !- Maximum Indoor Temperature
    ,                         !- Maximum Indoor Temperature Schedule Name
    -100,                     !- Delta Temperature
    ,                         !- Delta Temperature Schedule Name
    -100,                     !- Minimum Outdoor Temperature
    ,                         !- Minimum Outdoor Temperature Schedule Name
    100,                      !- Maximum Outdoor Temperature
    ,                         !- Maximum Outdoor Temperature Schedule Name
    40;                       !- Maximum Wind Speed

HVACTEMPLATE:THERMOSTAT,
    EU_HeatOnly_e15a744ae0043afc_F0_dwelling_0,    !- Name
    ,                         !- Heating Setpoint Schedule Name
    20,                       !- Constant Heating Setpoint
    ,                         !- Cooling Setpoint Schedule Name
    50;                       !- Constant Cooling Setpoint

HVACTEMPLATE:THERMOSTAT,
    EU_HeatOnly_e15a744ae0043afc_F0_dwelling_1,    !- Name
    ,                         !- Heating Setpoint Schedule Name
    20,                       !- Constant Heating Setpoint
    ,                         !- Cooling Setpoint Schedule Name
    50;                       !- Constant Cooling Setpoint

HVACTEMPLATE:THERMOSTAT,
    EU_HeatOnly_e15a744ae0043afc_F0_dwelling_2,    !- Name
    ,                         !- Heating Setpoint Schedule Name
    20,                       !- Constant Heating Setpoint
    ,                         !- Cooling Setpoint Schedule Name
    50;                       !- Constant Cooling Setpoint

HVACTEMPLATE:ZONE:IDEALLOADSAIRSYSTEM,
    e15a744ae0043afc_F0_dwelling_0,    !- Zone Name
    EU_HeatOnly_e15a744ae0043afc_F0_dwelling_0,    !- Template Thermostat Name
    EU_AlwaysOn,              !- System Availability Schedule Name
    50,                       !- Maximum Heating Supply Air Temperature
    13,                       !- Minimum Cooling Supply Air Temperature
    0.0156,                   !- Maximum Heating Supply Air Humidity Ratio
    0.0077,                   !- Minimum Cooling Supply Air Humidity Ratio
    NoLimit,                  !- Heating Limit
    ,                         !- Maximum Heating Air Flow Rate
    ,                         !- Maximum Sensible Heating Capacity
    NoLimit,                  !- Cooling Limit
    ,                         !- Maximum Cooling Air Flow Rate
    ,                         !- Maximum Total Cooling Capacity
    EU_AlwaysOn,              !- Heating Availability Schedule Name
    EU_CoolingOff,            !- Cooling Availability Schedule Name
    ConstantSensibleHeatRatio,    !- Dehumidification Control Type
    0.7,                      !- Cooling Sensible Heat Ratio
    60,                       !- Dehumidification Setpoint
    None,                     !- Humidification Control Type
    30,                       !- Humidification Setpoint
    None,                     !- Outdoor Air Method
    0.00944,                  !- Outdoor Air Flow Rate per Person
    0.0,                      !- Outdoor Air Flow Rate per Zone Floor Area
    0,                        !- Outdoor Air Flow Rate per Zone
    ,                         !- Design Specification Outdoor Air Object Name
    None,                     !- Demand Controlled Ventilation Type
    NoEconomizer,             !- Outdoor Air Economizer Type
    None,                     !- Heat Recovery Type
    0.70,                     !- Sensible Heat Recovery Effectiveness
    0.65;                     !- Latent Heat Recovery Effectiveness

HVACTEMPLATE:ZONE:IDEALLOADSAIRSYSTEM,
    e15a744ae0043afc_F0_dwelling_1,    !- Zone Name
    EU_HeatOnly_e15a744ae0043afc_F0_dwelling_1,    !- Template Thermostat Name
    EU_AlwaysOn,              !- System Availability Schedule Name
    50,                       !- Maximum Heating Supply Air Temperature
    13,                       !- Minimum Cooling Supply Air Temperature
    0.0156,                   !- Maximum Heating Supply Air Humidity Ratio
    0.0077,                   !- Minimum Cooling Supply Air Humidity Ratio
    NoLimit,                  !- Heating Limit
    ,                         !- Maximum Heating Air Flow Rate
    ,                         !- Maximum Sensible Heating Capacity
    NoLimit,                  !- Cooling Limit
    ,                         !- Maximum Cooling Air Flow Rate
    ,                         !- Maximum Total Cooling Capacity
    EU_AlwaysOn,              !- Heating Availability Schedule Name
    EU_CoolingOff,            !- Cooling Availability Schedule Name
    ConstantSensibleHeatRatio,    !- Dehumidification Control Type
    0.7,                      !- Cooling Sensible Heat Ratio
    60,                       !- Dehumidification Setpoint
    None,                     !- Humidification Control Type
    30,                       !- Humidification Setpoint
    None,                     !- Outdoor Air Method
    0.00944,                  !- Outdoor Air Flow Rate per Person
    0.0,                      !- Outdoor Air Flow Rate per Zone Floor Area
    0,                        !- Outdoor Air Flow Rate per Zone
    ,                         !- Design Specification Outdoor Air Object Name
    None,                     !- Demand Controlled Ventilation Type
    NoEconomizer,             !- Outdoor Air Economizer Type
    None,                     !- Heat Recovery Type
    0.70,                     !- Sensible Heat Recovery Effectiveness
    0.65;                     !- Latent Heat Recovery Effectiveness

HVACTEMPLATE:ZONE:IDEALLOADSAIRSYSTEM,
    e15a744ae0043afc_F0_dwelling_2,    !- Zone Name
    EU_HeatOnly_e15a744ae0043afc_F0_dwelling_2,    !- Template Thermostat Name
    EU_AlwaysOn,              !- System Availability Schedule Name
    50,                       !- Maximum Heating Supply Air Temperature
    13,                       !- Minimum Cooling Supply Air Temperature
    0.0156,                   !- Maximum Heating Supply Air Humidity Ratio
    0.0077,                   !- Minimum Cooling Supply Air Humidity Ratio
    NoLimit,                  !- Heating Limit
    ,                         !- Maximum Heating Air Flow Rate
    ,                         !- Maximum Sensible Heating Capacity
    NoLimit,                  !- Cooling Limit
    ,                         !- Maximum Cooling Air Flow Rate
    ,                         !- Maximum Total Cooling Capacity
    EU_AlwaysOn,              !- Heating Availability Schedule Name
    EU_CoolingOff,            !- Cooling Availability Schedule Name
    ConstantSensibleHeatRatio,    !- Dehumidification Control Type
    0.7,                      !- Cooling Sensible Heat Ratio
    60,                       !- Dehumidification Setpoint
    None,                     !- Humidification Control Type
    30,                       !- Humidification Setpoint
    None,                     !- Outdoor Air Method
    0.00944,                  !- Outdoor Air Flow Rate per Person
    0.0,                      !- Outdoor Air Flow Rate per Zone Floor Area
    0,                        !- Outdoor Air Flow Rate per Zone
    ,                         !- Design Specification Outdoor Air Object Name
    None,                     !- Demand Controlled Ventilation Type
    NoEconomizer,             !- Outdoor Air Economizer Type
    None,                     !- Heat Recovery Type
    0.70,                     !- Sensible Heat Recovery Effectiveness
    0.65;                     !- Latent Heat Recovery Effectiveness

SIZING:ZONE,
    e15a744ae0043afc_F0_dwelling_0,    !- Zone or ZoneList Name
    SupplyAirTemperature,     !- Zone Cooling Design Supply Air Temperature Input Method
    13,                       !- Zone Cooling Design Supply Air Temperature
    ,                         !- Zone Cooling Design Supply Air Temperature Difference
    SupplyAirTemperature,     !- Zone Heating Design Supply Air Temperature Input Method
    50,                       !- Zone Heating Design Supply Air Temperature
    ,                         !- Zone Heating Design Supply Air Temperature Difference
    0.008,                    !- Zone Cooling Design Supply Air Humidity Ratio
    0.008,                    !- Zone Heating Design Supply Air Humidity Ratio
    ,                         !- Design Specification Outdoor Air Object Name
    ,                         !- Zone Heating Sizing Factor
    ,                         !- Zone Cooling Sizing Factor
    DesignDay,                !- Cooling Design Air Flow Method
    0,                        !- Cooling Design Air Flow Rate
    0.000762,                 !- Cooling Minimum Air Flow per Zone Floor Area
    0,                        !- Cooling Minimum Air Flow
    0.2,                      !- Cooling Minimum Air Flow Fraction
    DesignDay,                !- Heating Design Air Flow Method
    0,                        !- Heating Design Air Flow Rate
    0.002032,                 !- Heating Maximum Air Flow per Zone Floor Area
    0.1415762,                !- Heating Maximum Air Flow
    0.3,                      !- Heating Maximum Air Flow Fraction
    ,                         !- Design Specification Zone Air Distribution Object Name
    No,                       !- Account for Dedicated Outdoor Air System
    NeutralSupplyAir,         !- Dedicated Outdoor Air System Control Strategy
    autosize,                 !- Dedicated Outdoor Air Low Setpoint Temperature for Design
    autosize,                 !- Dedicated Outdoor Air High Setpoint Temperature for Design
    Sensible Load Only No Latent Load,    !- Zone Load Sizing Method
    HumidityRatioDifference,    !- Zone Latent Cooling Design Supply Air Humidity Ratio Input Method
    ,                         !- Zone Dehumidification Design Supply Air Humidity Ratio
    0.005,                    !- Zone Cooling Design Supply Air Humidity Ratio Difference
    HumidityRatioDifference,    !- Zone Latent Heating Design Supply Air Humidity Ratio Input Method
    ,                         !- Zone Humidification Design Supply Air Humidity Ratio
    0.005;                    !- Zone Humidification Design Supply Air Humidity Ratio Difference

SIZING:ZONE,
    e15a744ae0043afc_F0_dwelling_1,    !- Zone or ZoneList Name
    SupplyAirTemperature,     !- Zone Cooling Design Supply Air Temperature Input Method
    13,                       !- Zone Cooling Design Supply Air Temperature
    ,                         !- Zone Cooling Design Supply Air Temperature Difference
    SupplyAirTemperature,     !- Zone Heating Design Supply Air Temperature Input Method
    50,                       !- Zone Heating Design Supply Air Temperature
    ,                         !- Zone Heating Design Supply Air Temperature Difference
    0.008,                    !- Zone Cooling Design Supply Air Humidity Ratio
    0.008,                    !- Zone Heating Design Supply Air Humidity Ratio
    ,                         !- Design Specification Outdoor Air Object Name
    ,                         !- Zone Heating Sizing Factor
    ,                         !- Zone Cooling Sizing Factor
    DesignDay,                !- Cooling Design Air Flow Method
    0,                        !- Cooling Design Air Flow Rate
    0.000762,                 !- Cooling Minimum Air Flow per Zone Floor Area
    0,                        !- Cooling Minimum Air Flow
    0.2,                      !- Cooling Minimum Air Flow Fraction
    DesignDay,                !- Heating Design Air Flow Method
    0,                        !- Heating Design Air Flow Rate
    0.002032,                 !- Heating Maximum Air Flow per Zone Floor Area
    0.1415762,                !- Heating Maximum Air Flow
    0.3,                      !- Heating Maximum Air Flow Fraction
    ,                         !- Design Specification Zone Air Distribution Object Name
    No,                       !- Account for Dedicated Outdoor Air System
    NeutralSupplyAir,         !- Dedicated Outdoor Air System Control Strategy
    autosize,                 !- Dedicated Outdoor Air Low Setpoint Temperature for Design
    autosize,                 !- Dedicated Outdoor Air High Setpoint Temperature for Design
    Sensible Load Only No Latent Load,    !- Zone Load Sizing Method
    HumidityRatioDifference,    !- Zone Latent Cooling Design Supply Air Humidity Ratio Input Method
    ,                         !- Zone Dehumidification Design Supply Air Humidity Ratio
    0.005,                    !- Zone Cooling Design Supply Air Humidity Ratio Difference
    HumidityRatioDifference,    !- Zone Latent Heating Design Supply Air Humidity Ratio Input Method
    ,                         !- Zone Humidification Design Supply Air Humidity Ratio
    0.005;                    !- Zone Humidification Design Supply Air Humidity Ratio Difference

SIZING:ZONE,
    e15a744ae0043afc_F0_dwelling_2,    !- Zone or ZoneList Name
    SupplyAirTemperature,     !- Zone Cooling Design Supply Air Temperature Input Method
    13,                       !- Zone Cooling Design Supply Air Temperature
    ,                         !- Zone Cooling Design Supply Air Temperature Difference
    SupplyAirTemperature,     !- Zone Heating Design Supply Air Temperature Input Method
    50,                       !- Zone Heating Design Supply Air Temperature
    ,                         !- Zone Heating Design Supply Air Temperature Difference
    0.008,                    !- Zone Cooling Design Supply Air Humidity Ratio
    0.008,                    !- Zone Heating Design Supply Air Humidity Ratio
    ,                         !- Design Specification Outdoor Air Object Name
    ,                         !- Zone Heating Sizing Factor
    ,                         !- Zone Cooling Sizing Factor
    DesignDay,                !- Cooling Design Air Flow Method
    0,                        !- Cooling Design Air Flow Rate
    0.000762,                 !- Cooling Minimum Air Flow per Zone Floor Area
    0,                        !- Cooling Minimum Air Flow
    0.2,                      !- Cooling Minimum Air Flow Fraction
    DesignDay,                !- Heating Design Air Flow Method
    0,                        !- Heating Design Air Flow Rate
    0.002032,                 !- Heating Maximum Air Flow per Zone Floor Area
    0.1415762,                !- Heating Maximum Air Flow
    0.3,                      !- Heating Maximum Air Flow Fraction
    ,                         !- Design Specification Zone Air Distribution Object Name
    No,                       !- Account for Dedicated Outdoor Air System
    NeutralSupplyAir,         !- Dedicated Outdoor Air System Control Strategy
    autosize,                 !- Dedicated Outdoor Air Low Setpoint Temperature for Design
    autosize,                 !- Dedicated Outdoor Air High Setpoint Temperature for Design
    Sensible Load Only No Latent Load,    !- Zone Load Sizing Method
    HumidityRatioDifference,    !- Zone Latent Cooling Design Supply Air Humidity Ratio Input Method
    ,                         !- Zone Dehumidification Design Supply Air Humidity Ratio
    0.005,                    !- Zone Cooling Design Supply Air Humidity Ratio Difference
    HumidityRatioDifference,    !- Zone Latent Heating Design Supply Air Humidity Ratio Input Method
    ,                         !- Zone Humidification Design Supply Air Humidity Ratio
    0.005;                    !- Zone Humidification Design Supply Air Humidity Ratio Difference

OUTPUT:VARIABLE,
    *,                        !- Key Value
    Zone Ideal Loads Zone Total Heating Energy,    !- Variable Name
    Hourly;                   !- Reporting Frequency

OUTPUT:SQLITE,
    SimpleAndTabular,         !- Option Type
    UseOutputControlTableStyle;    !- Unit Conversion for Tabular Data