!- Windows Line endings 

Version,
    23.1;                     !- Version Identifier

SimulationControl,
    Yes,                      !- Do Zone Sizing Calculation
    Yes,                      !- Do System Sizing Calculation
    Yes,                      !- Do Plant Sizing Calculation
    No,                       !- Run Simulation for Sizing Periods
    Yes,                      !- Run Simulation for Weather File Run Periods
    No,                       !- Do HVAC Sizing Simulation for Sizing Periods
    1;                        !- Maximum Number of HVAC Sizing Simulation Passes

Building,
    EU S2 Campaign,           !- Name
    0,                        !- North Axis
    City,                     !- Terrain
    ,                         !- Loads Convergence Tolerance Value
    ,                         !- Temperature Convergence Tolerance Value
    FullExterior,             !- Solar Distribution
    ,                         !- Maximum Number of Warmup Days
    ;                         !- Minimum Number of Warmup Days

ShadowCalculation,
    PolygonClipping,          !- Shading Calculation Method
    Periodic,                 !- Shading Calculation Update Frequency Method
    1;                        !- Shading Calculation Update Frequency

HeatBalanceAlgorithm,
    ConductionTransferFunction,    !- Algorithm
    200,                      !- Surface Temperature Upper Limit
    0.1,                      !- Minimum Surface Convection Heat Transfer Coefficient Value
    10000000;                 !- Maximum Surface Convection Heat Transfer Coefficient Value

Timestep,
    12;                       !- Number of Timesteps per Hour

Site:Location,
    Bologna,                  !- Name
    44.5,                     !- Latitude
    11.25,                    !- Longitude
    1,                        !- Time Zone
    37;                       !- Elevation

SizingPeriod:WeatherFileDays,
    AnnualSizingPeriod,       !- Name
    1,                        !- Begin Month
    1,                        !- Begin Day of Month
    12,                       !- End Month
    31,                       !- End Day of Month
    Monday,                   !- Day of Week for Start Day
    No,                       !- Use Weather File Daylight Saving Period
    No;                       !- Use Weather File Rain and Snow Indicators

RunPeriod,
    RunPeriod1,               !- Name
    1,                        !- Begin Month
    1,                        !- Begin Day of Month
    ,                         !- Begin Year
    12,                       !- End Month
    31,                       !- End Day of Month
    ,                         !- End Year
    Sunday,                   !- Day of Week for Start Day
    No,                       !- Use Weather File Holidays and Special Days
    No,                       !- Use Weather File Daylight Saving Period
    No,                       !- Apply Weekend Holiday Rule
    Yes,                      !- Use Weather File Rain Indicators
    Yes;                      !- Use Weather File Snow Indicators

ScheduleTypeLimits,
    Any Number;               !- Name

SCHEDULETYPELIMITS,
    EU_Step8_AnyNumber_Wm2,    !- Name
    ,                         !- Lower Limit Value
    ,                         !- Upper Limit Value
    Continuous,               !- Numeric Type
    Dimensionless;            !- Unit Type

SCHEDULE:CONSTANT,
    EU_AlwaysOn,              !- Name
    ,                         !- Schedule Type Limits Name
    1;                        !- Hourly Value

SCHEDULE:CONSTANT,
    EU_CoolingOff,            !- Name
    ,                         !- Schedule Type Limits Name
    0;                        !- Hourly Value

SCHEDULE:FILE,
    EU_Step8_GainSchedule_2d767abdf9f08afe_F0_dwelling_0_f000,    !- Name
    EU_Step8_AnyNumber_Wm2,    !- Schedule Type Limits Name
    ../../schedules/2d767abdf9f08afe/2d767abdf9f08afe_F0_dwelling_0_f000_gain.csv,    !- File Name
    1,                        !- Column Number
    0,                        !- Rows to Skip at Top
    8760,                     !- Number of Hours of Data
    Comma,                    !- Column Separator
    No,                       !- Interpolate to Timestep
    60,                       !- Minutes per Item
    Yes;                      !- Adjust Schedule for Daylight Savings

SCHEDULE:FILE,
    EU_Step8_GainSchedule_2d767abdf9f08afe_F0_dwelling_1_f000,    !- Name
    EU_Step8_AnyNumber_Wm2,    !- Schedule Type Limits Name
    ../../schedules/2d767abdf9f08afe/2d767abdf9f08afe_F0_dwelling_1_f000_gain.csv,    !- File Name
    1,                        !- Column Number
    0,                        !- Rows to Skip at Top
    8760,                     !- Number of Hours of Data
    Comma,                    !- Column Separator
    No,                       !- Interpolate to Timestep
    60,                       !- Minutes per Item
    Yes;                      !- Adjust Schedule for Daylight Savings

SCHEDULE:FILE,
    EU_Step8_GainSchedule_2d767abdf9f08afe_F0_dwelling_2_f000,    !- Name
    EU_Step8_AnyNumber_Wm2,    !- Schedule Type Limits Name
    ../../schedules/2d767abdf9f08afe/2d767abdf9f08afe_F0_dwelling_2_f000_gain.csv,    !- File Name
    1,                        !- Column Number
    0,                        !- Rows to Skip at Top
    8760,                     !- Number of Hours of Data
    Comma,                    !- Column Separator
    No,                       !- Interpolate to Timestep
    60,                       !- Minutes per Item
    Yes;                      !- Adjust Schedule for Daylight Savings

SCHEDULE:FILE,
    EU_Step8_GainSchedule_2d767abdf9f08afe_F1_dwelling_0_f000,    !- Name
    EU_Step8_AnyNumber_Wm2,    !- Schedule Type Limits Name
    ../../schedules/2d767abdf9f08afe/2d767abdf9f08afe_F1_dwelling_0_f000_gain.csv,    !- File Name
    1,                        !- Column Number
    0,                        !- Rows to Skip at Top
    8760,                     !- Number of Hours of Data
    Comma,                    !- Column Separator
    No,                       !- Interpolate to Timestep
    60,                       !- Minutes per Item
    Yes;                      !- Adjust Schedule for Daylight Savings

SCHEDULE:FILE,
    EU_Step8_GainSchedule_2d767abdf9f08afe_F1_dwelling_1_f000,    !- Name
    EU_Step8_AnyNumber_Wm2,    !- Schedule Type Limits Name
    ../../schedules/2d767abdf9f08afe/2d767abdf9f08afe_F1_dwelling_1_f000_gain.csv,    !- File Name
    1,                        !- Column Number
    0,                        !- Rows to Skip at Top
    8760,                     !- Number of Hours of Data
    Comma,                    !- Column Separator
    No,                       !- Interpolate to Timestep
    60,                       !- Minutes per Item
    Yes;                      !- Adjust Schedule for Daylight Savings

SCHEDULE:FILE,
    EU_Step8_GainSchedule_2d767abdf9f08afe_F1_dwelling_2_f000,    !- Name
    EU_Step8_AnyNumber_Wm2,    !- Schedule Type Limits Name
    ../../schedules/2d767abdf9f08afe/2d767abdf9f08afe_F1_dwelling_2_f000_gain.csv,    !- File Name
    1,                        !- Column Number
    0,                        !- Rows to Skip at Top
    8760,                     !- Number of Hours of Data
    Comma,                    !- Column Separator
    No,                       !- Interpolate to Timestep
    60,                       !- Minutes per Item
    Yes;                      !- Adjust Schedule for Daylight Savings

SCHEDULE:FILE,
    EU_Step8_GainSchedule_2d767abdf9f08afe_F2_dwelling_0_f000,    !- Name
    EU_Step8_AnyNumber_Wm2,    !- Schedule Type Limits Name
    ../../schedules/2d767abdf9f08afe/2d767abdf9f08afe_F2_dwelling_0_f000_gain.csv,    !- File Name
    1,                        !- Column Number
    0,                        !- Rows to Skip at Top
    8760,                     !- Number of Hours of Data
    Comma,                    !- Column Separator
    No,                       !- Interpolate to Timestep
    60,                       !- Minutes per Item
    Yes;                      !- Adjust Schedule for Daylight Savings

SCHEDULE:FILE,
    EU_Step8_GainSchedule_2d767abdf9f08afe_F2_dwelling_1_f000,    !- Name
    EU_Step8_AnyNumber_Wm2,    !- Schedule Type Limits Name
    ../../schedules/2d767abdf9f08afe/2d767abdf9f08afe_F2_dwelling_1_f000_gain.csv,    !- File Name
    1,                        !- Column Number
    0,                        !- Rows to Skip at Top
    8760,                     !- Number of Hours of Data
    Comma,                    !- Column Separator
    No,                       !- Interpolate to Timestep
    60,                       !- Minutes per Item
    Yes;                      !- Adjust Schedule for Daylight Savings

SCHEDULE:FILE,
    EU_Step8_GainSchedule_2d767abdf9f08afe_F2_dwelling_2_f000,    !- Name
    EU_Step8_AnyNumber_Wm2,    !- Schedule Type Limits Name
    ../../schedules/2d767abdf9f08afe/2d767abdf9f08afe_F2_dwelling_2_f000_gain.csv,    !- File Name
    1,                        !- Column Number
    0,                        !- Rows to Skip at Top
    8760,                     !- Number of Hours of Data
    Comma,                    !- Column Separator
    No,                       !- Interpolate to Timestep
    60,                       !- Minutes per Item
    Yes;                      !- Adjust Schedule for Daylight Savings

SCHEDULE:FILE,
    EU_Step8_GainSchedule_2d767abdf9f08afe_F3_dwelling_0_f000,    !- Name
    EU_Step8_AnyNumber_Wm2,    !- Schedule Type Limits Name
    ../../schedules/2d767abdf9f08afe/2d767abdf9f08afe_F3_dwelling_0_f000_gain.csv,    !- File Name
    1,                        !- Column Number
    0,                        !- Rows to Skip at Top
    8760,                     !- Number of Hours of Data
    Comma,                    !- Column Separator
    No,                       !- Interpolate to Timestep
    60,                       !- Minutes per Item
    Yes;                      !- Adjust Schedule for Daylight Savings

SCHEDULE:FILE,
    EU_Step8_GainSchedule_2d767abdf9f08afe_F3_dwelling_1_f000,    !- Name
    EU_Step8_AnyNumber_Wm2,    !- Schedule Type Limits Name
    ../../schedules/2d767abdf9f08afe/2d767abdf9f08afe_F3_dwelling_1_f000_gain.csv,    !- File Name
    1,                        !- Column Number
    0,                        !- Rows to Skip at Top
    8760,                     !- Number of Hours of Data
    Comma,                    !- Column Separator
    No,                       !- Interpolate to Timestep
    60,                       !- Minutes per Item
    Yes;                      !- Adjust Schedule for Daylight Savings

SCHEDULE:FILE,
    EU_Step8_GainSchedule_2d767abdf9f08afe_F3_dwelling_2_f000,    !- Name
    EU_Step8_AnyNumber_Wm2,    !- Schedule Type Limits Name
    ../../schedules/2d767abdf9f08afe/2d767abdf9f08afe_F3_dwelling_2_f000_gain.csv,    !- File Name
    1,                        !- Column Number
    0,                        !- Rows to Skip at Top
    8760,                     !- Number of Hours of Data
    Comma,                    !- Column Separator
    No,                       !- Interpolate to Timestep
    60,                       !- Minutes per Item
    Yes;                      !- Adjust Schedule for Daylight Savings

SCHEDULE:FILE,
    EU_Step8_GainSchedule_2d767abdf9f08afe_F4_dwelling_0_f000,    !- Name
    EU_Step8_AnyNumber_Wm2,    !- Schedule Type Limits Name
    ../../schedules/2d767abdf9f08afe/2d767abdf9f08afe_F4_dwelling_0_f000_gain.csv,    !- File Name
    1,                        !- Column Number
    0,                        !- Rows to Skip at Top
    8760,                     !- Number of Hours of Data
    Comma,                    !- Column Separator
    No,                       !- Interpolate to Timestep
    60,                       !- Minutes per Item
    Yes;                      !- Adjust Schedule for Daylight Savings

SCHEDULE:FILE,
    EU_Step8_GainSchedule_2d767abdf9f08afe_F4_dwelling_1_f000,    !- Name
    EU_Step8_AnyNumber_Wm2,    !- Schedule Type Limits Name
    ../../schedules/2d767abdf9f08afe/2d767abdf9f08afe_F4_dwelling_1_f000_gain.csv,    !- File Name
    1,                        !- Column Number
    0,                        !- Rows to Skip at Top
    8760,                     !- Number of Hours of Data
    Comma,                    !- Column Separator
    No,                       !- Interpolate to Timestep
    60,                       !- Minutes per Item
    Yes;                      !- Adjust Schedule for Daylight Savings

SCHEDULE:FILE,
    EU_Step8_GainSchedule_2d767abdf9f08afe_F5_dwelling_0_f000,    !- Name
    EU_Step8_AnyNumber_Wm2,    !- Schedule Type Limits Name
    ../../schedules/2d767abdf9f08afe/2d767abdf9f08afe_F5_dwelling_0_f000_gain.csv,    !- File Name
    1,                        !- Column Number
    0,                        !- Rows to Skip at Top
    8760,                     !- Number of Hours of Data
    Comma,                    !- Column Separator
    No,                       !- Interpolate to Timestep
    60,                       !- Minutes per Item
    Yes;                      !- Adjust Schedule for Daylight Savings

SCHEDULE:FILE,
    EU_Step8_GainSchedule_2d767abdf9f08afe_F5_dwelling_1_f000,    !- Name
    EU_Step8_AnyNumber_Wm2,    !- Schedule Type Limits Name
    ../../schedules/2d767abdf9f08afe/2d767abdf9f08afe_F5_dwelling_1_f000_gain.csv,    !- File Name
    1,                        !- Column Number
    0,                        !- Rows to Skip at Top
    8760,                     !- Number of Hours of Data
    Comma,                    !- Column Separator
    No,                       !- Interpolate to Timestep
    60,                       !- Minutes per Item
    Yes;                      !- Adjust Schedule for Daylight Savings

MATERIAL,
    EU_InternalMass_Material,    !- Name
    MediumRough,              !- Roughness
    0.1,                      !- Thickness
    1,                        !- Conductivity
    1800,                     !- Density
    900,                      !- Specific Heat
    0.9,                      !- Thermal Absorptance
    0.7,                      !- Solar Absorptance
    0.7;                      !- Visible Absorptance

MATERIAL:NOMASS,
    EU_wall_NoMass,           !- Name
    MediumRough,              !- Roughness
    0.9058281353670552,       !- Thermal Resistance
    0.9,                      !- Thermal Absorptance
    0.7,                      !- Solar Absorptance
    0.7;                      !- Visible Absorptance

MATERIAL:NOMASS,
    EU_roof_NoMass,           !- Name
    MediumRough,              !- Roughness
    3.759304e-01,             !- Thermal Resistance
    0.9,                      !- Thermal Absorptance
    0.7,                      !- Solar Absorptance
    0.7;                      !- Visible Absorptance

MATERIAL:NOMASS,
    EU_floor_NoMass,          !- Name
    MediumRough,              !- Roughness
    0.6711395814079611,       !- Thermal Resistance
    0.9,                      !- Thermal Absorptance
    0.7,                      !- Solar Absorptance
    0.7;                      !- Visible Absorptance

CONSTRUCTION,
    EU_wall_Construction,     !- Name
    EU_wall_NoMass;           !- Outside Layer

CONSTRUCTION,
    EU_roof_Construction,     !- Name
    EU_roof_NoMass;           !- Outside Layer

CONSTRUCTION,
    EU_floor_Construction,    !- Name
    EU_floor_NoMass;          !- Outside Layer

CONSTRUCTION,
    EU_InternalMass_Construction,    !- Name
    EU_InternalMass_Material;    !- Outside Layer

GlobalGeometryRules,
    UpperLeftCorner,          !- Starting Vertex Position
    CounterClockWise,         !- Vertex Entry Direction
    World;                    !- Coordinate System

ZONE,
    2d767abdf9f08afe_F0_dwelling_0,    !- Name
    0,                        !- Direction of Relative North
    0,                        !- X Origin
    0,                        !- Y Origin
    0,                        !- Z Origin
    1,                        !- Type
    1,                        !- Multiplier
    autocalculate,            !- Ceiling Height
    411.62255859375,          !- Volume
    autocalculate,            !- Floor Area
    ,                         !- Zone Inside Convection Algorithm
    ,                         !- Zone Outside Convection Algorithm
    Yes;                      !- Part of Total Floor Area

ZONE,
    2d767abdf9f08afe_F1_dwelling_0,    !- Name
    0,                        !- Direction of Relative North
    0,                        !- X Origin
    0,                        !- Y Origin
    0,                        !- Z Origin
    1,                        !- Type
    1,                        !- Multiplier
    autocalculate,            !- Ceiling Height
    411.62255859375,          !- Volume
    autocalculate,            !- Floor Area
    ,                         !- Zone Inside Convection Algorithm
    ,                         !- Zone Outside Convection Algorithm
    Yes;                      !- Part of Total Floor Area

ZONE,
    2d767abdf9f08afe_F2_dwelling_0,    !- Name
    0,                        !- Direction of Relative North
    0,                        !- X Origin
    0,                        !- Y Origin
    0,                        !- Z Origin
    1,                        !- Type
    1,                        !- Multiplier
    autocalculate,            !- Ceiling Height
    411.62255859375,          !- Volume
    autocalculate,            !- Floor Area
    ,                         !- Zone Inside Convection Algorithm
    ,                         !- Zone Outside Convection Algorithm
    Yes;                      !- Part of Total Floor Area

ZONE,
    2d767abdf9f08afe_F3_dwelling_0,    !- Name
    0,                        !- Direction of Relative North
    0,                        !- X Origin
    0,                        !- Y Origin
    0,                        !- Z Origin
    1,                        !- Type
    1,                        !- Multiplier
    autocalculate,            !- Ceiling Height
    411.62255859375,          !- Volume
    autocalculate,            !- Floor Area
    ,                         !- Zone Inside Convection Algorithm
    ,                         !- Zone Outside Convection Algorithm
    Yes;                      !- Part of Total Floor Area

ZONE,
    2d767abdf9f08afe_F4_dwelling_0,    !- Name
    0,                        !- Direction of Relative North
    0,                        !- X Origin
    0,                        !- Y Origin
    0,                        !- Z Origin
    1,                        !- Type
    1,                        !- Multiplier
    autocalculate,            !- Ceiling Height
    411.62255859375,          !- Volume
    autocalculate,            !- Floor Area
    ,                         !- Zone Inside Convection Algorithm
    ,                         !- Zone Outside Convection Algorithm
    Yes;                      !- Part of Total Floor Area

ZONE,
    2d767abdf9f08afe_F5_dwelling_0,    !- Name
    0,                        !- Direction of Relative North
    0,                        !- X Origin
    0,                        !- Y Origin
    0,                        !- Z Origin
    1,                        !- Type
    1,                        !- Multiplier
    autocalculate,            !- Ceiling Height
    411.62255859375,          !- Volume
    autocalculate,            !- Floor Area
    ,                         !- Zone Inside Convection Algorithm
    ,                         !- Zone Outside Convection Algorithm
    Yes;                      !- Part of Total Floor Area

ZONE,
    2d767abdf9f08afe_F0_dwelling_1,    !- Name
    0,                        !- Direction of Relative North
    0,                        !- X Origin
    0,                        !- Y Origin
    0,                        !- Z Origin
    1,                        !- Type
    1,                        !- Multiplier
    autocalculate,            !- Ceiling Height
    411.605712890625,         !- Volume
    autocalculate,            !- Floor Area
    ,                         !- Zone Inside Convection Algorithm
    ,                         !- Zone Outside Convection Algorithm
    Yes;                      !- Part of Total Floor Area

ZONE,
    2d767abdf9f08afe_F1_dwelling_1,    !- Name
    0,                        !- Direction of Relative North
    0,                        !- X Origin
    0,                        !- Y Origin
    0,                        !- Z Origin
    1,                        !- Type
    1,                        !- Multiplier
    autocalculate,            !- Ceiling Height
    411.6064453125,           !- Volume
    autocalculate,            !- Floor Area
    ,                         !- Zone Inside Convection Algorithm
    ,                         !- Zone Outside Convection Algorithm
    Yes;                      !- Part of Total Floor Area

ZONE,
    2d767abdf9f08afe_F2_dwelling_1,    !- Name
    0,                        !- Direction of Relative North
    0,                        !- X Origin
    0,                        !- Y Origin
    0,                        !- Z Origin
    1,                        !- Type
    1,                        !- Multiplier
    autocalculate,            !- Ceiling Height
    411.6064453125,           !- Volume
    autocalculate,            !- Floor Area
    ,                         !- Zone Inside Convection Algorithm
    ,                         !- Zone Outside Convection Algorithm
    Yes;                      !- Part of Total Floor Area

ZONE,
    2d767abdf9f08afe_F3_dwelling_1,    !- Name
    0,                        !- Direction of Relative North
    0,                        !- X Origin
    0,                        !- Y Origin
    0,                        !- Z Origin
    1,                        !- Type
    1,                        !- Multiplier
    autocalculate,            !- Ceiling Height
    411.6064453125,           !- Volume
    autocalculate,            !- Floor Area
    ,                         !- Zone Inside Convection Algorithm
    ,                         !- Zone Outside Convection Algorithm
    Yes;                      !- Part of Total Floor Area

ZONE,
    2d767abdf9f08afe_F4_dwelling_1,    !- Name
    0,                        !- Direction of Relative North
    0,                        !- X Origin
    0,                        !- Y Origin
    0,                        !- Z Origin
    1,                        !- Type
    1,                        !- Multiplier
    autocalculate,            !- Ceiling Height
    411.6064453125,           !- Volume
    autocalculate,            !- Floor Area
    ,                         !- Zone Inside Convection Algorithm
    ,                         !- Zone Outside Convection Algorithm
    Yes;                      !- Part of Total Floor Area

ZONE,
    2d767abdf9f08afe_F5_dwelling_1,    !- Name
    0,                        !- Direction of Relative North
    0,                        !- X Origin
    0,                        !- Y Origin
    0,                        !- Z Origin
    1,                        !- Type
    1,                        !- Multiplier
    autocalculate,            !- Ceiling Height
    411.6064453125,           !- Volume
    autocalculate,            !- Floor Area
    ,                         !- Zone Inside Convection Algorithm
    ,                         !- Zone Outside Convection Algorithm
    Yes;                      !- Part of Total Floor Area

ZONE,
    2d767abdf9f08afe_F0_dwelling_2,    !- Name
    0,                        !- Direction of Relative North
    0,                        !- X Origin
    0,                        !- Y Origin
    0,                        !- Z Origin
    1,                        !- Type
    1,                        !- Multiplier
    autocalculate,            !- Ceiling Height
    411.62548828125,          !- Volume
    autocalculate,            !- Floor Area
    ,                         !- Zone Inside Convection Algorithm
    ,                         !- Zone Outside Convection Algorithm
    Yes;                      !- Part of Total Floor Area

ZONE,
    2d767abdf9f08afe_F1_dwelling_2,    !- Name
    0,                        !- Direction of Relative North
    0,                        !- X Origin
    0,                        !- Y Origin
    0,                        !- Z Origin
    1,                        !- Type
    1,                        !- Multiplier
    autocalculate,            !- Ceiling Height
    411.626220703125,         !- Volume
    autocalculate,            !- Floor Area
    ,                         !- Zone Inside Convection Algorithm
    ,                         !- Zone Outside Convection Algorithm
    Yes;                      !- Part of Total Floor Area

ZONE,
    2d767abdf9f08afe_F2_dwelling_2,    !- Name
    0,                        !- Direction of Relative North
    0,                        !- X Origin
    0,                        !- Y Origin
    0,                        !- Z Origin
    1,                        !- Type
    1,                        !- Multiplier
    autocalculate,            !- Ceiling Height
    411.626220703125,         !- Volume
    autocalculate,            !- Floor Area
    ,                         !- Zone Inside Convection Algorithm
    ,                         !- Zone Outside Convection Algorithm
    Yes;                      !- Part of Total Floor Area

ZONE,
    2d767abdf9f08afe_F3_dwelling_2,    !- Name
    0,                        !- Direction of Relative North
    0,                        !- X Origin
    0,                        !- Y Origin
    0,                        !- Z Origin
    1,                        !- Type
    1,                        !- Multiplier
    autocalculate,            !- Ceiling Height
    411.626220703125,         !- Volume
    autocalculate,            !- Floor Area
    ,                         !- Zone Inside Convection Algorithm
    ,                         !- Zone Outside Convection Algorithm
    Yes;                      !- Part of Total Floor Area

BUILDINGSURFACE:DETAILED,
    Block 2d767abdf9f08afe_0 Storey 0 Wall 0001,    !- Name
    wall,                     !- Surface Type
    EU_wall_Construction,     !- Construction Name
    2d767abdf9f08afe_F0_dwelling_0,    !- Zone Name
    ,                         !- Space Name
    outdoors,                 !- Outside Boundary Condition
    ,                         !- Outside Boundary Condition Object
    SunExposed,               !- Sun Exposure
    WindExposed,              !- Wind Exposure
    autocalculate,            !- View Factor to Ground
    autocalculate,            !- Number of Vertices
    686667.309,               !- Vertex 1 Xcoordinate
    4928513.778,              !- Vertex 1 Ycoordinate
    3,                        !- Vertex 1 Zcoordinate
    686667.309,               !- Vertex 2 Xcoordinate
    4928513.778,              !- Vertex 2 Ycoordinate
    0,                        !- Vertex 2 Zcoordinate
    686657.003,               !- Vertex 3 Xcoordinate
    4928517.331,              !- Vertex 3 Ycoordinate
    0,                        !- Vertex 3 Zcoordinate
    686657.003,               !- Vertex 4 Xcoordinate
    4928517.331,              !- Vertex 4 Ycoordinate
    3;                        !- Vertex 4 Zcoordinate

BUILDINGSURFACE:DETAILED,
    Block 2d767abdf9f08afe_0 Storey 0 Wall 0003,    !- Name
    wall,                     !- Surface Type
    EU_wall_Construction,     !- Construction Name
    2d767abdf9f08afe_F0_dwelling_0,    !- Zone Name
    ,                         !- Space Name
    outdoors,                 !- Outside Boundary Condition
    ,                         !- Outside Boundary Condition Object
    SunExposed,               !- Sun Exposure
    WindExposed,              !- Wind Exposure
    autocalculate,            !- View Factor to Ground
    autocalculate,            !- Number of Vertices
    686661.106,               !- Vertex 1 Xcoordinate
    4928529.233,              !- Vertex 1 Ycoordinate
    3,                        !- Vertex 1 Zcoordinate
    686661.106,               !- Vertex 2 Xcoordinate
    4928529.233,              !- Vertex 2 Ycoordinate
    0,                        !- Vertex 2 Zcoordinate
    686671.409,               !- Vertex 3 Xcoordinate
    4928525.677,              !- Vertex 3 Ycoordinate
    0,                        !- Vertex 3 Zcoordinate
    686671.409,               !- Vertex 4 Xcoordinate
    4928525.677,              !- Vertex 4 Ycoordinate
    3;                        !- Vertex 4 Zcoordinate

BUILDINGSURFACE:DETAILED,
    Block 2d767abdf9f08afe_0 Storey 0 Wall 0004,    !- Name
    wall,                     !- Surface Type
    EU_wall_Construction,     !- Construction Name
    2d767abdf9f08afe_F0_dwelling_0,    !- Zone Name
    ,                         !- Space Name
    outdoors,                 !- Outside Boundary Condition
    ,                         !- Outside Boundary Condition Object
    SunExposed,               !- Sun Exposure
    WindExposed,              !- Wind Exposure
    autocalculate,            !- View Factor to Ground
    autocalculate,            !- Number of Vertices
    686671.409,               !- Vertex 1 Xcoordinate
    4928525.677,              !- Vertex 1 Ycoordinate
    3,                        !- Vertex 1 Zcoordinate
    686671.409,               !- Vertex 2 Xcoordinate
    4928525.677,              !- Vertex 2 Ycoordinate
    0,                        !- Vertex 2 Zcoordinate
    686667.309,               !- Vertex 3 Xcoordinate
    4928513.778,              !- Vertex 3 Ycoordinate
    0,                        !- Vertex 3 Zcoordinate
    686667.309,               !- Vertex 4 Xcoordinate
    4928513.778,              !- Vertex 4 Ycoordinate
    3;                        !- Vertex 4 Zcoordinate

BUILDINGSURFACE:DETAILED,
    Block 2d767abdf9f08afe_0 Storey 0 Floor 0001,    !- Name
    floor,                    !- Surface Type
    EU_floor_Construction,    !- Construction Name
    2d767abdf9f08afe_F0_dwelling_0,    !- Zone Name
    ,                         !- Space Name
    ground,                   !- Outside Boundary Condition
    ,                         !- Outside Boundary Condition Object
    NoSun,                    !- Sun Exposure
    NoWind,                   !- Wind Exposure
    autocalculate,            !- View Factor to Ground
    autocalculate,            !- Number of Vertices
    686667.309,               !- Vertex 1 Xcoordinate
    4928513.778,              !- Vertex 1 Ycoordinate
    0,                        !- Vertex 1 Zcoordinate
    686671.409,               !- Vertex 2 Xcoordinate
    4928525.677,              !- Vertex 2 Ycoordinate
    0,                        !- Vertex 2 Zcoordinate
    686661.106,               !- Vertex 3 Xcoordinate
    4928529.233,              !- Vertex 3 Ycoordinate
    0,                        !- Vertex 3 Zcoordinate
    686657.003,               !- Vertex 4 Xcoordinate
    4928517.331,              !- Vertex 4 Ycoordinate
    0;                        !- Vertex 4 Zcoordinate

BUILDINGSURFACE:DETAILED,
    Block 2d767abdf9f08afe_0 Storey 1 Wall 0001,    !- Name
    wall,                     !- Surface Type
    EU_wall_Construction,     !- Construction Name
    2d767abdf9f08afe_F1_dwelling_0,    !- Zone Name
    ,                         !- Space Name
    outdoors,                 !- Outside Boundary Condition
    ,                         !- Outside Boundary Condition Object
    SunExposed,               !- Sun Exposure
    WindExposed,              !- Wind Exposure
    autocalculate,            !- View Factor to Ground
    autocalculate,            !- Number of Vertices
    686667.309,               !- Vertex 1 Xcoordinate
    4928513.778,              !- Vertex 1 Ycoordinate
    6,                        !- Vertex 1 Zcoordinate
    686667.309,               !- Vertex 2 Xcoordinate
    4928513.778,              !- Vertex 2 Ycoordinate
    3,                        !- Vertex 2 Zcoordinate
    686657.003,               !- Vertex 3 Xcoordinate
    4928517.331,              !- Vertex 3 Ycoordinate
    3,                        !- Vertex 3 Zcoordinate
    686657.003,               !- Vertex 4 Xcoordinate
    4928517.331,              !- Vertex 4 Ycoordinate
    6;                        !- Vertex 4 Zcoordinate

BUILDINGSURFACE:DETAILED,
    Block 2d767abdf9f08afe_0 Storey 1 Wall 0003,    !- Name
    wall,                     !- Surface Type
    EU_wall_Construction,     !- Construction Name
    2d767abdf9f08afe_F1_dwelling_0,    !- Zone Name
    ,                         !- Space Name
    outdoors,                 !- Outside Boundary Condition
    ,                         !- Outside Boundary Condition Object
    SunExposed,               !- Sun Exposure
    WindExposed,              !- Wind Exposure
    autocalculate,            !- View Factor to Ground
    autocalculate,            !- Number of Vertices
    686661.106,               !- Vertex 1 Xcoordinate
    4928529.233,              !- Vertex 1 Ycoordinate
    6,                        !- Vertex 1 Zcoordinate
    686661.106,               !- Vertex 2 Xcoordinate
    4928529.233,              !- Vertex 2 Ycoordinate
    3,                        !- Vertex 2 Zcoordinate
    686671.409,               !- Vertex 3 Xcoordinate
    4928525.677,              !- Vertex 3 Ycoordinate
    3,                        !- Vertex 3 Zcoordinate
    686671.409,               !- Vertex 4 Xcoordinate
    4928525.677,              !- Vertex 4 Ycoordinate
    6;                        !- Vertex 4 Zcoordinate

BUILDINGSURFACE:DETAILED,
    Block 2d767abdf9f08afe_0 Storey 1 Wall 0004,    !- Name
    wall,                     !- Surface Type
    EU_wall_Construction,     !- Construction Name
    2d767abdf9f08afe_F1_dwelling_0,    !- Zone Name
    ,                         !- Space Name
    outdoors,                 !- Outside Boundary Condition
    ,                         !- Outside Boundary Condition Object
    SunExposed,               !- Sun Exposure
    WindExposed,              !- Wind Exposure
    autocalculate,            !- View Factor to Ground
    autocalculate,            !- Number of Vertices
    686671.409,               !- Vertex 1 Xcoordinate
    4928525.677,              !- Vertex 1 Ycoordinate
    6,                        !- Vertex 1 Zcoordinate
    686671.409,               !- Vertex 2 Xcoordinate
    4928525.677,              !- Vertex 2 Ycoordinate
    3,                        !- Vertex 2 Zcoordinate
    686667.309,               !- Vertex 3 Xcoordinate
    4928513.778,              !- Vertex 3 Ycoordinate
    3,                        !- Vertex 3 Zcoordinate
    686667.309,               !- Vertex 4 Xcoordinate
    4928513.778,              !- Vertex 4 Ycoordinate
    6;                        !- Vertex 4 Zcoordinate

BUILDINGSURFACE:DETAILED,
    Block 2d767abdf9f08afe_0 Storey 2 Wall 0001,    !- Name
    wall,                     !- Surface Type
    EU_wall_Construction,     !- Construction Name
    2d767abdf9f08afe_F2_dwelling_0,    !- Zone Name
    ,                         !- Space Name
    outdoors,                 !- Outside Boundary Condition
    ,                         !- Outside Boundary Condition Object
    SunExposed,               !- Sun Exposure
    WindExposed,              !- Wind Exposure
    autocalculate,            !- View Factor to Ground
    autocalculate,            !- Number of Vertices
    686667.309,               !- Vertex 1 Xcoordinate
    4928513.778,              !- Vertex 1 Ycoordinate
    9,                        !- Vertex 1 Zcoordinate
    686667.309,               !- Vertex 2 Xcoordinate
    4928513.778,              !- Vertex 2 Ycoordinate
    6,                        !- Vertex 2 Zcoordinate
    686657.003,               !- Vertex 3 Xcoordinate
    4928517.331,              !- Vertex 3 Ycoordinate
    6,                        !- Vertex 3 Zcoordinate
    686657.003,               !- Vertex 4 Xcoordinate
    4928517.331,              !- Vertex 4 Ycoordinate
    9;                        !- Vertex 4 Zcoordinate

BUILDINGSURFACE:DETAILED,
    Block 2d767abdf9f08afe_0 Storey 2 Wall 0003,    !- Name
    wall,                     !- Surface Type
    EU_wall_Construction,     !- Construction Name
    2d767abdf9f08afe_F2_dwelling_0,    !- Zone Name
    ,                         !- Space Name
    outdoors,                 !- Outside Boundary Condition
    ,                         !- Outside Boundary Condition Object
    SunExposed,               !- Sun Exposure
    WindExposed,              !- Wind Exposure
    autocalculate,            !- View Factor to Ground
    autocalculate,            !- Number of Vertices
    686661.106,               !- Vertex 1 Xcoordinate
    4928529.233,              !- Vertex 1 Ycoordinate
    9,                        !- Vertex 1 Zcoordinate
    686661.106,               !- Vertex 2 Xcoordinate
    4928529.233,              !- Vertex 2 Ycoordinate
    6,                        !- Vertex 2 Zcoordinate
    686671.409,               !- Vertex 3 Xcoordinate
    4928525.677,              !- Vertex 3 Ycoordinate
    6,                        !- Vertex 3 Zcoordinate
    686671.409,               !- Vertex 4 Xcoordinate
    4928525.677,              !- Vertex 4 Ycoordinate
    9;                        !- Vertex 4 Zcoordinate

BUILDINGSURFACE:DETAILED,
    Block 2d767abdf9f08afe_0 Storey 2 Wall 0004,    !- Name
    wall,                     !- Surface Type
    EU_wall_Construction,     !- Construction Name
    2d767abdf9f08afe_F2_dwelling_0,    !- Zone Name
    ,                         !- Space Name
    outdoors,                 !- Outside Boundary Condition
    ,                         !- Outside Boundary Condition Object
    SunExposed,               !- Sun Exposure
    WindExposed,              !- Wind Exposure
    autocalculate,            !- View Factor to Ground
    autocalculate,            !- Number of Vertices
    686671.409,               !- Vertex 1 Xcoordinate
    4928525.677,              !- Vertex 1 Ycoordinate
    9,                        !- Vertex 1 Zcoordinate
    686671.409,               !- Vertex 2 Xcoordinate
    4928525.677,              !- Vertex 2 Ycoordinate
    6,                        !- Vertex 2 Zcoordinate
    686667.309,               !- Vertex 3 Xcoordinate
    4928513.778,              !- Vertex 3 Ycoordinate
    6,                        !- Vertex 3 Zcoordinate
    686667.309,               !- Vertex 4 Xcoordinate
    4928513.778,              !- Vertex 4 Ycoordinate
    9;                        !- Vertex 4 Zcoordinate

BUILDINGSURFACE:DETAILED,
    Block 2d767abdf9f08afe_0 Storey 3 Wall 0001,    !- Name
    wall,                     !- Surface Type
    EU_wall_Construction,     !- Construction Name
    2d767abdf9f08afe_F3_dwelling_0,    !- Zone Name
    ,                         !- Space Name
    outdoors,                 !- Outside Boundary Condition
    ,                         !- Outside Boundary Condition Object
    SunExposed,               !- Sun Exposure
    WindExposed,              !- Wind Exposure
    autocalculate,            !- View Factor to Ground
    autocalculate,            !- Number of Vertices
    686667.309,               !- Vertex 1 Xcoordinate
    4928513.778,              !- Vertex 1 Ycoordinate
    12,                       !- Vertex 1 Zcoordinate
    686667.309,               !- Vertex 2 Xcoordinate
    4928513.778,              !- Vertex 2 Ycoordinate
    9,                        !- Vertex 2 Zcoordinate
    686657.003,               !- Vertex 3 Xcoordinate
    4928517.331,              !- Vertex 3 Ycoordinate
    9,                        !- Vertex 3 Zcoordinate
    686657.003,               !- Vertex 4 Xcoordinate
    4928517.331,              !- Vertex 4 Ycoordinate
    12;                       !- Vertex 4 Zcoordinate

BUILDINGSURFACE:DETAILED,
    Block 2d767abdf9f08afe_0 Storey 3 Wall 0003,    !- Name
    wall,                     !- Surface Type
    EU_wall_Construction,     !- Construction Name
    2d767abdf9f08afe_F3_dwelling_0,    !- Zone Name
    ,                         !- Space Name
    outdoors,                 !- Outside Boundary Condition
    ,                         !- Outside Boundary Condition Object
    SunExposed,               !- Sun Exposure
    WindExposed,              !- Wind Exposure
    autocalculate,            !- View Factor to Ground
    autocalculate,            !- Number of Vertices
    686661.106,               !- Vertex 1 Xcoordinate
    4928529.233,              !- Vertex 1 Ycoordinate
    12,                       !- Vertex 1 Zcoordinate
    686661.106,               !- Vertex 2 Xcoordinate
    4928529.233,              !- Vertex 2 Ycoordinate
    9,                        !- Vertex 2 Zcoordinate
    686671.409,               !- Vertex 3 Xcoordinate
    4928525.677,              !- Vertex 3 Ycoordinate
    9,                        !- Vertex 3 Zcoordinate
    686671.409,               !- Vertex 4 Xcoordinate
    4928525.677,              !- Vertex 4 Ycoordinate
    12;                       !- Vertex 4 Zcoordinate

BUILDINGSURFACE:DETAILED,
    Block 2d767abdf9f08afe_0 Storey 3 Wall 0004,    !- Name
    wall,                     !- Surface Type
    EU_wall_Construction,     !- Construction Name
    2d767abdf9f08afe_F3_dwelling_0,    !- Zone Name
    ,                         !- Space Name
    outdoors,                 !- Outside Boundary Condition
    ,                         !- Outside Boundary Condition Object
    SunExposed,               !- Sun Exposure
    WindExposed,              !- Wind Exposure
    autocalculate,            !- View Factor to Ground
    autocalculate,            !- Number of Vertices
    686671.409,               !- Vertex 1 Xcoordinate
    4928525.677,              !- Vertex 1 Ycoordinate
    12,                       !- Vertex 1 Zcoordinate
    686671.409,               !- Vertex 2 Xcoordinate
    4928525.677,              !- Vertex 2 Ycoordinate
    9,                        !- Vertex 2 Zcoordinate
    686667.309,               !- Vertex 3 Xcoordinate
    4928513.778,              !- Vertex 3 Ycoordinate
    9,                        !- Vertex 3 Zcoordinate
    686667.309,               !- Vertex 4 Xcoordinate
    4928513.778,              !- Vertex 4 Ycoordinate
    12;                       !- Vertex 4 Zcoordinate

BUILDINGSURFACE:DETAILED,
    Block 2d767abdf9f08afe_0 Storey 4 Wall 0001,    !- Name
    wall,                     !- Surface Type
    EU_wall_Construction,     !- Construction Name
    2d767abdf9f08afe_F4_dwelling_0,    !- Zone Name
    ,                         !- Space Name
    outdoors,                 !- Outside Boundary Condition
    ,                         !- Outside Boundary Condition Object
    SunExposed,               !- Sun Exposure
    WindExposed,              !- Wind Exposure
    autocalculate,            !- View Factor to Ground
    autocalculate,            !- Number of Vertices
    686667.309,               !- Vertex 1 Xcoordinate
    4928513.778,              !- Vertex 1 Ycoordinate
    15,                       !- Vertex 1 Zcoordinate
    686667.309,               !- Vertex 2 Xcoordinate
    4928513.778,              !- Vertex 2 Ycoordinate
    12,                       !- Vertex 2 Zcoordinate
    686657.003,               !- Vertex 3 Xcoordinate
    4928517.331,              !- Vertex 3 Ycoordinate
    12,                       !- Vertex 3 Zcoordinate
    686657.003,               !- Vertex 4 Xcoordinate
    4928517.331,              !- Vertex 4 Ycoordinate
    15;                       !- Vertex 4 Zcoordinate

BUILDINGSURFACE:DETAILED,
    Block 2d767abdf9f08afe_0 Storey 4 Wall 0002,    !- Name
    wall,                     !- Surface Type
    EU_wall_Construction,     !- Construction Name
    2d767abdf9f08afe_F4_dwelling_0,    !- Zone Name
    ,                         !- Space Name
    outdoors,                 !- Outside Boundary Condition
    ,                         !- Outside Boundary Condition Object
    SunExposed,               !- Sun Exposure
    WindExposed,              !- Wind Exposure
    autocalculate,            !- View Factor to Ground
    autocalculate,            !- Number of Vertices
    686657.003,               !- Vertex 1 Xcoordinate
    4928517.331,              !- Vertex 1 Ycoordinate
    15,                       !- Vertex 1 Zcoordinate
    686657.003,               !- Vertex 2 Xcoordinate
    4928517.331,              !- Vertex 2 Ycoordinate
    12,                       !- Vertex 2 Zcoordinate
    686661.106,               !- Vertex 3 Xcoordinate
    4928529.233,              !- Vertex 3 Ycoordinate
    12,                       !- Vertex 3 Zcoordinate
    686661.106,               !- Vertex 4 Xcoordinate
    4928529.233,              !- Vertex 4 Ycoordinate
    15;                       !- Vertex 4 Zcoordinate

BUILDINGSURFACE:DETAILED,
    Block 2d767abdf9f08afe_0 Storey 4 Wall 0003,    !- Name
    wall,                     !- Surface Type
    EU_wall_Construction,     !- Construction Name
    2d767abdf9f08afe_F4_dwelling_0,    !- Zone Name
    ,                         !- Space Name
    outdoors,                 !- Outside Boundary Condition
    ,                         !- Outside Boundary Condition Object
    SunExposed,               !- Sun Exposure
    WindExposed,              !- Wind Exposure
    autocalculate,            !- View Factor to Ground
    autocalculate,            !- Number of Vertices
    686661.106,               !- Vertex 1 Xcoordinate
    4928529.233,              !- Vertex 1 Ycoordinate
    15,                       !- Vertex 1 Zcoordinate
    686661.106,               !- Vertex 2 Xcoordinate
    4928529.233,              !- Vertex 2 Ycoordinate
    12,                       !- Vertex 2 Zcoordinate
    686671.409,               !- Vertex 3 Xcoordinate
    4928525.677,              !- Vertex 3 Ycoordinate
    12,                       !- Vertex 3 Zcoordinate
    686671.409,               !- Vertex 4 Xcoordinate
    4928525.677,              !- Vertex 4 Ycoordinate
    15;                       !- Vertex 4 Zcoordinate

BUILDINGSURFACE:DETAILED,
    Block 2d767abdf9f08afe_0 Storey 4 Wall 0004,    !- Name
    wall,                     !- Surface Type
    EU_wall_Construction,     !- Construction Name
    2d767abdf9f08afe_F4_dwelling_0,    !- Zone Name
    ,                         !- Space Name
    outdoors,                 !- Outside Boundary Condition
    ,                         !- Outside Boundary Condition Object
    SunExposed,               !- Sun Exposure
    WindExposed,              !- Wind Exposure
    autocalculate,            !- View Factor to Ground
    autocalculate,            !- Number of Vertices
    686671.409,               !- Vertex 1 Xcoordinate
    4928525.677,              !- Vertex 1 Ycoordinate
    15,                       !- Vertex 1 Zcoordinate
    686671.409,               !- Vertex 2 Xcoordinate
    4928525.677,              !- Vertex 2 Ycoordinate
    12,                       !- Vertex 2 Zcoordinate
    686667.309,               !- Vertex 3 Xcoordinate
    4928513.778,              !- Vertex 3 Ycoordinate
    12,                       !- Vertex 3 Zcoordinate
    686667.309,               !- Vertex 4 Xcoordinate
    4928513.778,              !- Vertex 4 Ycoordinate
    15;                       !- Vertex 4 Zcoordinate

BUILDINGSURFACE:DETAILED,
    Block 2d767abdf9f08afe_0 Storey 5 Wall 0001,    !- Name
    wall,                     !- Surface Type
    EU_wall_Construction,     !- Construction Name
    2d767abdf9f08afe_F5_dwelling_0,    !- Zone Name
    ,                         !- Space Name
    outdoors,                 !- Outside Boundary Condition
    ,                         !- Outside Boundary Condition Object
    SunExposed,               !- Sun Exposure
    WindExposed,              !- Wind Exposure
    autocalculate,            !- View Factor to Ground
    autocalculate,            !- Number of Vertices
    686667.309,               !- Vertex 1 Xcoordinate
    4928513.778,              !- Vertex 1 Ycoordinate
    18,                       !- Vertex 1 Zcoordinate
    686667.309,               !- Vertex 2 Xcoordinate
    4928513.778,              !- Vertex 2 Ycoordinate
    15,                       !- Vertex 2 Zcoordinate
    686657.003,               !- Vertex 3 Xcoordinate
    4928517.331,              !- Vertex 3 Ycoordinate
    15,                       !- Vertex 3 Zcoordinate
    686657.003,               !- Vertex 4 Xcoordinate
    4928517.331,              !- Vertex 4 Ycoordinate
    18;                       !- Vertex 4 Zcoordinate

BUILDINGSURFACE:DETAILED,
    Block 2d767abdf9f08afe_0 Storey 5 Wall 0002,    !- Name
    wall,                     !- Surface Type
    EU_wall_Construction,     !- Construction Name
    2d767abdf9f08afe_F5_dwelling_0,    !- Zone Name
    ,                         !- Space Name
    outdoors,                 !- Outside Boundary Condition
    ,                         !- Outside Boundary Condition Object
    SunExposed,               !- Sun Exposure
    WindExposed,              !- Wind Exposure
    autocalculate,            !- View Factor to Ground
    autocalculate,            !- Number of Vertices
    686657.003,               !- Vertex 1 Xcoordinate
    4928517.331,              !- Vertex 1 Ycoordinate
    18,                       !- Vertex 1 Zcoordinate
    686657.003,               !- Vertex 2 Xcoordinate
    4928517.331,              !- Vertex 2 Ycoordinate
    15,                       !- Vertex 2 Zcoordinate
    686661.106,               !- Vertex 3 Xcoordinate
    4928529.233,              !- Vertex 3 Ycoordinate
    15,                       !- Vertex 3 Zcoordinate
    686661.106,               !- Vertex 4 Xcoordinate
    4928529.233,              !- Vertex 4 Ycoordinate
    18;                       !- Vertex 4 Zcoordinate

BUILDINGSURFACE:DETAILED,
    Block 2d767abdf9f08afe_0 Storey 5 Wall 0003,    !- Name
    wall,                     !- Surface Type
    EU_wall_Construction,     !- Construction Name
    2d767abdf9f08afe_F5_dwelling_0,    !- Zone Name
    ,                         !- Space Name
    outdoors,                 !- Outside Boundary Condition
    ,                         !- Outside Boundary Condition Object
    SunExposed,               !- Sun Exposure
    WindExposed,              !- Wind Exposure
    autocalculate,            !- View Factor to Ground
    autocalculate,            !- Number of Vertices
    686661.106,               !- Vertex 1 Xcoordinate
    4928529.233,              !- Vertex 1 Ycoordinate
    18,                       !- Vertex 1 Zcoordinate
    686661.106,               !- Vertex 2 Xcoordinate
    4928529.233,              !- Vertex 2 Ycoordinate
    15,                       !- Vertex 2 Zcoordinate
    686671.409,               !- Vertex 3 Xcoordinate
    4928525.677,              !- Vertex 3 Ycoordinate
    15,                       !- Vertex 3 Zcoordinate
    686671.409,               !- Vertex 4 Xcoordinate
    4928525.677,              !- Vertex 4 Ycoordinate
    18;                       !- Vertex 4 Zcoordinate

BUILDINGSURFACE:DETAILED,
    Block 2d767abdf9f08afe_0 Storey 5 Wall 0004,    !- Name
    wall,                     !- Surface Type
    EU_wall_Construction,     !- Construction Name
    2d767abdf9f08afe_F5_dwelling_0,    !- Zone Name
    ,                         !- Space Name
    outdoors,                 !- Outside Boundary Condition
    ,                         !- Outside Boundary Condition Object
    SunExposed,               !- Sun Exposure
    WindExposed,              !- Wind Exposure
    autocalculate,            !- View Factor to Ground
    autocalculate,            !- Number of Vertices
    686671.409,               !- Vertex 1 Xcoordinate
    4928525.677,              !- Vertex 1 Ycoordinate
    18,                       !- Vertex 1 Zcoordinate
    686671.409,               !- Vertex 2 Xcoordinate
    4928525.677,              !- Vertex 2 Ycoordinate
    15,                       !- Vertex 2 Zcoordinate
    686667.309,               !- Vertex 3 Xcoordinate
    4928513.778,              !- Vertex 3 Ycoordinate
    15,                       !- Vertex 3 Zcoordinate
    686667.309,               !- Vertex 4 Xcoordinate
    4928513.778,              !- Vertex 4 Ycoordinate
    18;                       !- Vertex 4 Zcoordinate

BUILDINGSURFACE:DETAILED,
    Block 2d767abdf9f08afe_0 Storey 5 Roof 0001,    !- Name
    roof,                     !- Surface Type
    EU_roof_Construction,     !- Construction Name
    2d767abdf9f08afe_F5_dwelling_0,    !- Zone Name
    ,                         !- Space Name
    outdoors,                 !- Outside Boundary Condition
    ,                         !- Outside Boundary Condition Object
    NoSun,                    !- Sun Exposure
    WindExposed,              !- Wind Exposure
    autocalculate,            !- View Factor to Ground
    autocalculate,            !- Number of Vertices
    686671.409,               !- Vertex 1 Xcoordinate
    4928525.677,              !- Vertex 1 Ycoordinate
    18,                       !- Vertex 1 Zcoordinate
    686667.309,               !- Vertex 2 Xcoordinate
    4928513.778,              !- Vertex 2 Ycoordinate
    18,                       !- Vertex 2 Zcoordinate
    686657.003,               !- Vertex 3 Xcoordinate
    4928517.331,              !- Vertex 3 Ycoordinate
    18,                       !- Vertex 3 Zcoordinate
    686661.106,               !- Vertex 4 Xcoordinate
    4928529.233,              !- Vertex 4 Ycoordinate
    18;                       !- Vertex 4 Zcoordinate

BUILDINGSURFACE:DETAILED,
    Block 2d767abdf9f08afe_1 Storey 0 Wall 0001,    !- Name
    wall,                     !- Surface Type
    EU_wall_Construction,     !- Construction Name
    2d767abdf9f08afe_F0_dwelling_1,    !- Zone Name
    ,                         !- Space Name
    outdoors,                 !- Outside Boundary Condition
    ,                         !- Outside Boundary Condition Object
    SunExposed,               !- Sun Exposure
    WindExposed,              !- Wind Exposure
    autocalculate,            !- View Factor to Ground
    autocalculate,            !- Number of Vertices
    686640.52,                !- Vertex 1 Xcoordinate
    4928536.338,              !- Vertex 1 Ycoordinate
    3,                        !- Vertex 1 Zcoordinate
    686640.52,                !- Vertex 2 Xcoordinate
    4928536.338,              !- Vertex 2 Ycoordinate
    0,                        !- Vertex 2 Zcoordinate
    686655.956,               !- Vertex 3 Xcoordinate
    4928531.011,              !- Vertex 3 Ycoordinate
    0,                        !- Vertex 3 Zcoordinate
    686655.956,               !- Vertex 4 Xcoordinate
    4928531.011,              !- Vertex 4 Ycoordinate
    3;                        !- Vertex 4 Zcoordinate

BUILDINGSURFACE:DETAILED,
    Block 2d767abdf9f08afe_1 Storey 0 Wall 0004,    !- Name
    wall,                     !- Surface Type
    EU_wall_Construction,     !- Construction Name
    2d767abdf9f08afe_F0_dwelling_1,    !- Zone Name
    ,                         !- Space Name
    outdoors,                 !- Outside Boundary Condition
    ,                         !- Outside Boundary Condition Object
    SunExposed,               !- Sun Exposure
    WindExposed,              !- Wind Exposure
    autocalculate,            !- View Factor to Ground
    autocalculate,            !- Number of Vertices
    686637.766,               !- Vertex 1 Xcoordinate
    4928528.402,              !- Vertex 1 Ycoordinate
    3,                        !- Vertex 1 Zcoordinate
    686637.766,               !- Vertex 2 Xcoordinate
    4928528.402,              !- Vertex 2 Ycoordinate
    0,                        !- Vertex 2 Zcoordinate
    686640.52,                !- Vertex 3 Xcoordinate
    4928536.338,              !- Vertex 3 Ycoordinate
    0,                        !- Vertex 3 Zcoordinate
    686640.52,                !- Vertex 4 Xcoordinate
    4928536.338,              !- Vertex 4 Ycoordinate
    3;                        !- Vertex 4 Zcoordinate

BUILDINGSURFACE:DETAILED,
    Block 2d767abdf9f08afe_1 Storey 0 Floor 0001,    !- Name
    floor,                    !- Surface Type
    EU_floor_Construction,    !- Construction Name
    2d767abdf9f08afe_F0_dwelling_1,    !- Zone Name
    ,                         !- Space Name
    ground,                   !- Outside Boundary Condition
    ,                         !- Outside Boundary Condition Object
    NoSun,                    !- Sun Exposure
    NoWind,                   !- Wind Exposure
    autocalculate,            !- View Factor to Ground
    autocalculate,            !- Number of Vertices
    686653.219,               !- Vertex 1 Xcoordinate
    4928523.074,              !- Vertex 1 Ycoordinate
    0,                        !- Vertex 1 Zcoordinate
    686655.956,               !- Vertex 2 Xcoordinate
    4928531.011,              !- Vertex 2 Ycoordinate
    0,                        !- Vertex 2 Zcoordinate
    686640.52,                !- Vertex 3 Xcoordinate
    4928536.338,              !- Vertex 3 Ycoordinate
    0,                        !- Vertex 3 Zcoordinate
    686637.766,               !- Vertex 4 Xcoordinate
    4928528.402,              !- Vertex 4 Ycoordinate
    0;                        !- Vertex 4 Zcoordinate

BUILDINGSURFACE:DETAILED,
    Block 2d767abdf9f08afe_1 Storey 1 Wall 0001,    !- Name
    wall,                     !- Surface Type
    EU_wall_Construction,     !- Construction Name
    2d767abdf9f08afe_F1_dwelling_1,    !- Zone Name
    ,                         !- Space Name
    outdoors,                 !- Outside Boundary Condition
    ,                         !- Outside Boundary Condition Object
    SunExposed,               !- Sun Exposure
    WindExposed,              !- Wind Exposure
    autocalculate,            !- View Factor to Ground
    autocalculate,            !- Number of Vertices
    686640.52,                !- Vertex 1 Xcoordinate
    4928536.338,              !- Vertex 1 Ycoordinate
    6,                        !- Vertex 1 Zcoordinate
    686640.52,                !- Vertex 2 Xcoordinate
    4928536.338,              !- Vertex 2 Ycoordinate
    3,                        !- Vertex 2 Zcoordinate
    686655.956,               !- Vertex 3 Xcoordinate
    4928531.011,              !- Vertex 3 Ycoordinate
    3,                        !- Vertex 3 Zcoordinate
    686655.956,               !- Vertex 4 Xcoordinate
    4928531.011,              !- Vertex 4 Ycoordinate
    6;                        !- Vertex 4 Zcoordinate

BUILDINGSURFACE:DETAILED,
    Block 2d767abdf9f08afe_1 Storey 1 Wall 0004,    !- Name
    wall,                     !- Surface Type
    EU_wall_Construction,     !- Construction Name
    2d767abdf9f08afe_F1_dwelling_1,    !- Zone Name
    ,                         !- Space Name
    outdoors,                 !- Outside Boundary Condition
    ,                         !- Outside Boundary Condition Object
    SunExposed,               !- Sun Exposure
    WindExposed,              !- Wind Exposure
    autocalculate,            !- View Factor to Ground
    autocalculate,            !- Number of Vertices
    686637.766,               !- Vertex 1 Xcoordinate
    4928528.402,              !- Vertex 1 Ycoordinate
    6,                        !- Vertex 1 Zcoordinate
    686637.766,               !- Vertex 2 Xcoordinate
    4928528.402,              !- Vertex 2 Ycoordinate
    3,                        !- Vertex 2 Zcoordinate
    686640.52,                !- Vertex 3 Xcoordinate
    4928536.338,              !- Vertex 3 Ycoordinate
    3,                        !- Vertex 3 Zcoordinate
    686640.52,                !- Vertex 4 Xcoordinate
    4928536.338,              !- Vertex 4 Ycoordinate
    6;                        !- Vertex 4 Zcoordinate

BUILDINGSURFACE:DETAILED,
    Block 2d767abdf9f08afe_1 Storey 2 Wall 0001,    !- Name
    wall,                     !- Surface Type
    EU_wall_Construction,     !- Construction Name
    2d767abdf9f08afe_F2_dwelling_1,    !- Zone Name
    ,                         !- Space Name
    outdoors,                 !- Outside Boundary Condition
    ,                         !- Outside Boundary Condition Object
    SunExposed,               !- Sun Exposure
    WindExposed,              !- Wind Exposure
    autocalculate,            !- View Factor to Ground
    autocalculate,            !- Number of Vertices
    686640.52,                !- Vertex 1 Xcoordinate
    4928536.338,              !- Vertex 1 Ycoordinate
    9,                        !- Vertex 1 Zcoordinate
    686640.52,                !- Vertex 2 Xcoordinate
    4928536.338,              !- Vertex 2 Ycoordinate
    6,                        !- Vertex 2 Zcoordinate
    686655.956,               !- Vertex 3 Xcoordinate
    4928531.011,              !- Vertex 3 Ycoordinate
    6,                        !- Vertex 3 Zcoordinate
    686655.956,               !- Vertex 4 Xcoordinate
    4928531.011,              !- Vertex 4 Ycoordinate
    9;                        !- Vertex 4 Zcoordinate

BUILDINGSURFACE:DETAILED,
    Block 2d767abdf9f08afe_1 Storey 2 Wall 0004,    !- Name
    wall,                     !- Surface Type
    EU_wall_Construction,     !- Construction Name
    2d767abdf9f08afe_F2_dwelling_1,    !- Zone Name
    ,                         !- Space Name
    outdoors,                 !- Outside Boundary Condition
    ,                         !- Outside Boundary Condition Object
    SunExposed,               !- Sun Exposure
    WindExposed,              !- Wind Exposure
    autocalculate,            !- View Factor to Ground
    autocalculate,            !- Number of Vertices
    686637.766,               !- Vertex 1 Xcoordinate
    4928528.402,              !- Vertex 1 Ycoordinate
    9,                        !- Vertex 1 Zcoordinate
    686637.766,               !- Vertex 2 Xcoordinate
    4928528.402,              !- Vertex 2 Ycoordinate
    6,                        !- Vertex 2 Zcoordinate
    686640.52,                !- Vertex 3 Xcoordinate
    4928536.338,              !- Vertex 3 Ycoordinate
    6,                        !- Vertex 3 Zcoordinate
    686640.52,                !- Vertex 4 Xcoordinate
    4928536.338,              !- Vertex 4 Ycoordinate
    9;                        !- Vertex 4 Zcoordinate

BUILDINGSURFACE:DETAILED,
    Block 2d767abdf9f08afe_1 Storey 3 Wall 0001,    !- Name
    wall,                     !- Surface Type
    EU_wall_Construction,     !- Construction Name
    2d767abdf9f08afe_F3_dwelling_1,    !- Zone Name
    ,                         !- Space Name
    outdoors,                 !- Outside Boundary Condition
    ,                         !- Outside Boundary Condition Object
    SunExposed,               !- Sun Exposure
    WindExposed,              !- Wind Exposure
    autocalculate,            !- View Factor to Ground
    autocalculate,            !- Number of Vertices
    686640.52,                !- Vertex 1 Xcoordinate
    4928536.338,              !- Vertex 1 Ycoordinate
    12,                       !- Vertex 1 Zcoordinate
    686640.52,                !- Vertex 2 Xcoordinate
    4928536.338,              !- Vertex 2 Ycoordinate
    9,                        !- Vertex 2 Zcoordinate
    686655.956,               !- Vertex 3 Xcoordinate
    4928531.011,              !- Vertex 3 Ycoordinate
    9,                        !- Vertex 3 Zcoordinate
    686655.956,               !- Vertex 4 Xcoordinate
    4928531.011,              !- Vertex 4 Ycoordinate
    12;                       !- Vertex 4 Zcoordinate

BUILDINGSURFACE:DETAILED,
    Block 2d767abdf9f08afe_1 Storey 3 Wall 0004,    !- Name
    wall,                     !- Surface Type
    EU_wall_Construction,     !- Construction Name
    2d767abdf9f08afe_F3_dwelling_1,    !- Zone Name
    ,                         !- Space Name
    outdoors,                 !- Outside Boundary Condition
    ,                         !- Outside Boundary Condition Object
    SunExposed,               !- Sun Exposure
    WindExposed,              !- Wind Exposure
    autocalculate,            !- View Factor to Ground
    autocalculate,            !- Number of Vertices
    686637.766,               !- Vertex 1 Xcoordinate
    4928528.402,              !- Vertex 1 Ycoordinate
    12,                       !- Vertex 1 Zcoordinate
    686637.766,               !- Vertex 2 Xcoordinate
    4928528.402,              !- Vertex 2 Ycoordinate
    9,                        !- Vertex 2 Zcoordinate
    686640.52,                !- Vertex 3 Xcoordinate
    4928536.338,              !- Vertex 3 Ycoordinate
    9,                        !- Vertex 3 Zcoordinate
    686640.52,                !- Vertex 4 Xcoordinate
    4928536.338,              !- Vertex 4 Ycoordinate
    12;                       !- Vertex 4 Zcoordinate

BUILDINGSURFACE:DETAILED,
    Block 2d767abdf9f08afe_1 Storey 4 Wall 0001,    !- Name
    wall,                     !- Surface Type
    EU_wall_Construction,     !- Construction Name
    2d767abdf9f08afe_F4_dwelling_1,    !- Zone Name
    ,                         !- Space Name
    outdoors,                 !- Outside Boundary Condition
    ,                         !- Outside Boundary Condition Object
    SunExposed,               !- Sun Exposure
    WindExposed,              !- Wind Exposure
    autocalculate,            !- View Factor to Ground
    autocalculate,            !- Number of Vertices
    686640.52,                !- Vertex 1 Xcoordinate
    4928536.338,              !- Vertex 1 Ycoordinate
    15,                       !- Vertex 1 Zcoordinate
    686640.52,                !- Vertex 2 Xcoordinate
    4928536.338,              !- Vertex 2 Ycoordinate
    12,                       !- Vertex 2 Zcoordinate
    686655.956,               !- Vertex 3 Xcoordinate
    4928531.011,              !- Vertex 3 Ycoordinate
    12,                       !- Vertex 3 Zcoordinate
    686655.956,               !- Vertex 4 Xcoordinate
    4928531.011,              !- Vertex 4 Ycoordinate
    15;                       !- Vertex 4 Zcoordinate

BUILDINGSURFACE:DETAILED,
    Block 2d767abdf9f08afe_1 Storey 4 Wall 0002,    !- Name
    wall,                     !- Surface Type
    EU_wall_Construction,     !- Construction Name
    2d767abdf9f08afe_F4_dwelling_1,    !- Zone Name
    ,                         !- Space Name
    outdoors,                 !- Outside Boundary Condition
    ,                         !- Outside Boundary Condition Object
    SunExposed,               !- Sun Exposure
    WindExposed,              !- Wind Exposure
    autocalculate,            !- View Factor to Ground
    autocalculate,            !- Number of Vertices
    686655.956,               !- Vertex 1 Xcoordinate
    4928531.011,              !- Vertex 1 Ycoordinate
    15,                       !- Vertex 1 Zcoordinate
    686655.956,               !- Vertex 2 Xcoordinate
    4928531.011,              !- Vertex 2 Ycoordinate
    12,                       !- Vertex 2 Zcoordinate
    686653.219,               !- Vertex 3 Xcoordinate
    4928523.074,              !- Vertex 3 Ycoordinate
    12,                       !- Vertex 3 Zcoordinate
    686653.219,               !- Vertex 4 Xcoordinate
    4928523.074,              !- Vertex 4 Ycoordinate
    15;                       !- Vertex 4 Zcoordinate

BUILDINGSURFACE:DETAILED,
    Block 2d767abdf9f08afe_1 Storey 4 Wall 0003,    !- Name
    wall,                     !- Surface Type
    EU_wall_Construction,     !- Construction Name
    2d767abdf9f08afe_F4_dwelling_1,    !- Zone Name
    ,                         !- Space Name
    outdoors,                 !- Outside Boundary Condition
    ,                         !- Outside Boundary Condition Object
    SunExposed,               !- Sun Exposure
    WindExposed,              !- Wind Exposure
    autocalculate,            !- View Factor to Ground
    autocalculate,            !- Number of Vertices
    686653.219,               !- Vertex 1 Xcoordinate
    4928523.074,              !- Vertex 1 Ycoordinate
    15,                       !- Vertex 1 Zcoordinate
    686653.219,               !- Vertex 2 Xcoordinate
    4928523.074,              !- Vertex 2 Ycoordinate
    12,                       !- Vertex 2 Zcoordinate
    686637.766,               !- Vertex 3 Xcoordinate
    4928528.402,              !- Vertex 3 Ycoordinate
    12,                       !- Vertex 3 Zcoordinate
    686637.766,               !- Vertex 4 Xcoordinate
    4928528.402,              !- Vertex 4 Ycoordinate
    15;                       !- Vertex 4 Zcoordinate

BUILDINGSURFACE:DETAILED,
    Block 2d767abdf9f08afe_1 Storey 4 Wall 0004,    !- Name
    wall,                     !- Surface Type
    EU_wall_Construction,     !- Construction Name
    2d767abdf9f08afe_F4_dwelling_1,    !- Zone Name
    ,                         !- Space Name
    outdoors,                 !- Outside Boundary Condition
    ,                         !- Outside Boundary Condition Object
    SunExposed,               !- Sun Exposure
    WindExposed,              !- Wind Exposure
    autocalculate,            !- View Factor to Ground
    autocalculate,            !- Number of Vertices
    686637.766,               !- Vertex 1 Xcoordinate
    4928528.402,              !- Vertex 1 Ycoordinate
    15,                       !- Vertex 1 Zcoordinate
    686637.766,               !- Vertex 2 Xcoordinate
    4928528.402,              !- Vertex 2 Ycoordinate
    12,                       !- Vertex 2 Zcoordinate
    686640.52,                !- Vertex 3 Xcoordinate
    4928536.338,              !- Vertex 3 Ycoordinate
    12,                       !- Vertex 3 Zcoordinate
    686640.52,                !- Vertex 4 Xcoordinate
    4928536.338,              !- Vertex 4 Ycoordinate
    15;                       !- Vertex 4 Zcoordinate

BUILDINGSURFACE:DETAILED,
    Block 2d767abdf9f08afe_1 Storey 5 Wall 0001,    !- Name
    wall,                     !- Surface Type
    EU_wall_Construction,     !- Construction Name
    2d767abdf9f08afe_F5_dwelling_1,    !- Zone Name
    ,                         !- Space Name
    outdoors,                 !- Outside Boundary Condition
    ,                         !- Outside Boundary Condition Object
    SunExposed,               !- Sun Exposure
    WindExposed,              !- Wind Exposure
    autocalculate,            !- View Factor to Ground
    autocalculate,            !- Number of Vertices
    686640.52,                !- Vertex 1 Xcoordinate
    4928536.338,              !- Vertex 1 Ycoordinate
    18,                       !- Vertex 1 Zcoordinate
    686640.52,                !- Vertex 2 Xcoordinate
    4928536.338,              !- Vertex 2 Ycoordinate
    15,                       !- Vertex 2 Zcoordinate
    686655.956,               !- Vertex 3 Xcoordinate
    4928531.011,              !- Vertex 3 Ycoordinate
    15,                       !- Vertex 3 Zcoordinate
    686655.956,               !- Vertex 4 Xcoordinate
    4928531.011,              !- Vertex 4 Ycoordinate
    18;                       !- Vertex 4 Zcoordinate

BUILDINGSURFACE:DETAILED,
    Block 2d767abdf9f08afe_1 Storey 5 Wall 0002,    !- Name
    wall,                     !- Surface Type
    EU_wall_Construction,     !- Construction Name
    2d767abdf9f08afe_F5_dwelling_1,    !- Zone Name
    ,                         !- Space Name
    outdoors,                 !- Outside Boundary Condition
    ,                         !- Outside Boundary Condition Object
    SunExposed,               !- Sun Exposure
    WindExposed,              !- Wind Exposure
    autocalculate,            !- View Factor to Ground
    autocalculate,            !- Number of Vertices
    686655.956,               !- Vertex 1 Xcoordinate
    4928531.011,              !- Vertex 1 Ycoordinate
    18,                       !- Vertex 1 Zcoordinate
    686655.956,               !- Vertex 2 Xcoordinate
    4928531.011,              !- Vertex 2 Ycoordinate
    15,                       !- Vertex 2 Zcoordinate
    686653.219,               !- Vertex 3 Xcoordinate
    4928523.074,              !- Vertex 3 Ycoordinate
    15,                       !- Vertex 3 Zcoordinate
    686653.219,               !- Vertex 4 Xcoordinate
    4928523.074,              !- Vertex 4 Ycoordinate
    18;                       !- Vertex 4 Zcoordinate

BUILDINGSURFACE:DETAILED,
    Block 2d767abdf9f08afe_1 Storey 5 Wall 0003,    !- Name
    wall,                     !- Surface Type
    EU_wall_Construction,     !- Construction Name
    2d767abdf9f08afe_F5_dwelling_1,    !- Zone Name
    ,                         !- Space Name
    outdoors,                 !- Outside Boundary Condition
    ,                         !- Outside Boundary Condition Object
    SunExposed,               !- Sun Exposure
    WindExposed,              !- Wind Exposure
    autocalculate,            !- View Factor to Ground
    autocalculate,            !- Number of Vertices
    686653.219,               !- Vertex 1 Xcoordinate
    4928523.074,              !- Vertex 1 Ycoordinate
    18,                       !- Vertex 1 Zcoordinate
    686653.219,               !- Vertex 2 Xcoordinate
    4928523.074,              !- Vertex 2 Ycoordinate
    15,                       !- Vertex 2 Zcoordinate
    686637.766,               !- Vertex 3 Xcoordinate
    4928528.402,              !- Vertex 3 Ycoordinate
    15,                       !- Vertex 3 Zcoordinate
    686637.766,               !- Vertex 4 Xcoordinate
    4928528.402,              !- Vertex 4 Ycoordinate
    18;                       !- Vertex 4 Zcoordinate

BUILDINGSURFACE:DETAILED,
    Block 2d767abdf9f08afe_1 Storey 5 Wall 0004,    !- Name
    wall,                     !- Surface Type
    EU_wall_Construction,     !- Construction Name
    2d767abdf9f08afe_F5_dwelling_1,    !- Zone Name
    ,                         !- Space Name
    outdoors,                 !- Outside Boundary Condition
    ,                         !- Outside Boundary Condition Object
    SunExposed,               !- Sun Exposure
    WindExposed,              !- Wind Exposure
    autocalculate,            !- View Factor to Ground
    autocalculate,            !- Number of Vertices
    686637.766,               !- Vertex 1 Xcoordinate
    4928528.402,              !- Vertex 1 Ycoordinate
    18,                       !- Vertex 1 Zcoordinate
    686637.766,               !- Vertex 2 Xcoordinate
    4928528.402,              !- Vertex 2 Ycoordinate
    15,                       !- Vertex 2 Zcoordinate
    686640.52,                !- Vertex 3 Xcoordinate
    4928536.338,              !- Vertex 3 Ycoordinate
    15,                       !- Vertex 3 Zcoordinate
    686640.52,                !- Vertex 4 Xcoordinate
    4928536.338,              !- Vertex 4 Ycoordinate
    18;                       !- Vertex 4 Zcoordinate

BUILDINGSURFACE:DETAILED,
    Block 2d767abdf9f08afe_1 Storey 5 Roof 0001,    !- Name
    roof,                     !- Surface Type
    EU_roof_Construction,     !- Construction Name
    2d767abdf9f08afe_F5_dwelling_1,    !- Zone Name
    ,                         !- Space Name
    outdoors,                 !- Outside Boundary Condition
    ,                         !- Outside Boundary Condition Object
    NoSun,                    !- Sun Exposure
    WindExposed,              !- Wind Exposure
    autocalculate,            !- View Factor to Ground
    autocalculate,            !- Number of Vertices
    686655.956,               !- Vertex 1 Xcoordinate
    4928531.011,              !- Vertex 1 Ycoordinate
    18,                       !- Vertex 1 Zcoordinate
    686653.219,               !- Vertex 2 Xcoordinate
    4928523.074,              !- Vertex 2 Ycoordinate
    18,                       !- Vertex 2 Zcoordinate
    686637.766,               !- Vertex 3 Xcoordinate
    4928528.402,              !- Vertex 3 Ycoordinate
    18,                       !- Vertex 3 Zcoordinate
    686640.52,                !- Vertex 4 Xcoordinate
    4928536.338,              !- Vertex 4 Ycoordinate
    18;                       !- Vertex 4 Zcoordinate

BUILDINGSURFACE:DETAILED,
    Block 2d767abdf9f08afe_2 Storey 0 Wall 0002,    !- Name
    wall,                     !- Surface Type
    EU_wall_Construction,     !- Construction Name
    2d767abdf9f08afe_F0_dwelling_2,    !- Zone Name
    ,                         !- Space Name
    outdoors,                 !- Outside Boundary Condition
    ,                         !- Outside Boundary Condition Object
    SunExposed,               !- Sun Exposure
    WindExposed,              !- Wind Exposure
    autocalculate,            !- View Factor to Ground
    autocalculate,            !- Number of Vertices
    686655.956,               !- Vertex 1 Xcoordinate
    4928531.011,              !- Vertex 1 Ycoordinate
    3,                        !- Vertex 1 Zcoordinate
    686655.956,               !- Vertex 2 Xcoordinate
    4928531.011,              !- Vertex 2 Ycoordinate
    0,                        !- Vertex 2 Zcoordinate
    686661.106,               !- Vertex 3 Xcoordinate
    4928529.233,              !- Vertex 3 Ycoordinate
    0,                        !- Vertex 3 Zcoordinate
    686661.106,               !- Vertex 4 Xcoordinate
    4928529.233,              !- Vertex 4 Ycoordinate
    3;                        !- Vertex 4 Zcoordinate

BUILDINGSURFACE:DETAILED,
    Block 2d767abdf9f08afe_2 Storey 0 Wall 0004,    !- Name
    wall,                     !- Surface Type
    EU_wall_Construction,     !- Construction Name
    2d767abdf9f08afe_F0_dwelling_2,    !- Zone Name
    ,                         !- Space Name
    outdoors,                 !- Outside Boundary Condition
    ,                         !- Outside Boundary Condition Object
    SunExposed,               !- Sun Exposure
    WindExposed,              !- Wind Exposure
    autocalculate,            !- View Factor to Ground
    autocalculate,            !- Number of Vertices
    686657.003,               !- Vertex 1 Xcoordinate
    4928517.331,              !- Vertex 1 Ycoordinate
    3,                        !- Vertex 1 Zcoordinate
    686657.003,               !- Vertex 2 Xcoordinate
    4928517.331,              !- Vertex 2 Ycoordinate
    0,                        !- Vertex 2 Zcoordinate
    686636.39,                !- Vertex 3 Xcoordinate
    4928524.438,              !- Vertex 3 Ycoordinate
    0,                        !- Vertex 3 Zcoordinate
    686636.39,                !- Vertex 4 Xcoordinate
    4928524.438,              !- Vertex 4 Ycoordinate
    3;                        !- Vertex 4 Zcoordinate

BUILDINGSURFACE:DETAILED,
    Block 2d767abdf9f08afe_2 Storey 0 Wall 0005,    !- Name
    wall,                     !- Surface Type
    EU_wall_Construction,     !- Construction Name
    2d767abdf9f08afe_F0_dwelling_2,    !- Zone Name
    ,                         !- Space Name
    outdoors,                 !- Outside Boundary Condition
    ,                         !- Outside Boundary Condition Object
    SunExposed,               !- Sun Exposure
    WindExposed,              !- Wind Exposure
    autocalculate,            !- View Factor to Ground
    autocalculate,            !- Number of Vertices
    686636.39,                !- Vertex 1 Xcoordinate
    4928524.438,              !- Vertex 1 Ycoordinate
    3,                        !- Vertex 1 Zcoordinate
    686636.39,                !- Vertex 2 Xcoordinate
    4928524.438,              !- Vertex 2 Ycoordinate
    0,                        !- Vertex 2 Zcoordinate
    686637.766,               !- Vertex 3 Xcoordinate
    4928528.402,              !- Vertex 3 Ycoordinate
    0,                        !- Vertex 3 Zcoordinate
    686637.766,               !- Vertex 4 Xcoordinate
    4928528.402,              !- Vertex 4 Ycoordinate
    3;                        !- Vertex 4 Zcoordinate

BUILDINGSURFACE:DETAILED,
    Block 2d767abdf9f08afe_2 Storey 0 Floor 0001,    !- Name
    floor,                    !- Surface Type
    EU_floor_Construction,    !- Construction Name
    2d767abdf9f08afe_F0_dwelling_2,    !- Zone Name
    ,                         !- Space Name
    ground,                   !- Outside Boundary Condition
    ,                         !- Outside Boundary Condition Object
    NoSun,                    !- Sun Exposure
    NoWind,                   !- Wind Exposure
    autocalculate,            !- View Factor to Ground
    autocalculate,            !- Number of Vertices
    686657.003,               !- Vertex 1 Xcoordinate
    4928517.331,              !- Vertex 1 Ycoordinate
    0,                        !- Vertex 1 Zcoordinate
    686661.106,               !- Vertex 2 Xcoordinate
    4928529.233,              !- Vertex 2 Ycoordinate
    0,                        !- Vertex 2 Zcoordinate
    686655.956,               !- Vertex 3 Xcoordinate
    4928531.011,              !- Vertex 3 Ycoordinate
    0,                        !- Vertex 3 Zcoordinate
    686653.219,               !- Vertex 4 Xcoordinate
    4928523.074,              !- Vertex 4 Ycoordinate
    0,                        !- Vertex 4 Zcoordinate
    686637.766,               !- Vertex 5 Xcoordinate
    4928528.402,              !- Vertex 5 Ycoordinate
    0,                        !- Vertex 5 Zcoordinate
    686636.39,                !- Vertex 6 Xcoordinate
    4928524.438,              !- Vertex 6 Ycoordinate
    0;                        !- Vertex 6 Zcoordinate

BUILDINGSURFACE:DETAILED,
    Block 2d767abdf9f08afe_2 Storey 1 Wall 0002,    !- Name
    wall,                     !- Surface Type
    EU_wall_Construction,     !- Construction Name
    2d767abdf9f08afe_F1_dwelling_2,    !- Zone Name
    ,                         !- Space Name
    outdoors,                 !- Outside Boundary Condition
    ,                         !- Outside Boundary Condition Object
    SunExposed,               !- Sun Exposure
    WindExposed,              !- Wind Exposure
    autocalculate,            !- View Factor to Ground
    autocalculate,            !- Number of Vertices
    686655.956,               !- Vertex 1 Xcoordinate
    4928531.011,              !- Vertex 1 Ycoordinate
    6,                        !- Vertex 1 Zcoordinate
    686655.956,               !- Vertex 2 Xcoordinate
    4928531.011,              !- Vertex 2 Ycoordinate
    3,                        !- Vertex 2 Zcoordinate
    686661.106,               !- Vertex 3 Xcoordinate
    4928529.233,              !- Vertex 3 Ycoordinate
    3,                        !- Vertex 3 Zcoordinate
    686661.106,               !- Vertex 4 Xcoordinate
    4928529.233,              !- Vertex 4 Ycoordinate
    6;                        !- Vertex 4 Zcoordinate

BUILDINGSURFACE:DETAILED,
    Block 2d767abdf9f08afe_2 Storey 1 Wall 0004,    !- Name
    wall,                     !- Surface Type
    EU_wall_Construction,     !- Construction Name
    2d767abdf9f08afe_F1_dwelling_2,    !- Zone Name
    ,                         !- Space Name
    outdoors,                 !- Outside Boundary Condition
    ,                         !- Outside Boundary Condition Object
    SunExposed,               !- Sun Exposure
    WindExposed,              !- Wind Exposure
    autocalculate,            !- View Factor to Ground
    autocalculate,            !- Number of Vertices
    686657.003,               !- Vertex 1 Xcoordinate
    4928517.331,              !- Vertex 1 Ycoordinate
    6,                        !- Vertex 1 Zcoordinate
    686657.003,               !- Vertex 2 Xcoordinate
    4928517.331,              !- Vertex 2 Ycoordinate
    3,                        !- Vertex 2 Zcoordinate
    686636.39,                !- Vertex 3 Xcoordinate
    4928524.438,              !- Vertex 3 Ycoordinate
    3,                        !- Vertex 3 Zcoordinate
    686636.39,                !- Vertex 4 Xcoordinate
    4928524.438,              !- Vertex 4 Ycoordinate
    6;                        !- Vertex 4 Zcoordinate

BUILDINGSURFACE:DETAILED,
    Block 2d767abdf9f08afe_2 Storey 1 Wall 0005,    !- Name
    wall,                     !- Surface Type
    EU_wall_Construction,     !- Construction Name
    2d767abdf9f08afe_F1_dwelling_2,    !- Zone Name
    ,                         !- Space Name
    outdoors,                 !- Outside Boundary Condition
    ,                         !- Outside Boundary Condition Object
    SunExposed,               !- Sun Exposure
    WindExposed,              !- Wind Exposure
    autocalculate,            !- View Factor to Ground
    autocalculate,            !- Number of Vertices
    686636.39,                !- Vertex 1 Xcoordinate
    4928524.438,              !- Vertex 1 Ycoordinate
    6,                        !- Vertex 1 Zcoordinate
    686636.39,                !- Vertex 2 Xcoordinate
    4928524.438,              !- Vertex 2 Ycoordinate
    3,                        !- Vertex 2 Zcoordinate
    686637.766,               !- Vertex 3 Xcoordinate
    4928528.402,              !- Vertex 3 Ycoordinate
    3,                        !- Vertex 3 Zcoordinate
    686637.766,               !- Vertex 4 Xcoordinate
    4928528.402,              !- Vertex 4 Ycoordinate
    6;                        !- Vertex 4 Zcoordinate

BUILDINGSURFACE:DETAILED,
    Block 2d767abdf9f08afe_2 Storey 2 Wall 0002,    !- Name
    wall,                     !- Surface Type
    EU_wall_Construction,     !- Construction Name
    2d767abdf9f08afe_F2_dwelling_2,    !- Zone Name
    ,                         !- Space Name
    outdoors,                 !- Outside Boundary Condition
    ,                         !- Outside Boundary Condition Object
    SunExposed,               !- Sun Exposure
    WindExposed,              !- Wind Exposure
    autocalculate,            !- View Factor to Ground
    autocalculate,            !- Number of Vertices
    686655.956,               !- Vertex 1 Xcoordinate
    4928531.011,              !- Vertex 1 Ycoordinate
    9,                        !- Vertex 1 Zcoordinate
    686655.956,               !- Vertex 2 Xcoordinate
    4928531.011,              !- Vertex 2 Ycoordinate
    6,                        !- Vertex 2 Zcoordinate
    686661.106,               !- Vertex 3 Xcoordinate
    4928529.233,              !- Vertex 3 Ycoordinate
    6,                        !- Vertex 3 Zcoordinate
    686661.106,               !- Vertex 4 Xcoordinate
    4928529.233,              !- Vertex 4 Ycoordinate
    9;                        !- Vertex 4 Zcoordinate

BUILDINGSURFACE:DETAILED,
    Block 2d767abdf9f08afe_2 Storey 2 Wall 0004,    !- Name
    wall,                     !- Surface Type
    EU_wall_Construction,     !- Construction Name
    2d767abdf9f08afe_F2_dwelling_2,    !- Zone Name
    ,                         !- Space Name
    outdoors,                 !- Outside Boundary Condition
    ,                         !- Outside Boundary Condition Object
    SunExposed,               !- Sun Exposure
    WindExposed,              !- Wind Exposure
    autocalculate,            !- View Factor to Ground
    autocalculate,            !- Number of Vertices
    686657.003,               !- Vertex 1 Xcoordinate
    4928517.331,              !- Vertex 1 Ycoordinate
    9,                        !- Vertex 1 Zcoordinate
    686657.003,               !- Vertex 2 Xcoordinate
    4928517.331,              !- Vertex 2 Ycoordinate
    6,                        !- Vertex 2 Zcoordinate
    686636.39,                !- Vertex 3 Xcoordinate
    4928524.438,              !- Vertex 3 Ycoordinate
    6,                        !- Vertex 3 Zcoordinate
    686636.39,                !- Vertex 4 Xcoordinate
    4928524.438,              !- Vertex 4 Ycoordinate
    9;                        !- Vertex 4 Zcoordinate

BUILDINGSURFACE:DETAILED,
    Block 2d767abdf9f08afe_2 Storey 2 Wall 0005,    !- Name
    wall,                     !- Surface Type
    EU_wall_Construction,     !- Construction Name
    2d767abdf9f08afe_F2_dwelling_2,    !- Zone Name
    ,                         !- Space Name
    outdoors,                 !- Outside Boundary Condition
    ,                         !- Outside Boundary Condition Object
    SunExposed,               !- Sun Exposure
    WindExposed,              !- Wind Exposure
    autocalculate,            !- View Factor to Ground
    autocalculate,            !- Number of Vertices
    686636.39,                !- Vertex 1 Xcoordinate
    4928524.438,              !- Vertex 1 Ycoordinate
    9,                        !- Vertex 1 Zcoordinate
    686636.39,                !- Vertex 2 Xcoordinate
    4928524.438,              !- Vertex 2 Ycoordinate
    6,                        !- Vertex 2 Zcoordinate
    686637.766,               !- Vertex 3 Xcoordinate
    4928528.402,              !- Vertex 3 Ycoordinate
    6,                        !- Vertex 3 Zcoordinate
    686637.766,               !- Vertex 4 Xcoordinate
    4928528.402,              !- Vertex 4 Ycoordinate
    9;                        !- Vertex 4 Zcoordinate

BUILDINGSURFACE:DETAILED,
    Block 2d767abdf9f08afe_2 Storey 3 Wall 0002,    !- Name
    wall,                     !- Surface Type
    EU_wall_Construction,     !- Construction Name
    2d767abdf9f08afe_F3_dwelling_2,    !- Zone Name
    ,                         !- Space Name
    outdoors,                 !- Outside Boundary Condition
    ,                         !- Outside Boundary Condition Object
    SunExposed,               !- Sun Exposure
    WindExposed,              !- Wind Exposure
    autocalculate,            !- View Factor to Ground
    autocalculate,            !- Number of Vertices
    686655.956,               !- Vertex 1 Xcoordinate
    4928531.011,              !- Vertex 1 Ycoordinate
    12,                       !- Vertex 1 Zcoordinate
    686655.956,               !- Vertex 2 Xcoordinate
    4928531.011,              !- Vertex 2 Ycoordinate
    9,                        !- Vertex 2 Zcoordinate
    686661.106,               !- Vertex 3 Xcoordinate
    4928529.233,              !- Vertex 3 Ycoordinate
    9,                        !- Vertex 3 Zcoordinate
    686661.106,               !- Vertex 4 Xcoordinate
    4928529.233,              !- Vertex 4 Ycoordinate
    12;                       !- Vertex 4 Zcoordinate

BUILDINGSURFACE:DETAILED,
    Block 2d767abdf9f08afe_2 Storey 3 Wall 0004,    !- Name
    wall,                     !- Surface Type
    EU_wall_Construction,     !- Construction Name
    2d767abdf9f08afe_F3_dwelling_2,    !- Zone Name
    ,                         !- Space Name
    outdoors,                 !- Outside Boundary Condition
    ,                         !- Outside Boundary Condition Object
    SunExposed,               !- Sun Exposure
    WindExposed,              !- Wind Exposure
    autocalculate,            !- View Factor to Ground
    autocalculate,            !- Number of Vertices
    686657.003,               !- Vertex 1 Xcoordinate
    4928517.331,              !- Vertex 1 Ycoordinate
    12,                       !- Vertex 1 Zcoordinate
    686657.003,               !- Vertex 2 Xcoordinate
    4928517.331,              !- Vertex 2 Ycoordinate
    9,                        !- Vertex 2 Zcoordinate
    686636.39,                !- Vertex 3 Xcoordinate
    4928524.438,              !- Vertex 3 Ycoordinate
    9,                        !- Vertex 3 Zcoordinate
    686636.39,                !- Vertex 4 Xcoordinate
    4928524.438,              !- Vertex 4 Ycoordinate
    12;                       !- Vertex 4 Zcoordinate

BUILDINGSURFACE:DETAILED,
    Block 2d767abdf9f08afe_2 Storey 3 Wall 0005,    !- Name
    wall,                     !- Surface Type
    EU_wall_Construction,     !- Construction Name
    2d767abdf9f08afe_F3_dwelling_2,    !- Zone Name
    ,                         !- Space Name
    outdoors,                 !- Outside Boundary Condition
    ,                         !- Outside Boundary Condition Object
    SunExposed,               !- Sun Exposure
    WindExposed,              !- Wind Exposure
    autocalculate,            !- View Factor to Ground
    autocalculate,            !- Number of Vertices
    686636.39,                !- Vertex 1 Xcoordinate
    4928524.438,              !- Vertex 1 Ycoordinate
    12,                       !- Vertex 1 Zcoordinate
    686636.39,                !- Vertex 2 Xcoordinate
    4928524.438,              !- Vertex 2 Ycoordinate
    9,                        !- Vertex 2 Zcoordinate
    686637.766,               !- Vertex 3 Xcoordinate
    4928528.402,              !- Vertex 3 Ycoordinate
    9,                        !- Vertex 3 Zcoordinate
    686637.766,               !- Vertex 4 Xcoordinate
    4928528.402,              !- Vertex 4 Ycoordinate
    12;                       !- Vertex 4 Zcoordinate

BUILDINGSURFACE:DETAILED,
    Block 2d767abdf9f08afe_2 Storey 3 Roof 0001,    !- Name
    roof,                     !- Surface Type
    EU_roof_Construction,     !- Construction Name
    2d767abdf9f08afe_F3_dwelling_2,    !- Zone Name
    ,                         !- Space Name
    outdoors,                 !- Outside Boundary Condition
    ,                         !- Outside Boundary Condition Object
    NoSun,                    !- Sun Exposure
    WindExposed,              !- Wind Exposure
    autocalculate,            !- View Factor to Ground
    autocalculate,            !- Number of Vertices
    686661.106,               !- Vertex 1 Xcoordinate
    4928529.233,              !- Vertex 1 Ycoordinate
    12,                       !- Vertex 1 Zcoordinate
    686657.003,               !- Vertex 2 Xcoordinate
    4928517.331,              !- Vertex 2 Ycoordinate
    12,                       !- Vertex 2 Zcoordinate
    686636.39,                !- Vertex 3 Xcoordinate
    4928524.438,              !- Vertex 3 Ycoordinate
    12,                       !- Vertex 3 Zcoordinate
    686637.766,               !- Vertex 4 Xcoordinate
    4928528.402,              !- Vertex 4 Ycoordinate
    12,                       !- Vertex 4 Zcoordinate
    686653.219,               !- Vertex 5 Xcoordinate
    4928523.074,              !- Vertex 5 Ycoordinate
    12,                       !- Vertex 5 Zcoordinate
    686655.956,               !- Vertex 6 Xcoordinate
    4928531.011,              !- Vertex 6 Ycoordinate
    12;                       !- Vertex 6 Zcoordinate

BUILDINGSURFACE:DETAILED,
    Block 2d767abdf9f08afe_0 Storey 0 Wall 0002_1,    !- Name
    wall,                     !- Surface Type
    EU_wall_Construction,     !- Construction Name
    2d767abdf9f08afe_F0_dwelling_0,    !- Zone Name
    ,                         !- Space Name
    surface,                  !- Outside Boundary Condition
    Block 2d767abdf9f08afe_2 Storey 0 Wall 0003_1,    !- Outside Boundary Condition Object
    NoSun,                    !- Sun Exposure
    NoWind,                   !- Wind Exposure
    autocalculate,            !- View Factor to Ground
    autocalculate,            !- Number of Vertices
    686657.003,               !- Vertex 1 Xcoordinate
    4928517.331,              !- Vertex 1 Ycoordinate
    3,                        !- Vertex 1 Zcoordinate
    686657.003,               !- Vertex 2 Xcoordinate
    4928517.331,              !- Vertex 2 Ycoordinate
    0,                        !- Vertex 2 Zcoordinate
    686661.106,               !- Vertex 3 Xcoordinate
    4928529.233,              !- Vertex 3 Ycoordinate
    0,                        !- Vertex 3 Zcoordinate
    686661.106,               !- Vertex 4 Xcoordinate
    4928529.233,              !- Vertex 4 Ycoordinate
    3;                        !- Vertex 4 Zcoordinate

BUILDINGSURFACE:DETAILED,
    Block 2d767abdf9f08afe_2 Storey 0 Wall 0003_1,    !- Name
    wall,                     !- Surface Type
    EU_wall_Construction,     !- Construction Name
    2d767abdf9f08afe_F0_dwelling_2,    !- Zone Name
    ,                         !- Space Name
    surface,                  !- Outside Boundary Condition
    Block 2d767abdf9f08afe_0 Storey 0 Wall 0002_1,    !- Outside Boundary Condition Object
    NoSun,                    !- Sun Exposure
    NoWind,                   !- Wind Exposure
    autocalculate,            !- View Factor to Ground
    autocalculate,            !- Number of Vertices
    686661.106,               !- Vertex 1 Xcoordinate
    4928529.233,              !- Vertex 1 Ycoordinate
    3,                        !- Vertex 1 Zcoordinate
    686661.106,               !- Vertex 2 Xcoordinate
    4928529.233,              !- Vertex 2 Ycoordinate
    0,                        !- Vertex 2 Zcoordinate
    686657.003,               !- Vertex 3 Xcoordinate
    4928517.331,              !- Vertex 3 Ycoordinate
    0,                        !- Vertex 3 Zcoordinate
    686657.003,               !- Vertex 4 Xcoordinate
    4928517.331,              !- Vertex 4 Ycoordinate
    3;                        !- Vertex 4 Zcoordinate

BUILDINGSURFACE:DETAILED,
    Block 2d767abdf9f08afe_0 Storey 0 Ceiling 0001_1,    !- Name
    ceiling,                  !- Surface Type
    EU_floor_Construction,    !- Construction Name
    2d767abdf9f08afe_F0_dwelling_0,    !- Zone Name
    ,                         !- Space Name
    Surface,                  !- Outside Boundary Condition
    Block 2d767abdf9f08afe_0 Storey 1 Floor 0001_1,    !- Outside Boundary Condition Object
    NoSun,                    !- Sun Exposure
    NoWind,                   !- Wind Exposure
    autocalculate,            !- View Factor to Ground
    autocalculate,            !- Number of Vertices
    686671.409,               !- Vertex 1 Xcoordinate
    4928525.677,              !- Vertex 1 Ycoordinate
    3,                        !- Vertex 1 Zcoordinate
    686667.3089999999,        !- Vertex 2 Xcoordinate
    4928513.778,              !- Vertex 2 Ycoordinate
    3,                        !- Vertex 2 Zcoordinate
    686657.003,               !- Vertex 3 Xcoordinate
    4928517.331,              !- Vertex 3 Ycoordinate
    3,                        !- Vertex 3 Zcoordinate
    686661.1059999997,        !- Vertex 4 Xcoordinate
    4928529.233,              !- Vertex 4 Ycoordinate
    3;                        !- Vertex 4 Zcoordinate

BUILDINGSURFACE:DETAILED,
    Block 2d767abdf9f08afe_0 Storey 1 Floor 0001_1,    !- Name
    floor,                    !- Surface Type
    EU_floor_Construction,    !- Construction Name
    2d767abdf9f08afe_F1_dwelling_0,    !- Zone Name
    ,                         !- Space Name
    Surface,                  !- Outside Boundary Condition
    Block 2d767abdf9f08afe_0 Storey 0 Ceiling 0001_1,    !- Outside Boundary Condition Object
    NoSun,                    !- Sun Exposure
    NoWind,                   !- Wind Exposure
    autocalculate,            !- View Factor to Ground
    autocalculate,            !- Number of Vertices
    686667.3089999999,        !- Vertex 1 Xcoordinate
    4928513.778,              !- Vertex 1 Ycoordinate
    3,                        !- Vertex 1 Zcoordinate
    686671.409,               !- Vertex 2 Xcoordinate
    4928525.677,              !- Vertex 2 Ycoordinate
    3,                        !- Vertex 2 Zcoordinate
    686661.1059999997,        !- Vertex 3 Xcoordinate
    4928529.233,              !- Vertex 3 Ycoordinate
    3,                        !- Vertex 3 Zcoordinate
    686657.003,               !- Vertex 4 Xcoordinate
    4928517.331,              !- Vertex 4 Ycoordinate
    3;                        !- Vertex 4 Zcoordinate

BUILDINGSURFACE:DETAILED,
    Block 2d767abdf9f08afe_0 Storey 1 Wall 0002_1,    !- Name
    wall,                     !- Surface Type
    EU_wall_Construction,     !- Construction Name
    2d767abdf9f08afe_F1_dwelling_0,    !- Zone Name
    ,                         !- Space Name
    surface,                  !- Outside Boundary Condition
    Block 2d767abdf9f08afe_2 Storey 1 Wall 0003_1,    !- Outside Boundary Condition Object
    NoSun,                    !- Sun Exposure
    NoWind,                   !- Wind Exposure
    autocalculate,            !- View Factor to Ground
    autocalculate,            !- Number of Vertices
    686657.003,               !- Vertex 1 Xcoordinate
    4928517.331,              !- Vertex 1 Ycoordinate
    6,                        !- Vertex 1 Zcoordinate
    686657.003,               !- Vertex 2 Xcoordinate
    4928517.331,              !- Vertex 2 Ycoordinate
    3,                        !- Vertex 2 Zcoordinate
    686661.106,               !- Vertex 3 Xcoordinate
    4928529.233,              !- Vertex 3 Ycoordinate
    3,                        !- Vertex 3 Zcoordinate
    686661.106,               !- Vertex 4 Xcoordinate
    4928529.233,              !- Vertex 4 Ycoordinate
    6;                        !- Vertex 4 Zcoordinate

BUILDINGSURFACE:DETAILED,
    Block 2d767abdf9f08afe_2 Storey 1 Wall 0003_1,    !- Name
    wall,                     !- Surface Type
    EU_wall_Construction,     !- Construction Name
    2d767abdf9f08afe_F1_dwelling_2,    !- Zone Name
    ,                         !- Space Name
    surface,                  !- Outside Boundary Condition
    Block 2d767abdf9f08afe_0 Storey 1 Wall 0002_1,    !- Outside Boundary Condition Object
    NoSun,                    !- Sun Exposure
    NoWind,                   !- Wind Exposure
    autocalculate,            !- View Factor to Ground
    autocalculate,            !- Number of Vertices
    686661.106,               !- Vertex 1 Xcoordinate
    4928529.233,              !- Vertex 1 Ycoordinate
    6,                        !- Vertex 1 Zcoordinate
    686661.106,               !- Vertex 2 Xcoordinate
    4928529.233,              !- Vertex 2 Ycoordinate
    3,                        !- Vertex 2 Zcoordinate
    686657.003,               !- Vertex 3 Xcoordinate
    4928517.331,              !- Vertex 3 Ycoordinate
    3,                        !- Vertex 3 Zcoordinate
    686657.003,               !- Vertex 4 Xcoordinate
    4928517.331,              !- Vertex 4 Ycoordinate
    6;                        !- Vertex 4 Zcoordinate

BUILDINGSURFACE:DETAILED,
    Block 2d767abdf9f08afe_0 Storey 1 Ceiling 0001_1,    !- Name
    ceiling,                  !- Surface Type
    EU_floor_Construction,    !- Construction Name
    2d767abdf9f08afe_F1_dwelling_0,    !- Zone Name
    ,                         !- Space Name
    Surface,                  !- Outside Boundary Condition
    Block 2d767abdf9f08afe_0 Storey 2 Floor 0001_1,    !- Outside Boundary Condition Object
    NoSun,                    !- Sun Exposure
    NoWind,                   !- Wind Exposure
    autocalculate,            !- View Factor to Ground
    autocalculate,            !- Number of Vertices
    686671.409,               !- Vertex 1 Xcoordinate
    4928525.677,              !- Vertex 1 Ycoordinate
    6,                        !- Vertex 1 Zcoordinate
    686667.3089999999,        !- Vertex 2 Xcoordinate
    4928513.778,              !- Vertex 2 Ycoordinate
    6,                        !- Vertex 2 Zcoordinate
    686657.003,               !- Vertex 3 Xcoordinate
    4928517.331,              !- Vertex 3 Ycoordinate
    6,                        !- Vertex 3 Zcoordinate
    686661.1059999997,        !- Vertex 4 Xcoordinate
    4928529.233,              !- Vertex 4 Ycoordinate
    6;                        !- Vertex 4 Zcoordinate

BUILDINGSURFACE:DETAILED,
    Block 2d767abdf9f08afe_0 Storey 2 Floor 0001_1,    !- Name
    floor,                    !- Surface Type
    EU_floor_Construction,    !- Construction Name
    2d767abdf9f08afe_F2_dwelling_0,    !- Zone Name
    ,                         !- Space Name
    Surface,                  !- Outside Boundary Condition
    Block 2d767abdf9f08afe_0 Storey 1 Ceiling 0001_1,    !- Outside Boundary Condition Object
    NoSun,                    !- Sun Exposure
    NoWind,                   !- Wind Exposure
    autocalculate,            !- View Factor to Ground
    autocalculate,            !- Number of Vertices
    686667.3089999999,        !- Vertex 1 Xcoordinate
    4928513.778,              !- Vertex 1 Ycoordinate
    6,                        !- Vertex 1 Zcoordinate
    686671.409,               !- Vertex 2 Xcoordinate
    4928525.677,              !- Vertex 2 Ycoordinate
    6,                        !- Vertex 2 Zcoordinate
    686661.1059999997,        !- Vertex 3 Xcoordinate
    4928529.233,              !- Vertex 3 Ycoordinate
    6,                        !- Vertex 3 Zcoordinate
    686657.003,               !- Vertex 4 Xcoordinate
    4928517.331,              !- Vertex 4 Ycoordinate
    6;                        !- Vertex 4 Zcoordinate

BUILDINGSURFACE:DETAILED,
    Block 2d767abdf9f08afe_0 Storey 2 Wall 0002_1,    !- Name
    wall,                     !- Surface Type
    EU_wall_Construction,     !- Construction Name
    2d767abdf9f08afe_F2_dwelling_0,    !- Zone Name
    ,                         !- Space Name
    surface,                  !- Outside Boundary Condition
    Block 2d767abdf9f08afe_2 Storey 2 Wall 0003_1,    !- Outside Boundary Condition Object
    NoSun,                    !- Sun Exposure
    NoWind,                   !- Wind Exposure
    autocalculate,            !- View Factor to Ground
    autocalculate,            !- Number of Vertices
    686657.003,               !- Vertex 1 Xcoordinate
    4928517.331,              !- Vertex 1 Ycoordinate
    9,                        !- Vertex 1 Zcoordinate
    686657.003,               !- Vertex 2 Xcoordinate
    4928517.331,              !- Vertex 2 Ycoordinate
    6,                        !- Vertex 2 Zcoordinate
    686661.106,               !- Vertex 3 Xcoordinate
    4928529.233,              !- Vertex 3 Ycoordinate
    6,                        !- Vertex 3 Zcoordinate
    686661.106,               !- Vertex 4 Xcoordinate
    4928529.233,              !- Vertex 4 Ycoordinate
    9;                        !- Vertex 4 Zcoordinate

BUILDINGSURFACE:DETAILED,
    Block 2d767abdf9f08afe_2 Storey 2 Wall 0003_1,    !- Name
    wall,                     !- Surface Type
    EU_wall_Construction,     !- Construction Name
    2d767abdf9f08afe_F2_dwelling_2,    !- Zone Name
    ,                         !- Space Name
    surface,                  !- Outside Boundary Condition
    Block 2d767abdf9f08afe_0 Storey 2 Wall 0002_1,    !- Outside Boundary Condition Object
    NoSun,                    !- Sun Exposure
    NoWind,                   !- Wind Exposure
    autocalculate,            !- View Factor to Ground
    autocalculate,            !- Number of Vertices
    686661.106,               !- Vertex 1 Xcoordinate
    4928529.233,              !- Vertex 1 Ycoordinate
    9,                        !- Vertex 1 Zcoordinate
    686661.106,               !- Vertex 2 Xcoordinate
    4928529.233,              !- Vertex 2 Ycoordinate
    6,                        !- Vertex 2 Zcoordinate
    686657.003,               !- Vertex 3 Xcoordinate
    4928517.331,              !- Vertex 3 Ycoordinate
    6,                        !- Vertex 3 Zcoordinate
    686657.003,               !- Vertex 4 Xcoordinate
    4928517.331,              !- Vertex 4 Ycoordinate
    9;                        !- Vertex 4 Zcoordinate

BUILDINGSURFACE:DETAILED,
    Block 2d767abdf9f08afe_0 Storey 2 Ceiling 0001_1,    !- Name
    ceiling,                  !- Surface Type
    EU_floor_Construction,    !- Construction Name
    2d767abdf9f08afe_F2_dwelling_0,    !- Zone Name
    ,                         !- Space Name
    Surface,                  !- Outside Boundary Condition
    Block 2d767abdf9f08afe_0 Storey 3 Floor 0001_1,    !- Outside Boundary Condition Object
    NoSun,                    !- Sun Exposure
    NoWind,                   !- Wind Exposure
    autocalculate,            !- View Factor to Ground
    autocalculate,            !- Number of Vertices
    686671.409,               !- Vertex 1 Xcoordinate
    4928525.677,              !- Vertex 1 Ycoordinate
    9,                        !- Vertex 1 Zcoordinate
    686667.3089999999,        !- Vertex 2 Xcoordinate
    4928513.778,              !- Vertex 2 Ycoordinate
    9,                        !- Vertex 2 Zcoordinate
    686657.003,               !- Vertex 3 Xcoordinate
    4928517.331,              !- Vertex 3 Ycoordinate
    9,                        !- Vertex 3 Zcoordinate
    686661.1059999997,        !- Vertex 4 Xcoordinate
    4928529.233,              !- Vertex 4 Ycoordinate
    9;                        !- Vertex 4 Zcoordinate

BUILDINGSURFACE:DETAILED,
    Block 2d767abdf9f08afe_0 Storey 3 Floor 0001_1,    !- Name
    floor,                    !- Surface Type
    EU_floor_Construction,    !- Construction Name
    2d767abdf9f08afe_F3_dwelling_0,    !- Zone Name
    ,                         !- Space Name
    Surface,                  !- Outside Boundary Condition
    Block 2d767abdf9f08afe_0 Storey 2 Ceiling 0001_1,    !- Outside Boundary Condition Object
    NoSun,                    !- Sun Exposure
    NoWind,                   !- Wind Exposure
    autocalculate,            !- View Factor to Ground
    autocalculate,            !- Number of Vertices
    686667.3089999999,        !- Vertex 1 Xcoordinate
    4928513.778,              !- Vertex 1 Ycoordinate
    9,                        !- Vertex 1 Zcoordinate
    686671.409,               !- Vertex 2 Xcoordinate
    4928525.677,              !- Vertex 2 Ycoordinate
    9,                        !- Vertex 2 Zcoordinate
    686661.1059999997,        !- Vertex 3 Xcoordinate
    4928529.233,              !- Vertex 3 Ycoordinate
    9,                        !- Vertex 3 Zcoordinate
    686657.003,               !- Vertex 4 Xcoordinate
    4928517.331,              !- Vertex 4 Ycoordinate
    9;                        !- Vertex 4 Zcoordinate

BUILDINGSURFACE:DETAILED,
    Block 2d767abdf9f08afe_0 Storey 3 Wall 0002_1,    !- Name
    wall,                     !- Surface Type
    EU_wall_Construction,     !- Construction Name
    2d767abdf9f08afe_F3_dwelling_0,    !- Zone Name
    ,                         !- Space Name
    surface,                  !- Outside Boundary Condition
    Block 2d767abdf9f08afe_2 Storey 3 Wall 0003_1,    !- Outside Boundary Condition Object
    NoSun,                    !- Sun Exposure
    NoWind,                   !- Wind Exposure
    autocalculate,            !- View Factor to Ground
    autocalculate,            !- Number of Vertices
    686657.003,               !- Vertex 1 Xcoordinate
    4928517.331,              !- Vertex 1 Ycoordinate
    12,                       !- Vertex 1 Zcoordinate
    686657.003,               !- Vertex 2 Xcoordinate
    4928517.331,              !- Vertex 2 Ycoordinate
    9,                        !- Vertex 2 Zcoordinate
    686661.106,               !- Vertex 3 Xcoordinate
    4928529.233,              !- Vertex 3 Ycoordinate
    9,                        !- Vertex 3 Zcoordinate
    686661.106,               !- Vertex 4 Xcoordinate
    4928529.233,              !- Vertex 4 Ycoordinate
    12;                       !- Vertex 4 Zcoordinate

BUILDINGSURFACE:DETAILED,
    Block 2d767abdf9f08afe_2 Storey 3 Wall 0003_1,    !- Name
    wall,                     !- Surface Type
    EU_wall_Construction,     !- Construction Name
    2d767abdf9f08afe_F3_dwelling_2,    !- Zone Name
    ,                         !- Space Name
    surface,                  !- Outside Boundary Condition
    Block 2d767abdf9f08afe_0 Storey 3 Wall 0002_1,    !- Outside Boundary Condition Object
    NoSun,                    !- Sun Exposure
    NoWind,                   !- Wind Exposure
    autocalculate,            !- View Factor to Ground
    autocalculate,            !- Number of Vertices
    686661.106,               !- Vertex 1 Xcoordinate
    4928529.233,              !- Vertex 1 Ycoordinate
    12,                       !- Vertex 1 Zcoordinate
    686661.106,               !- Vertex 2 Xcoordinate
    4928529.233,              !- Vertex 2 Ycoordinate
    9,                        !- Vertex 2 Zcoordinate
    686657.003,               !- Vertex 3 Xcoordinate
    4928517.331,              !- Vertex 3 Ycoordinate
    9,                        !- Vertex 3 Zcoordinate
    686657.003,               !- Vertex 4 Xcoordinate
    4928517.331,              !- Vertex 4 Ycoordinate
    12;                       !- Vertex 4 Zcoordinate

BUILDINGSURFACE:DETAILED,
    Block 2d767abdf9f08afe_0 Storey 3 Ceiling 0001_1,    !- Name
    ceiling,                  !- Surface Type
    EU_floor_Construction,    !- Construction Name
    2d767abdf9f08afe_F3_dwelling_0,    !- Zone Name
    ,                         !- Space Name
    Surface,                  !- Outside Boundary Condition
    Block 2d767abdf9f08afe_0 Storey 4 Floor 0001_1,    !- Outside Boundary Condition Object
    NoSun,                    !- Sun Exposure
    NoWind,                   !- Wind Exposure
    autocalculate,            !- View Factor to Ground
    autocalculate,            !- Number of Vertices
    686671.409,               !- Vertex 1 Xcoordinate
    4928525.677,              !- Vertex 1 Ycoordinate
    12,                       !- Vertex 1 Zcoordinate
    686667.3089999999,        !- Vertex 2 Xcoordinate
    4928513.778,              !- Vertex 2 Ycoordinate
    12,                       !- Vertex 2 Zcoordinate
    686657.003,               !- Vertex 3 Xcoordinate
    4928517.331,              !- Vertex 3 Ycoordinate
    12,                       !- Vertex 3 Zcoordinate
    686661.1059999997,        !- Vertex 4 Xcoordinate
    4928529.233,              !- Vertex 4 Ycoordinate
    12;                       !- Vertex 4 Zcoordinate

BUILDINGSURFACE:DETAILED,
    Block 2d767abdf9f08afe_0 Storey 4 Floor 0001_1,    !- Name
    floor,                    !- Surface Type
    EU_floor_Construction,    !- Construction Name
    2d767abdf9f08afe_F4_dwelling_0,    !- Zone Name
    ,                         !- Space Name
    Surface,                  !- Outside Boundary Condition
    Block 2d767abdf9f08afe_0 Storey 3 Ceiling 0001_1,    !- Outside Boundary Condition Object
    NoSun,                    !- Sun Exposure
    NoWind,                   !- Wind Exposure
    autocalculate,            !- View Factor to Ground
    autocalculate,            !- Number of Vertices
    686667.3089999999,        !- Vertex 1 Xcoordinate
    4928513.778,              !- Vertex 1 Ycoordinate
    12,                       !- Vertex 1 Zcoordinate
    686671.409,               !- Vertex 2 Xcoordinate
    4928525.677,              !- Vertex 2 Ycoordinate
    12,                       !- Vertex 2 Zcoordinate
    686661.1059999997,        !- Vertex 3 Xcoordinate
    4928529.233,              !- Vertex 3 Ycoordinate
    12,                       !- Vertex 3 Zcoordinate
    686657.003,               !- Vertex 4 Xcoordinate
    4928517.331,              !- Vertex 4 Ycoordinate
    12;                       !- Vertex 4 Zcoordinate

BUILDINGSURFACE:DETAILED,
    Block 2d767abdf9f08afe_0 Storey 4 Ceiling 0001_1,    !- Name
    ceiling,                  !- Surface Type
    EU_floor_Construction,    !- Construction Name
    2d767abdf9f08afe_F4_dwelling_0,    !- Zone Name
    ,                         !- Space Name
    Surface,                  !- Outside Boundary Condition
    Block 2d767abdf9f08afe_0 Storey 5 Floor 0001_1,    !- Outside Boundary Condition Object
    NoSun,                    !- Sun Exposure
    NoWind,                   !- Wind Exposure
    autocalculate,            !- View Factor to Ground
    autocalculate,            !- Number of Vertices
    686671.409,               !- Vertex 1 Xcoordinate
    4928525.677,              !- Vertex 1 Ycoordinate
    15,                       !- Vertex 1 Zcoordinate
    686667.3089999999,        !- Vertex 2 Xcoordinate
    4928513.778,              !- Vertex 2 Ycoordinate
    15,                       !- Vertex 2 Zcoordinate
    686657.003,               !- Vertex 3 Xcoordinate
    4928517.331,              !- Vertex 3 Ycoordinate
    15,                       !- Vertex 3 Zcoordinate
    686661.1059999997,        !- Vertex 4 Xcoordinate
    4928529.233,              !- Vertex 4 Ycoordinate
    15;                       !- Vertex 4 Zcoordinate

BUILDINGSURFACE:DETAILED,
    Block 2d767abdf9f08afe_0 Storey 5 Floor 0001_1,    !- Name
    floor,                    !- Surface Type
    EU_floor_Construction,    !- Construction Name
    2d767abdf9f08afe_F5_dwelling_0,    !- Zone Name
    ,                         !- Space Name
    Surface,                  !- Outside Boundary Condition
    Block 2d767abdf9f08afe_0 Storey 4 Ceiling 0001_1,    !- Outside Boundary Condition Object
    NoSun,                    !- Sun Exposure
    NoWind,                   !- Wind Exposure
    autocalculate,            !- View Factor to Ground
    autocalculate,            !- Number of Vertices
    686667.3089999999,        !- Vertex 1 Xcoordinate
    4928513.778,              !- Vertex 1 Ycoordinate
    15,                       !- Vertex 1 Zcoordinate
    686671.409,               !- Vertex 2 Xcoordinate
    4928525.677,              !- Vertex 2 Ycoordinate
    15,                       !- Vertex 2 Zcoordinate
    686661.1059999997,        !- Vertex 3 Xcoordinate
    4928529.233,              !- Vertex 3 Ycoordinate
    15,                       !- Vertex 3 Zcoordinate
    686657.003,               !- Vertex 4 Xcoordinate
    4928517.331,              !- Vertex 4 Ycoordinate
    15;                       !- Vertex 4 Zcoordinate

BUILDINGSURFACE:DETAILED,
    Block 2d767abdf9f08afe_1 Storey 0 Wall 0002_1,    !- Name
    wall,                     !- Surface Type
    EU_wall_Construction,     !- Construction Name
    2d767abdf9f08afe_F0_dwelling_1,    !- Zone Name
    ,                         !- Space Name
    surface,                  !- Outside Boundary Condition
    Block 2d767abdf9f08afe_2 Storey 0 Wall 0001_1,    !- Outside Boundary Condition Object
    NoSun,                    !- Sun Exposure
    NoWind,                   !- Wind Exposure
    autocalculate,            !- View Factor to Ground
    autocalculate,            !- Number of Vertices
    686655.956,               !- Vertex 1 Xcoordinate
    4928531.011,              !- Vertex 1 Ycoordinate
    3,                        !- Vertex 1 Zcoordinate
    686655.956,               !- Vertex 2 Xcoordinate
    4928531.011,              !- Vertex 2 Ycoordinate
    0,                        !- Vertex 2 Zcoordinate
    686653.219,               !- Vertex 3 Xcoordinate
    4928523.074,              !- Vertex 3 Ycoordinate
    0,                        !- Vertex 3 Zcoordinate
    686653.219,               !- Vertex 4 Xcoordinate
    4928523.074,              !- Vertex 4 Ycoordinate
    3;                        !- Vertex 4 Zcoordinate

BUILDINGSURFACE:DETAILED,
    Block 2d767abdf9f08afe_2 Storey 0 Wall 0001_1,    !- Name
    wall,                     !- Surface Type
    EU_wall_Construction,     !- Construction Name
    2d767abdf9f08afe_F0_dwelling_2,    !- Zone Name
    ,                         !- Space Name
    surface,                  !- Outside Boundary Condition
    Block 2d767abdf9f08afe_1 Storey 0 Wall 0002_1,    !- Outside Boundary Condition Object
    NoSun,                    !- Sun Exposure
    NoWind,                   !- Wind Exposure
    autocalculate,            !- View Factor to Ground
    autocalculate,            !- Number of Vertices
    686653.219,               !- Vertex 1 Xcoordinate
    4928523.074,              !- Vertex 1 Ycoordinate
    3,                        !- Vertex 1 Zcoordinate
    686653.219,               !- Vertex 2 Xcoordinate
    4928523.074,              !- Vertex 2 Ycoordinate
    0,                        !- Vertex 2 Zcoordinate
    686655.956,               !- Vertex 3 Xcoordinate
    4928531.011,              !- Vertex 3 Ycoordinate
    0,                        !- Vertex 3 Zcoordinate
    686655.956,               !- Vertex 4 Xcoordinate
    4928531.011,              !- Vertex 4 Ycoordinate
    3;                        !- Vertex 4 Zcoordinate

BUILDINGSURFACE:DETAILED,
    Block 2d767abdf9f08afe_1 Storey 0 Wall 0003_1,    !- Name
    wall,                     !- Surface Type
    EU_wall_Construction,     !- Construction Name
    2d767abdf9f08afe_F0_dwelling_1,    !- Zone Name
    ,                         !- Space Name
    surface,                  !- Outside Boundary Condition
    Block 2d767abdf9f08afe_2 Storey 0 Wall 0006_1,    !- Outside Boundary Condition Object
    NoSun,                    !- Sun Exposure
    NoWind,                   !- Wind Exposure
    autocalculate,            !- View Factor to Ground
    autocalculate,            !- Number of Vertices
    686653.219,               !- Vertex 1 Xcoordinate
    4928523.074,              !- Vertex 1 Ycoordinate
    3,                        !- Vertex 1 Zcoordinate
    686653.219,               !- Vertex 2 Xcoordinate
    4928523.074,              !- Vertex 2 Ycoordinate
    0,                        !- Vertex 2 Zcoordinate
    686637.7659999998,        !- Vertex 3 Xcoordinate
    4928528.402,              !- Vertex 3 Ycoordinate
    0,                        !- Vertex 3 Zcoordinate
    686637.7659999998,        !- Vertex 4 Xcoordinate
    4928528.402,              !- Vertex 4 Ycoordinate
    3;                        !- Vertex 4 Zcoordinate

BUILDINGSURFACE:DETAILED,
    Block 2d767abdf9f08afe_2 Storey 0 Wall 0006_1,    !- Name
    wall,                     !- Surface Type
    EU_wall_Construction,     !- Construction Name
    2d767abdf9f08afe_F0_dwelling_2,    !- Zone Name
    ,                         !- Space Name
    surface,                  !- Outside Boundary Condition
    Block 2d767abdf9f08afe_1 Storey 0 Wall 0003_1,    !- Outside Boundary Condition Object
    NoSun,                    !- Sun Exposure
    NoWind,                   !- Wind Exposure
    autocalculate,            !- View Factor to Ground
    autocalculate,            !- Number of Vertices
    686637.7659999998,        !- Vertex 1 Xcoordinate
    4928528.402000001,        !- Vertex 1 Ycoordinate
    3,                        !- Vertex 1 Zcoordinate
    686637.7659999998,        !- Vertex 2 Xcoordinate
    4928528.402000001,        !- Vertex 2 Ycoordinate
    0,                        !- Vertex 2 Zcoordinate
    686653.219,               !- Vertex 3 Xcoordinate
    4928523.074000001,        !- Vertex 3 Ycoordinate
    0,                        !- Vertex 3 Zcoordinate
    686653.219,               !- Vertex 4 Xcoordinate
    4928523.074000001,        !- Vertex 4 Ycoordinate
    3;                        !- Vertex 4 Zcoordinate

BUILDINGSURFACE:DETAILED,
    Block 2d767abdf9f08afe_1 Storey 0 Ceiling 0001_1,    !- Name
    ceiling,                  !- Surface Type
    EU_floor_Construction,    !- Construction Name
    2d767abdf9f08afe_F0_dwelling_1,    !- Zone Name
    ,                         !- Space Name
    Surface,                  !- Outside Boundary Condition
    Block 2d767abdf9f08afe_1 Storey 1 Floor 0001_1,    !- Outside Boundary Condition Object
    NoSun,                    !- Sun Exposure
    NoWind,                   !- Wind Exposure
    autocalculate,            !- View Factor to Ground
    autocalculate,            !- Number of Vertices
    686655.9559999998,        !- Vertex 1 Xcoordinate
    4928531.011,              !- Vertex 1 Ycoordinate
    3,                        !- Vertex 1 Zcoordinate
    686653.219,               !- Vertex 2 Xcoordinate
    4928523.074,              !- Vertex 2 Ycoordinate
    3,                        !- Vertex 2 Zcoordinate
    686637.7659999998,        !- Vertex 3 Xcoordinate
    4928528.402,              !- Vertex 3 Ycoordinate
    3,                        !- Vertex 3 Zcoordinate
    686640.52,                !- Vertex 4 Xcoordinate
    4928536.338,              !- Vertex 4 Ycoordinate
    3;                        !- Vertex 4 Zcoordinate

BUILDINGSURFACE:DETAILED,
    Block 2d767abdf9f08afe_1 Storey 1 Floor 0001_1,    !- Name
    floor,                    !- Surface Type
    EU_floor_Construction,    !- Construction Name
    2d767abdf9f08afe_F1_dwelling_1,    !- Zone Name
    ,                         !- Space Name
    Surface,                  !- Outside Boundary Condition
    Block 2d767abdf9f08afe_1 Storey 0 Ceiling 0001_1,    !- Outside Boundary Condition Object
    NoSun,                    !- Sun Exposure
    NoWind,                   !- Wind Exposure
    autocalculate,            !- View Factor to Ground
    autocalculate,            !- Number of Vertices
    686653.219,               !- Vertex 1 Xcoordinate
    4928523.074,              !- Vertex 1 Ycoordinate
    3,                        !- Vertex 1 Zcoordinate
    686655.9559999998,        !- Vertex 2 Xcoordinate
    4928531.011,              !- Vertex 2 Ycoordinate
    3,                        !- Vertex 2 Zcoordinate
    686640.52,                !- Vertex 3 Xcoordinate
    4928536.338,              !- Vertex 3 Ycoordinate
    3,                        !- Vertex 3 Zcoordinate
    686637.7659999998,        !- Vertex 4 Xcoordinate
    4928528.402,              !- Vertex 4 Ycoordinate
    3;                        !- Vertex 4 Zcoordinate

BUILDINGSURFACE:DETAILED,
    Block 2d767abdf9f08afe_1 Storey 1 Wall 0002_1,    !- Name
    wall,                     !- Surface Type
    EU_wall_Construction,     !- Construction Name
    2d767abdf9f08afe_F1_dwelling_1,    !- Zone Name
    ,                         !- Space Name
    surface,                  !- Outside Boundary Condition
    Block 2d767abdf9f08afe_2 Storey 1 Wall 0001_1,    !- Outside Boundary Condition Object
    NoSun,                    !- Sun Exposure
    NoWind,                   !- Wind Exposure
    autocalculate,            !- View Factor to Ground
    autocalculate,            !- Number of Vertices
    686655.956,               !- Vertex 1 Xcoordinate
    4928531.011,              !- Vertex 1 Ycoordinate
    6,                        !- Vertex 1 Zcoordinate
    686655.956,               !- Vertex 2 Xcoordinate
    4928531.011,              !- Vertex 2 Ycoordinate
    3,                        !- Vertex 2 Zcoordinate
    686653.219,               !- Vertex 3 Xcoordinate
    4928523.074,              !- Vertex 3 Ycoordinate
    3,                        !- Vertex 3 Zcoordinate
    686653.219,               !- Vertex 4 Xcoordinate
    4928523.074,              !- Vertex 4 Ycoordinate
    6;                        !- Vertex 4 Zcoordinate

BUILDINGSURFACE:DETAILED,
    Block 2d767abdf9f08afe_2 Storey 1 Wall 0001_1,    !- Name
    wall,                     !- Surface Type
    EU_wall_Construction,     !- Construction Name
    2d767abdf9f08afe_F1_dwelling_2,    !- Zone Name
    ,                         !- Space Name
    surface,                  !- Outside Boundary Condition
    Block 2d767abdf9f08afe_1 Storey 1 Wall 0002_1,    !- Outside Boundary Condition Object
    NoSun,                    !- Sun Exposure
    NoWind,                   !- Wind Exposure
    autocalculate,            !- View Factor to Ground
    autocalculate,            !- Number of Vertices
    686653.219,               !- Vertex 1 Xcoordinate
    4928523.074,              !- Vertex 1 Ycoordinate
    6,                        !- Vertex 1 Zcoordinate
    686653.219,               !- Vertex 2 Xcoordinate
    4928523.074,              !- Vertex 2 Ycoordinate
    3,                        !- Vertex 2 Zcoordinate
    686655.956,               !- Vertex 3 Xcoordinate
    4928531.011,              !- Vertex 3 Ycoordinate
    3,                        !- Vertex 3 Zcoordinate
    686655.956,               !- Vertex 4 Xcoordinate
    4928531.011,              !- Vertex 4 Ycoordinate
    6;                        !- Vertex 4 Zcoordinate

BUILDINGSURFACE:DETAILED,
    Block 2d767abdf9f08afe_1 Storey 1 Wall 0003_1,    !- Name
    wall,                     !- Surface Type
    EU_wall_Construction,     !- Construction Name
    2d767abdf9f08afe_F1_dwelling_1,    !- Zone Name
    ,                         !- Space Name
    surface,                  !- Outside Boundary Condition
    Block 2d767abdf9f08afe_2 Storey 1 Wall 0006_1,    !- Outside Boundary Condition Object
    NoSun,                    !- Sun Exposure
    NoWind,                   !- Wind Exposure
    autocalculate,            !- View Factor to Ground
    autocalculate,            !- Number of Vertices
    686653.219,               !- Vertex 1 Xcoordinate
    4928523.074,              !- Vertex 1 Ycoordinate
    6,                        !- Vertex 1 Zcoordinate
    686653.219,               !- Vertex 2 Xcoordinate
    4928523.074,              !- Vertex 2 Ycoordinate
    3,                        !- Vertex 2 Zcoordinate
    686637.7659999998,        !- Vertex 3 Xcoordinate
    4928528.402,              !- Vertex 3 Ycoordinate
    3,                        !- Vertex 3 Zcoordinate
    686637.7659999998,        !- Vertex 4 Xcoordinate
    4928528.402,              !- Vertex 4 Ycoordinate
    6;                        !- Vertex 4 Zcoordinate

BUILDINGSURFACE:DETAILED,
    Block 2d767abdf9f08afe_2 Storey 1 Wall 0006_1,    !- Name
    wall,                     !- Surface Type
    EU_wall_Construction,     !- Construction Name
    2d767abdf9f08afe_F1_dwelling_2,    !- Zone Name
    ,                         !- Space Name
    surface,                  !- Outside Boundary Condition
    Block 2d767abdf9f08afe_1 Storey 1 Wall 0003_1,    !- Outside Boundary Condition Object
    NoSun,                    !- Sun Exposure
    NoWind,                   !- Wind Exposure
    autocalculate,            !- View Factor to Ground
    autocalculate,            !- Number of Vertices
    686637.7659999998,        !- Vertex 1 Xcoordinate
    4928528.402000001,        !- Vertex 1 Ycoordinate
    6,                        !- Vertex 1 Zcoordinate
    686637.7659999998,        !- Vertex 2 Xcoordinate
    4928528.402000001,        !- Vertex 2 Ycoordinate
    3,                        !- Vertex 2 Zcoordinate
    686653.219,               !- Vertex 3 Xcoordinate
    4928523.074000001,        !- Vertex 3 Ycoordinate
    3,                        !- Vertex 3 Zcoordinate
    686653.219,               !- Vertex 4 Xcoordinate
    4928523.074000001,        !- Vertex 4 Ycoordinate
    6;                        !- Vertex 4 Zcoordinate

BUILDINGSURFACE:DETAILED,
    Block 2d767abdf9f08afe_1 Storey 1 Ceiling 0001_1,    !- Name
    ceiling,                  !- Surface Type
    EU_floor_Construction,    !- Construction Name
    2d767abdf9f08afe_F1_dwelling_1,    !- Zone Name
    ,                         !- Space Name
    Surface,                  !- Outside Boundary Condition
    Block 2d767abdf9f08afe_1 Storey 2 Floor 0001_1,    !- Outside Boundary Condition Object
    NoSun,                    !- Sun Exposure
    NoWind,                   !- Wind Exposure
    autocalculate,            !- View Factor to Ground
    autocalculate,            !- Number of Vertices
    686655.9559999998,        !- Vertex 1 Xcoordinate
    4928531.011,              !- Vertex 1 Ycoordinate
    6,                        !- Vertex 1 Zcoordinate
    686653.219,               !- Vertex 2 Xcoordinate
    4928523.074,              !- Vertex 2 Ycoordinate
    6,                        !- Vertex 2 Zcoordinate
    686637.7659999998,        !- Vertex 3 Xcoordinate
    4928528.402,              !- Vertex 3 Ycoordinate
    6,                        !- Vertex 3 Zcoordinate
    686640.52,                !- Vertex 4 Xcoordinate
    4928536.338,              !- Vertex 4 Ycoordinate
    6;                        !- Vertex 4 Zcoordinate

BUILDINGSURFACE:DETAILED,
    Block 2d767abdf9f08afe_1 Storey 2 Floor 0001_1,    !- Name
    floor,                    !- Surface Type
    EU_floor_Construction,    !- Construction Name
    2d767abdf9f08afe_F2_dwelling_1,    !- Zone Name
    ,                         !- Space Name
    Surface,                  !- Outside Boundary Condition
    Block 2d767abdf9f08afe_1 Storey 1 Ceiling 0001_1,    !- Outside Boundary Condition Object
    NoSun,                    !- Sun Exposure
    NoWind,                   !- Wind Exposure
    autocalculate,            !- View Factor to Ground
    autocalculate,            !- Number of Vertices
    686653.219,               !- Vertex 1 Xcoordinate
    4928523.074,              !- Vertex 1 Ycoordinate
    6,                        !- Vertex 1 Zcoordinate
    686655.9559999998,        !- Vertex 2 Xcoordinate
    4928531.011,              !- Vertex 2 Ycoordinate
    6,                        !- Vertex 2 Zcoordinate
    686640.52,                !- Vertex 3 Xcoordinate
    4928536.338,              !- Vertex 3 Ycoordinate
    6,                        !- Vertex 3 Zcoordinate
    686637.7659999998,        !- Vertex 4 Xcoordinate
    4928528.402,              !- Vertex 4 Ycoordinate
    6;                        !- Vertex 4 Zcoordinate

BUILDINGSURFACE:DETAILED,
    Block 2d767abdf9f08afe_1 Storey 2 Wall 0002_1,    !- Name
    wall,                     !- Surface Type
    EU_wall_Construction,     !- Construction Name
    2d767abdf9f08afe_F2_dwelling_1,    !- Zone Name
    ,                         !- Space Name
    surface,                  !- Outside Boundary Condition
    Block 2d767abdf9f08afe_2 Storey 2 Wall 0001_1,    !- Outside Boundary Condition Object
    NoSun,                    !- Sun Exposure
    NoWind,                   !- Wind Exposure
    autocalculate,            !- View Factor to Ground
    autocalculate,            !- Number of Vertices
    686655.956,               !- Vertex 1 Xcoordinate
    4928531.011,              !- Vertex 1 Ycoordinate
    9,                        !- Vertex 1 Zcoordinate
    686655.956,               !- Vertex 2 Xcoordinate
    4928531.011,              !- Vertex 2 Ycoordinate
    6,                        !- Vertex 2 Zcoordinate
    686653.219,               !- Vertex 3 Xcoordinate
    4928523.074,              !- Vertex 3 Ycoordinate
    6,                        !- Vertex 3 Zcoordinate
    686653.219,               !- Vertex 4 Xcoordinate
    4928523.074,              !- Vertex 4 Ycoordinate
    9;                        !- Vertex 4 Zcoordinate

BUILDINGSURFACE:DETAILED,
    Block 2d767abdf9f08afe_2 Storey 2 Wall 0001_1,    !- Name
    wall,                     !- Surface Type
    EU_wall_Construction,     !- Construction Name
    2d767abdf9f08afe_F2_dwelling_2,    !- Zone Name
    ,                         !- Space Name
    surface,                  !- Outside Boundary Condition
    Block 2d767abdf9f08afe_1 Storey 2 Wall 0002_1,    !- Outside Boundary Condition Object
    NoSun,                    !- Sun Exposure
    NoWind,                   !- Wind Exposure
    autocalculate,            !- View Factor to Ground
    autocalculate,            !- Number of Vertices
    686653.219,               !- Vertex 1 Xcoordinate
    4928523.074,              !- Vertex 1 Ycoordinate
    9,                        !- Vertex 1 Zcoordinate
    686653.219,               !- Vertex 2 Xcoordinate
    4928523.074,              !- Vertex 2 Ycoordinate
    6,                        !- Vertex 2 Zcoordinate
    686655.956,               !- Vertex 3 Xcoordinate
    4928531.011,              !- Vertex 3 Ycoordinate
    6,                        !- Vertex 3 Zcoordinate
    686655.956,               !- Vertex 4 Xcoordinate
    4928531.011,              !- Vertex 4 Ycoordinate
    9;                        !- Vertex 4 Zcoordinate

BUILDINGSURFACE:DETAILED,
    Block 2d767abdf9f08afe_1 Storey 2 Wall 0003_1,    !- Name
    wall,                     !- Surface Type
    EU_wall_Construction,     !- Construction Name
    2d767abdf9f08afe_F2_dwelling_1,    !- Zone Name
    ,                         !- Space Name
    surface,                  !- Outside Boundary Condition
    Block 2d767abdf9f08afe_2 Storey 2 Wall 0006_1,    !- Outside Boundary Condition Object
    NoSun,                    !- Sun Exposure
    NoWind,                   !- Wind Exposure
    autocalculate,            !- View Factor to Ground
    autocalculate,            !- Number of Vertices
    686653.219,               !- Vertex 1 Xcoordinate
    4928523.074,              !- Vertex 1 Ycoordinate
    9,                        !- Vertex 1 Zcoordinate
    686653.219,               !- Vertex 2 Xcoordinate
    4928523.074,              !- Vertex 2 Ycoordinate
    6,                        !- Vertex 2 Zcoordinate
    686637.7659999998,        !- Vertex 3 Xcoordinate
    4928528.402,              !- Vertex 3 Ycoordinate
    6,                        !- Vertex 3 Zcoordinate
    686637.7659999998,        !- Vertex 4 Xcoordinate
    4928528.402,              !- Vertex 4 Ycoordinate
    9;                        !- Vertex 4 Zcoordinate

BUILDINGSURFACE:DETAILED,
    Block 2d767abdf9f08afe_2 Storey 2 Wall 0006_1,    !- Name
    wall,                     !- Surface Type
    EU_wall_Construction,     !- Construction Name
    2d767abdf9f08afe_F2_dwelling_2,    !- Zone Name
    ,                         !- Space Name
    surface,                  !- Outside Boundary Condition
    Block 2d767abdf9f08afe_1 Storey 2 Wall 0003_1,    !- Outside Boundary Condition Object
    NoSun,                    !- Sun Exposure
    NoWind,                   !- Wind Exposure
    autocalculate,            !- View Factor to Ground
    autocalculate,            !- Number of Vertices
    686637.7659999998,        !- Vertex 1 Xcoordinate
    4928528.402000001,        !- Vertex 1 Ycoordinate
    9,                        !- Vertex 1 Zcoordinate
    686637.7659999998,        !- Vertex 2 Xcoordinate
    4928528.402000001,        !- Vertex 2 Ycoordinate
    6,                        !- Vertex 2 Zcoordinate
    686653.219,               !- Vertex 3 Xcoordinate
    4928523.074000001,        !- Vertex 3 Ycoordinate
    6,                        !- Vertex 3 Zcoordinate
    686653.219,               !- Vertex 4 Xcoordinate
    4928523.074000001,        !- Vertex 4 Ycoordinate
    9;                        !- Vertex 4 Zcoordinate

BUILDINGSURFACE:DETAILED,
    Block 2d767abdf9f08afe_1 Storey 2 Ceiling 0001_1,    !- Name
    ceiling,                  !- Surface Type
    EU_floor_Construction,    !- Construction Name
    2d767abdf9f08afe_F2_dwelling_1,    !- Zone Name
    ,                         !- Space Name
    Surface,                  !- Outside Boundary Condition
    Block 2d767abdf9f08afe_1 Storey 3 Floor 0001_1,    !- Outside Boundary Condition Object
    NoSun,                    !- Sun Exposure
    NoWind,                   !- Wind Exposure
    autocalculate,            !- View Factor to Ground
    autocalculate,            !- Number of Vertices
    686655.9559999998,        !- Vertex 1 Xcoordinate
    4928531.011,              !- Vertex 1 Ycoordinate
    9,                        !- Vertex 1 Zcoordinate
    686653.219,               !- Vertex 2 Xcoordinate
    4928523.074,              !- Vertex 2 Ycoordinate
    9,                        !- Vertex 2 Zcoordinate
    686637.7659999998,        !- Vertex 3 Xcoordinate
    4928528.402,              !- Vertex 3 Ycoordinate
    9,                        !- Vertex 3 Zcoordinate
    686640.52,                !- Vertex 4 Xcoordinate
    4928536.338,              !- Vertex 4 Ycoordinate
    9;                        !- Vertex 4 Zcoordinate

BUILDINGSURFACE:DETAILED,
    Block 2d767abdf9f08afe_1 Storey 3 Floor 0001_1,    !- Name
    floor,                    !- Surface Type
    EU_floor_Construction,    !- Construction Name
    2d767abdf9f08afe_F3_dwelling_1,    !- Zone Name
    ,                         !- Space Name
    Surface,                  !- Outside Boundary Condition
    Block 2d767abdf9f08afe_1 Storey 2 Ceiling 0001_1,    !- Outside Boundary Condition Object
    NoSun,                    !- Sun Exposure
    NoWind,                   !- Wind Exposure
    autocalculate,            !- View Factor to Ground
    autocalculate,            !- Number of Vertices
    686653.219,               !- Vertex 1 Xcoordinate
    4928523.074,              !- Vertex 1 Ycoordinate
    9,                        !- Vertex 1 Zcoordinate
    686655.9559999998,        !- Vertex 2 Xcoordinate
    4928531.011,              !- Vertex 2 Ycoordinate
    9,                        !- Vertex 2 Zcoordinate
    686640.52,                !- Vertex 3 Xcoordinate
    4928536.338,              !- Vertex 3 Ycoordinate
    9,                        !- Vertex 3 Zcoordinate
    686637.7659999998,        !- Vertex 4 Xcoordinate
    4928528.402,              !- Vertex 4 Ycoordinate
    9;                        !- Vertex 4 Zcoordinate

BUILDINGSURFACE:DETAILED,
    Block 2d767abdf9f08afe_1 Storey 3 Wall 0002_1,    !- Name
    wall,                     !- Surface Type
    EU_wall_Construction,     !- Construction Name
    2d767abdf9f08afe_F3_dwelling_1,    !- Zone Name
    ,                         !- Space Name
    surface,                  !- Outside Boundary Condition
    Block 2d767abdf9f08afe_2 Storey 3 Wall 0001_1,    !- Outside Boundary Condition Object
    NoSun,                    !- Sun Exposure
    NoWind,                   !- Wind Exposure
    autocalculate,            !- View Factor to Ground
    autocalculate,            !- Number of Vertices
    686655.956,               !- Vertex 1 Xcoordinate
    4928531.011,              !- Vertex 1 Ycoordinate
    12,                       !- Vertex 1 Zcoordinate
    686655.956,               !- Vertex 2 Xcoordinate
    4928531.011,              !- Vertex 2 Ycoordinate
    9,                        !- Vertex 2 Zcoordinate
    686653.219,               !- Vertex 3 Xcoordinate
    4928523.074,              !- Vertex 3 Ycoordinate
    9,                        !- Vertex 3 Zcoordinate
    686653.219,               !- Vertex 4 Xcoordinate
    4928523.074,              !- Vertex 4 Ycoordinate
    12;                       !- Vertex 4 Zcoordinate

BUILDINGSURFACE:DETAILED,
    Block 2d767abdf9f08afe_2 Storey 3 Wall 0001_1,    !- Name
    wall,                     !- Surface Type
    EU_wall_Construction,     !- Construction Name
    2d767abdf9f08afe_F3_dwelling_2,    !- Zone Name
    ,                         !- Space Name
    surface,                  !- Outside Boundary Condition
    Block 2d767abdf9f08afe_1 Storey 3 Wall 0002_1,    !- Outside Boundary Condition Object
    NoSun,                    !- Sun Exposure
    NoWind,                   !- Wind Exposure
    autocalculate,            !- View Factor to Ground
    autocalculate,            !- Number of Vertices
    686653.219,               !- Vertex 1 Xcoordinate
    4928523.074,              !- Vertex 1 Ycoordinate
    12,                       !- Vertex 1 Zcoordinate
    686653.219,               !- Vertex 2 Xcoordinate
    4928523.074,              !- Vertex 2 Ycoordinate
    9,                        !- Vertex 2 Zcoordinate
    686655.956,               !- Vertex 3 Xcoordinate
    4928531.011,              !- Vertex 3 Ycoordinate
    9,                        !- Vertex 3 Zcoordinate
    686655.956,               !- Vertex 4 Xcoordinate
    4928531.011,              !- Vertex 4 Ycoordinate
    12;                       !- Vertex 4 Zcoordinate

BUILDINGSURFACE:DETAILED,
    Block 2d767abdf9f08afe_1 Storey 3 Wall 0003_1,    !- Name
    wall,                     !- Surface Type
    EU_wall_Construction,     !- Construction Name
    2d767abdf9f08afe_F3_dwelling_1,    !- Zone Name
    ,                         !- Space Name
    surface,                  !- Outside Boundary Condition
    Block 2d767abdf9f08afe_2 Storey 3 Wall 0006_1,    !- Outside Boundary Condition Object
    NoSun,                    !- Sun Exposure
    NoWind,                   !- Wind Exposure
    autocalculate,            !- View Factor to Ground
    autocalculate,            !- Number of Vertices
    686653.219,               !- Vertex 1 Xcoordinate
    4928523.074,              !- Vertex 1 Ycoordinate
    12,                       !- Vertex 1 Zcoordinate
    686653.219,               !- Vertex 2 Xcoordinate
    4928523.074,              !- Vertex 2 Ycoordinate
    9,                        !- Vertex 2 Zcoordinate
    686637.7659999998,        !- Vertex 3 Xcoordinate
    4928528.402,              !- Vertex 3 Ycoordinate
    9,                        !- Vertex 3 Zcoordinate
    686637.7659999998,        !- Vertex 4 Xcoordinate
    4928528.402,              !- Vertex 4 Ycoordinate
    12;                       !- Vertex 4 Zcoordinate

BUILDINGSURFACE:DETAILED,
    Block 2d767abdf9f08afe_2 Storey 3 Wall 0006_1,    !- Name
    wall,                     !- Surface Type
    EU_wall_Construction,     !- Construction Name
    2d767abdf9f08afe_F3_dwelling_2,    !- Zone Name
    ,                         !- Space Name
    surface,                  !- Outside Boundary Condition
    Block 2d767abdf9f08afe_1 Storey 3 Wall 0003_1,    !- Outside Boundary Condition Object
    NoSun,                    !- Sun Exposure
    NoWind,                   !- Wind Exposure
    autocalculate,            !- View Factor to Ground
    autocalculate,            !- Number of Vertices
    686637.7659999998,        !- Vertex 1 Xcoordinate
    4928528.402000001,        !- Vertex 1 Ycoordinate
    12,                       !- Vertex 1 Zcoordinate
    686637.7659999998,        !- Vertex 2 Xcoordinate
    4928528.402000001,        !- Vertex 2 Ycoordinate
    9,                        !- Vertex 2 Zcoordinate
    686653.219,               !- Vertex 3 Xcoordinate
    4928523.074000001,        !- Vertex 3 Ycoordinate
    9,                        !- Vertex 3 Zcoordinate
    686653.219,               !- Vertex 4 Xcoordinate
    4928523.074000001,        !- Vertex 4 Ycoordinate
    12;                       !- Vertex 4 Zcoordinate

BUILDINGSURFACE:DETAILED,
    Block 2d767abdf9f08afe_1 Storey 3 Ceiling 0001_1,    !- Name
    ceiling,                  !- Surface Type
    EU_floor_Construction,    !- Construction Name
    2d767abdf9f08afe_F3_dwelling_1,    !- Zone Name
    ,                         !- Space Name
    Surface,                  !- Outside Boundary Condition
    Block 2d767abdf9f08afe_1 Storey 4 Floor 0001_1,    !- Outside Boundary Condition Object
    NoSun,                    !- Sun Exposure
    NoWind,                   !- Wind Exposure
    autocalculate,            !- View Factor to Ground
    autocalculate,            !- Number of Vertices
    686655.9559999998,        !- Vertex 1 Xcoordinate
    4928531.011,              !- Vertex 1 Ycoordinate
    12,                       !- Vertex 1 Zcoordinate
    686653.219,               !- Vertex 2 Xcoordinate
    4928523.074,              !- Vertex 2 Ycoordinate
    12,                       !- Vertex 2 Zcoordinate
    686637.7659999998,        !- Vertex 3 Xcoordinate
    4928528.402,              !- Vertex 3 Ycoordinate
    12,                       !- Vertex 3 Zcoordinate
    686640.52,                !- Vertex 4 Xcoordinate
    4928536.338,              !- Vertex 4 Ycoordinate
    12;                       !- Vertex 4 Zcoordinate

BUILDINGSURFACE:DETAILED,
    Block 2d767abdf9f08afe_1 Storey 4 Floor 0001_1,    !- Name
    floor,                    !- Surface Type
    EU_floor_Construction,    !- Construction Name
    2d767abdf9f08afe_F4_dwelling_1,    !- Zone Name
    ,                         !- Space Name
    Surface,                  !- Outside Boundary Condition
    Block 2d767abdf9f08afe_1 Storey 3 Ceiling 0001_1,    !- Outside Boundary Condition Object
    NoSun,                    !- Sun Exposure
    NoWind,                   !- Wind Exposure
    autocalculate,            !- View Factor to Ground
    autocalculate,            !- Number of Vertices
    686653.219,               !- Vertex 1 Xcoordinate
    4928523.074,              !- Vertex 1 Ycoordinate
    12,                       !- Vertex 1 Zcoordinate
    686655.9559999998,        !- Vertex 2 Xcoordinate
    4928531.011,              !- Vertex 2 Ycoordinate
    12,                       !- Vertex 2 Zcoordinate
    686640.52,                !- Vertex 3 Xcoordinate
    4928536.338,              !- Vertex 3 Ycoordinate
    12,                       !- Vertex 3 Zcoordinate
    686637.7659999998,        !- Vertex 4 Xcoordinate
    4928528.402,              !- Vertex 4 Ycoordinate
    12;                       !- Vertex 4 Zcoordinate

BUILDINGSURFACE:DETAILED,
    Block 2d767abdf9f08afe_1 Storey 4 Ceiling 0001_1,    !- Name
    ceiling,                  !- Surface Type
    EU_floor_Construction,    !- Construction Name
    2d767abdf9f08afe_F4_dwelling_1,    !- Zone Name
    ,                         !- Space Name
    Surface,                  !- Outside Boundary Condition
    Block 2d767abdf9f08afe_1 Storey 5 Floor 0001_1,    !- Outside Boundary Condition Object
    NoSun,                    !- Sun Exposure
    NoWind,                   !- Wind Exposure
    autocalculate,            !- View Factor to Ground
    autocalculate,            !- Number of Vertices
    686655.9559999998,        !- Vertex 1 Xcoordinate
    4928531.011,              !- Vertex 1 Ycoordinate
    15,                       !- Vertex 1 Zcoordinate
    686653.219,               !- Vertex 2 Xcoordinate
    4928523.074,              !- Vertex 2 Ycoordinate
    15,                       !- Vertex 2 Zcoordinate
    686637.7659999998,        !- Vertex 3 Xcoordinate
    4928528.402,              !- Vertex 3 Ycoordinate
    15,                       !- Vertex 3 Zcoordinate
    686640.52,                !- Vertex 4 Xcoordinate
    4928536.338,              !- Vertex 4 Ycoordinate
    15;                       !- Vertex 4 Zcoordinate

BUILDINGSURFACE:DETAILED,
    Block 2d767abdf9f08afe_1 Storey 5 Floor 0001_1,    !- Name
    floor,                    !- Surface Type
    EU_floor_Construction,    !- Construction Name
    2d767abdf9f08afe_F5_dwelling_1,    !- Zone Name
    ,                         !- Space Name
    Surface,                  !- Outside Boundary Condition
    Block 2d767abdf9f08afe_1 Storey 4 Ceiling 0001_1,    !- Outside Boundary Condition Object
    NoSun,                    !- Sun Exposure
    NoWind,                   !- Wind Exposure
    autocalculate,            !- View Factor to Ground
    autocalculate,            !- Number of Vertices
    686653.219,               !- Vertex 1 Xcoordinate
    4928523.074,              !- Vertex 1 Ycoordinate
    15,                       !- Vertex 1 Zcoordinate
    686655.9559999998,        !- Vertex 2 Xcoordinate
    4928531.011,              !- Vertex 2 Ycoordinate
    15,                       !- Vertex 2 Zcoordinate
    686640.52,                !- Vertex 3 Xcoordinate
    4928536.338,              !- Vertex 3 Ycoordinate
    15,                       !- Vertex 3 Zcoordinate
    686637.7659999998,        !- Vertex 4 Xcoordinate
    4928528.402,              !- Vertex 4 Ycoordinate
    15;                       !- Vertex 4 Zcoordinate

BUILDINGSURFACE:DETAILED,
    Block 2d767abdf9f08afe_2 Storey 0 Ceiling 0001_1,    !- Name
    ceiling,                  !- Surface Type
    EU_floor_Construction,    !- Construction Name
    2d767abdf9f08afe_F0_dwelling_2,    !- Zone Name
    ,                         !- Space Name
    Surface,                  !- Outside Boundary Condition
    Block 2d767abdf9f08afe_2 Storey 1 Floor 0001_1,    !- Outside Boundary Condition Object
    NoSun,                    !- Sun Exposure
    NoWind,                   !- Wind Exposure
    autocalculate,            !- View Factor to Ground
    autocalculate,            !- Number of Vertices
    686661.1059999997,        !- Vertex 1 Xcoordinate
    4928529.233,              !- Vertex 1 Ycoordinate
    3,                        !- Vertex 1 Zcoordinate
    686657.003,               !- Vertex 2 Xcoordinate
    4928517.331,              !- Vertex 2 Ycoordinate
    3,                        !- Vertex 2 Zcoordinate
    686636.3899999997,        !- Vertex 3 Xcoordinate
    4928524.438,              !- Vertex 3 Ycoordinate
    3,                        !- Vertex 3 Zcoordinate
    686637.7659999998,        !- Vertex 4 Xcoordinate
    4928528.402,              !- Vertex 4 Ycoordinate
    3,                        !- Vertex 4 Zcoordinate
    686653.219,               !- Vertex 5 Xcoordinate
    4928523.074,              !- Vertex 5 Ycoordinate
    3,                        !- Vertex 5 Zcoordinate
    686655.9559999998,        !- Vertex 6 Xcoordinate
    4928531.011,              !- Vertex 6 Ycoordinate
    3;                        !- Vertex 6 Zcoordinate

BUILDINGSURFACE:DETAILED,
    Block 2d767abdf9f08afe_2 Storey 1 Floor 0001_1,    !- Name
    floor,                    !- Surface Type
    EU_floor_Construction,    !- Construction Name
    2d767abdf9f08afe_F1_dwelling_2,    !- Zone Name
    ,                         !- Space Name
    Surface,                  !- Outside Boundary Condition
    Block 2d767abdf9f08afe_2 Storey 0 Ceiling 0001_1,    !- Outside Boundary Condition Object
    NoSun,                    !- Sun Exposure
    NoWind,                   !- Wind Exposure
    autocalculate,            !- View Factor to Ground
    autocalculate,            !- Number of Vertices
    686657.003,               !- Vertex 1 Xcoordinate
    4928517.331,              !- Vertex 1 Ycoordinate
    3,                        !- Vertex 1 Zcoordinate
    686661.1059999997,        !- Vertex 2 Xcoordinate
    4928529.233,              !- Vertex 2 Ycoordinate
    3,                        !- Vertex 2 Zcoordinate
    686655.9559999998,        !- Vertex 3 Xcoordinate
    4928531.011,              !- Vertex 3 Ycoordinate
    3,                        !- Vertex 3 Zcoordinate
    686653.219,               !- Vertex 4 Xcoordinate
    4928523.074,              !- Vertex 4 Ycoordinate
    3,                        !- Vertex 4 Zcoordinate
    686637.7659999998,        !- Vertex 5 Xcoordinate
    4928528.402,              !- Vertex 5 Ycoordinate
    3,                        !- Vertex 5 Zcoordinate
    686636.3899999997,        !- Vertex 6 Xcoordinate
    4928524.438,              !- Vertex 6 Ycoordinate
    3;                        !- Vertex 6 Zcoordinate

BUILDINGSURFACE:DETAILED,
    Block 2d767abdf9f08afe_2 Storey 1 Ceiling 0001_1,    !- Name
    ceiling,                  !- Surface Type
    EU_floor_Construction,    !- Construction Name
    2d767abdf9f08afe_F1_dwelling_2,    !- Zone Name
    ,                         !- Space Name
    Surface,                  !- Outside Boundary Condition
    Block 2d767abdf9f08afe_2 Storey 2 Floor 0001_1,    !- Outside Boundary Condition Object
    NoSun,                    !- Sun Exposure
    NoWind,                   !- Wind Exposure
    autocalculate,            !- View Factor to Ground
    autocalculate,            !- Number of Vertices
    686661.1059999997,        !- Vertex 1 Xcoordinate
    4928529.233,              !- Vertex 1 Ycoordinate
    6,                        !- Vertex 1 Zcoordinate
    686657.003,               !- Vertex 2 Xcoordinate
    4928517.331,              !- Vertex 2 Ycoordinate
    6,                        !- Vertex 2 Zcoordinate
    686636.3899999997,        !- Vertex 3 Xcoordinate
    4928524.438,              !- Vertex 3 Ycoordinate
    6,                        !- Vertex 3 Zcoordinate
    686637.7659999998,        !- Vertex 4 Xcoordinate
    4928528.402,              !- Vertex 4 Ycoordinate
    6,                        !- Vertex 4 Zcoordinate
    686653.219,               !- Vertex 5 Xcoordinate
    4928523.074,              !- Vertex 5 Ycoordinate
    6,                        !- Vertex 5 Zcoordinate
    686655.9559999998,        !- Vertex 6 Xcoordinate
    4928531.011,              !- Vertex 6 Ycoordinate
    6;                        !- Vertex 6 Zcoordinate

BUILDINGSURFACE:DETAILED,
    Block 2d767abdf9f08afe_2 Storey 2 Floor 0001_1,    !- Name
    floor,                    !- Surface Type
    EU_floor_Construction,    !- Construction Name
    2d767abdf9f08afe_F2_dwelling_2,    !- Zone Name
    ,                         !- Space Name
    Surface,                  !- Outside Boundary Condition
    Block 2d767abdf9f08afe_2 Storey 1 Ceiling 0001_1,    !- Outside Boundary Condition Object
    NoSun,                    !- Sun Exposure
    NoWind,                   !- Wind Exposure
    autocalculate,            !- View Factor to Ground
    autocalculate,            !- Number of Vertices
    686657.003,               !- Vertex 1 Xcoordinate
    4928517.331,              !- Vertex 1 Ycoordinate
    6,                        !- Vertex 1 Zcoordinate
    686661.1059999997,        !- Vertex 2 Xcoordinate
    4928529.233,              !- Vertex 2 Ycoordinate
    6,                        !- Vertex 2 Zcoordinate
    686655.9559999998,        !- Vertex 3 Xcoordinate
    4928531.011,              !- Vertex 3 Ycoordinate
    6,                        !- Vertex 3 Zcoordinate
    686653.219,               !- Vertex 4 Xcoordinate
    4928523.074,              !- Vertex 4 Ycoordinate
    6,                        !- Vertex 4 Zcoordinate
    686637.7659999998,        !- Vertex 5 Xcoordinate
    4928528.402,              !- Vertex 5 Ycoordinate
    6,                        !- Vertex 5 Zcoordinate
    686636.3899999997,        !- Vertex 6 Xcoordinate
    4928524.438,              !- Vertex 6 Ycoordinate
    6;                        !- Vertex 6 Zcoordinate

BUILDINGSURFACE:DETAILED,
    Block 2d767abdf9f08afe_2 Storey 2 Ceiling 0001_1,    !- Name
    ceiling,                  !- Surface Type
    EU_floor_Construction,    !- Construction Name
    2d767abdf9f08afe_F2_dwelling_2,    !- Zone Name
    ,                         !- Space Name
    Surface,                  !- Outside Boundary Condition
    Block 2d767abdf9f08afe_2 Storey 3 Floor 0001_1,    !- Outside Boundary Condition Object
    NoSun,                    !- Sun Exposure
    NoWind,                   !- Wind Exposure
    autocalculate,            !- View Factor to Ground
    autocalculate,            !- Number of Vertices
    686661.1059999997,        !- Vertex 1 Xcoordinate
    4928529.233,              !- Vertex 1 Ycoordinate
    9,                        !- Vertex 1 Zcoordinate
    686657.003,               !- Vertex 2 Xcoordinate
    4928517.331,              !- Vertex 2 Ycoordinate
    9,                        !- Vertex 2 Zcoordinate
    686636.3899999997,        !- Vertex 3 Xcoordinate
    4928524.438,              !- Vertex 3 Ycoordinate
    9,                        !- Vertex 3 Zcoordinate
    686637.7659999998,        !- Vertex 4 Xcoordinate
    4928528.402,              !- Vertex 4 Ycoordinate
    9,                        !- Vertex 4 Zcoordinate
    686653.219,               !- Vertex 5 Xcoordinate
    4928523.074,              !- Vertex 5 Ycoordinate
    9,                        !- Vertex 5 Zcoordinate
    686655.9559999998,        !- Vertex 6 Xcoordinate
    4928531.011,              !- Vertex 6 Ycoordinate
    9;                        !- Vertex 6 Zcoordinate

BUILDINGSURFACE:DETAILED,
    Block 2d767abdf9f08afe_2 Storey 3 Floor 0001_1,    !- Name
    floor,                    !- Surface Type
    EU_floor_Construction,    !- Construction Name
    2d767abdf9f08afe_F3_dwelling_2,    !- Zone Name
    ,                         !- Space Name
    Surface,                  !- Outside Boundary Condition
    Block 2d767abdf9f08afe_2 Storey 2 Ceiling 0001_1,    !- Outside Boundary Condition Object
    NoSun,                    !- Sun Exposure
    NoWind,                   !- Wind Exposure
    autocalculate,            !- View Factor to Ground
    autocalculate,            !- Number of Vertices
    686657.003,               !- Vertex 1 Xcoordinate
    4928517.331,              !- Vertex 1 Ycoordinate
    9,                        !- Vertex 1 Zcoordinate
    686661.1059999997,        !- Vertex 2 Xcoordinate
    4928529.233,              !- Vertex 2 Ycoordinate
    9,                        !- Vertex 2 Zcoordinate
    686655.9559999998,        !- Vertex 3 Xcoordinate
    4928531.011,              !- Vertex 3 Ycoordinate
    9,                        !- Vertex 3 Zcoordinate
    686653.219,               !- Vertex 4 Xcoordinate
    4928523.074,              !- Vertex 4 Ycoordinate
    9,                        !- Vertex 4 Zcoordinate
    686637.7659999998,        !- Vertex 5 Xcoordinate
    4928528.402,              !- Vertex 5 Ycoordinate
    9,                        !- Vertex 5 Zcoordinate
    686636.3899999997,        !- Vertex 6 Xcoordinate
    4928524.438,              !- Vertex 6 Ycoordinate
    9;                        !- Vertex 6 Zcoordinate

INTERNALMASS,
    2d767abdf9f08afe_F0_dwelling_0_EU_InternalMass,    !- Name
    EU_InternalMass_Construction,    !- Construction Name
    2d767abdf9f08afe_F0_dwelling_0,    !- Zone or ZoneList Name
    ,                         !- Space or SpaceList Name
    137.20735049935053;       !- Surface Area

INTERNALMASS,
    2d767abdf9f08afe_F0_dwelling_1_EU_InternalMass,    !- Name
    EU_InternalMass_Construction,    !- Construction Name
    2d767abdf9f08afe_F0_dwelling_1,    !- Zone or ZoneList Name
    ,                         !- Space or SpaceList Name
    137.20176250547107;       !- Surface Area

INTERNALMASS,
    2d767abdf9f08afe_F0_dwelling_2_EU_InternalMass,    !- Name
    EU_InternalMass_Construction,    !- Construction Name
    2d767abdf9f08afe_F0_dwelling_2,    !- Zone or ZoneList Name
    ,                         !- Space or SpaceList Name
    137.2086119944479;        !- Surface Area

INTERNALMASS,
    2d767abdf9f08afe_F1_dwelling_0_EU_InternalMass,    !- Name
    EU_InternalMass_Construction,    !- Construction Name
    2d767abdf9f08afe_F1_dwelling_0,    !- Zone or ZoneList Name
    ,                         !- Space or SpaceList Name
    137.20735049935053;       !- Surface Area

INTERNALMASS,
    2d767abdf9f08afe_F1_dwelling_1_EU_InternalMass,    !- Name
    EU_InternalMass_Construction,    !- Construction Name
    2d767abdf9f08afe_F1_dwelling_1,    !- Zone or ZoneList Name
    ,                         !- Space or SpaceList Name
    137.20176250547107;       !- Surface Area

INTERNALMASS,
    2d767abdf9f08afe_F1_dwelling_2_EU_InternalMass,    !- Name
    EU_InternalMass_Construction,    !- Construction Name
    2d767abdf9f08afe_F1_dwelling_2,    !- Zone or ZoneList Name
    ,                         !- Space or SpaceList Name
    137.2086119944479;        !- Surface Area

INTERNALMASS,
    2d767abdf9f08afe_F2_dwelling_0_EU_InternalMass,    !- Name
    EU_InternalMass_Construction,    !- Construction Name
    2d767abdf9f08afe_F2_dwelling_0,    !- Zone or ZoneList Name
    ,                         !- Space or SpaceList Name
    137.20735049935053;       !- Surface Area

INTERNALMASS,
    2d767abdf9f08afe_F2_dwelling_1_EU_InternalMass,    !- Name
    EU_InternalMass_Construction,    !- Construction Name
    2d767abdf9f08afe_F2_dwelling_1,    !- Zone or ZoneList Name
    ,                         !- Space or SpaceList Name
    137.20176250547107;       !- Surface Area

INTERNALMASS,
    2d767abdf9f08afe_F2_dwelling_2_EU_InternalMass,    !- Name
    EU_InternalMass_Construction,    !- Construction Name
    2d767abdf9f08afe_F2_dwelling_2,    !- Zone or ZoneList Name
    ,                         !- Space or SpaceList Name
    137.2086119944479;        !- Surface Area

INTERNALMASS,
    2d767abdf9f08afe_F3_dwelling_0_EU_InternalMass,    !- Name
    EU_InternalMass_Construction,    !- Construction Name
    2d767abdf9f08afe_F3_dwelling_0,    !- Zone or ZoneList Name
    ,                         !- Space or SpaceList Name
    137.20735049935053;       !- Surface Area

INTERNALMASS,
    2d767abdf9f08afe_F3_dwelling_1_EU_InternalMass,    !- Name
    EU_InternalMass_Construction,    !- Construction Name
    2d767abdf9f08afe_F3_dwelling_1,    !- Zone or ZoneList Name
    ,                         !- Space or SpaceList Name
    137.20176250547107;       !- Surface Area

INTERNALMASS,
    2d767abdf9f08afe_F3_dwelling_2_EU_InternalMass,    !- Name
    EU_InternalMass_Construction,    !- Construction Name
    2d767abdf9f08afe_F3_dwelling_2,    !- Zone or ZoneList Name
    ,                         !- Space or SpaceList Name
    137.2086119944479;        !- Surface Area

INTERNALMASS,
    2d767abdf9f08afe_F4_dwelling_0_EU_InternalMass,    !- Name
    EU_InternalMass_Construction,    !- Construction Name
    2d767abdf9f08afe_F4_dwelling_0,    !- Zone or ZoneList Name
    ,                         !- Space or SpaceList Name
    205.80749550102746;       !- Surface Area

INTERNALMASS,
    2d767abdf9f08afe_F4_dwelling_1_EU_InternalMass,    !- Name
    EU_InternalMass_Construction,    !- Construction Name
    2d767abdf9f08afe_F4_dwelling_1,    !- Zone or ZoneList Name
    ,                         !- Space or SpaceList Name
    205.8134910052771;        !- Surface Area

INTERNALMASS,
    2d767abdf9f08afe_F5_dwelling_0_EU_InternalMass,    !- Name
    EU_InternalMass_Construction,    !- Construction Name
    2d767abdf9f08afe_F5_dwelling_0,    !- Zone or ZoneList Name
    ,                         !- Space or SpaceList Name
    205.80749550102746;       !- Surface Area

INTERNALMASS,
    2d767abdf9f08afe_F5_dwelling_1_EU_InternalMass,    !- Name
    EU_InternalMass_Construction,    !- Construction Name
    2d767abdf9f08afe_F5_dwelling_1,    !- Zone or ZoneList Name
    ,                         !- Space or SpaceList Name
    205.8134910052771;        !- Surface Area

SHADING:SITE:DETAILED,
    shade_32855_1,            !- Name
    ,                         !- Transmittance Schedule Name
    autocalculate,            !- Number of Vertices
    686629.8442260285,        !- Vertex 1 Xcoordinate
    4928521.218542462,        !- Vertex 1 Ycoordinate
    15,                       !- Vertex 1 Zcoordinate
    686629.8442260285,        !- Vertex 2 Xcoordinate
    4928521.218542462,        !- Vertex 2 Ycoordinate
    0,                        !- Vertex 2 Zcoordinate
    686572.2442524345,        !- Vertex 3 Xcoordinate
    4928546.937766264,        !- Vertex 3 Ycoordinate
    0,                        !- Vertex 3 Zcoordinate
    686572.2442524345,        !- Vertex 4 Xcoordinate
    4928546.937766264,        !- Vertex 4 Ycoordinate
    15;                       !- Vertex 4 Zcoordinate

SHADING:SITE:DETAILED,
    shade_32855_2,            !- Name
    ,                         !- Transmittance Schedule Name
    autocalculate,            !- Number of Vertices
    686572.2442524345,        !- Vertex 1 Xcoordinate
    4928546.937766264,        !- Vertex 1 Ycoordinate
    15,                       !- Vertex 1 Zcoordinate
    686572.2442524345,        !- Vertex 2 Xcoordinate
    4928546.937766264,        !- Vertex 2 Ycoordinate
    0,                        !- Vertex 2 Zcoordinate
    686587.0838466329,        !- Vertex 3 Xcoordinate
    4928580.172059806,        !- Vertex 3 Ycoordinate
    0,                        !- Vertex 3 Zcoordinate
    686587.0838466329,        !- Vertex 4 Xcoordinate
    4928580.172059806,        !- Vertex 4 Ycoordinate
    15;                       !- Vertex 4 Zcoordinate

SHADING:SITE:DETAILED,
    shade_32855_3,            !- Name
    ,                         !- Transmittance Schedule Name
    autocalculate,            !- Number of Vertices
    686587.0838466329,        !- Vertex 1 Xcoordinate
    4928580.172059806,        !- Vertex 1 Ycoordinate
    15,                       !- Vertex 1 Zcoordinate
    686587.0838466329,        !- Vertex 2 Xcoordinate
    4928580.172059806,        !- Vertex 2 Ycoordinate
    0,                        !- Vertex 2 Zcoordinate
    686644.6838202269,        !- Vertex 3 Xcoordinate
    4928554.452836004,        !- Vertex 3 Ycoordinate
    0,                        !- Vertex 3 Zcoordinate
    686644.6838202269,        !- Vertex 4 Xcoordinate
    4928554.452836004,        !- Vertex 4 Ycoordinate
    15;                       !- Vertex 4 Zcoordinate

SHADING:SITE:DETAILED,
    shade_32855_4,            !- Name
    ,                         !- Transmittance Schedule Name
    autocalculate,            !- Number of Vertices
    686644.6838202269,        !- Vertex 1 Xcoordinate
    4928554.452836004,        !- Vertex 1 Ycoordinate
    15,                       !- Vertex 1 Zcoordinate
    686644.6838202269,        !- Vertex 2 Xcoordinate
    4928554.452836004,        !- Vertex 2 Ycoordinate
    0,                        !- Vertex 2 Zcoordinate
    686629.8442260285,        !- Vertex 3 Xcoordinate
    4928521.218542462,        !- Vertex 3 Ycoordinate
    0,                        !- Vertex 3 Zcoordinate
    686629.8442260285,        !- Vertex 4 Xcoordinate
    4928521.218542462,        !- Vertex 4 Ycoordinate
    15;                       !- Vertex 4 Zcoordinate

SHADING:SITE:DETAILED,
    shade_81069_1,            !- Name
    ,                         !- Transmittance Schedule Name
    autocalculate,            !- Number of Vertices
    686632.5575892414,        !- Vertex 1 Xcoordinate
    4928544.81989954,         !- Vertex 1 Ycoordinate
    15,                       !- Vertex 1 Zcoordinate
    686632.5575892414,        !- Vertex 2 Xcoordinate
    4928544.81989954,         !- Vertex 2 Ycoordinate
    0,                        !- Vertex 2 Zcoordinate
    686605.7258745561,        !- Vertex 3 Xcoordinate
    4928554.943684008,        !- Vertex 3 Ycoordinate
    0,                        !- Vertex 3 Zcoordinate
    686605.7258745561,        !- Vertex 4 Xcoordinate
    4928554.943684008,        !- Vertex 4 Ycoordinate
    15;                       !- Vertex 4 Zcoordinate

SHADING:SITE:DETAILED,
    shade_81069_2,            !- Name
    ,                         !- Transmittance Schedule Name
    autocalculate,            !- Number of Vertices
    686605.7258745561,        !- Vertex 1 Xcoordinate
    4928554.943684008,        !- Vertex 1 Ycoordinate
    15,                       !- Vertex 1 Zcoordinate
    686605.7258745561,        !- Vertex 2 Xcoordinate
    4928554.943684008,        !- Vertex 2 Ycoordinate
    0,                        !- Vertex 2 Zcoordinate
    686608.9941812505,        !- Vertex 3 Xcoordinate
    4928563.605886667,        !- Vertex 3 Ycoordinate
    0,                        !- Vertex 3 Zcoordinate
    686608.9941812505,        !- Vertex 4 Xcoordinate
    4928563.605886667,        !- Vertex 4 Ycoordinate
    15;                       !- Vertex 4 Zcoordinate

SHADING:SITE:DETAILED,
    shade_81069_3,            !- Name
    ,                         !- Transmittance Schedule Name
    autocalculate,            !- Number of Vertices
    686608.9941812505,        !- Vertex 1 Xcoordinate
    4928563.605886667,        !- Vertex 1 Ycoordinate
    15,                       !- Vertex 1 Zcoordinate
    686608.9941812505,        !- Vertex 2 Xcoordinate
    4928563.605886667,        !- Vertex 2 Ycoordinate
    0,                        !- Vertex 2 Zcoordinate
    686635.8258959358,        !- Vertex 3 Xcoordinate
    4928553.482102199,        !- Vertex 3 Ycoordinate
    0,                        !- Vertex 3 Zcoordinate
    686635.8258959358,        !- Vertex 4 Xcoordinate
    4928553.482102199,        !- Vertex 4 Ycoordinate
    15;                       !- Vertex 4 Zcoordinate

SHADING:SITE:DETAILED,
    shade_81069_4,            !- Name
    ,                         !- Transmittance Schedule Name
    autocalculate,            !- Number of Vertices
    686635.8258959358,        !- Vertex 1 Xcoordinate
    4928553.482102199,        !- Vertex 1 Ycoordinate
    15,                       !- Vertex 1 Zcoordinate
    686635.8258959358,        !- Vertex 2 Xcoordinate
    4928553.482102199,        !- Vertex 2 Ycoordinate
    0,                        !- Vertex 2 Zcoordinate
    686632.5575892414,        !- Vertex 3 Xcoordinate
    4928544.81989954,         !- Vertex 3 Ycoordinate
    0,                        !- Vertex 3 Zcoordinate
    686632.5575892414,        !- Vertex 4 Xcoordinate
    4928544.81989954,         !- Vertex 4 Ycoordinate
    15;                       !- Vertex 4 Zcoordinate

SHADING:SITE:DETAILED,
    shade_32895_1,            !- Name
    ,                         !- Transmittance Schedule Name
    autocalculate,            !- Number of Vertices
    686637.4999984936,        !- Vertex 1 Xcoordinate
    4928566.087119188,        !- Vertex 1 Ycoordinate
    15,                       !- Vertex 1 Zcoordinate
    686637.4999984936,        !- Vertex 2 Xcoordinate
    4928566.087119188,        !- Vertex 2 Ycoordinate
    0,                        !- Vertex 2 Zcoordinate
    686664.1894088157,        !- Vertex 3 Xcoordinate
    4928560.59906097,         !- Vertex 3 Ycoordinate
    0,                        !- Vertex 3 Zcoordinate
    686664.1894088157,        !- Vertex 4 Xcoordinate
    4928560.59906097,         !- Vertex 4 Ycoordinate
    15;                       !- Vertex 4 Zcoordinate

SHADING:SITE:DETAILED,
    shade_32895_2,            !- Name
    ,                         !- Transmittance Schedule Name
    autocalculate,            !- Number of Vertices
    686664.1894088157,        !- Vertex 1 Xcoordinate
    4928560.59906097,         !- Vertex 1 Ycoordinate
    15,                       !- Vertex 1 Zcoordinate
    686664.1894088157,        !- Vertex 2 Xcoordinate
    4928560.59906097,         !- Vertex 2 Ycoordinate
    0,                        !- Vertex 2 Zcoordinate
    686661.0890829022,        !- Vertex 3 Xcoordinate
    4928545.52115967,         !- Vertex 3 Ycoordinate
    0,                        !- Vertex 3 Zcoordinate
    686661.0890829022,        !- Vertex 4 Xcoordinate
    4928545.52115967,         !- Vertex 4 Ycoordinate
    15;                       !- Vertex 4 Zcoordinate

SHADING:SITE:DETAILED,
    shade_32895_3,            !- Name
    ,                         !- Transmittance Schedule Name
    autocalculate,            !- Number of Vertices
    686661.0890829022,        !- Vertex 1 Xcoordinate
    4928545.52115967,         !- Vertex 1 Ycoordinate
    15,                       !- Vertex 1 Zcoordinate
    686661.0890829022,        !- Vertex 2 Xcoordinate
    4928545.52115967,         !- Vertex 2 Ycoordinate
    0,                        !- Vertex 2 Zcoordinate
    686634.399693879,         !- Vertex 3 Xcoordinate
    4928551.00904574,         !- Vertex 3 Ycoordinate
    0,                        !- Vertex 3 Zcoordinate
    686634.399693879,         !- Vertex 4 Xcoordinate
    4928551.00904574,         !- Vertex 4 Ycoordinate
    15;                       !- Vertex 4 Zcoordinate

SHADING:SITE:DETAILED,
    shade_32895_4,            !- Name
    ,                         !- Transmittance Schedule Name
    autocalculate,            !- Number of Vertices
    686634.399693879,         !- Vertex 1 Xcoordinate
    4928551.00904574,         !- Vertex 1 Ycoordinate
    15,                       !- Vertex 1 Zcoordinate
    686634.399693879,         !- Vertex 2 Xcoordinate
    4928551.00904574,         !- Vertex 2 Ycoordinate
    0,                        !- Vertex 2 Zcoordinate
    686637.4999984936,        !- Vertex 3 Xcoordinate
    4928566.087119188,        !- Vertex 3 Ycoordinate
    0,                        !- Vertex 3 Zcoordinate
    686637.4999984936,        !- Vertex 4 Xcoordinate
    4928566.087119188,        !- Vertex 4 Ycoordinate
    15;                       !- Vertex 4 Zcoordinate

SHADING:SITE:DETAILED,
    shade_33184_1,            !- Name
    ,                         !- Transmittance Schedule Name
    autocalculate,            !- Number of Vertices
    686715.7179984929,        !- Vertex 1 Xcoordinate
    4928507.257119189,        !- Vertex 1 Ycoordinate
    15,                       !- Vertex 1 Zcoordinate
    686715.7179984929,        !- Vertex 2 Xcoordinate
    4928507.257119189,        !- Vertex 2 Ycoordinate
    0,                        !- Vertex 2 Zcoordinate
    686683.2887457579,        !- Vertex 3 Xcoordinate
    4928511.475148791,        !- Vertex 3 Ycoordinate
    0,                        !- Vertex 3 Zcoordinate
    686683.2887457579,        !- Vertex 4 Xcoordinate
    4928511.475148791,        !- Vertex 4 Ycoordinate
    15;                       !- Vertex 4 Zcoordinate

SHADING:SITE:DETAILED,
    shade_33184_2,            !- Name
    ,                         !- Transmittance Schedule Name
    autocalculate,            !- Number of Vertices
    686683.2887457579,        !- Vertex 1 Xcoordinate
    4928511.475148791,        !- Vertex 1 Ycoordinate
    15,                       !- Vertex 1 Zcoordinate
    686683.2887457579,        !- Vertex 2 Xcoordinate
    4928511.475148791,        !- Vertex 2 Ycoordinate
    0,                        !- Vertex 2 Zcoordinate
    686685.3468627094,        !- Vertex 3 Xcoordinate
    4928527.299432762,        !- Vertex 3 Ycoordinate
    0,                        !- Vertex 3 Zcoordinate
    686685.3468627094,        !- Vertex 4 Xcoordinate
    4928527.299432762,        !- Vertex 4 Ycoordinate
    15;                       !- Vertex 4 Zcoordinate

SHADING:SITE:DETAILED,
    shade_33184_3,            !- Name
    ,                         !- Transmittance Schedule Name
    autocalculate,            !- Number of Vertices
    686685.3468627094,        !- Vertex 1 Xcoordinate
    4928527.299432762,        !- Vertex 1 Ycoordinate
    15,                       !- Vertex 1 Zcoordinate
    686685.3468627094,        !- Vertex 2 Xcoordinate
    4928527.299432762,        !- Vertex 2 Ycoordinate
    0,                        !- Vertex 2 Zcoordinate
    686717.7761520882,        !- Vertex 3 Xcoordinate
    4928523.081657719,        !- Vertex 3 Ycoordinate
    0,                        !- Vertex 3 Zcoordinate
    686717.7761520882,        !- Vertex 4 Xcoordinate
    4928523.081657719,        !- Vertex 4 Ycoordinate
    15;                       !- Vertex 4 Zcoordinate

SHADING:SITE:DETAILED,
    shade_33184_4,            !- Name
    ,                         !- Transmittance Schedule Name
    autocalculate,            !- Number of Vertices
    686717.7761520882,        !- Vertex 1 Xcoordinate
    4928523.081657719,        !- Vertex 1 Ycoordinate
    15,                       !- Vertex 1 Zcoordinate
    686717.7761520882,        !- Vertex 2 Xcoordinate
    4928523.081657719,        !- Vertex 2 Ycoordinate
    0,                        !- Vertex 2 Zcoordinate
    686715.7179984929,        !- Vertex 3 Xcoordinate
    4928507.257119189,        !- Vertex 3 Ycoordinate
    0,                        !- Vertex 3 Zcoordinate
    686715.7179984929,        !- Vertex 4 Xcoordinate
    4928507.257119189,        !- Vertex 4 Ycoordinate
    15;                       !- Vertex 4 Zcoordinate

SHADING:SITE:DETAILED,
    shade_32960_1,            !- Name
    ,                         !- Transmittance Schedule Name
    autocalculate,            !- Number of Vertices
    686679.709998493,         !- Vertex 1 Xcoordinate
    4928556.586119189,        !- Vertex 1 Ycoordinate
    15,                       !- Vertex 1 Zcoordinate
    686679.709998493,         !- Vertex 2 Xcoordinate
    4928556.586119189,        !- Vertex 2 Ycoordinate
    0,                        !- Vertex 2 Zcoordinate
    686700.9962424543,        !- Vertex 3 Xcoordinate
    4928554.51223704,         !- Vertex 3 Ycoordinate
    0,                        !- Vertex 3 Zcoordinate
    686700.9962424543,        !- Vertex 4 Xcoordinate
    4928554.51223704,         !- Vertex 4 Ycoordinate
    15;                       !- Vertex 4 Zcoordinate

SHADING:SITE:DETAILED,
    shade_32960_2,            !- Name
    ,                         !- Transmittance Schedule Name
    autocalculate,            !- Number of Vertices
    686700.9962424543,        !- Vertex 1 Xcoordinate
    4928554.51223704,         !- Vertex 1 Ycoordinate
    15,                       !- Vertex 1 Zcoordinate
    686700.9962424543,        !- Vertex 2 Xcoordinate
    4928554.51223704,         !- Vertex 2 Ycoordinate
    0,                        !- Vertex 2 Zcoordinate
    686699.235354267,         !- Vertex 3 Xcoordinate
    4928536.441287543,        !- Vertex 3 Ycoordinate
    0,                        !- Vertex 3 Zcoordinate
    686699.235354267,         !- Vertex 4 Xcoordinate
    4928536.441287543,        !- Vertex 4 Ycoordinate
    15;                       !- Vertex 4 Zcoordinate

SHADING:SITE:DETAILED,
    shade_32960_3,            !- Name
    ,                         !- Transmittance Schedule Name
    autocalculate,            !- Number of Vertices
    686699.235354267,         !- Vertex 1 Xcoordinate
    4928536.441287543,        !- Vertex 1 Ycoordinate
    15,                       !- Vertex 1 Zcoordinate
    686699.235354267,         !- Vertex 2 Xcoordinate
    4928536.441287543,        !- Vertex 2 Ycoordinate
    0,                        !- Vertex 2 Zcoordinate
    686677.9491809808,        !- Vertex 3 Xcoordinate
    4928538.515476888,        !- Vertex 3 Ycoordinate
    0,                        !- Vertex 3 Zcoordinate
    686677.9491809808,        !- Vertex 4 Xcoordinate
    4928538.515476888,        !- Vertex 4 Ycoordinate
    15;                       !- Vertex 4 Zcoordinate

SHADING:SITE:DETAILED,
    shade_32960_4,            !- Name
    ,                         !- Transmittance Schedule Name
    autocalculate,            !- Number of Vertices
    686677.9491809808,        !- Vertex 1 Xcoordinate
    4928538.515476888,        !- Vertex 1 Ycoordinate
    15,                       !- Vertex 1 Zcoordinate
    686677.9491809808,        !- Vertex 2 Xcoordinate
    4928538.515476888,        !- Vertex 2 Ycoordinate
    0,                        !- Vertex 2 Zcoordinate
    686679.709998493,         !- Vertex 3 Xcoordinate
    4928556.586119189,        !- Vertex 3 Ycoordinate
    0,                        !- Vertex 3 Zcoordinate
    686679.709998493,         !- Vertex 4 Xcoordinate
    4928556.586119189,        !- Vertex 4 Ycoordinate
    15;                       !- Vertex 4 Zcoordinate

SHADING:SITE:DETAILED,
    shade_32938_1,            !- Name
    ,                         !- Transmittance Schedule Name
    autocalculate,            !- Number of Vertices
    686660.4230675246,        !- Vertex 1 Xcoordinate
    4928541.934381719,        !- Vertex 1 Ycoordinate
    15,                       !- Vertex 1 Zcoordinate
    686660.4230675246,        !- Vertex 2 Xcoordinate
    4928541.934381719,        !- Vertex 2 Ycoordinate
    0,                        !- Vertex 2 Zcoordinate
    686664.0099984932,        !- Vertex 3 Xcoordinate
    4928560.63611919,         !- Vertex 3 Ycoordinate
    0,                        !- Vertex 3 Zcoordinate
    686664.0099984932,        !- Vertex 4 Xcoordinate
    4928560.63611919,         !- Vertex 4 Ycoordinate
    15;                       !- Vertex 4 Zcoordinate

SHADING:SITE:DETAILED,
    shade_32938_2,            !- Name
    ,                         !- Transmittance Schedule Name
    autocalculate,            !- Number of Vertices
    686664.0099984932,        !- Vertex 1 Xcoordinate
    4928560.63611919,         !- Vertex 1 Ycoordinate
    15,                       !- Vertex 1 Zcoordinate
    686664.0099984932,        !- Vertex 2 Xcoordinate
    4928560.63611919,         !- Vertex 2 Ycoordinate
    0,                        !- Vertex 2 Zcoordinate
    686681.6850027728,        !- Vertex 3 Xcoordinate
    4928557.246078405,        !- Vertex 3 Ycoordinate
    0,                        !- Vertex 3 Zcoordinate
    686681.6850027728,        !- Vertex 4 Xcoordinate
    4928557.246078405,        !- Vertex 4 Ycoordinate
    15;                       !- Vertex 4 Zcoordinate

SHADING:SITE:DETAILED,
    shade_32938_3,            !- Name
    ,                         !- Transmittance Schedule Name
    autocalculate,            !- Number of Vertices
    686681.6850027728,        !- Vertex 1 Xcoordinate
    4928557.246078405,        !- Vertex 1 Ycoordinate
    15,                       !- Vertex 1 Zcoordinate
    686681.6850027728,        !- Vertex 2 Xcoordinate
    4928557.246078405,        !- Vertex 2 Ycoordinate
    0,                        !- Vertex 2 Zcoordinate
    686678.0980425237,        !- Vertex 3 Xcoordinate
    4928538.544350895,        !- Vertex 3 Ycoordinate
    0,                        !- Vertex 3 Zcoordinate
    686678.0980425237,        !- Vertex 4 Xcoordinate
    4928538.544350895,        !- Vertex 4 Ycoordinate
    15;                       !- Vertex 4 Zcoordinate

SHADING:SITE:DETAILED,
    shade_32938_4,            !- Name
    ,                         !- Transmittance Schedule Name
    autocalculate,            !- Number of Vertices
    686678.0980425237,        !- Vertex 1 Xcoordinate
    4928538.544350895,        !- Vertex 1 Ycoordinate
    15,                       !- Vertex 1 Zcoordinate
    686678.0980425237,        !- Vertex 2 Xcoordinate
    4928538.544350895,        !- Vertex 2 Ycoordinate
    0,                        !- Vertex 2 Zcoordinate
    686660.4230675246,        !- Vertex 3 Xcoordinate
    4928541.934381719,        !- Vertex 3 Ycoordinate
    0,                        !- Vertex 3 Zcoordinate
    686660.4230675246,        !- Vertex 4 Xcoordinate
    4928541.934381719,        !- Vertex 4 Ycoordinate
    15;                       !- Vertex 4 Zcoordinate

OTHEREQUIPMENT,
    EU_Step8_InternalGain_2d767abdf9f08afe_F0_dwelling_0_f000,    !- Name
    Electricity,              !- Fuel Type
    2d767abdf9f08afe_F0_dwelling_0,    !- Zone or ZoneList or Space or SpaceList Name
    EU_Step8_GainSchedule_2d767abdf9f08afe_F0_dwelling_0_f000,    !- Schedule Name
    Watts/Area,               !- Design Level Calculation Method
    ,                         !- Design Level
    1,                        !- Power per Zone Floor Area
    ,                         !- Power per Person
    0,                        !- Fraction Latent
    0,                        !- Fraction Radiant
    0,                        !- Fraction Lost
    0,                        !- Carbon Dioxide Generation Rate
    EU_Step8_InternalGains;    !- EndUse Subcategory

OTHEREQUIPMENT,
    EU_Step8_InternalGain_2d767abdf9f08afe_F0_dwelling_1_f000,    !- Name
    Electricity,              !- Fuel Type
    2d767abdf9f08afe_F0_dwelling_1,    !- Zone or ZoneList or Space or SpaceList Name
    EU_Step8_GainSchedule_2d767abdf9f08afe_F0_dwelling_1_f000,    !- Schedule Name
    Watts/Area,               !- Design Level Calculation Method
    ,                         !- Design Level
    1,                        !- Power per Zone Floor Area
    ,                         !- Power per Person
    0,                        !- Fraction Latent
    0,                        !- Fraction Radiant
    0,                        !- Fraction Lost
    0,                        !- Carbon Dioxide Generation Rate
    EU_Step8_InternalGains;    !- EndUse Subcategory

OTHEREQUIPMENT,
    EU_Step8_InternalGain_2d767abdf9f08afe_F0_dwelling_2_f000,    !- Name
    Electricity,              !- Fuel Type
    2d767abdf9f08afe_F0_dwelling_2,    !- Zone or ZoneList or Space or SpaceList Name
    EU_Step8_GainSchedule_2d767abdf9f08afe_F0_dwelling_2_f000,    !- Schedule Name
    Watts/Area,               !- Design Level Calculation Method
    ,                         !- Design Level
    1,                        !- Power per Zone Floor Area
    ,                         !- Power per Person
    0,                        !- Fraction Latent
    0,                        !- Fraction Radiant
    0,                        !- Fraction Lost
    0,                        !- Carbon Dioxide Generation Rate
    EU_Step8_InternalGains;    !- EndUse Subcategory

OTHEREQUIPMENT,
    EU_Step8_InternalGain_2d767abdf9f08afe_F1_dwelling_0_f000,    !- Name
    Electricity,              !- Fuel Type
    2d767abdf9f08afe_F1_dwelling_0,    !- Zone or ZoneList or Space or SpaceList Name
    EU_Step8_GainSchedule_2d767abdf9f08afe_F1_dwelling_0_f000,    !- Schedule Name
    Watts/Area,               !- Design Level Calculation Method
    ,                         !- Design Level
    1,                        !- Power per Zone Floor Area
    ,                         !- Power per Person
    0,                        !- Fraction Latent
    0,                        !- Fraction Radiant
    0,                        !- Fraction Lost
    0,                        !- Carbon Dioxide Generation Rate
    EU_Step8_InternalGains;    !- EndUse Subcategory

OTHEREQUIPMENT,
    EU_Step8_InternalGain_2d767abdf9f08afe_F1_dwelling_1_f000,    !- Name
    Electricity,              !- Fuel Type
    2d767abdf9f08afe_F1_dwelling_1,    !- Zone or ZoneList or Space or SpaceList Name
    EU_Step8_GainSchedule_2d767abdf9f08afe_F1_dwelling_1_f000,    !- Schedule Name
    Watts/Area,               !- Design Level Calculation Method
    ,                         !- Design Level
    1,                        !- Power per Zone Floor Area
    ,                         !- Power per Person
    0,                        !- Fraction Latent
    0,                        !- Fraction Radiant
    0,                        !- Fraction Lost
    0,                        !- Carbon Dioxide Generation Rate
    EU_Step8_InternalGains;    !- EndUse Subcategory

OTHEREQUIPMENT,
    EU_Step8_InternalGain_2d767abdf9f08afe_F1_dwelling_2_f000,    !- Name
    Electricity,              !- Fuel Type
    2d767abdf9f08afe_F1_dwelling_2,    !- Zone or ZoneList or Space or SpaceList Name
    EU_Step8_GainSchedule_2d767abdf9f08afe_F1_dwelling_2_f000,    !- Schedule Name
    Watts/Area,               !- Design Level Calculation Method
    ,                         !- Design Level
    1,                        !- Power per Zone Floor Area
    ,                         !- Power per Person
    0,                        !- Fraction Latent
    0,                        !- Fraction Radiant
    0,                        !- Fraction Lost
    0,                        !- Carbon Dioxide Generation Rate
    EU_Step8_InternalGains;    !- EndUse Subcategory

OTHEREQUIPMENT,
    EU_Step8_InternalGain_2d767abdf9f08afe_F2_dwelling_0_f000,    !- Name
    Electricity,              !- Fuel Type
    2d767abdf9f08afe_F2_dwelling_0,    !- Zone or ZoneList or Space or SpaceList Name
    EU_Step8_GainSchedule_2d767abdf9f08afe_F2_dwelling_0_f000,    !- Schedule Name
    Watts/Area,               !- Design Level Calculation Method
    ,                         !- Design Level
    1,                        !- Power per Zone Floor Area
    ,                         !- Power per Person
    0,                        !- Fraction Latent
    0,                        !- Fraction Radiant
    0,                        !- Fraction Lost
    0,                        !- Carbon Dioxide Generation Rate
    EU_Step8_InternalGains;    !- EndUse Subcategory

OTHEREQUIPMENT,
    EU_Step8_InternalGain_2d767abdf9f08afe_F2_dwelling_1_f000,    !- Name
    Electricity,              !- Fuel Type
    2d767abdf9f08afe_F2_dwelling_1,    !- Zone or ZoneList or Space or SpaceList Name
    EU_Step8_GainSchedule_2d767abdf9f08afe_F2_dwelling_1_f000,    !- Schedule Name
    Watts/Area,               !- Design Level Calculation Method
    ,                         !- Design Level
    1,                        !- Power per Zone Floor Area
    ,                         !- Power per Person
    0,                        !- Fraction Latent
    0,                        !- Fraction Radiant
    0,                        !- Fraction Lost
    0,                        !- Carbon Dioxide Generation Rate
    EU_Step8_InternalGains;    !- EndUse Subcategory

OTHEREQUIPMENT,
    EU_Step8_InternalGain_2d767abdf9f08afe_F2_dwelling_2_f000,    !- Name
    Electricity,              !- Fuel Type
    2d767abdf9f08afe_F2_dwelling_2,    !- Zone or ZoneList or Space or SpaceList Name
    EU_Step8_GainSchedule_2d767abdf9f08afe_F2_dwelling_2_f000,    !- Schedule Name
    Watts/Area,               !- Design Level Calculation Method
    ,                         !- Design Level
    1,                        !- Power per Zone Floor Area
    ,                         !- Power per Person
    0,                        !- Fraction Latent
    0,                        !- Fraction Radiant
    0,                        !- Fraction Lost
    0,                        !- Carbon Dioxide Generation Rate
    EU_Step8_InternalGains;    !- EndUse Subcategory

OTHEREQUIPMENT,
    EU_Step8_InternalGain_2d767abdf9f08afe_F3_dwelling_0_f000,    !- Name
    Electricity,              !- Fuel Type
    2d767abdf9f08afe_F3_dwelling_0,    !- Zone or ZoneList or Space or SpaceList Name
    EU_Step8_GainSchedule_2d767abdf9f08afe_F3_dwelling_0_f000,    !- Schedule Name
    Watts/Area,               !- Design Level Calculation Method
    ,                         !- Design Level
    1,                        !- Power per Zone Floor Area
    ,                         !- Power per Person
    0,                        !- Fraction Latent
    0,                        !- Fraction Radiant
    0,                        !- Fraction Lost
    0,                        !- Carbon Dioxide Generation Rate
    EU_Step8_InternalGains;    !- EndUse Subcategory

OTHEREQUIPMENT,
    EU_Step8_InternalGain_2d767abdf9f08afe_F3_dwelling_1_f000,    !- Name
    Electricity,              !- Fuel Type
    2d767abdf9f08afe_F3_dwelling_1,    !- Zone or ZoneList or Space or SpaceList Name
    EU_Step8_GainSchedule_2d767abdf9f08afe_F3_dwelling_1_f000,    !- Schedule Name
    Watts/Area,               !- Design Level Calculation Method
    ,                         !- Design Level
    1,                        !- Power per Zone Floor Area
    ,                         !- Power per Person
    0,                        !- Fraction Latent
    0,                        !- Fraction Radiant
    0,                        !- Fraction Lost
    0,                        !- Carbon Dioxide Generation Rate
    EU_Step8_InternalGains;    !- EndUse Subcategory

OTHEREQUIPMENT,
    EU_Step8_InternalGain_2d767abdf9f08afe_F3_dwelling_2_f000,    !- Name
    Electricity,              !- Fuel Type
    2d767abdf9f08afe_F3_dwelling_2,    !- Zone or ZoneList or Space or SpaceList Name
    EU_Step8_GainSchedule_2d767abdf9f08afe_F3_dwelling_2_f000,    !- Schedule Name
    Watts/Area,               !- Design Level Calculation Method
    ,                         !- Design Level
    1,                        !- Power per Zone Floor Area
    ,                         !- Power per Person
    0,                        !- Fraction Latent
    0,                        !- Fraction Radiant
    0,                        !- Fraction Lost
    0,                        !- Carbon Dioxide Generation Rate
    EU_Step8_InternalGains;    !- EndUse Subcategory

OTHEREQUIPMENT,
    EU_Step8_InternalGain_2d767abdf9f08afe_F4_dwelling_0_f000,    !- Name
    Electricity,              !- Fuel Type
    2d767abdf9f08afe_F4_dwelling_0,    !- Zone or ZoneList or Space or SpaceList Name
    EU_Step8_GainSchedule_2d767abdf9f08afe_F4_dwelling_0_f000,    !- Schedule Name
    Watts/Area,               !- Design Level Calculation Method
    ,                         !- Design Level
    1,                        !- Power per Zone Floor Area
    ,                         !- Power per Person
    0,                        !- Fraction Latent
    0,                        !- Fraction Radiant
    0,                        !- Fraction Lost
    0,                        !- Carbon Dioxide Generation Rate
    EU_Step8_InternalGains;    !- EndUse Subcategory

OTHEREQUIPMENT,
    EU_Step8_InternalGain_2d767abdf9f08afe_F4_dwelling_1_f000,    !- Name
    Electricity,              !- Fuel Type
    2d767abdf9f08afe_F4_dwelling_1,    !- Zone or ZoneList or Space or SpaceList Name
    EU_Step8_GainSchedule_2d767abdf9f08afe_F4_dwelling_1_f000,    !- Schedule Name
    Watts/Area,               !- Design Level Calculation Method
    ,                         !- Design Level
    1,                        !- Power per Zone Floor Area
    ,                         !- Power per Person
    0,                        !- Fraction Latent
    0,                        !- Fraction Radiant
    0,                        !- Fraction Lost
    0,                        !- Carbon Dioxide Generation Rate
    EU_Step8_InternalGains;    !- EndUse Subcategory

OTHEREQUIPMENT,
    EU_Step8_InternalGain_2d767abdf9f08afe_F5_dwelling_0_f000,    !- Name
    Electricity,              !- Fuel Type
    2d767abdf9f08afe_F5_dwelling_0,    !- Zone or ZoneList or Space or SpaceList Name
    EU_Step8_GainSchedule_2d767abdf9f08afe_F5_dwelling_0_f000,    !- Schedule Name
    Watts/Area,               !- Design Level Calculation Method
    ,                         !- Design Level
    1,                        !- Power per Zone Floor Area
    ,                         !- Power per Person
    0,                        !- Fraction Latent
    0,                        !- Fraction Radiant
    0,                        !- Fraction Lost
    0,                        !- Carbon Dioxide Generation Rate
    EU_Step8_InternalGains;    !- EndUse Subcategory

OTHEREQUIPMENT,
    EU_Step8_InternalGain_2d767abdf9f08afe_F5_dwelling_1_f000,    !- Name
    Electricity,              !- Fuel Type
    2d767abdf9f08afe_F5_dwelling_1,    !- Zone or ZoneList or Space or SpaceList Name
    EU_Step8_GainSchedule_2d767abdf9f08afe_F5_dwelling_1_f000,    !- Schedule Name
    Watts/Area,               !- Design Level Calculation Method
    ,                         !- Design Level
    1,                        !- Power per Zone Floor Area
    ,                         !- Power per Person
    0,                        !- Fraction Latent
    0,                        !- Fraction Radiant
    0,                        !- Fraction Lost
    0,                        !- Carbon Dioxide Generation Rate
    EU_Step8_InternalGains;    !- EndUse Subcategory

ZONEVENTILATION:DESIGNFLOWRATE,
    EU_ConstantAir_2d767abdf9f08afe_F0_dwelling_0,    !- Name
    2d767abdf9f08afe_F0_dwelling_0,    !- Zone or ZoneList or Space or SpaceList Name
    EU_AlwaysOn,              !- Schedule Name
    AirChanges/Hour,          !- Design Flow Rate Calculation Method
    ,                         !- Design Flow Rate
    ,                         !- Flow Rate per Floor Area
    ,                         !- Flow Rate per Person
    0.7312898234710613,       !- Air Changes per Hour
    Natural,                  !- Ventilation Type
    0,                        !- Fan Pressure Rise
    1,                        !- Fan Total Efficiency
    1,                        !- Constant Term Coefficient
    0,                        !- Temperature Term Coefficient
    0,                        !- Velocity Term Coefficient
    0,                        !- Velocity Squared Term Coefficient
    -100,                     !- Minimum Indoor Temperature
    ,                         !- Minimum Indoor Temperature Schedule Name
    100,                      !- Maximum Indoor Temperature
    ,                         !- Maximum Indoor Temperature Schedule Name
    -100,                     !- Delta Temperature
    ,                         !- Delta Temperature Schedule Name
    -100,                     !- Minimum Outdoor Temperature
    ,                         !- Minimum Outdoor Temperature Schedule Name
    100,                      !- Maximum Outdoor Temperature
    ,                         !- Maximum Outdoor Temperature Schedule Name
    40;                       !- Maximum Wind Speed

ZONEVENTILATION:DESIGNFLOWRATE,
    EU_ConstantAir_2d767abdf9f08afe_F0_dwelling_1,    !- Name
    2d767abdf9f08afe_F0_dwelling_1,    !- Zone or ZoneList or Space or SpaceList Name
    EU_AlwaysOn,              !- Schedule Name
    AirChanges/Hour,          !- Design Flow Rate Calculation Method
    ,                         !- Design Flow Rate
    ,                         !- Flow Rate per Floor Area
    ,                         !- Flow Rate per Person
    0.7312898234710613,       !- Air Changes per Hour
    Natural,                  !- Ventilation Type
    0,                        !- Fan Pressure Rise
    1,                        !- Fan Total Efficiency
    1,                        !- Constant Term Coefficient
    0,                        !- Temperature Term Coefficient
    0,                        !- Velocity Term Coefficient
    0,                        !- Velocity Squared Term Coefficient
    -100,                     !- Minimum Indoor Temperature
    ,                         !- Minimum Indoor Temperature Schedule Name
    100,                      !- Maximum Indoor Temperature
    ,                         !- Maximum Indoor Temperature Schedule Name
    -100,                     !- Delta Temperature
    ,                         !- Delta Temperature Schedule Name
    -100,                     !- Minimum Outdoor Temperature
    ,                         !- Minimum Outdoor Temperature Schedule Name
    100,                      !- Maximum Outdoor Temperature
    ,                         !- Maximum Outdoor Temperature Schedule Name
    40;                       !- Maximum Wind Speed

ZONEVENTILATION:DESIGNFLOWRATE,
    EU_ConstantAir_2d767abdf9f08afe_F0_dwelling_2,    !- Name
    2d767abdf9f08afe_F0_dwelling_2,    !- Zone or ZoneList or Space or SpaceList Name
    EU_AlwaysOn,              !- Schedule Name
    AirChanges/Hour,          !- Design Flow Rate Calculation Method
    ,                         !- Design Flow Rate
    ,                         !- Flow Rate per Floor Area
    ,                         !- Flow Rate per Person
    0.7312898234710613,       !- Air Changes per Hour
    Natural,                  !- Ventilation Type
    0,                        !- Fan Pressure Rise
    1,                        !- Fan Total Efficiency
    1,                        !- Constant Term Coefficient
    0,                        !- Temperature Term Coefficient
    0,                        !- Velocity Term Coefficient
    0,                        !- Velocity Squared Term Coefficient
    -100,                     !- Minimum Indoor Temperature
    ,                         !- Minimum Indoor Temperature Schedule Name
    100,                      !- Maximum Indoor Temperature
    ,                         !- Maximum Indoor Temperature Schedule Name
    -100,                     !- Delta Temperature
    ,                         !- Delta Temperature Schedule Name
    -100,                     !- Minimum Outdoor Temperature
    ,                         !- Minimum Outdoor Temperature Schedule Name
    100,                      !- Maximum Outdoor Temperature
    ,                         !- Maximum Outdoor Temperature Schedule Name
    40;                       !- Maximum Wind Speed

ZONEVENTILATION:DESIGNFLOWRATE,
    EU_ConstantAir_2d767abdf9f08afe_F1_dwelling_0,    !- Name
    2d767abdf9f08afe_F1_dwelling_0,    !- Zone or ZoneList or Space or SpaceList Name
    EU_AlwaysOn,              !- Schedule Name
    AirChanges/Hour,          !- Design Flow Rate Calculation Method
    ,                         !- Design Flow Rate
    ,                         !- Flow Rate per Floor Area
    ,                         !- Flow Rate per Person
    0.7312898234710613,       !- Air Changes per Hour
    Natural,                  !- Ventilation Type
    0,                        !- Fan Pressure Rise
    1,                        !- Fan Total Efficiency
    1,                        !- Constant Term Coefficient
    0,                        !- Temperature Term Coefficient
    0,                        !- Velocity Term Coefficient
    0,                        !- Velocity Squared Term Coefficient
    -100,                     !- Minimum Indoor Temperature
    ,                         !- Minimum Indoor Temperature Schedule Name
    100,                      !- Maximum Indoor Temperature
    ,                         !- Maximum Indoor Temperature Schedule Name
    -100,                     !- Delta Temperature
    ,                         !- Delta Temperature Schedule Name
    -100,                     !- Minimum Outdoor Temperature
    ,                         !- Minimum Outdoor Temperature Schedule Name
    100,                      !- Maximum Outdoor Temperature
    ,                         !- Maximum Outdoor Temperature Schedule Name
    40;                       !- Maximum Wind Speed

ZONEVENTILATION:DESIGNFLOWRATE,
    EU_ConstantAir_2d767abdf9f08afe_F1_dwelling_1,    !- Name
    2d767abdf9f08afe_F1_dwelling_1,    !- Zone or ZoneList or Space or SpaceList Name
    EU_AlwaysOn,              !- Schedule Name
    AirChanges/Hour,          !- Design Flow Rate Calculation Method
    ,                         !- Design Flow Rate
    ,                         !- Flow Rate per Floor Area
    ,                         !- Flow Rate per Person
    0.7312898234710613,       !- Air Changes per Hour
    Natural,                  !- Ventilation Type
    0,                        !- Fan Pressure Rise
    1,                        !- Fan Total Efficiency
    1,                        !- Constant Term Coefficient
    0,                        !- Temperature Term Coefficient
    0,                        !- Velocity Term Coefficient
    0,                        !- Velocity Squared Term Coefficient
    -100,                     !- Minimum Indoor Temperature
    ,                         !- Minimum Indoor Temperature Schedule Name
    100,                      !- Maximum Indoor Temperature
    ,                         !- Maximum Indoor Temperature Schedule Name
    -100,                     !- Delta Temperature
    ,                         !- Delta Temperature Schedule Name
    -100,                     !- Minimum Outdoor Temperature
    ,                         !- Minimum Outdoor Temperature Schedule Name
    100,                      !- Maximum Outdoor Temperature
    ,                         !- Maximum Outdoor Temperature Schedule Name
    40;                       !- Maximum Wind Speed

ZONEVENTILATION:DESIGNFLOWRATE,
    EU_ConstantAir_2d767abdf9f08afe_F1_dwelling_2,    !- Name
    2d767abdf9f08afe_F1_dwelling_2,    !- Zone or ZoneList or Space or SpaceList Name
    EU_AlwaysOn,              !- Schedule Name
    AirChanges/Hour,          !- Design Flow Rate Calculation Method
    ,                         !- Design Flow Rate
    ,                         !- Flow Rate per Floor Area
    ,                         !- Flow Rate per Person
    0.7312898234710613,       !- Air Changes per Hour
    Natural,                  !- Ventilation Type
    0,                        !- Fan Pressure Rise
    1,                        !- Fan Total Efficiency
    1,                        !- Constant Term Coefficient
    0,                        !- Temperature Term Coefficient
    0,                        !- Velocity Term Coefficient
    0,                        !- Velocity Squared Term Coefficient
    -100,                     !- Minimum Indoor Temperature
    ,                         !- Minimum Indoor Temperature Schedule Name
    100,                      !- Maximum Indoor Temperature
    ,                         !- Maximum Indoor Temperature Schedule Name
    -100,                     !- Delta Temperature
    ,                         !- Delta Temperature Schedule Name
    -100,                     !- Minimum Outdoor Temperature
    ,                         !- Minimum Outdoor Temperature Schedule Name
    100,                      !- Maximum Outdoor Temperature
    ,                         !- Maximum Outdoor Temperature Schedule Name
    40;                       !- Maximum Wind Speed

ZONEVENTILATION:DESIGNFLOWRATE,
    EU_ConstantAir_2d767abdf9f08afe_F2_dwelling_0,    !- Name
    2d767abdf9f08afe_F2_dwelling_0,    !- Zone or ZoneList or Space or SpaceList Name
    EU_AlwaysOn,              !- Schedule Name
    AirChanges/Hour,          !- Design Flow Rate Calculation Method
    ,                         !- Design Flow Rate
    ,                         !- Flow Rate per Floor Area
    ,                         !- Flow Rate per Person
    0.7312898234710613,       !- Air Changes per Hour
    Natural,                  !- Ventilation Type
    0,                        !- Fan Pressure Rise
    1,                        !- Fan Total Efficiency
    1,                        !- Constant Term Coefficient
    0,                        !- Temperature Term Coefficient
    0,                        !- Velocity Term Coefficient
    0,                        !- Velocity Squared Term Coefficient
    -100,                     !- Minimum Indoor Temperature
    ,                         !- Minimum Indoor Temperature Schedule Name
    100,                      !- Maximum Indoor Temperature
    ,                         !- Maximum Indoor Temperature Schedule Name
    -100,                     !- Delta Temperature
    ,                         !- Delta Temperature Schedule Name
    -100,                     !- Minimum Outdoor Temperature
    ,                         !- Minimum Outdoor Temperature Schedule Name
    100,                      !- Maximum Outdoor Temperature
    ,                         !- Maximum Outdoor Temperature Schedule Name
    40;                       !- Maximum Wind Speed

ZONEVENTILATION:DESIGNFLOWRATE,
    EU_ConstantAir_2d767abdf9f08afe_F2_dwelling_1,    !- Name
    2d767abdf9f08afe_F2_dwelling_1,    !- Zone or ZoneList or Space or SpaceList Name
    EU_AlwaysOn,              !- Schedule Name
    AirChanges/Hour,          !- Design Flow Rate Calculation Method
    ,                         !- Design Flow Rate
    ,                         !- Flow Rate per Floor Area
    ,                         !- Flow Rate per Person
    0.7312898234710613,       !- Air Changes per Hour
    Natural,                  !- Ventilation Type
    0,                        !- Fan Pressure Rise
    1,                        !- Fan Total Efficiency
    1,                        !- Constant Term Coefficient
    0,                        !- Temperature Term Coefficient
    0,                        !- Velocity Term Coefficient
    0,                        !- Velocity Squared Term Coefficient
    -100,                     !- Minimum Indoor Temperature
    ,                         !- Minimum Indoor Temperature Schedule Name
    100,                      !- Maximum Indoor Temperature
    ,                         !- Maximum Indoor Temperature Schedule Name
    -100,                     !- Delta Temperature
    ,                         !- Delta Temperature Schedule Name
    -100,                     !- Minimum Outdoor Temperature
    ,                         !- Minimum Outdoor Temperature Schedule Name
    100,                      !- Maximum Outdoor Temperature
    ,                         !- Maximum Outdoor Temperature Schedule Name
    40;                       !- Maximum Wind Speed

ZONEVENTILATION:DESIGNFLOWRATE,
    EU_ConstantAir_2d767abdf9f08afe_F2_dwelling_2,    !- Name
    2d767abdf9f08afe_F2_dwelling_2,    !- Zone or ZoneList or Space or SpaceList Name
    EU_AlwaysOn,              !- Schedule Name
    AirChanges/Hour,          !- Design Flow Rate Calculation Method
    ,                         !- Design Flow Rate
    ,                         !- Flow Rate per Floor Area
    ,                         !- Flow Rate per Person
    0.7312898234710613,       !- Air Changes per Hour
    Natural,                  !- Ventilation Type
    0,                        !- Fan Pressure Rise
    1,                        !- Fan Total Efficiency
    1,                        !- Constant Term Coefficient
    0,                        !- Temperature Term Coefficient
    0,                        !- Velocity Term Coefficient
    0,                        !- Velocity Squared Term Coefficient
    -100,                     !- Minimum Indoor Temperature
    ,                         !- Minimum Indoor Temperature Schedule Name
    100,                      !- Maximum Indoor Temperature
    ,                         !- Maximum Indoor Temperature Schedule Name
    -100,                     !- Delta Temperature
    ,                         !- Delta Temperature Schedule Name
    -100,                     !- Minimum Outdoor Temperature
    ,                         !- Minimum Outdoor Temperature Schedule Name
    100,                      !- Maximum Outdoor Temperature
    ,                         !- Maximum Outdoor Temperature Schedule Name
    40;                       !- Maximum Wind Speed

ZONEVENTILATION:DESIGNFLOWRATE,
    EU_ConstantAir_2d767abdf9f08afe_F3_dwelling_0,    !- Name
    2d767abdf9f08afe_F3_dwelling_0,    !- Zone or ZoneList or Space or SpaceList Name
    EU_AlwaysOn,              !- Schedule Name
    AirChanges/Hour,          !- Design Flow Rate Calculation Method
    ,                         !- Design Flow Rate
    ,                         !- Flow Rate per Floor Area
    ,                         !- Flow Rate per Person
    0.7312898234710613,       !- Air Changes per Hour
    Natural,                  !- Ventilation Type
    0,                        !- Fan Pressure Rise
    1,                        !- Fan Total Efficiency
    1,                        !- Constant Term Coefficient
    0,                        !- Temperature Term Coefficient
    0,                        !- Velocity Term Coefficient
    0,                        !- Velocity Squared Term Coefficient
    -100,                     !- Minimum Indoor Temperature
    ,                         !- Minimum Indoor Temperature Schedule Name
    100,                      !- Maximum Indoor Temperature
    ,                         !- Maximum Indoor Temperature Schedule Name
    -100,                     !- Delta Temperature
    ,                         !- Delta Temperature Schedule Name
    -100,                     !- Minimum Outdoor Temperature
    ,                         !- Minimum Outdoor Temperature Schedule Name
    100,                      !- Maximum Outdoor Temperature
    ,                         !- Maximum Outdoor Temperature Schedule Name
    40;                       !- Maximum Wind Speed

ZONEVENTILATION:DESIGNFLOWRATE,
    EU_ConstantAir_2d767abdf9f08afe_F3_dwelling_1,    !- Name
    2d767abdf9f08afe_F3_dwelling_1,    !- Zone or ZoneList or Space or SpaceList Name
    EU_AlwaysOn,              !- Schedule Name
    AirChanges/Hour,          !- Design Flow Rate Calculation Method
    ,                         !- Design Flow Rate
    ,                         !- Flow Rate per Floor Area
    ,                         !- Flow Rate per Person
    0.7312898234710613,       !- Air Changes per Hour
    Natural,                  !- Ventilation Type
    0,                        !- Fan Pressure Rise
    1,                        !- Fan Total Efficiency
    1,                        !- Constant Term Coefficient
    0,                        !- Temperature Term Coefficient
    0,                        !- Velocity Term Coefficient
    0,                        !- Velocity Squared Term Coefficient
    -100,                     !- Minimum Indoor Temperature
    ,                         !- Minimum Indoor Temperature Schedule Name
    100,                      !- Maximum Indoor Temperature
    ,                         !- Maximum Indoor Temperature Schedule Name
    -100,                     !- Delta Temperature
    ,                         !- Delta Temperature Schedule Name
    -100,                     !- Minimum Outdoor Temperature
    ,                         !- Minimum Outdoor Temperature Schedule Name
    100,                      !- Maximum Outdoor Temperature
    ,                         !- Maximum Outdoor Temperature Schedule Name
    40;                       !- Maximum Wind Speed

ZONEVENTILATION:DESIGNFLOWRATE,
    EU_ConstantAir_2d767abdf9f08afe_F3_dwelling_2,    !- Name
    2d767abdf9f08afe_F3_dwelling_2,    !- Zone or ZoneList or Space or SpaceList Name
    EU_AlwaysOn,              !- Schedule Name
    AirChanges/Hour,          !- Design Flow Rate Calculation Method
    ,                         !- Design Flow Rate
    ,                         !- Flow Rate per Floor Area
    ,                         !- Flow Rate per Person
    0.7312898234710613,       !- Air Changes per Hour
    Natural,                  !- Ventilation Type
    0,                        !- Fan Pressure Rise
    1,                        !- Fan Total Efficiency
    1,                        !- Constant Term Coefficient
    0,                        !- Temperature Term Coefficient
    0,                        !- Velocity Term Coefficient
    0,                        !- Velocity Squared Term Coefficient
    -100,                     !- Minimum Indoor Temperature
    ,                         !- Minimum Indoor Temperature Schedule Name
    100,                      !- Maximum Indoor Temperature
    ,                         !- Maximum Indoor Temperature Schedule Name
    -100,                     !- Delta Temperature
    ,                         !- Delta Temperature Schedule Name
    -100,                     !- Minimum Outdoor Temperature
    ,                         !- Minimum Outdoor Temperature Schedule Name
    100,                      !- Maximum Outdoor Temperature
    ,                         !- Maximum Outdoor Temperature Schedule Name
    40;                       !- Maximum Wind Speed

ZONEVENTILATION:DESIGNFLOWRATE,
    EU_ConstantAir_2d767abdf9f08afe_F4_dwelling_0,    !- Name
    2d767abdf9f08afe_F4_dwelling_0,    !- Zone or ZoneList or Space or SpaceList Name
    EU_AlwaysOn,              !- Schedule Name
    AirChanges/Hour,          !- Design Flow Rate Calculation Method
    ,                         !- Design Flow Rate
    ,                         !- Flow Rate per Floor Area
    ,                         !- Flow Rate per Person
    0.7312898234710613,       !- Air Changes per Hour
    Natural,                  !- Ventilation Type
    0,                        !- Fan Pressure Rise
    1,                        !- Fan Total Efficiency
    1,                        !- Constant Term Coefficient
    0,                        !- Temperature Term Coefficient
    0,                        !- Velocity Term Coefficient
    0,                        !- Velocity Squared Term Coefficient
    -100,                     !- Minimum Indoor Temperature
    ,                         !- Minimum Indoor Temperature Schedule Name
    100,                      !- Maximum Indoor Temperature
    ,                         !- Maximum Indoor Temperature Schedule Name
    -100,                     !- Delta Temperature
    ,                         !- Delta Temperature Schedule Name
    -100,                     !- Minimum Outdoor Temperature
    ,                         !- Minimum Outdoor Temperature Schedule Name
    100,                      !- Maximum Outdoor Temperature
    ,                         !- Maximum Outdoor Temperature Schedule Name
    40;                       !- Maximum Wind Speed

ZONEVENTILATION:DESIGNFLOWRATE,
    EU_ConstantAir_2d767abdf9f08afe_F4_dwelling_1,    !- Name
    2d767abdf9f08afe_F4_dwelling_1,    !- Zone or ZoneList or Space or SpaceList Name
    EU_AlwaysOn,              !- Schedule Name
    AirChanges/Hour,          !- Design Flow Rate Calculation Method
    ,                         !- Design Flow Rate
    ,                         !- Flow Rate per Floor Area
    ,                         !- Flow Rate per Person
    0.7312898234710613,       !- Air Changes per Hour
    Natural,                  !- Ventilation Type
    0,                        !- Fan Pressure Rise
    1,                        !- Fan Total Efficiency
    1,                        !- Constant Term Coefficient
    0,                        !- Temperature Term Coefficient
    0,                        !- Velocity Term Coefficient
    0,                        !- Velocity Squared Term Coefficient
    -100,                     !- Minimum Indoor Temperature
    ,                         !- Minimum Indoor Temperature Schedule Name
    100,                      !- Maximum Indoor Temperature
    ,                         !- Maximum Indoor Temperature Schedule Name
    -100,                     !- Delta Temperature
    ,                         !- Delta Temperature Schedule Name
    -100,                     !- Minimum Outdoor Temperature
    ,                         !- Minimum Outdoor Temperature Schedule Name
    100,                      !- Maximum Outdoor Temperature
    ,                         !- Maximum Outdoor Temperature Schedule Name
    40;                       !- Maximum Wind Speed

ZONEVENTILATION:DESIGNFLOWRATE,
    EU_ConstantAir_2d767abdf9f08afe_F5_dwelling_0,    !- Name
    2d767abdf9f08afe_F5_dwelling_0,    !- Zone or ZoneList or Space or SpaceList Name
    EU_AlwaysOn,              !- Schedule Name
    AirChanges/Hour,          !- Design Flow Rate Calculation Method
    ,                         !- Design Flow Rate
    ,                         !- Flow Rate per Floor Area
    ,                         !- Flow Rate per Person
    0.7312898234710613,       !- Air Changes per Hour
    Natural,                  !- Ventilation Type
    0,                        !- Fan Pressure Rise
    1,                        !- Fan Total Efficiency
    1,                        !- Constant Term Coefficient
    0,                        !- Temperature Term Coefficient
    0,                        !- Velocity Term Coefficient
    0,                        !- Velocity Squared Term Coefficient
    -100,                     !- Minimum Indoor Temperature
    ,                         !- Minimum Indoor Temperature Schedule Name
    100,                      !- Maximum Indoor Temperature
    ,                         !- Maximum Indoor Temperature Schedule Name
    -100,                     !- Delta Temperature
    ,                         !- Delta Temperature Schedule Name
    -100,                     !- Minimum Outdoor Temperature
    ,                         !- Minimum Outdoor Temperature Schedule Name
    100,                      !- Maximum Outdoor Temperature
    ,                         !- Maximum Outdoor Temperature Schedule Name
    40;                       !- Maximum Wind Speed

ZONEVENTILATION:DESIGNFLOWRATE,
    EU_ConstantAir_2d767abdf9f08afe_F5_dwelling_1,    !- Name
    2d767abdf9f08afe_F5_dwelling_1,    !- Zone or ZoneList or Space or SpaceList Name
    EU_AlwaysOn,              !- Schedule Name
    AirChanges/Hour,          !- Design Flow Rate Calculation Method
    ,                         !- Design Flow Rate
    ,                         !- Flow Rate per Floor Area
    ,                         !- Flow Rate per Person
    0.7312898234710613,       !- Air Changes per Hour
    Natural,                  !- Ventilation Type
    0,                        !- Fan Pressure Rise
    1,                        !- Fan Total Efficiency
    1,                        !- Constant Term Coefficient
    0,                        !- Temperature Term Coefficient
    0,                        !- Velocity Term Coefficient
    0,                        !- Velocity Squared Term Coefficient
    -100,                     !- Minimum Indoor Temperature
    ,                         !- Minimum Indoor Temperature Schedule Name
    100,                      !- Maximum Indoor Temperature
    ,                         !- Maximum Indoor Temperature Schedule Name
    -100,                     !- Delta Temperature
    ,                         !- Delta Temperature Schedule Name
    -100,                     !- Minimum Outdoor Temperature
    ,                         !- Minimum Outdoor Temperature Schedule Name
    100,                      !- Maximum Outdoor Temperature
    ,                         !- Maximum Outdoor Temperature Schedule Name
    40;                       !- Maximum Wind Speed

HVACTEMPLATE:THERMOSTAT,
    EU_HeatOnly_2d767abdf9f08afe_F0_dwelling_0,    !- Name
    ,                         !- Heating Setpoint Schedule Name
    20,                       !- Constant Heating Setpoint
    ,                         !- Cooling Setpoint Schedule Name
    50;                       !- Constant Cooling Setpoint

HVACTEMPLATE:THERMOSTAT,
    EU_HeatOnly_2d767abdf9f08afe_F0_dwelling_1,    !- Name
    ,                         !- Heating Setpoint Schedule Name
    20,                       !- Constant Heating Setpoint
    ,                         !- Cooling Setpoint Schedule Name
    50;                       !- Constant Cooling Setpoint

HVACTEMPLATE:THERMOSTAT,
    EU_HeatOnly_2d767abdf9f08afe_F0_dwelling_2,    !- Name
    ,                         !- Heating Setpoint Schedule Name
    20,                       !- Constant Heating Setpoint
    ,                         !- Cooling Setpoint Schedule Name
    50;                       !- Constant Cooling Setpoint

HVACTEMPLATE:THERMOSTAT,
    EU_HeatOnly_2d767abdf9f08afe_F1_dwelling_0,    !- Name
    ,                         !- Heating Setpoint Schedule Name
    20,                       !- Constant Heating Setpoint
    ,                         !- Cooling Setpoint Schedule Name
    50;                       !- Constant Cooling Setpoint

HVACTEMPLATE:THERMOSTAT,
    EU_HeatOnly_2d767abdf9f08afe_F1_dwelling_1,    !- Name
    ,                         !- Heating Setpoint Schedule Name
    20,                       !- Constant Heating Setpoint
    ,                         !- Cooling Setpoint Schedule Name
    50;                       !- Constant Cooling Setpoint

HVACTEMPLATE:THERMOSTAT,
    EU_HeatOnly_2d767abdf9f08afe_F1_dwelling_2,    !- Name
    ,                         !- Heating Setpoint Schedule Name
    20,                       !- Constant Heating Setpoint
    ,                         !- Cooling Setpoint Schedule Name
    50;                       !- Constant Cooling Setpoint

HVACTEMPLATE:THERMOSTAT,
    EU_HeatOnly_2d767abdf9f08afe_F2_dwelling_0,    !- Name
    ,                         !- Heating Setpoint Schedule Name
    20,                       !- Constant Heating Setpoint
    ,                         !- Cooling Setpoint Schedule Name
    50;                       !- Constant Cooling Setpoint

HVACTEMPLATE:THERMOSTAT,
    EU_HeatOnly_2d767abdf9f08afe_F2_dwelling_1,    !- Name
    ,                         !- Heating Setpoint Schedule Name
    20,                       !- Constant Heating Setpoint
    ,                         !- Cooling Setpoint Schedule Name
    50;                       !- Constant Cooling Setpoint

HVACTEMPLATE:THERMOSTAT,
    EU_HeatOnly_2d767abdf9f08afe_F2_dwelling_2,    !- Name
    ,                         !- Heating Setpoint Schedule Name
    20,                       !- Constant Heating Setpoint
    ,                         !- Cooling Setpoint Schedule Name
    50;                       !- Constant Cooling Setpoint

HVACTEMPLATE:THERMOSTAT,
    EU_HeatOnly_2d767abdf9f08afe_F3_dwelling_0,    !- Name
    ,                         !- Heating Setpoint Schedule Name
    20,                       !- Constant Heating Setpoint
    ,                         !- Cooling Setpoint Schedule Name
    50;                       !- Constant Cooling Setpoint

HVACTEMPLATE:THERMOSTAT,
    EU_HeatOnly_2d767abdf9f08afe_F3_dwelling_1,    !- Name
    ,                         !- Heating Setpoint Schedule Name
    20,                       !- Constant Heating Setpoint
    ,                         !- Cooling Setpoint Schedule Name
    50;                       !- Constant Cooling Setpoint

HVACTEMPLATE:THERMOSTAT,
    EU_HeatOnly_2d767abdf9f08afe_F3_dwelling_2,    !- Name
    ,                         !- Heating Setpoint Schedule Name
    20,                       !- Constant Heating Setpoint
    ,                         !- Cooling Setpoint Schedule Name
    50;                       !- Constant Cooling Setpoint

HVACTEMPLATE:THERMOSTAT,
    EU_HeatOnly_2d767abdf9f08afe_F4_dwelling_0,    !- Name
    ,                         !- Heating Setpoint Schedule Name
    20,                       !- Constant Heating Setpoint
    ,                         !- Cooling Setpoint Schedule Name
    50;                       !- Constant Cooling Setpoint

HVACTEMPLATE:THERMOSTAT,
    EU_HeatOnly_2d767abdf9f08afe_F4_dwelling_1,    !- Name
    ,                         !- Heating Setpoint Schedule Name
    20,                       !- Constant Heating Setpoint
    ,                         !- Cooling Setpoint Schedule Name
    50;                       !- Constant Cooling Setpoint

HVACTEMPLATE:THERMOSTAT,
    EU_HeatOnly_2d767abdf9f08afe_F5_dwelling_0,    !- Name
    ,                         !- Heating Setpoint Schedule Name
    20,                       !- Constant Heating Setpoint
    ,                         !- Cooling Setpoint Schedule Name
    50;                       !- Constant Cooling Setpoint

HVACTEMPLATE:THERMOSTAT,
    EU_HeatOnly_2d767abdf9f08afe_F5_dwelling_1,    !- Name
    ,                         !- Heating Setpoint Schedule Name
    20,                       !- Constant Heating Setpoint
    ,                         !- Cooling Setpoint Schedule Name
    50;                       !- Constant Cooling Setpoint

HVACTEMPLATE:ZONE:IDEALLOADSAIRSYSTEM,
    2d767abdf9f08afe_F0_dwelling_0,    !- Zone Name
    EU_HeatOnly_2d767abdf9f08afe_F0_dwelling_0,    !- Template Thermostat Name
    EU_AlwaysOn,              !- System Availability Schedule Name
    50,                       !- Maximum Heating Supply Air Temperature
    13,                       !- Minimum Cooling Supply Air Temperature
    0.0156,                   !- Maximum Heating Supply Air Humidity Ratio
    0.0077,                   !- Minimum Cooling Supply Air Humidity Ratio
    NoLimit,                  !- Heating Limit
    ,                         !- Maximum Heating Air Flow Rate
    ,                         !- Maximum Sensible Heating Capacity
    NoLimit,                  !- Cooling Limit
    ,                         !- Maximum Cooling Air Flow Rate
    ,                         !- Maximum Total Cooling Capacity
    EU_AlwaysOn,              !- Heating Availability Schedule Name
    EU_CoolingOff,            !- Cooling Availability Schedule Name
    ConstantSensibleHeatRatio,    !- Dehumidification Control Type
    0.7,                      !- Cooling Sensible Heat Ratio
    60,                       !- Dehumidification Setpoint
    None,                     !- Humidification Control Type
    30,                       !- Humidification Setpoint
    None,                     !- Outdoor Air Method
    0.00944,                  !- Outdoor Air Flow Rate per Person
    0.0,                      !- Outdoor Air Flow Rate per Zone Floor Area
    0,                        !- Outdoor Air Flow Rate per Zone
    ,                         !- Design Specification Outdoor Air Object Name
    None,                     !- Demand Controlled Ventilation Type
    NoEconomizer,             !- Outdoor Air Economizer Type
    None,                     !- Heat Recovery Type
    0.70,                     !- Sensible Heat Recovery Effectiveness
    0.65;                     !- Latent Heat Recovery Effectiveness

HVACTEMPLATE:ZONE:IDEALLOADSAIRSYSTEM,
    2d767abdf9f08afe_F0_dwelling_1,    !- Zone Name
    EU_HeatOnly_2d767abdf9f08afe_F0_dwelling_1,    !- Template Thermostat Name
    EU_AlwaysOn,              !- System Availability Schedule Name
    50,                       !- Maximum Heating Supply Air Temperature
    13,                       !- Minimum Cooling Supply Air Temperature
    0.0156,                   !- Maximum Heating Supply Air Humidity Ratio
    0.0077,                   !- Minimum Cooling Supply Air Humidity Ratio
    NoLimit,                  !- Heating Limit
    ,                         !- Maximum Heating Air Flow Rate
    ,                         !- Maximum Sensible Heating Capacity
    NoLimit,                  !- Cooling Limit
    ,                         !- Maximum Cooling Air Flow Rate
    ,                         !- Maximum Total Cooling Capacity
    EU_AlwaysOn,              !- Heating Availability Schedule Name
    EU_CoolingOff,            !- Cooling Availability Schedule Name
    ConstantSensibleHeatRatio,    !- Dehumidification Control Type
    0.7,                      !- Cooling Sensible Heat Ratio
    60,                       !- Dehumidification Setpoint
    None,                     !- Humidification Control Type
    30,                       !- Humidification Setpoint
    None,                     !- Outdoor Air Method
    0.00944,                  !- Outdoor Air Flow Rate per Person
    0.0,                      !- Outdoor Air Flow Rate per Zone Floor Area
    0,                        !- Outdoor Air Flow Rate per Zone
    ,                         !- Design Specification Outdoor Air Object Name
    None,                     !- Demand Controlled Ventilation Type
    NoEconomizer,             !- Outdoor Air Economizer Type
    None,                     !- Heat Recovery Type
    0.70,                     !- Sensible Heat Recovery Effectiveness
    0.65;                     !- Latent Heat Recovery Effectiveness

HVACTEMPLATE:ZONE:IDEALLOADSAIRSYSTEM,
    2d767abdf9f08afe_F0_dwelling_2,    !- Zone Name
    EU_HeatOnly_2d767abdf9f08afe_F0_dwelling_2,    !- Template Thermostat Name
    EU_AlwaysOn,              !- System Availability Schedule Name
    50,                       !- Maximum Heating Supply Air Temperature
    13,                       !- Minimum Cooling Supply Air Temperature
    0.0156,                   !- Maximum Heating Supply Air Humidity Ratio
    0.0077,                   !- Minimum Cooling Supply Air Humidity Ratio
    NoLimit,                  !- Heating Limit
    ,                         !- Maximum Heating Air Flow Rate
    ,                         !- Maximum Sensible Heating Capacity
    NoLimit,                  !- Cooling Limit
    ,                         !- Maximum Cooling Air Flow Rate
    ,                         !- Maximum Total Cooling Capacity
    EU_AlwaysOn,              !- Heating Availability Schedule Name
    EU_CoolingOff,            !- Cooling Availability Schedule Name
    ConstantSensibleHeatRatio,    !- Dehumidification Control Type
    0.7,                      !- Cooling Sensible Heat Ratio
    60,                       !- Dehumidification Setpoint
    None,                     !- Humidification Control Type
    30,                       !- Humidification Setpoint
    None,                     !- Outdoor Air Method
    0.00944,                  !- Outdoor Air Flow Rate per Person
    0.0,                      !- Outdoor Air Flow Rate per Zone Floor Area
    0,                        !- Outdoor Air Flow Rate per Zone
    ,                         !- Design Specification Outdoor Air Object Name
    None,                     !- Demand Controlled Ventilation Type
    NoEconomizer,             !- Outdoor Air Economizer Type
    None,                     !- Heat Recovery Type
    0.70,                     !- Sensible Heat Recovery Effectiveness
    0.65;                     !- Latent Heat Recovery Effectiveness

HVACTEMPLATE:ZONE:IDEALLOADSAIRSYSTEM,
    2d767abdf9f08afe_F1_dwelling_0,    !- Zone Name
    EU_HeatOnly_2d767abdf9f08afe_F1_dwelling_0,    !- Template Thermostat Name
    EU_AlwaysOn,              !- System Availability Schedule Name
    50,                       !- Maximum Heating Supply Air Temperature
    13,                       !- Minimum Cooling Supply Air Temperature
    0.0156,                   !- Maximum Heating Supply Air Humidity Ratio
    0.0077,                   !- Minimum Cooling Supply Air Humidity Ratio
    NoLimit,                  !- Heating Limit
    ,                         !- Maximum Heating Air Flow Rate
    ,                         !- Maximum Sensible Heating Capacity
    NoLimit,                  !- Cooling Limit
    ,                         !- Maximum Cooling Air Flow Rate
    ,                         !- Maximum Total Cooling Capacity
    EU_AlwaysOn,              !- Heating Availability Schedule Name
    EU_CoolingOff,            !- Cooling Availability Schedule Name
    ConstantSensibleHeatRatio,    !- Dehumidification Control Type
    0.7,                      !- Cooling Sensible Heat Ratio
    60,                       !- Dehumidification Setpoint
    None,                     !- Humidification Control Type
    30,                       !- Humidification Setpoint
    None,                     !- Outdoor Air Method
    0.00944,                  !- Outdoor Air Flow Rate per Person
    0.0,                      !- Outdoor Air Flow Rate per Zone Floor Area
    0,                        !- Outdoor Air Flow Rate per Zone
    ,                         !- Design Specification Outdoor Air Object Name
    None,                     !- Demand Controlled Ventilation Type
    NoEconomizer,             !- Outdoor Air Economizer Type
    None,                     !- Heat Recovery Type
    0.70,                     !- Sensible Heat Recovery Effectiveness
    0.65;                     !- Latent Heat Recovery Effectiveness

HVACTEMPLATE:ZONE:IDEALLOADSAIRSYSTEM,
    2d767abdf9f08afe_F1_dwelling_1,    !- Zone Name
    EU_HeatOnly_2d767abdf9f08afe_F1_dwelling_1,    !- Template Thermostat Name
    EU_AlwaysOn,              !- System Availability Schedule Name
    50,                       !- Maximum Heating Supply Air Temperature
    13,                       !- Minimum Cooling Supply Air Temperature
    0.0156,                   !- Maximum Heating Supply Air Humidity Ratio
    0.0077,                   !- Minimum Cooling Supply Air Humidity Ratio
    NoLimit,                  !- Heating Limit
    ,                         !- Maximum Heating Air Flow Rate
    ,                         !- Maximum Sensible Heating Capacity
    NoLimit,                  !- Cooling Limit
    ,                         !- Maximum Cooling Air Flow Rate
    ,                         !- Maximum Total Cooling Capacity
    EU_AlwaysOn,              !- Heating Availability Schedule Name
    EU_CoolingOff,            !- Cooling Availability Schedule Name
    ConstantSensibleHeatRatio,    !- Dehumidification Control Type
    0.7,                      !- Cooling Sensible Heat Ratio
    60,                       !- Dehumidification Setpoint
    None,                     !- Humidification Control Type
    30,                       !- Humidification Setpoint
    None,                     !- Outdoor Air Method
    0.00944,                  !- Outdoor Air Flow Rate per Person
    0.0,                      !- Outdoor Air Flow Rate per Zone Floor Area
    0,                        !- Outdoor Air Flow Rate per Zone
    ,                         !- Design Specification Outdoor Air Object Name
    None,                     !- Demand Controlled Ventilation Type
    NoEconomizer,             !- Outdoor Air Economizer Type
    None,                     !- Heat Recovery Type
    0.70,                     !- Sensible Heat Recovery Effectiveness
    0.65;                     !- Latent Heat Recovery Effectiveness

HVACTEMPLATE:ZONE:IDEALLOADSAIRSYSTEM,
    2d767abdf9f08afe_F1_dwelling_2,    !- Zone Name
    EU_HeatOnly_2d767abdf9f08afe_F1_dwelling_2,    !- Template Thermostat Name
    EU_AlwaysOn,              !- System Availability Schedule Name
    50,                       !- Maximum Heating Supply Air Temperature
    13,                       !- Minimum Cooling Supply Air Temperature
    0.0156,                   !- Maximum Heating Supply Air Humidity Ratio
    0.0077,                   !- Minimum Cooling Supply Air Humidity Ratio
    NoLimit,                  !- Heating Limit
    ,                         !- Maximum Heating Air Flow Rate
    ,                         !- Maximum Sensible Heating Capacity
    NoLimit,                  !- Cooling Limit
    ,                         !- Maximum Cooling Air Flow Rate
    ,                         !- Maximum Total Cooling Capacity
    EU_AlwaysOn,              !- Heating Availability Schedule Name
    EU_CoolingOff,            !- Cooling Availability Schedule Name
    ConstantSensibleHeatRatio,    !- Dehumidification Control Type
    0.7,                      !- Cooling Sensible Heat Ratio
    60,                       !- Dehumidification Setpoint
    None,                     !- Humidification Control Type
    30,                       !- Humidification Setpoint
    None,                     !- Outdoor Air Method
    0.00944,                  !- Outdoor Air Flow Rate per Person
    0.0,                      !- Outdoor Air Flow Rate per Zone Floor Area
    0,                        !- Outdoor Air Flow Rate per Zone
    ,                         !- Design Specification Outdoor Air Object Name
    None,                     !- Demand Controlled Ventilation Type
    NoEconomizer,             !- Outdoor Air Economizer Type
    None,                     !- Heat Recovery Type
    0.70,                     !- Sensible Heat Recovery Effectiveness
    0.65;                     !- Latent Heat Recovery Effectiveness

HVACTEMPLATE:ZONE:IDEALLOADSAIRSYSTEM,
    2d767abdf9f08afe_F2_dwelling_0,    !- Zone Name
    EU_HeatOnly_2d767abdf9f08afe_F2_dwelling_0,    !- Template Thermostat Name
    EU_AlwaysOn,              !- System Availability Schedule Name
    50,                       !- Maximum Heating Supply Air Temperature
    13,                       !- Minimum Cooling Supply Air Temperature
    0.0156,                   !- Maximum Heating Supply Air Humidity Ratio
    0.0077,                   !- Minimum Cooling Supply Air Humidity Ratio
    NoLimit,                  !- Heating Limit
    ,                         !- Maximum Heating Air Flow Rate
    ,                         !- Maximum Sensible Heating Capacity
    NoLimit,                  !- Cooling Limit
    ,                         !- Maximum Cooling Air Flow Rate
    ,                         !- Maximum Total Cooling Capacity
    EU_AlwaysOn,              !- Heating Availability Schedule Name
    EU_CoolingOff,            !- Cooling Availability Schedule Name
    ConstantSensibleHeatRatio,    !- Dehumidification Control Type
    0.7,                      !- Cooling Sensible Heat Ratio
    60,                       !- Dehumidification Setpoint
    None,                     !- Humidification Control Type
    30,                       !- Humidification Setpoint
    None,                     !- Outdoor Air Method
    0.00944,                  !- Outdoor Air Flow Rate per Person
    0.0,                      !- Outdoor Air Flow Rate per Zone Floor Area
    0,                        !- Outdoor Air Flow Rate per Zone
    ,                         !- Design Specification Outdoor Air Object Name
    None,                     !- Demand Controlled Ventilation Type
    NoEconomizer,             !- Outdoor Air Economizer Type
    None,                     !- Heat Recovery Type
    0.70,                     !- Sensible Heat Recovery Effectiveness
    0.65;                     !- Latent Heat Recovery Effectiveness

HVACTEMPLATE:ZONE:IDEALLOADSAIRSYSTEM,
    2d767abdf9f08afe_F2_dwelling_1,    !- Zone Name
    EU_HeatOnly_2d767abdf9f08afe_F2_dwelling_1,    !- Template Thermostat Name
    EU_AlwaysOn,              !- System Availability Schedule Name
    50,                       !- Maximum Heating Supply Air Temperature
    13,                       !- Minimum Cooling Supply Air Temperature
    0.0156,                   !- Maximum Heating Supply Air Humidity Ratio
    0.0077,                   !- Minimum Cooling Supply Air Humidity Ratio
    NoLimit,                  !- Heating Limit
    ,                         !- Maximum Heating Air Flow Rate
    ,                         !- Maximum Sensible Heating Capacity
    NoLimit,                  !- Cooling Limit
    ,                         !- Maximum Cooling Air Flow Rate
    ,                         !- Maximum Total Cooling Capacity
    EU_AlwaysOn,              !- Heating Availability Schedule Name
    EU_CoolingOff,            !- Cooling Availability Schedule Name
    ConstantSensibleHeatRatio,    !- Dehumidification Control Type
    0.7,                      !- Cooling Sensible Heat Ratio
    60,                       !- Dehumidification Setpoint
    None,                     !- Humidification Control Type
    30,                       !- Humidification Setpoint
    None,                     !- Outdoor Air Method
    0.00944,                  !- Outdoor Air Flow Rate per Person
    0.0,                      !- Outdoor Air Flow Rate per Zone Floor Area
    0,                        !- Outdoor Air Flow Rate per Zone
    ,                         !- Design Specification Outdoor Air Object Name
    None,                     !- Demand Controlled Ventilation Type
    NoEconomizer,             !- Outdoor Air Economizer Type
    None,                     !- Heat Recovery Type
    0.70,                     !- Sensible Heat Recovery Effectiveness
    0.65;                     !- Latent Heat Recovery Effectiveness

HVACTEMPLATE:ZONE:IDEALLOADSAIRSYSTEM,
    2d767abdf9f08afe_F2_dwelling_2,    !- Zone Name
    EU_HeatOnly_2d767abdf9f08afe_F2_dwelling_2,    !- Template Thermostat Name
    EU_AlwaysOn,              !- System Availability Schedule Name
    50,                       !- Maximum Heating Supply Air Temperature
    13,                       !- Minimum Cooling Supply Air Temperature
    0.0156,                   !- Maximum Heating Supply Air Humidity Ratio
    0.0077,                   !- Minimum Cooling Supply Air Humidity Ratio
    NoLimit,                  !- Heating Limit
    ,                         !- Maximum Heating Air Flow Rate
    ,                         !- Maximum Sensible Heating Capacity
    NoLimit,                  !- Cooling Limit
    ,                         !- Maximum Cooling Air Flow Rate
    ,                         !- Maximum Total Cooling Capacity
    EU_AlwaysOn,              !- Heating Availability Schedule Name
    EU_CoolingOff,            !- Cooling Availability Schedule Name
    ConstantSensibleHeatRatio,    !- Dehumidification Control Type
    0.7,                      !- Cooling Sensible Heat Ratio
    60,                       !- Dehumidification Setpoint
    None,                     !- Humidification Control Type
    30,                       !- Humidification Setpoint
    None,                     !- Outdoor Air Method
    0.00944,                  !- Outdoor Air Flow Rate per Person
    0.0,                      !- Outdoor Air Flow Rate per Zone Floor Area
    0,                        !- Outdoor Air Flow Rate per Zone
    ,                         !- Design Specification Outdoor Air Object Name
    None,                     !- Demand Controlled Ventilation Type
    NoEconomizer,             !- Outdoor Air Economizer Type
    None,                     !- Heat Recovery Type
    0.70,                     !- Sensible Heat Recovery Effectiveness
    0.65;                     !- Latent Heat Recovery Effectiveness

HVACTEMPLATE:ZONE:IDEALLOADSAIRSYSTEM,
    2d767abdf9f08afe_F3_dwelling_0,    !- Zone Name
    EU_HeatOnly_2d767abdf9f08afe_F3_dwelling_0,    !- Template Thermostat Name
    EU_AlwaysOn,              !- System Availability Schedule Name
    50,                       !- Maximum Heating Supply Air Temperature
    13,                       !- Minimum Cooling Supply Air Temperature
    0.0156,                   !- Maximum Heating Supply Air Humidity Ratio
    0.0077,                   !- Minimum Cooling Supply Air Humidity Ratio
    NoLimit,                  !- Heating Limit
    ,                         !- Maximum Heating Air Flow Rate
    ,                         !- Maximum Sensible Heating Capacity
    NoLimit,                  !- Cooling Limit
    ,                         !- Maximum Cooling Air Flow Rate
    ,                         !- Maximum Total Cooling Capacity
    EU_AlwaysOn,              !- Heating Availability Schedule Name
    EU_CoolingOff,            !- Cooling Availability Schedule Name
    ConstantSensibleHeatRatio,    !- Dehumidification Control Type
    0.7,                      !- Cooling Sensible Heat Ratio
    60,                       !- Dehumidification Setpoint
    None,                     !- Humidification Control Type
    30,                       !- Humidification Setpoint
    None,                     !- Outdoor Air Method
    0.00944,                  !- Outdoor Air Flow Rate per Person
    0.0,                      !- Outdoor Air Flow Rate per Zone Floor Area
    0,                        !- Outdoor Air Flow Rate per Zone
    ,                         !- Design Specification Outdoor Air Object Name
    None,                     !- Demand Controlled Ventilation Type
    NoEconomizer,             !- Outdoor Air Economizer Type
    None,                     !- Heat Recovery Type
    0.70,                     !- Sensible Heat Recovery Effectiveness
    0.65;                     !- Latent Heat Recovery Effectiveness

HVACTEMPLATE:ZONE:IDEALLOADSAIRSYSTEM,
    2d767abdf9f08afe_F3_dwelling_1,    !- Zone Name
    EU_HeatOnly_2d767abdf9f08afe_F3_dwelling_1,    !- Template Thermostat Name
    EU_AlwaysOn,              !- System Availability Schedule Name
    50,                       !- Maximum Heating Supply Air Temperature
    13,                       !- Minimum Cooling Supply Air Temperature
    0.0156,                   !- Maximum Heating Supply Air Humidity Ratio
    0.0077,                   !- Minimum Cooling Supply Air Humidity Ratio
    NoLimit,                  !- Heating Limit
    ,                         !- Maximum Heating Air Flow Rate
    ,                         !- Maximum Sensible Heating Capacity
    NoLimit,                  !- Cooling Limit
    ,                         !- Maximum Cooling Air Flow Rate
    ,                         !- Maximum Total Cooling Capacity
    EU_AlwaysOn,              !- Heating Availability Schedule Name
    EU_CoolingOff,            !- Cooling Availability Schedule Name
    ConstantSensibleHeatRatio,    !- Dehumidification Control Type
    0.7,                      !- Cooling Sensible Heat Ratio
    60,                       !- Dehumidification Setpoint
    None,                     !- Humidification Control Type
    30,                       !- Humidification Setpoint
    None,                     !- Outdoor Air Method
    0.00944,                  !- Outdoor Air Flow Rate per Person
    0.0,                      !- Outdoor Air Flow Rate per Zone Floor Area
    0,                        !- Outdoor Air Flow Rate per Zone
    ,                         !- Design Specification Outdoor Air Object Name
    None,                     !- Demand Controlled Ventilation Type
    NoEconomizer,             !- Outdoor Air Economizer Type
    None,                     !- Heat Recovery Type
    0.70,                     !- Sensible Heat Recovery Effectiveness
    0.65;                     !- Latent Heat Recovery Effectiveness

HVACTEMPLATE:ZONE:IDEALLOADSAIRSYSTEM,
    2d767abdf9f08afe_F3_dwelling_2,    !- Zone Name
    EU_HeatOnly_2d767abdf9f08afe_F3_dwelling_2,    !- Template Thermostat Name
    EU_AlwaysOn,              !- System Availability Schedule Name
    50,                       !- Maximum Heating Supply Air Temperature
    13,                       !- Minimum Cooling Supply Air Temperature
    0.0156,                   !- Maximum Heating Supply Air Humidity Ratio
    0.0077,                   !- Minimum Cooling Supply Air Humidity Ratio
    NoLimit,                  !- Heating Limit
    ,                         !- Maximum Heating Air Flow Rate
    ,                         !- Maximum Sensible Heating Capacity
    NoLimit,                  !- Cooling Limit
    ,                         !- Maximum Cooling Air Flow Rate
    ,                         !- Maximum Total Cooling Capacity
    EU_AlwaysOn,              !- Heating Availability Schedule Name
    EU_CoolingOff,            !- Cooling Availability Schedule Name
    ConstantSensibleHeatRatio,    !- Dehumidification Control Type
    0.7,                      !- Cooling Sensible Heat Ratio
    60,                       !- Dehumidification Setpoint
    None,                     !- Humidification Control Type
    30,                       !- Humidification Setpoint
    None,                     !- Outdoor Air Method
    0.00944,                  !- Outdoor Air Flow Rate per Person
    0.0,                      !- Outdoor Air Flow Rate per Zone Floor Area
    0,                        !- Outdoor Air Flow Rate per Zone
    ,                         !- Design Specification Outdoor Air Object Name
    None,                     !- Demand Controlled Ventilation Type
    NoEconomizer,             !- Outdoor Air Economizer Type
    None,                     !- Heat Recovery Type
    0.70,                     !- Sensible Heat Recovery Effectiveness
    0.65;                     !- Latent Heat Recovery Effectiveness

HVACTEMPLATE:ZONE:IDEALLOADSAIRSYSTEM,
    2d767abdf9f08afe_F4_dwelling_0,    !- Zone Name
    EU_HeatOnly_2d767abdf9f08afe_F4_dwelling_0,    !- Template Thermostat Name
    EU_AlwaysOn,              !- System Availability Schedule Name
    50,                       !- Maximum Heating Supply Air Temperature
    13,                       !- Minimum Cooling Supply Air Temperature
    0.0156,                   !- Maximum Heating Supply Air Humidity Ratio
    0.0077,                   !- Minimum Cooling Supply Air Humidity Ratio
    NoLimit,                  !- Heating Limit
    ,                         !- Maximum Heating Air Flow Rate
    ,                         !- Maximum Sensible Heating Capacity
    NoLimit,                  !- Cooling Limit
    ,                         !- Maximum Cooling Air Flow Rate
    ,                         !- Maximum Total Cooling Capacity
    EU_AlwaysOn,              !- Heating Availability Schedule Name
    EU_CoolingOff,            !- Cooling Availability Schedule Name
    ConstantSensibleHeatRatio,    !- Dehumidification Control Type
    0.7,                      !- Cooling Sensible Heat Ratio
    60,                       !- Dehumidification Setpoint
    None,                     !- Humidification Control Type
    30,                       !- Humidification Setpoint
    None,                     !- Outdoor Air Method
    0.00944,                  !- Outdoor Air Flow Rate per Person
    0.0,                      !- Outdoor Air Flow Rate per Zone Floor Area
    0,                        !- Outdoor Air Flow Rate per Zone
    ,                         !- Design Specification Outdoor Air Object Name
    None,                     !- Demand Controlled Ventilation Type
    NoEconomizer,             !- Outdoor Air Economizer Type
    None,                     !- Heat Recovery Type
    0.70,                     !- Sensible Heat Recovery Effectiveness
    0.65;                     !- Latent Heat Recovery Effectiveness

HVACTEMPLATE:ZONE:IDEALLOADSAIRSYSTEM,
    2d767abdf9f08afe_F4_dwelling_1,    !- Zone Name
    EU_HeatOnly_2d767abdf9f08afe_F4_dwelling_1,    !- Template Thermostat Name
    EU_AlwaysOn,              !- System Availability Schedule Name
    50,                       !- Maximum Heating Supply Air Temperature
    13,                       !- Minimum Cooling Supply Air Temperature
    0.0156,                   !- Maximum Heating Supply Air Humidity Ratio
    0.0077,                   !- Minimum Cooling Supply Air Humidity Ratio
    NoLimit,                  !- Heating Limit
    ,                         !- Maximum Heating Air Flow Rate
    ,                         !- Maximum Sensible Heating Capacity
    NoLimit,                  !- Cooling Limit
    ,                         !- Maximum Cooling Air Flow Rate
    ,                         !- Maximum Total Cooling Capacity
    EU_AlwaysOn,              !- Heating Availability Schedule Name
    EU_CoolingOff,            !- Cooling Availability Schedule Name
    ConstantSensibleHeatRatio,    !- Dehumidification Control Type
    0.7,                      !- Cooling Sensible Heat Ratio
    60,                       !- Dehumidification Setpoint
    None,                     !- Humidification Control Type
    30,                       !- Humidification Setpoint
    None,                     !- Outdoor Air Method
    0.00944,                  !- Outdoor Air Flow Rate per Person
    0.0,                      !- Outdoor Air Flow Rate per Zone Floor Area
    0,                        !- Outdoor Air Flow Rate per Zone
    ,                         !- Design Specification Outdoor Air Object Name
    None,                     !- Demand Controlled Ventilation Type
    NoEconomizer,             !- Outdoor Air Economizer Type
    None,                     !- Heat Recovery Type
    0.70,                     !- Sensible Heat Recovery Effectiveness
    0.65;                     !- Latent Heat Recovery Effectiveness

HVACTEMPLATE:ZONE:IDEALLOADSAIRSYSTEM,
    2d767abdf9f08afe_F5_dwelling_0,    !- Zone Name
    EU_HeatOnly_2d767abdf9f08afe_F5_dwelling_0,    !- Template Thermostat Name
    EU_AlwaysOn,              !- System Availability Schedule Name
    50,                       !- Maximum Heating Supply Air Temperature
    13,                       !- Minimum Cooling Supply Air Temperature
    0.0156,                   !- Maximum Heating Supply Air Humidity Ratio
    0.0077,                   !- Minimum Cooling Supply Air Humidity Ratio
    NoLimit,                  !- Heating Limit
    ,                         !- Maximum Heating Air Flow Rate
    ,                         !- Maximum Sensible Heating Capacity
    NoLimit,                  !- Cooling Limit
    ,                         !- Maximum Cooling Air Flow Rate
    ,                         !- Maximum Total Cooling Capacity
    EU_AlwaysOn,              !- Heating Availability Schedule Name
    EU_CoolingOff,            !- Cooling Availability Schedule Name
    ConstantSensibleHeatRatio,    !- Dehumidification Control Type
    0.7,                      !- Cooling Sensible Heat Ratio
    60,                       !- Dehumidification Setpoint
    None,                     !- Humidification Control Type
    30,                       !- Humidification Setpoint
    None,                     !- Outdoor Air Method
    0.00944,                  !- Outdoor Air Flow Rate per Person
    0.0,                      !- Outdoor Air Flow Rate per Zone Floor Area
    0,                        !- Outdoor Air Flow Rate per Zone
    ,                         !- Design Specification Outdoor Air Object Name
    None,                     !- Demand Controlled Ventilation Type
    NoEconomizer,             !- Outdoor Air Economizer Type
    None,                     !- Heat Recovery Type
    0.70,                     !- Sensible Heat Recovery Effectiveness
    0.65;                     !- Latent Heat Recovery Effectiveness

HVACTEMPLATE:ZONE:IDEALLOADSAIRSYSTEM,
    2d767abdf9f08afe_F5_dwelling_1,    !- Zone Name
    EU_HeatOnly_2d767abdf9f08afe_F5_dwelling_1,    !- Template Thermostat Name
    EU_AlwaysOn,              !- System Availability Schedule Name
    50,                       !- Maximum Heating Supply Air Temperature
    13,                       !- Minimum Cooling Supply Air Temperature
    0.0156,                   !- Maximum Heating Supply Air Humidity Ratio
    0.0077,                   !- Minimum Cooling Supply Air Humidity Ratio
    NoLimit,                  !- Heating Limit
    ,                         !- Maximum Heating Air Flow Rate
    ,                         !- Maximum Sensible Heating Capacity
    NoLimit,                  !- Cooling Limit
    ,                         !- Maximum Cooling Air Flow Rate
    ,                         !- Maximum Total Cooling Capacity
    EU_AlwaysOn,              !- Heating Availability Schedule Name
    EU_CoolingOff,            !- Cooling Availability Schedule Name
    ConstantSensibleHeatRatio,    !- Dehumidification Control Type
    0.7,                      !- Cooling Sensible Heat Ratio
    60,                       !- Dehumidification Setpoint
    None,                     !- Humidification Control Type
    30,                       !- Humidification Setpoint
    None,                     !- Outdoor Air Method
    0.00944,                  !- Outdoor Air Flow Rate per Person
    0.0,                      !- Outdoor Air Flow Rate per Zone Floor Area
    0,                        !- Outdoor Air Flow Rate per Zone
    ,                         !- Design Specification Outdoor Air Object Name
    None,                     !- Demand Controlled Ventilation Type
    NoEconomizer,             !- Outdoor Air Economizer Type
    None,                     !- Heat Recovery Type
    0.70,                     !- Sensible Heat Recovery Effectiveness
    0.65;                     !- Latent Heat Recovery Effectiveness

SIZING:ZONE,
    2d767abdf9f08afe_F0_dwelling_0,    !- Zone or ZoneList Name
    SupplyAirTemperature,     !- Zone Cooling Design Supply Air Temperature Input Method
    13,                       !- Zone Cooling Design Supply Air Temperature
    ,                         !- Zone Cooling Design Supply Air Temperature Difference
    SupplyAirTemperature,     !- Zone Heating Design Supply Air Temperature Input Method
    50,                       !- Zone Heating Design Supply Air Temperature
    ,                         !- Zone Heating Design Supply Air Temperature Difference
    0.008,                    !- Zone Cooling Design Supply Air Humidity Ratio
    0.008,                    !- Zone Heating Design Supply Air Humidity Ratio
    ,                         !- Design Specification Outdoor Air Object Name
    ,                         !- Zone Heating Sizing Factor
    ,                         !- Zone Cooling Sizing Factor
    DesignDay,                !- Cooling Design Air Flow Method
    0,                        !- Cooling Design Air Flow Rate
    0.000762,                 !- Cooling Minimum Air Flow per Zone Floor Area
    0,                        !- Cooling Minimum Air Flow
    0.2,                      !- Cooling Minimum Air Flow Fraction
    DesignDay,                !- Heating Design Air Flow Method
    0,                        !- Heating Design Air Flow Rate
    0.002032,                 !- Heating Maximum Air Flow per Zone Floor Area
    0.1415762,                !- Heating Maximum Air Flow
    0.3,                      !- Heating Maximum Air Flow Fraction
    ,                         !- Design Specification Zone Air Distribution Object Name
    No,                       !- Account for Dedicated Outdoor Air System
    NeutralSupplyAir,         !- Dedicated Outdoor Air System Control Strategy
    autosize,                 !- Dedicated Outdoor Air Low Setpoint Temperature for Design
    autosize,                 !- Dedicated Outdoor Air High Setpoint Temperature for Design
    Sensible Load Only No Latent Load,    !- Zone Load Sizing Method
    HumidityRatioDifference,    !- Zone Latent Cooling Design Supply Air Humidity Ratio Input Method
    ,                         !- Zone Dehumidification Design Supply Air Humidity Ratio
    0.005,                    !- Zone Cooling Design Supply Air Humidity Ratio Difference
    HumidityRatioDifference,    !- Zone Latent Heating Design Supply Air Humidity Ratio Input Method
    ,                         !- Zone Humidification Design Supply Air Humidity Ratio
    0.005;                    !- Zone Humidification Design Supply Air Humidity Ratio Difference

SIZING:ZONE,
    2d767abdf9f08afe_F0_dwelling_1,    !- Zone or ZoneList Name
    SupplyAirTemperature,     !- Zone Cooling Design Supply Air Temperature Input Method
    13,                       !- Zone Cooling Design Supply Air Temperature
    ,                         !- Zone Cooling Design Supply Air Temperature Difference
    SupplyAirTemperature,     !- Zone Heating Design Supply Air Temperature Input Method
    50,                       !- Zone Heating Design Supply Air Temperature
    ,                         !- Zone Heating Design Supply Air Temperature Difference
    0.008,                    !- Zone Cooling Design Supply Air Humidity Ratio
    0.008,                    !- Zone Heating Design Supply Air Humidity Ratio
    ,                         !- Design Specification Outdoor Air Object Name
    ,                         !- Zone Heating Sizing Factor
    ,                         !- Zone Cooling Sizing Factor
    DesignDay,                !- Cooling Design Air Flow Method
    0,                        !- Cooling Design Air Flow Rate
    0.000762,                 !- Cooling Minimum Air Flow per Zone Floor Area
    0,                        !- Cooling Minimum Air Flow
    0.2,                      !- Cooling Minimum Air Flow Fraction
    DesignDay,                !- Heating Design Air Flow Method
    0,                        !- Heating Design Air Flow Rate
    0.002032,                 !- Heating Maximum Air Flow per Zone Floor Area
    0.1415762,                !- Heating Maximum Air Flow
    0.3,                      !- Heating Maximum Air Flow Fraction
    ,                         !- Design Specification Zone Air Distribution Object Name
    No,                       !- Account for Dedicated Outdoor Air System
    NeutralSupplyAir,         !- Dedicated Outdoor Air System Control Strategy
    autosize,                 !- Dedicated Outdoor Air Low Setpoint Temperature for Design
    autosize,                 !- Dedicated Outdoor Air High Setpoint Temperature for Design
    Sensible Load Only No Latent Load,    !- Zone Load Sizing Method
    HumidityRatioDifference,    !- Zone Latent Cooling Design Supply Air Humidity Ratio Input Method
    ,                         !- Zone Dehumidification Design Supply Air Humidity Ratio
    0.005,                    !- Zone Cooling Design Supply Air Humidity Ratio Difference
    HumidityRatioDifference,    !- Zone Latent Heating Design Supply Air Humidity Ratio Input Method
    ,                         !- Zone Humidification Design Supply Air Humidity Ratio
    0.005;                    !- Zone Humidification Design Supply Air Humidity Ratio Difference

SIZING:ZONE,
    2d767abdf9f08afe_F0_dwelling_2,    !- Zone or ZoneList Name
    SupplyAirTemperature,     !- Zone Cooling Design Supply Air Temperature Input Method
    13,                       !- Zone Cooling Design Supply Air Temperature
    ,                         !- Zone Cooling Design Supply Air Temperature Difference
    SupplyAirTemperature,     !- Zone Heating Design Supply Air Temperature Input Method
    50,                       !- Zone Heating Design Supply Air Temperature
    ,                         !- Zone Heating Design Supply Air Temperature Difference
    0.008,                    !- Zone Cooling Design Supply Air Humidity Ratio
    0.008,                    !- Zone Heating Design Supply Air Humidity Ratio
    ,                         !- Design Specification Outdoor Air Object Name
    ,                         !- Zone Heating Sizing Factor
    ,                         !- Zone Cooling Sizing Factor
    DesignDay,                !- Cooling Design Air Flow Method
    0,                        !- Cooling Design Air Flow Rate
    0.000762,                 !- Cooling Minimum Air Flow per Zone Floor Area
    0,                        !- Cooling Minimum Air Flow
    0.2,                      !- Cooling Minimum Air Flow Fraction
    DesignDay,                !- Heating Design Air Flow Method
    0,                        !- Heating Design Air Flow Rate
    0.002032,                 !- Heating Maximum Air Flow per Zone Floor Area
    0.1415762,                !- Heating Maximum Air Flow
    0.3,                      !- Heating Maximum Air Flow Fraction
    ,                         !- Design Specification Zone Air Distribution Object Name
    No,                       !- Account for Dedicated Outdoor Air System
    NeutralSupplyAir,         !- Dedicated Outdoor Air System Control Strategy
    autosize,                 !- Dedicated Outdoor Air Low Setpoint Temperature for Design
    autosize,                 !- Dedicated Outdoor Air High Setpoint Temperature for Design
    Sensible Load Only No Latent Load,    !- Zone Load Sizing Method
    HumidityRatioDifference,    !- Zone Latent Cooling Design Supply Air Humidity Ratio Input Method
    ,                         !- Zone Dehumidification Design Supply Air Humidity Ratio
    0.005,                    !- Zone Cooling Design Supply Air Humidity Ratio Difference
    HumidityRatioDifference,    !- Zone Latent Heating Design Supply Air Humidity Ratio Input Method
    ,                         !- Zone Humidification Design Supply Air Humidity Ratio
    0.005;                    !- Zone Humidification Design Supply Air Humidity Ratio Difference

SIZING:ZONE,
    2d767abdf9f08afe_F1_dwelling_0,    !- Zone or ZoneList Name
    SupplyAirTemperature,     !- Zone Cooling Design Supply Air Temperature Input Method
    13,                       !- Zone Cooling Design Supply Air Temperature
    ,                         !- Zone Cooling Design Supply Air Temperature Difference
    SupplyAirTemperature,     !- Zone Heating Design Supply Air Temperature Input Method
    50,                       !- Zone Heating Design Supply Air Temperature
    ,                         !- Zone Heating Design Supply Air Temperature Difference
    0.008,                    !- Zone Cooling Design Supply Air Humidity Ratio
    0.008,                    !- Zone Heating Design Supply Air Humidity Ratio
    ,                         !- Design Specification Outdoor Air Object Name
    ,                         !- Zone Heating Sizing Factor
    ,                         !- Zone Cooling Sizing Factor
    DesignDay,                !- Cooling Design Air Flow Method
    0,                        !- Cooling Design Air Flow Rate
    0.000762,                 !- Cooling Minimum Air Flow per Zone Floor Area
    0,                        !- Cooling Minimum Air Flow
    0.2,                      !- Cooling Minimum Air Flow Fraction
    DesignDay,                !- Heating Design Air Flow Method
    0,                        !- Heating Design Air Flow Rate
    0.002032,                 !- Heating Maximum Air Flow per Zone Floor Area
    0.1415762,                !- Heating Maximum Air Flow
    0.3,                      !- Heating Maximum Air Flow Fraction
    ,                         !- Design Specification Zone Air Distribution Object Name
    No,                       !- Account for Dedicated Outdoor Air System
    NeutralSupplyAir,         !- Dedicated Outdoor Air System Control Strategy
    autosize,                 !- Dedicated Outdoor Air Low Setpoint Temperature for Design
    autosize,                 !- Dedicated Outdoor Air High Setpoint Temperature for Design
    Sensible Load Only No Latent Load,    !- Zone Load Sizing Method
    HumidityRatioDifference,    !- Zone Latent Cooling Design Supply Air Humidity Ratio Input Method
    ,                         !- Zone Dehumidification Design Supply Air Humidity Ratio
    0.005,                    !- Zone Cooling Design Supply Air Humidity Ratio Difference
    HumidityRatioDifference,    !- Zone Latent Heating Design Supply Air Humidity Ratio Input Method
    ,                         !- Zone Humidification Design Supply Air Humidity Ratio
    0.005;                    !- Zone Humidification Design Supply Air Humidity Ratio Difference

SIZING:ZONE,
    2d767abdf9f08afe_F1_dwelling_1,    !- Zone or ZoneList Name
    SupplyAirTemperature,     !- Zone Cooling Design Supply Air Temperature Input Method
    13,                       !- Zone Cooling Design Supply Air Temperature
    ,                         !- Zone Cooling Design Supply Air Temperature Difference
    SupplyAirTemperature,     !- Zone Heating Design Supply Air Temperature Input Method
    50,                       !- Zone Heating Design Supply Air Temperature
    ,                         !- Zone Heating Design Supply Air Temperature Difference
    0.008,                    !- Zone Cooling Design Supply Air Humidity Ratio
    0.008,                    !- Zone Heating Design Supply Air Humidity Ratio
    ,                         !- Design Specification Outdoor Air Object Name
    ,                         !- Zone Heating Sizing Factor
    ,                         !- Zone Cooling Sizing Factor
    DesignDay,                !- Cooling Design Air Flow Method
    0,                        !- Cooling Design Air Flow Rate
    0.000762,                 !- Cooling Minimum Air Flow per Zone Floor Area
    0,                        !- Cooling Minimum Air Flow
    0.2,                      !- Cooling Minimum Air Flow Fraction
    DesignDay,                !- Heating Design Air Flow Method
    0,                        !- Heating Design Air Flow Rate
    0.002032,                 !- Heating Maximum Air Flow per Zone Floor Area
    0.1415762,                !- Heating Maximum Air Flow
    0.3,                      !- Heating Maximum Air Flow Fraction
    ,                         !- Design Specification Zone Air Distribution Object Name
    No,                       !- Account for Dedicated Outdoor Air System
    NeutralSupplyAir,         !- Dedicated Outdoor Air System Control Strategy
    autosize,                 !- Dedicated Outdoor Air Low Setpoint Temperature for Design
    autosize,                 !- Dedicated Outdoor Air High Setpoint Temperature for Design
    Sensible Load Only No Latent Load,    !- Zone Load Sizing Method
    HumidityRatioDifference,    !- Zone Latent Cooling Design Supply Air Humidity Ratio Input Method
    ,                         !- Zone Dehumidification Design Supply Air Humidity Ratio
    0.005,                    !- Zone Cooling Design Supply Air Humidity Ratio Difference
    HumidityRatioDifference,    !- Zone Latent Heating Design Supply Air Humidity Ratio Input Method
    ,                         !- Zone Humidification Design Supply Air Humidity Ratio
    0.005;                    !- Zone Humidification Design Supply Air Humidity Ratio Difference

SIZING:ZONE,
    2d767abdf9f08afe_F1_dwelling_2,    !- Zone or ZoneList Name
    SupplyAirTemperature,     !- Zone Cooling Design Supply Air Temperature Input Method
    13,                       !- Zone Cooling Design Supply Air Temperature
    ,                         !- Zone Cooling Design Supply Air Temperature Difference
    SupplyAirTemperature,     !- Zone Heating Design Supply Air Temperature Input Method
    50,                       !- Zone Heating Design Supply Air Temperature
    ,                         !- Zone Heating Design Supply Air Temperature Difference
    0.008,                    !- Zone Cooling Design Supply Air Humidity Ratio
    0.008,                    !- Zone Heating Design Supply Air Humidity Ratio
    ,                         !- Design Specification Outdoor Air Object Name
    ,                         !- Zone Heating Sizing Factor
    ,                         !- Zone Cooling Sizing Factor
    DesignDay,                !- Cooling Design Air Flow Method
    0,                        !- Cooling Design Air Flow Rate
    0.000762,                 !- Cooling Minimum Air Flow per Zone Floor Area
    0,                        !- Cooling Minimum Air Flow
    0.2,                      !- Cooling Minimum Air Flow Fraction
    DesignDay,                !- Heating Design Air Flow Method
    0,                        !- Heating Design Air Flow Rate
    0.002032,                 !- Heating Maximum Air Flow per Zone Floor Area
    0.1415762,                !- Heating Maximum Air Flow
    0.3,                      !- Heating Maximum Air Flow Fraction
    ,                         !- Design Specification Zone Air Distribution Object Name
    No,                       !- Account for Dedicated Outdoor Air System
    NeutralSupplyAir,         !- Dedicated Outdoor Air System Control Strategy
    autosize,                 !- Dedicated Outdoor Air Low Setpoint Temperature for Design
    autosize,                 !- Dedicated Outdoor Air High Setpoint Temperature for Design
    Sensible Load Only No Latent Load,    !- Zone Load Sizing Method
    HumidityRatioDifference,    !- Zone Latent Cooling Design Supply Air Humidity Ratio Input Method
    ,                         !- Zone Dehumidification Design Supply Air Humidity Ratio
    0.005,                    !- Zone Cooling Design Supply Air Humidity Ratio Difference
    HumidityRatioDifference,    !- Zone Latent Heating Design Supply Air Humidity Ratio Input Method
    ,                         !- Zone Humidification Design Supply Air Humidity Ratio
    0.005;                    !- Zone Humidification Design Supply Air Humidity Ratio Difference

SIZING:ZONE,
    2d767abdf9f08afe_F2_dwelling_0,    !- Zone or ZoneList Name
    SupplyAirTemperature,     !- Zone Cooling Design Supply Air Temperature Input Method
    13,                       !- Zone Cooling Design Supply Air Temperature
    ,                         !- Zone Cooling Design Supply Air Temperature Difference
    SupplyAirTemperature,     !- Zone Heating Design Supply Air Temperature Input Method
    50,                       !- Zone Heating Design Supply Air Temperature
    ,                         !- Zone Heating Design Supply Air Temperature Difference
    0.008,                    !- Zone Cooling Design Supply Air Humidity Ratio
    0.008,                    !- Zone Heating Design Supply Air Humidity Ratio
    ,                         !- Design Specification Outdoor Air Object Name
    ,                         !- Zone Heating Sizing Factor
    ,                         !- Zone Cooling Sizing Factor
    DesignDay,                !- Cooling Design Air Flow Method
    0,                        !- Cooling Design Air Flow Rate
    0.000762,                 !- Cooling Minimum Air Flow per Zone Floor Area
    0,                        !- Cooling Minimum Air Flow
    0.2,                      !- Cooling Minimum Air Flow Fraction
    DesignDay,                !- Heating Design Air Flow Method
    0,                        !- Heating Design Air Flow Rate
    0.002032,                 !- Heating Maximum Air Flow per Zone Floor Area
    0.1415762,                !- Heating Maximum Air Flow
    0.3,                      !- Heating Maximum Air Flow Fraction
    ,                         !- Design Specification Zone Air Distribution Object Name
    No,                       !- Account for Dedicated Outdoor Air System
    NeutralSupplyAir,         !- Dedicated Outdoor Air System Control Strategy
    autosize,                 !- Dedicated Outdoor Air Low Setpoint Temperature for Design
    autosize,                 !- Dedicated Outdoor Air High Setpoint Temperature for Design
    Sensible Load Only No Latent Load,    !- Zone Load Sizing Method
    HumidityRatioDifference,    !- Zone Latent Cooling Design Supply Air Humidity Ratio Input Method
    ,                         !- Zone Dehumidification Design Supply Air Humidity Ratio
    0.005,                    !- Zone Cooling Design Supply Air Humidity Ratio Difference
    HumidityRatioDifference,    !- Zone Latent Heating Design Supply Air Humidity Ratio Input Method
    ,                         !- Zone Humidification Design Supply Air Humidity Ratio
    0.005;                    !- Zone Humidification Design Supply Air Humidity Ratio Difference

SIZING:ZONE,
    2d767abdf9f08afe_F2_dwelling_1,    !- Zone or ZoneList Name
    SupplyAirTemperature,     !- Zone Cooling Design Supply Air Temperature Input Method
    13,                       !- Zone Cooling Design Supply Air Temperature
    ,                         !- Zone Cooling Design Supply Air Temperature Difference
    SupplyAirTemperature,     !- Zone Heating Design Supply Air Temperature Input Method
    50,                       !- Zone Heating Design Supply Air Temperature
    ,                         !- Zone Heating Design Supply Air Temperature Difference
    0.008,                    !- Zone Cooling Design Supply Air Humidity Ratio
    0.008,                    !- Zone Heating Design Supply Air Humidity Ratio
    ,                         !- Design Specification Outdoor Air Object Name
    ,                         !- Zone Heating Sizing Factor
    ,                         !- Zone Cooling Sizing Factor
    DesignDay,                !- Cooling Design Air Flow Method
    0,                        !- Cooling Design Air Flow Rate
    0.000762,                 !- Cooling Minimum Air Flow per Zone Floor Area
    0,                        !- Cooling Minimum Air Flow
    0.2,                      !- Cooling Minimum Air Flow Fraction
    DesignDay,                !- Heating Design Air Flow Method
    0,                        !- Heating Design Air Flow Rate
    0.002032,                 !- Heating Maximum Air Flow per Zone Floor Area
    0.1415762,                !- Heating Maximum Air Flow
    0.3,                      !- Heating Maximum Air Flow Fraction
    ,                         !- Design Specification Zone Air Distribution Object Name
    No,                       !- Account for Dedicated Outdoor Air System
    NeutralSupplyAir,         !- Dedicated Outdoor Air System Control Strategy
    autosize,                 !- Dedicated Outdoor Air Low Setpoint Temperature for Design
    autosize,                 !- Dedicated Outdoor Air High Setpoint Temperature for Design
    Sensible Load Only No Latent Load,    !- Zone Load Sizing Method
    HumidityRatioDifference,    !- Zone Latent Cooling Design Supply Air Humidity Ratio Input Method
    ,                         !- Zone Dehumidification Design Supply Air Humidity Ratio
    0.005,                    !- Zone Cooling Design Supply Air Humidity Ratio Difference
    HumidityRatioDifference,    !- Zone Latent Heating Design Supply Air Humidity Ratio Input Method
    ,                         !- Zone Humidification Design Supply Air Humidity Ratio
    0.005;                    !- Zone Humidification Design Supply Air Humidity Ratio Difference

SIZING:ZONE,
    2d767abdf9f08afe_F2_dwelling_2,    !- Zone or ZoneList Name
    SupplyAirTemperature,     !- Zone Cooling Design Supply Air Temperature Input Method
    13,                       !- Zone Cooling Design Supply Air Temperature
    ,                         !- Zone Cooling Design Supply Air Temperature Difference
    SupplyAirTemperature,     !- Zone Heating Design Supply Air Temperature Input Method
    50,                       !- Zone Heating Design Supply Air Temperature
    ,                         !- Zone Heating Design Supply Air Temperature Difference
    0.008,                    !- Zone Cooling Design Supply Air Humidity Ratio
    0.008,                    !- Zone Heating Design Supply Air Humidity Ratio
    ,                         !- Design Specification Outdoor Air Object Name
    ,                         !- Zone Heating Sizing Factor
    ,                         !- Zone Cooling Sizing Factor
    DesignDay,                !- Cooling Design Air Flow Method
    0,                        !- Cooling Design Air Flow Rate
    0.000762,                 !- Cooling Minimum Air Flow per Zone Floor Area
    0,                        !- Cooling Minimum Air Flow
    0.2,                      !- Cooling Minimum Air Flow Fraction
    DesignDay,                !- Heating Design Air Flow Method
    0,                        !- Heating Design Air Flow Rate
    0.002032,                 !- Heating Maximum Air Flow per Zone Floor Area
    0.1415762,                !- Heating Maximum Air Flow
    0.3,                      !- Heating Maximum Air Flow Fraction
    ,                         !- Design Specification Zone Air Distribution Object Name
    No,                       !- Account for Dedicated Outdoor Air System
    NeutralSupplyAir,         !- Dedicated Outdoor Air System Control Strategy
    autosize,                 !- Dedicated Outdoor Air Low Setpoint Temperature for Design
    autosize,                 !- Dedicated Outdoor Air High Setpoint Temperature for Design
    Sensible Load Only No Latent Load,    !- Zone Load Sizing Method
    HumidityRatioDifference,    !- Zone Latent Cooling Design Supply Air Humidity Ratio Input Method
    ,                         !- Zone Dehumidification Design Supply Air Humidity Ratio
    0.005,                    !- Zone Cooling Design Supply Air Humidity Ratio Difference
    HumidityRatioDifference,    !- Zone Latent Heating Design Supply Air Humidity Ratio Input Method
    ,                         !- Zone Humidification Design Supply Air Humidity Ratio
    0.005;                    !- Zone Humidification Design Supply Air Humidity Ratio Difference

SIZING:ZONE,
    2d767abdf9f08afe_F3_dwelling_0,    !- Zone or ZoneList Name
    SupplyAirTemperature,     !- Zone Cooling Design Supply Air Temperature Input Method
    13,                       !- Zone Cooling Design Supply Air Temperature
    ,                         !- Zone Cooling Design Supply Air Temperature Difference
    SupplyAirTemperature,     !- Zone Heating Design Supply Air Temperature Input Method
    50,                       !- Zone Heating Design Supply Air Temperature
    ,                         !- Zone Heating Design Supply Air Temperature Difference
    0.008,                    !- Zone Cooling Design Supply Air Humidity Ratio
    0.008,                    !- Zone Heating Design Supply Air Humidity Ratio
    ,                         !- Design Specification Outdoor Air Object Name
    ,                         !- Zone Heating Sizing Factor
    ,                         !- Zone Cooling Sizing Factor
    DesignDay,                !- Cooling Design Air Flow Method
    0,                        !- Cooling Design Air Flow Rate
    0.000762,                 !- Cooling Minimum Air Flow per Zone Floor Area
    0,                        !- Cooling Minimum Air Flow
    0.2,                      !- Cooling Minimum Air Flow Fraction
    DesignDay,                !- Heating Design Air Flow Method
    0,                        !- Heating Design Air Flow Rate
    0.002032,                 !- Heating Maximum Air Flow per Zone Floor Area
    0.1415762,                !- Heating Maximum Air Flow
    0.3,                      !- Heating Maximum Air Flow Fraction
    ,                         !- Design Specification Zone Air Distribution Object Name
    No,                       !- Account for Dedicated Outdoor Air System
    NeutralSupplyAir,         !- Dedicated Outdoor Air System Control Strategy
    autosize,                 !- Dedicated Outdoor Air Low Setpoint Temperature for Design
    autosize,                 !- Dedicated Outdoor Air High Setpoint Temperature for Design
    Sensible Load Only No Latent Load,    !- Zone Load Sizing Method
    HumidityRatioDifference,    !- Zone Latent Cooling Design Supply Air Humidity Ratio Input Method
    ,                         !- Zone Dehumidification Design Supply Air Humidity Ratio
    0.005,                    !- Zone Cooling Design Supply Air Humidity Ratio Difference
    HumidityRatioDifference,    !- Zone Latent Heating Design Supply Air Humidity Ratio Input Method
    ,                         !- Zone Humidification Design Supply Air Humidity Ratio
    0.005;                    !- Zone Humidification Design Supply Air Humidity Ratio Difference

SIZING:ZONE,
    2d767abdf9f08afe_F3_dwelling_1,    !- Zone or ZoneList Name
    SupplyAirTemperature,     !- Zone Cooling Design Supply Air Temperature Input Method
    13,                       !- Zone Cooling Design Supply Air Temperature
    ,                         !- Zone Cooling Design Supply Air Temperature Difference
    SupplyAirTemperature,     !- Zone Heating Design Supply Air Temperature Input Method
    50,                       !- Zone Heating Design Supply Air Temperature
    ,                         !- Zone Heating Design Supply Air Temperature Difference
    0.008,                    !- Zone Cooling Design Supply Air Humidity Ratio
    0.008,                    !- Zone Heating Design Supply Air Humidity Ratio
    ,                         !- Design Specification Outdoor Air Object Name
    ,                         !- Zone Heating Sizing Factor
    ,                         !- Zone Cooling Sizing Factor
    DesignDay,                !- Cooling Design Air Flow Method
    0,                        !- Cooling Design Air Flow Rate
    0.000762,                 !- Cooling Minimum Air Flow per Zone Floor Area
    0,                        !- Cooling Minimum Air Flow
    0.2,                      !- Cooling Minimum Air Flow Fraction
    DesignDay,                !- Heating Design Air Flow Method
    0,                        !- Heating Design Air Flow Rate
    0.002032,                 !- Heating Maximum Air Flow per Zone Floor Area
    0.1415762,                !- Heating Maximum Air Flow
    0.3,                      !- Heating Maximum Air Flow Fraction
    ,                         !- Design Specification Zone Air Distribution Object Name
    No,                       !- Account for Dedicated Outdoor Air System
    NeutralSupplyAir,         !- Dedicated Outdoor Air System Control Strategy
    autosize,                 !- Dedicated Outdoor Air Low Setpoint Temperature for Design
    autosize,                 !- Dedicated Outdoor Air High Setpoint Temperature for Design
    Sensible Load Only No Latent Load,    !- Zone Load Sizing Method
    HumidityRatioDifference,    !- Zone Latent Cooling Design Supply Air Humidity Ratio Input Method
    ,                         !- Zone Dehumidification Design Supply Air Humidity Ratio
    0.005,                    !- Zone Cooling Design Supply Air Humidity Ratio Difference
    HumidityRatioDifference,    !- Zone Latent Heating Design Supply Air Humidity Ratio Input Method
    ,                         !- Zone Humidification Design Supply Air Humidity Ratio
    0.005;                    !- Zone Humidification Design Supply Air Humidity Ratio Difference

SIZING:ZONE,
    2d767abdf9f08afe_F3_dwelling_2,    !- Zone or ZoneList Name
    SupplyAirTemperature,     !- Zone Cooling Design Supply Air Temperature Input Method
    13,                       !- Zone Cooling Design Supply Air Temperature
    ,                         !- Zone Cooling Design Supply Air Temperature Difference
    SupplyAirTemperature,     !- Zone Heating Design Supply Air Temperature Input Method
    50,                       !- Zone Heating Design Supply Air Temperature
    ,                         !- Zone Heating Design Supply Air Temperature Difference
    0.008,                    !- Zone Cooling Design Supply Air Humidity Ratio
    0.008,                    !- Zone Heating Design Supply Air Humidity Ratio
    ,                         !- Design Specification Outdoor Air Object Name
    ,                         !- Zone Heating Sizing Factor
    ,                         !- Zone Cooling Sizing Factor
    DesignDay,                !- Cooling Design Air Flow Method
    0,                        !- Cooling Design Air Flow Rate
    0.000762,                 !- Cooling Minimum Air Flow per Zone Floor Area
    0,                        !- Cooling Minimum Air Flow
    0.2,                      !- Cooling Minimum Air Flow Fraction
    DesignDay,                !- Heating Design Air Flow Method
    0,                        !- Heating Design Air Flow Rate
    0.002032,                 !- Heating Maximum Air Flow per Zone Floor Area
    0.1415762,                !- Heating Maximum Air Flow
    0.3,                      !- Heating Maximum Air Flow Fraction
    ,                         !- Design Specification Zone Air Distribution Object Name
    No,                       !- Account for Dedicated Outdoor Air System
    NeutralSupplyAir,         !- Dedicated Outdoor Air System Control Strategy
    autosize,                 !- Dedicated Outdoor Air Low Setpoint Temperature for Design
    autosize,                 !- Dedicated Outdoor Air High Setpoint Temperature for Design
    Sensible Load Only No Latent Load,    !- Zone Load Sizing Method
    HumidityRatioDifference,    !- Zone Latent Cooling Design Supply Air Humidity Ratio Input Method
    ,                         !- Zone Dehumidification Design Supply Air Humidity Ratio
    0.005,                    !- Zone Cooling Design Supply Air Humidity Ratio Difference
    HumidityRatioDifference,    !- Zone Latent Heating Design Supply Air Humidity Ratio Input Method
    ,                         !- Zone Humidification Design Supply Air Humidity Ratio
    0.005;                    !- Zone Humidification Design Supply Air Humidity Ratio Difference

SIZING:ZONE,
    2d767abdf9f08afe_F4_dwelling_0,    !- Zone or ZoneList Name
    SupplyAirTemperature,     !- Zone Cooling Design Supply Air Temperature Input Method
    13,                       !- Zone Cooling Design Supply Air Temperature
    ,                         !- Zone Cooling Design Supply Air Temperature Difference
    SupplyAirTemperature,     !- Zone Heating Design Supply Air Temperature Input Method
    50,                       !- Zone Heating Design Supply Air Temperature
    ,                         !- Zone Heating Design Supply Air Temperature Difference
    0.008,                    !- Zone Cooling Design Supply Air Humidity Ratio
    0.008,                    !- Zone Heating Design Supply Air Humidity Ratio
    ,                         !- Design Specification Outdoor Air Object Name
    ,                         !- Zone Heating Sizing Factor
    ,                         !- Zone Cooling Sizing Factor
    DesignDay,                !- Cooling Design Air Flow Method
    0,                        !- Cooling Design Air Flow Rate
    0.000762,                 !- Cooling Minimum Air Flow per Zone Floor Area
    0,                        !- Cooling Minimum Air Flow
    0.2,                      !- Cooling Minimum Air Flow Fraction
    DesignDay,                !- Heating Design Air Flow Method
    0,                        !- Heating Design Air Flow Rate
    0.002032,                 !- Heating Maximum Air Flow per Zone Floor Area
    0.1415762,                !- Heating Maximum Air Flow
    0.3,                      !- Heating Maximum Air Flow Fraction
    ,                         !- Design Specification Zone Air Distribution Object Name
    No,                       !- Account for Dedicated Outdoor Air System
    NeutralSupplyAir,         !- Dedicated Outdoor Air System Control Strategy
    autosize,                 !- Dedicated Outdoor Air Low Setpoint Temperature for Design
    autosize,                 !- Dedicated Outdoor Air High Setpoint Temperature for Design
    Sensible Load Only No Latent Load,    !- Zone Load Sizing Method
    HumidityRatioDifference,    !- Zone Latent Cooling Design Supply Air Humidity Ratio Input Method
    ,                         !- Zone Dehumidification Design Supply Air Humidity Ratio
    0.005,                    !- Zone Cooling Design Supply Air Humidity Ratio Difference
    HumidityRatioDifference,    !- Zone Latent Heating Design Supply Air Humidity Ratio Input Method
    ,                         !- Zone Humidification Design Supply Air Humidity Ratio
    0.005;                    !- Zone Humidification Design Supply Air Humidity Ratio Difference

SIZING:ZONE,
    2d767abdf9f08afe_F4_dwelling_1,    !- Zone or ZoneList Name
    SupplyAirTemperature,     !- Zone Cooling Design Supply Air Temperature Input Method
    13,                       !- Zone Cooling Design Supply Air Temperature
    ,                         !- Zone Cooling Design Supply Air Temperature Difference
    SupplyAirTemperature,     !- Zone Heating Design Supply Air Temperature Input Method
    50,                       !- Zone Heating Design Supply Air Temperature
    ,                         !- Zone Heating Design Supply Air Temperature Difference
    0.008,                    !- Zone Cooling Design Supply Air Humidity Ratio
    0.008,                    !- Zone Heating Design Supply Air Humidity Ratio
    ,                         !- Design Specification Outdoor Air Object Name
    ,                         !- Zone Heating Sizing Factor
    ,                         !- Zone Cooling Sizing Factor
    DesignDay,                !- Cooling Design Air Flow Method
    0,                        !- Cooling Design Air Flow Rate
    0.000762,                 !- Cooling Minimum Air Flow per Zone Floor Area
    0,                        !- Cooling Minimum Air Flow
    0.2,                      !- Cooling Minimum Air Flow Fraction
    DesignDay,                !- Heating Design Air Flow Method
    0,                        !- Heating Design Air Flow Rate
    0.002032,                 !- Heating Maximum Air Flow per Zone Floor Area
    0.1415762,                !- Heating Maximum Air Flow
    0.3,                      !- Heating Maximum Air Flow Fraction
    ,                         !- Design Specification Zone Air Distribution Object Name
    No,                       !- Account for Dedicated Outdoor Air System
    NeutralSupplyAir,         !- Dedicated Outdoor Air System Control Strategy
    autosize,                 !- Dedicated Outdoor Air Low Setpoint Temperature for Design
    autosize,                 !- Dedicated Outdoor Air High Setpoint Temperature for Design
    Sensible Load Only No Latent Load,    !- Zone Load Sizing Method
    HumidityRatioDifference,    !- Zone Latent Cooling Design Supply Air Humidity Ratio Input Method
    ,                         !- Zone Dehumidification Design Supply Air Humidity Ratio
    0.005,                    !- Zone Cooling Design Supply Air Humidity Ratio Difference
    HumidityRatioDifference,    !- Zone Latent Heating Design Supply Air Humidity Ratio Input Method
    ,                         !- Zone Humidification Design Supply Air Humidity Ratio
    0.005;                    !- Zone Humidification Design Supply Air Humidity Ratio Difference

SIZING:ZONE,
    2d767abdf9f08afe_F5_dwelling_0,    !- Zone or ZoneList Name
    SupplyAirTemperature,     !- Zone Cooling Design Supply Air Temperature Input Method
    13,                       !- Zone Cooling Design Supply Air Temperature
    ,                         !- Zone Cooling Design Supply Air Temperature Difference
    SupplyAirTemperature,     !- Zone Heating Design Supply Air Temperature Input Method
    50,                       !- Zone Heating Design Supply Air Temperature
    ,                         !- Zone Heating Design Supply Air Temperature Difference
    0.008,                    !- Zone Cooling Design Supply Air Humidity Ratio
    0.008,                    !- Zone Heating Design Supply Air Humidity Ratio
    ,                         !- Design Specification Outdoor Air Object Name
    ,                         !- Zone Heating Sizing Factor
    ,                         !- Zone Cooling Sizing Factor
    DesignDay,                !- Cooling Design Air Flow Method
    0,                        !- Cooling Design Air Flow Rate
    0.000762,                 !- Cooling Minimum Air Flow per Zone Floor Area
    0,                        !- Cooling Minimum Air Flow
    0.2,                      !- Cooling Minimum Air Flow Fraction
    DesignDay,                !- Heating Design Air Flow Method
    0,                        !- Heating Design Air Flow Rate
    0.002032,                 !- Heating Maximum Air Flow per Zone Floor Area
    0.1415762,                !- Heating Maximum Air Flow
    0.3,                      !- Heating Maximum Air Flow Fraction
    ,                         !- Design Specification Zone Air Distribution Object Name
    No,                       !- Account for Dedicated Outdoor Air System
    NeutralSupplyAir,         !- Dedicated Outdoor Air System Control Strategy
    autosize,                 !- Dedicated Outdoor Air Low Setpoint Temperature for Design
    autosize,                 !- Dedicated Outdoor Air High Setpoint Temperature for Design
    Sensible Load Only No Latent Load,    !- Zone Load Sizing Method
    HumidityRatioDifference,    !- Zone Latent Cooling Design Supply Air Humidity Ratio Input Method
    ,                         !- Zone Dehumidification Design Supply Air Humidity Ratio
    0.005,                    !- Zone Cooling Design Supply Air Humidity Ratio Difference
    HumidityRatioDifference,    !- Zone Latent Heating Design Supply Air Humidity Ratio Input Method
    ,                         !- Zone Humidification Design Supply Air Humidity Ratio
    0.005;                    !- Zone Humidification Design Supply Air Humidity Ratio Difference

SIZING:ZONE,
    2d767abdf9f08afe_F5_dwelling_1,    !- Zone or ZoneList Name
    SupplyAirTemperature,     !- Zone Cooling Design Supply Air Temperature Input Method
    13,                       !- Zone Cooling Design Supply Air Temperature
    ,                         !- Zone Cooling Design Supply Air Temperature Difference
    SupplyAirTemperature,     !- Zone Heating Design Supply Air Temperature Input Method
    50,                       !- Zone Heating Design Supply Air Temperature
    ,                         !- Zone Heating Design Supply Air Temperature Difference
    0.008,                    !- Zone Cooling Design Supply Air Humidity Ratio
    0.008,                    !- Zone Heating Design Supply Air Humidity Ratio
    ,                         !- Design Specification Outdoor Air Object Name
    ,                         !- Zone Heating Sizing Factor
    ,                         !- Zone Cooling Sizing Factor
    DesignDay,                !- Cooling Design Air Flow Method
    0,                        !- Cooling Design Air Flow Rate
    0.000762,                 !- Cooling Minimum Air Flow per Zone Floor Area
    0,                        !- Cooling Minimum Air Flow
    0.2,                      !- Cooling Minimum Air Flow Fraction
    DesignDay,                !- Heating Design Air Flow Method
    0,                        !- Heating Design Air Flow Rate
    0.002032,                 !- Heating Maximum Air Flow per Zone Floor Area
    0.1415762,                !- Heating Maximum Air Flow
    0.3,                      !- Heating Maximum Air Flow Fraction
    ,                         !- Design Specification Zone Air Distribution Object Name
    No,                       !- Account for Dedicated Outdoor Air System
    NeutralSupplyAir,         !- Dedicated Outdoor Air System Control Strategy
    autosize,                 !- Dedicated Outdoor Air Low Setpoint Temperature for Design
    autosize,                 !- Dedicated Outdoor Air High Setpoint Temperature for Design
    Sensible Load Only No Latent Load,    !- Zone Load Sizing Method
    HumidityRatioDifference,    !- Zone Latent Cooling Design Supply Air Humidity Ratio Input Method
    ,                         !- Zone Dehumidification Design Supply Air Humidity Ratio
    0.005,                    !- Zone Cooling Design Supply Air Humidity Ratio Difference
    HumidityRatioDifference,    !- Zone Latent Heating Design Supply Air Humidity Ratio Input Method
    ,                         !- Zone Humidification Design Supply Air Humidity Ratio
    0.005;                    !- Zone Humidification Design Supply Air Humidity Ratio Difference

OUTPUT:VARIABLE,
    *,                        !- Key Value
    Zone Ideal Loads Zone Total Heating Energy,    !- Variable Name
    Hourly;                   !- Reporting Frequency

OUTPUT:SQLITE,
    SimpleAndTabular,         !- Option Type
    UseOutputControlTableStyle;    !- Unit Conversion for Tabular Data