!- Windows Line endings 

Version,
    23.1;                     !- Version Identifier

SimulationControl,
    Yes,                      !- Do Zone Sizing Calculation
    Yes,                      !- Do System Sizing Calculation
    Yes,                      !- Do Plant Sizing Calculation
    No,                       !- Run Simulation for Sizing Periods
    Yes,                      !- Run Simulation for Weather File Run Periods
    No,                       !- Do HVAC Sizing Simulation for Sizing Periods
    1;                        !- Maximum Number of HVAC Sizing Simulation Passes

Building,
    OpenUBEM_Building,        !- Name
    0,                        !- North Axis
    City,                     !- Terrain
    ,                         !- Loads Convergence Tolerance Value
    ,                         !- Temperature Convergence Tolerance Value
    FullExterior,             !- Solar Distribution
    ,                         !- Maximum Number of Warmup Days
    ;                         !- Minimum Number of Warmup Days

Timestep,
    6;                        !- Number of Timesteps per Hour

Site:Location,
    New.York-Central.Park.Obs-Belvedere.Castle,    !- Name
    40.77889,                 !- Latitude
    -73.96917,                !- Longitude
    -5,                       !- Time Zone
    48;                       !- Elevation

SizingPeriod:WeatherFileDays,
    AnnualSizingPeriod,       !- Name
    1,                        !- Begin Month
    1,                        !- Begin Day of Month
    12,                       !- End Month
    31,                       !- End Day of Month
    Monday,                   !- Day of Week for Start Day
    No,                       !- Use Weather File Daylight Saving Period
    No;                       !- Use Weather File Rain and Snow Indicators

RunPeriod,
    RunPeriod1,               !- Name
    1,                        !- Begin Month
    1,                        !- Begin Day of Month
    ,                         !- Begin Year
    12,                       !- End Month
    31,                       !- End Day of Month
    ,                         !- End Year
    Sunday,                   !- Day of Week for Start Day
    No,                       !- Use Weather File Holidays and Special Days
    No,                       !- Use Weather File Daylight Saving Period
    No,                       !- Apply Weekend Holiday Rule
    Yes,                      !- Use Weather File Rain Indicators
    Yes;                      !- Use Weather File Snow Indicators

SITE:WATERMAINSTEMPERATURE,
    CorrelationFromWeatherFile;    !- Calculation Method

SCHEDULE:COMPACT,
    Occupancy_Schedule_SmallOffice,    !- Name
    Fraction,                 !- Schedule Type Limits Name
    Through: 12/31,           !- Field 1
    For: Weekdays,            !- Field 2
    Until: 06:00, 0.0,        !- Field 3
    Until: 07:00, 0.1,        !- Field 4
    Until: 08:00, 0.2,        !- Field 5
    Until: 12:00, 0.95,       !- Field 6
    Until: 13:00, 0.5,        !- Field 7
    Until: 17:00, 0.95,       !- Field 8
    Until: 18:00, 0.3,        !- Field 9
    Until: 22:00, 0.1,        !- Field 10
    Until: 24:00, 0.05,       !- Field 11
    For: Saturday,            !- Field 12
    Until: 06:00, 0.0,        !- Field 13
    Until: 08:00, 0.1,        !- Field 14
    Until: 12:00, 0.3,        !- Field 15
    Until: 17:00, 0.1,        !- Field 16
    Until: 19:00, 0.05,       !- Field 17
    Until: 24:00, 0.0,        !- Field 18
    For: AllOtherDays,        !- Field 19
    Until: 06:00, 0.0,        !- Field 20
    Until: 18:00, 0.05,       !- Field 21
    Until: 24:00, 0.0;        !- Field 22

SCHEDULE:COMPACT,
    Lighting_Schedule_SmallOffice,    !- Name
    Fraction,                 !- Schedule Type Limits Name
    Through: 12/31,           !- Field 1
    For: Weekdays,            !- Field 2
    Until: 05:00, 0.04184,    !- Field 3
    Until: 07:00, 0.08368,    !- Field 4
    Until: 08:00, 0.25105,    !- Field 5
    Until: 17:00, 0.75314,    !- Field 6
    Until: 18:00, 0.41841,    !- Field 7
    Until: 20:00, 0.25105,    !- Field 8
    Until: 22:00, 0.16736,    !- Field 9
    Until: 23:00, 0.08368,    !- Field 10
    Until: 24:00, 0.04184,    !- Field 11
    For: Saturday,            !- Field 12
    Until: 06:00, 0.04184,    !- Field 13
    Until: 08:00, 0.08368,    !- Field 14
    Until: 12:00, 0.25105,    !- Field 15
    Until: 17:00, 0.12552,    !- Field 16
    Until: 24:00, 0.04184,    !- Field 17
    For: AllOtherDays,        !- Field 18
    Until: 24:00, 0.04184;    !- Field 19

SCHEDULE:COMPACT,
    Equipment_Schedule_SmallOffice,    !- Name
    Fraction,                 !- Schedule Type Limits Name
    Through: 12/31,           !- Field 1
    For: Weekdays,            !- Field 2
    Until: 06:00, 0.3076738408,    !- Field 3
    Until: 08:00, 0.381234796,    !- Field 4
    Until: 12:00, 0.857778291,    !- Field 5
    Until: 13:00, 0.762469592,    !- Field 6
    Until: 17:00, 0.857778291,    !- Field 7
    Until: 18:00, 0.476543495,    !- Field 8
    Until: 24:00, 0.381234796,    !- Field 9
    For: Saturday,            !- Field 10
    Until: 06:00, 0.2307553806,    !- Field 11
    Until: 08:00, 0.381234796,    !- Field 12
    Until: 12:00, 0.476543495,    !- Field 13
    Until: 17:00, 0.3335804465,    !- Field 14
    Until: 19:00, 0.285926097,    !- Field 15
    Until: 24:00, 0.2307553806,    !- Field 16
    For: AllOtherDays,        !- Field 17
    Until: 06:00, 0.2307553806,    !- Field 18
    Until: 18:00, 0.285926097,    !- Field 19
    Until: 24:00, 0.2307553806;    !- Field 20

SCHEDULE:COMPACT,
    Heating_Setpoint_SmallOffice,    !- Name
    Temperature,              !- Schedule Type Limits Name
    Through: 12/31,           !- Field 1
    For: Weekdays,            !- Field 2
    Until: 06:00, 15.6,       !- Field 3
    Until: 07:00, 21.1,       !- Field 4
    Until: 08:00, 21.1,       !- Field 5
    Until: 12:00, 21.1,       !- Field 6
    Until: 13:00, 21.1,       !- Field 7
    Until: 17:00, 21.1,       !- Field 8
    Until: 19:00, 21.1,       !- Field 9
    Until: 24:00, 15.6,       !- Field 10
    For: Saturday,            !- Field 11
    Until: 06:00, 15.6,       !- Field 12
    Until: 08:00, 21.1,       !- Field 13
    Until: 12:00, 21.1,       !- Field 14
    Until: 17:00, 21.1,       !- Field 15
    Until: 19:00, 21.1,       !- Field 16
    Until: 24:00, 15.6,       !- Field 17
    For: AllOtherDays,        !- Field 18
    Until: 06:00, 15.6,       !- Field 19
    Until: 18:00, 21.1,       !- Field 20
    Until: 24:00, 15.6;       !- Field 21

SCHEDULE:COMPACT,
    Cooling_Setpoint_SmallOffice,    !- Name
    Temperature,              !- Schedule Type Limits Name
    Through: 12/31,           !- Field 1
    For: Weekdays,            !- Field 2
    Until: 06:00, 29.4,       !- Field 3
    Until: 07:00, 23.9,       !- Field 4
    Until: 08:00, 23.9,       !- Field 5
    Until: 12:00, 23.9,       !- Field 6
    Until: 13:00, 23.9,       !- Field 7
    Until: 17:00, 23.9,       !- Field 8
    Until: 18:00, 23.9,       !- Field 9
    Until: 22:00, 23.9,       !- Field 10
    Until: 24:00, 23.9,       !- Field 11
    For: Saturday,            !- Field 12
    Until: 06:00, 29.4,       !- Field 13
    Until: 08:00, 23.9,       !- Field 14
    Until: 12:00, 23.9,       !- Field 15
    Until: 17:00, 23.9,       !- Field 16
    Until: 19:00, 23.9,       !- Field 17
    Until: 24:00, 29.4,       !- Field 18
    For: AllOtherDays,        !- Field 19
    Until: 06:00, 29.4,       !- Field 20
    Until: 18:00, 23.9,       !- Field 21
    Until: 24:00, 29.4;       !- Field 22

SCHEDULE:COMPACT,
    Infiltration_Schedule_SmallOffice,    !- Name
    Fraction,                 !- Schedule Type Limits Name
    Through: 12/31,           !- Field 1
    For: Weekdays,            !- Field 2
    Until: 06:00, 1.0,        !- Field 3
    Until: 07:00, 0.25,       !- Field 4
    Until: 08:00, 0.25,       !- Field 5
    Until: 12:00, 0.25,       !- Field 6
    Until: 13:00, 0.25,       !- Field 7
    Until: 17:00, 0.25,       !- Field 8
    Until: 18:00, 0.25,       !- Field 9
    Until: 22:00, 0.25,       !- Field 10
    Until: 24:00, 0.25,       !- Field 11
    For: Saturday,            !- Field 12
    Until: 06:00, 1.0,        !- Field 13
    Until: 08:00, 0.25,       !- Field 14
    Until: 12:00, 0.25,       !- Field 15
    Until: 17:00, 0.25,       !- Field 16
    Until: 19:00, 0.25,       !- Field 17
    Until: 24:00, 1.0,        !- Field 18
    For: AllOtherDays,        !- Field 19
    Until: 06:00, 1.0,        !- Field 20
    Until: 18:00, 0.25,       !- Field 21
    Until: 24:00, 1.0;        !- Field 22

Schedule:Constant,
    Activity_Level,           !- Name
    ,                         !- Schedule Type Limits Name
    120;                      !- Hourly Value

SCHEDULE:CONSTANT,
    OpenUBEM_DHW_Setpoint,    !- Name
    ,                         !- Schedule Type Limits Name
    60;                       !- Hourly Value

SCHEDULE:CONSTANT,
    OpenUBEM_DHW_FlowFrac_SmallOffice,    !- Name
    ,                         !- Schedule Type Limits Name
    0.236274;                 !- Hourly Value

SCHEDULE:CONSTANT,
    OpenUBEM_DHW_SensibleFrac,    !- Name
    ,                         !- Schedule Type Limits Name
    0.2;                      !- Hourly Value

SCHEDULE:CONSTANT,
    OpenUBEM_DHW_LatentFrac,    !- Name
    ,                         !- Schedule Type Limits Name
    0.05;                     !- Hourly Value

MATERIAL,
    DefaultMaterial,          !- Name
    Rough,                    !- Roughness
    0.1,                      !- Thickness
    0.1,                      !- Conductivity
    1000,                     !- Density
    1000,                     !- Specific Heat
    0.9,                      !- Thermal Absorptance
    0.7,                      !- Solar Absorptance
    0.7;                      !- Visible Absorptance

MATERIAL:NOMASS,
    Roof_Assembly,            !- Name
    MediumRough,              !- Roughness
    5.2631578947368425,       !- Thermal Resistance
    0.9,                      !- Thermal Absorptance
    0.7,                      !- Solar Absorptance
    0.7;                      !- Visible Absorptance

MATERIAL:NOMASS,
    Wall_Assembly,            !- Name
    MediumRough,              !- Roughness
    1.721170395869191,        !- Thermal Resistance
    0.9,                      !- Thermal Absorptance
    0.7,                      !- Solar Absorptance
    0.7;                      !- Visible Absorptance

MATERIAL:NOMASS,
    Floor_Assembly,           !- Name
    MediumRough,              !- Roughness
    1.9305019305019304,       !- Thermal Resistance
    0.9,                      !- Thermal Absorptance
    0.7,                      !- Solar Absorptance
    0.7;                      !- Visible Absorptance

WINDOWMATERIAL:SIMPLEGLAZINGSYSTEM,
    Window_Material,          !- Name
    3.27,                     !- UFactor
    0.36,                     !- Solar Heat Gain Coefficient
    0.6;                      !- Visible Transmittance

WINDOWMATERIAL:SIMPLEGLAZINGSYSTEM,
    DefaultGlazing,           !- Name
    2.7,                      !- UFactor
    0.763,                    !- Solar Heat Gain Coefficient
    0.8;                      !- Visible Transmittance

CONSTRUCTION,
    Roof_Construction,        !- Name
    Roof_Assembly;            !- Outside Layer

CONSTRUCTION,
    Wall_Construction,        !- Name
    Wall_Assembly;            !- Outside Layer

CONSTRUCTION,
    Floor_Construction,       !- Name
    Floor_Assembly;           !- Outside Layer

CONSTRUCTION,
    Window_Construction,      !- Name
    Window_Material;          !- Outside Layer

CONSTRUCTION,
    Project Wall,             !- Name
    DefaultMaterial;          !- Outside Layer

CONSTRUCTION,
    Project Partition,        !- Name
    DefaultMaterial;          !- Outside Layer

CONSTRUCTION,
    Project Floor,            !- Name
    DefaultMaterial;          !- Outside Layer

CONSTRUCTION,
    Project Flat Roof,        !- Name
    DefaultMaterial;          !- Outside Layer

CONSTRUCTION,
    Project Ceiling,          !- Name
    DefaultMaterial;          !- Outside Layer

CONSTRUCTION,
    Project Door,             !- Name
    DefaultMaterial;          !- Outside Layer

CONSTRUCTION,
    Project External Window,    !- Name
    DefaultGlazing;           !- Outside Layer

GlobalGeometryRules,
    UpperLeftCorner,          !- Starting Vertex Position
    Counterclockwise,         !- Vertex Entry Direction
    Relative;                 !- Coordinate System

ZONE,
    way/265301955_F0_whole,    !- Name
    0,                        !- Direction of Relative North
    0,                        !- X Origin
    0,                        !- Y Origin
    0,                        !- Z Origin
    1,                        !- Type
    1,                        !- Multiplier
    autocalculate,            !- Ceiling Height
    autocalculate,            !- Volume
    autocalculate,            !- Floor Area
    ,                         !- Zone Inside Convection Algorithm
    ,                         !- Zone Outside Convection Algorithm
    Yes;                      !- Part of Total Floor Area

BUILDINGSURFACE:DETAILED,
    Block way/265301955_whole Storey 0 Wall 0001,    !- Name
    wall,                     !- Surface Type
    Wall_Construction,        !- Construction Name
    way/265301955_F0_whole,    !- Zone Name
    ,                         !- Space Name
    outdoors,                 !- Outside Boundary Condition
    ,                         !- Outside Boundary Condition Object
    SunExposed,               !- Sun Exposure
    WindExposed,              !- Wind Exposure
    autocalculate,            !- View Factor to Ground
    autocalculate,            !- Number of Vertices
    -1.877741680946201,       !- Vertex 1 Xcoordinate
    -1.587988e+01,            !- Vertex 1 Ycoordinate
    3.5,                      !- Vertex 1 Zcoordinate
    -1.877741680946201,       !- Vertex 2 Xcoordinate
    -1.587988e+01,            !- Vertex 2 Ycoordinate
    0,                        !- Vertex 2 Zcoordinate
    -1.211392e+01,            !- Vertex 3 Xcoordinate
    -1.049151e+01,            !- Vertex 3 Ycoordinate
    0,                        !- Vertex 3 Zcoordinate
    -1.211392e+01,            !- Vertex 4 Xcoordinate
    -1.049151e+01,            !- Vertex 4 Ycoordinate
    3.5;                      !- Vertex 4 Zcoordinate

BUILDINGSURFACE:DETAILED,
    Block way/265301955_whole Storey 0 Wall 0002,    !- Name
    wall,                     !- Surface Type
    Wall_Construction,        !- Construction Name
    way/265301955_F0_whole,    !- Zone Name
    ,                         !- Space Name
    outdoors,                 !- Outside Boundary Condition
    ,                         !- Outside Boundary Condition Object
    SunExposed,               !- Sun Exposure
    WindExposed,              !- Wind Exposure
    autocalculate,            !- View Factor to Ground
    autocalculate,            !- Number of Vertices
    -1.211392e+01,            !- Vertex 1 Xcoordinate
    -1.049151e+01,            !- Vertex 1 Ycoordinate
    3.5,                      !- Vertex 1 Zcoordinate
    -1.211392e+01,            !- Vertex 2 Xcoordinate
    -1.049151e+01,            !- Vertex 2 Ycoordinate
    0,                        !- Vertex 2 Zcoordinate
    1.8837054629111663,       !- Vertex 3 Xcoordinate
    15.882627042010427,       !- Vertex 3 Ycoordinate
    0,                        !- Vertex 3 Zcoordinate
    1.8837054629111663,       !- Vertex 4 Xcoordinate
    15.882627042010427,       !- Vertex 4 Ycoordinate
    3.5;                      !- Vertex 4 Zcoordinate

BUILDINGSURFACE:DETAILED,
    Block way/265301955_whole Storey 0 Wall 0003,    !- Name
    wall,                     !- Surface Type
    Wall_Construction,        !- Construction Name
    way/265301955_F0_whole,    !- Zone Name
    ,                         !- Space Name
    outdoors,                 !- Outside Boundary Condition
    ,                         !- Outside Boundary Condition Object
    SunExposed,               !- Sun Exposure
    WindExposed,              !- Wind Exposure
    autocalculate,            !- View Factor to Ground
    autocalculate,            !- Number of Vertices
    1.8837054629111663,       !- Vertex 1 Xcoordinate
    15.882627042010427,       !- Vertex 1 Ycoordinate
    3.5,                      !- Vertex 1 Zcoordinate
    1.8837054629111663,       !- Vertex 2 Xcoordinate
    15.882627042010427,       !- Vertex 2 Ycoordinate
    0,                        !- Vertex 2 Zcoordinate
    12.111412598518655,       !- Vertex 3 Xcoordinate
    10.494180385023355,       !- Vertex 3 Ycoordinate
    0,                        !- Vertex 3 Zcoordinate
    12.111412598518655,       !- Vertex 4 Xcoordinate
    10.494180385023355,       !- Vertex 4 Ycoordinate
    3.5;                      !- Vertex 4 Zcoordinate

BUILDINGSURFACE:DETAILED,
    Block way/265301955_whole Storey 0 Wall 0004,    !- Name
    wall,                     !- Surface Type
    Wall_Construction,        !- Construction Name
    way/265301955_F0_whole,    !- Zone Name
    ,                         !- Space Name
    outdoors,                 !- Outside Boundary Condition
    ,                         !- Outside Boundary Condition Object
    SunExposed,               !- Sun Exposure
    WindExposed,              !- Wind Exposure
    autocalculate,            !- View Factor to Ground
    autocalculate,            !- Number of Vertices
    12.111412598518655,       !- Vertex 1 Xcoordinate
    10.494180385023355,       !- Vertex 1 Ycoordinate
    3.5,                      !- Vertex 1 Zcoordinate
    12.111412598518655,       !- Vertex 2 Xcoordinate
    10.494180385023355,       !- Vertex 2 Ycoordinate
    0,                        !- Vertex 2 Zcoordinate
    -1.877741680946201,       !- Vertex 3 Xcoordinate
    -1.587988e+01,            !- Vertex 3 Ycoordinate
    0,                        !- Vertex 3 Zcoordinate
    -1.877741680946201,       !- Vertex 4 Xcoordinate
    -1.587988e+01,            !- Vertex 4 Ycoordinate
    3.5;                      !- Vertex 4 Zcoordinate

BUILDINGSURFACE:DETAILED,
    Block way/265301955_whole Storey 0 Floor 0001,    !- Name
    floor,                    !- Surface Type
    Floor_Construction,       !- Construction Name
    way/265301955_F0_whole,    !- Zone Name
    ,                         !- Space Name
    ground,                   !- Outside Boundary Condition
    ,                         !- Outside Boundary Condition Object
    NoSun,                    !- Sun Exposure
    NoWind,                   !- Wind Exposure
    autocalculate,            !- View Factor to Ground
    autocalculate,            !- Number of Vertices
    -1.877741680946201,       !- Vertex 1 Xcoordinate
    -1.587988e+01,            !- Vertex 1 Ycoordinate
    0,                        !- Vertex 1 Zcoordinate
    12.111412598518655,       !- Vertex 2 Xcoordinate
    10.494180385023355,       !- Vertex 2 Ycoordinate
    0,                        !- Vertex 2 Zcoordinate
    1.8837054629111663,       !- Vertex 3 Xcoordinate
    15.882627042010427,       !- Vertex 3 Ycoordinate
    0,                        !- Vertex 3 Zcoordinate
    -1.211392e+01,            !- Vertex 4 Xcoordinate
    -1.049151e+01,            !- Vertex 4 Ycoordinate
    0;                        !- Vertex 4 Zcoordinate

BUILDINGSURFACE:DETAILED,
    Block way/265301955_whole Storey 0 Roof 0001,    !- Name
    roof,                     !- Surface Type
    Roof_Construction,        !- Construction Name
    way/265301955_F0_whole,    !- Zone Name
    ,                         !- Space Name
    outdoors,                 !- Outside Boundary Condition
    ,                         !- Outside Boundary Condition Object
    NoSun,                    !- Sun Exposure
    WindExposed,              !- Wind Exposure
    autocalculate,            !- View Factor to Ground
    autocalculate,            !- Number of Vertices
    12.111412598518655,       !- Vertex 1 Xcoordinate
    10.494180385023355,       !- Vertex 1 Ycoordinate
    3.5,                      !- Vertex 1 Zcoordinate
    -1.877741680946201,       !- Vertex 2 Xcoordinate
    -1.587988e+01,            !- Vertex 2 Ycoordinate
    3.5,                      !- Vertex 2 Zcoordinate
    -1.211392e+01,            !- Vertex 3 Xcoordinate
    -1.049151e+01,            !- Vertex 3 Ycoordinate
    3.5,                      !- Vertex 3 Zcoordinate
    1.8837054629111663,       !- Vertex 4 Xcoordinate
    15.882627042010427,       !- Vertex 4 Ycoordinate
    3.5;                      !- Vertex 4 Zcoordinate

FENESTRATIONSURFACE:DETAILED,
    Block way/265301955_whole Storey 0 Wall 0001 window,    !- Name
    Window,                   !- Surface Type
    Window_Construction,      !- Construction Name
    Block way/265301955_whole Storey 0 Wall 0001,    !- Building Surface Name
    ,                         !- Outside Boundary Condition Object
    autocalculate,            !- View Factor to Ground
    ,                         !- Frame and Divider Name
    1.0,                      !- Multiplier
    autocalculate,            !- Number of Vertices
    -1.882860e+00,            !- Vertex 1 Xcoordinate
    -1.587719e+01,            !- Vertex 1 Ycoordinate
    2.45,                     !- Vertex 1 Zcoordinate
    -1.882860e+00,            !- Vertex 2 Xcoordinate
    -1.587719e+01,            !- Vertex 2 Ycoordinate
    1.0499999999999998,       !- Vertex 2 Zcoordinate
    -1.210880e+01,            !- Vertex 3 Xcoordinate
    -1.049421e+01,            !- Vertex 3 Ycoordinate
    1.0499999999999998,       !- Vertex 3 Zcoordinate
    -1.210880e+01,            !- Vertex 4 Xcoordinate
    -1.049421e+01,            !- Vertex 4 Ycoordinate
    2.45;                     !- Vertex 4 Zcoordinate

FENESTRATIONSURFACE:DETAILED,
    Block way/265301955_whole Storey 0 Wall 0002 window,    !- Name
    Window,                   !- Surface Type
    Window_Construction,      !- Construction Name
    Block way/265301955_whole Storey 0 Wall 0002,    !- Building Surface Name
    ,                         !- Outside Boundary Condition Object
    autocalculate,            !- View Factor to Ground
    ,                         !- Frame and Divider Name
    1.0,                      !- Multiplier
    autocalculate,            !- Number of Vertices
    -1.210692e+01,            !- Vertex 1 Xcoordinate
    -1.047832e+01,            !- Vertex 1 Ycoordinate
    2.45,                     !- Vertex 1 Zcoordinate
    -1.210692e+01,            !- Vertex 2 Xcoordinate
    -1.047832e+01,            !- Vertex 2 Ycoordinate
    1.0499999999999998,       !- Vertex 2 Zcoordinate
    1.8767066523306424,       !- Vertex 3 Xcoordinate
    15.86943997295713,        !- Vertex 3 Ycoordinate
    1.0499999999999998,       !- Vertex 3 Zcoordinate
    1.8767066523306424,       !- Vertex 4 Xcoordinate
    15.86943997295713,        !- Vertex 4 Ycoordinate
    2.45;                     !- Vertex 4 Zcoordinate

FENESTRATIONSURFACE:DETAILED,
    Block way/265301955_whole Storey 0 Wall 0003 window,    !- Name
    Window,                   !- Surface Type
    Window_Construction,      !- Construction Name
    Block way/265301955_whole Storey 0 Wall 0003,    !- Building Surface Name
    ,                         !- Outside Boundary Condition Object
    autocalculate,            !- View Factor to Ground
    ,                         !- Frame and Divider Name
    1.0,                      !- Multiplier
    autocalculate,            !- Number of Vertices
    1.88881931647897,         !- Vertex 1 Xcoordinate
    15.879932818681933,       !- Vertex 1 Ycoordinate
    2.45,                     !- Vertex 1 Zcoordinate
    1.88881931647897,         !- Vertex 2 Xcoordinate
    15.879932818681933,       !- Vertex 2 Ycoordinate
    1.0499999999999998,       !- Vertex 2 Zcoordinate
    12.106298744950852,       !- Vertex 3 Xcoordinate
    10.496874608351849,       !- Vertex 3 Ycoordinate
    1.0499999999999998,       !- Vertex 3 Zcoordinate
    12.106298744950852,       !- Vertex 4 Xcoordinate
    10.496874608351849,       !- Vertex 4 Ycoordinate
    2.45;                     !- Vertex 4 Zcoordinate

FENESTRATIONSURFACE:DETAILED,
    Block way/265301955_whole Storey 0 Wall 0004 window,    !- Name
    Window,                   !- Surface Type
    Window_Construction,      !- Construction Name
    Block way/265301955_whole Storey 0 Wall 0004,    !- Building Surface Name
    ,                         !- Outside Boundary Condition Object
    autocalculate,            !- View Factor to Ground
    ,                         !- Frame and Divider Name
    1.0,                      !- Multiplier
    autocalculate,            !- Number of Vertices
    12.104418021378923,       !- Vertex 1 Xcoordinate
    10.48099335501343,        !- Vertex 1 Ycoordinate
    2.45,                     !- Vertex 1 Zcoordinate
    12.104418021378923,       !- Vertex 2 Xcoordinate
    10.48099335501343,        !- Vertex 2 Ycoordinate
    1.0499999999999998,       !- Vertex 2 Zcoordinate
    -1.870747103806469,       !- Vertex 3 Xcoordinate
    -15.86669260481745,       !- Vertex 3 Ycoordinate
    1.0499999999999998,       !- Vertex 3 Zcoordinate
    -1.870747103806469,       !- Vertex 4 Xcoordinate
    -15.86669260481745,       !- Vertex 4 Ycoordinate
    2.45;                     !- Vertex 4 Zcoordinate

SHADING:SITE:DETAILED,
    shade_way/265301901_1,    !- Name
    ,                         !- Transmittance Schedule Name
    autocalculate,            !- Number of Vertices
    -5.195230551878922,       !- Vertex 1 Xcoordinate
    -5.172286e+01,            !- Vertex 1 Ycoordinate
    45.5,                     !- Vertex 1 Zcoordinate
    -5.195230551878922,       !- Vertex 2 Xcoordinate
    -5.172286e+01,            !- Vertex 2 Ycoordinate
    0,                        !- Vertex 2 Zcoordinate
    7.322144329897128,        !- Vertex 3 Xcoordinate
    -2.803036e+01,            !- Vertex 3 Ycoordinate
    0,                        !- Vertex 3 Zcoordinate
    7.322144329897128,        !- Vertex 4 Xcoordinate
    -2.803036e+01,            !- Vertex 4 Ycoordinate
    45.5;                     !- Vertex 4 Zcoordinate

SHADING:SITE:DETAILED,
    shade_way/265301901_2,    !- Name
    ,                         !- Transmittance Schedule Name
    autocalculate,            !- Number of Vertices
    7.322144329897128,        !- Vertex 1 Xcoordinate
    -2.803036e+01,            !- Vertex 1 Ycoordinate
    45.5,                     !- Vertex 1 Zcoordinate
    7.322144329897128,        !- Vertex 2 Xcoordinate
    -2.803036e+01,            !- Vertex 2 Ycoordinate
    0,                        !- Vertex 2 Zcoordinate
    21.773426567320712,       !- Vertex 3 Xcoordinate
    -35.66562271211296,       !- Vertex 3 Ycoordinate
    0,                        !- Vertex 3 Zcoordinate
    21.773426567320712,       !- Vertex 4 Xcoordinate
    -35.66562271211296,       !- Vertex 4 Ycoordinate
    45.5;                     !- Vertex 4 Zcoordinate

SHADING:SITE:DETAILED,
    shade_way/265301901_3,    !- Name
    ,                         !- Transmittance Schedule Name
    autocalculate,            !- Number of Vertices
    21.773426567320712,       !- Vertex 1 Xcoordinate
    -35.66562271211296,       !- Vertex 1 Ycoordinate
    45.5,                     !- Vertex 1 Zcoordinate
    21.773426567320712,       !- Vertex 2 Xcoordinate
    -35.66562271211296,       !- Vertex 2 Ycoordinate
    0,                        !- Vertex 2 Zcoordinate
    9.256051687989384,        !- Vertex 3 Xcoordinate
    -5.935813e+01,            !- Vertex 3 Ycoordinate
    0,                        !- Vertex 3 Zcoordinate
    9.256051687989384,        !- Vertex 4 Xcoordinate
    -5.935813e+01,            !- Vertex 4 Ycoordinate
    45.5;                     !- Vertex 4 Zcoordinate

SHADING:SITE:DETAILED,
    shade_way/265301901_4,    !- Name
    ,                         !- Transmittance Schedule Name
    autocalculate,            !- Number of Vertices
    9.256051687989384,        !- Vertex 1 Xcoordinate
    -5.935813e+01,            !- Vertex 1 Ycoordinate
    45.5,                     !- Vertex 1 Zcoordinate
    9.256051687989384,        !- Vertex 2 Xcoordinate
    -5.935813e+01,            !- Vertex 2 Ycoordinate
    0,                        !- Vertex 2 Zcoordinate
    -5.195230551878922,       !- Vertex 3 Xcoordinate
    -5.172286e+01,            !- Vertex 3 Ycoordinate
    0,                        !- Vertex 3 Zcoordinate
    -5.195230551878922,       !- Vertex 4 Xcoordinate
    -5.172286e+01,            !- Vertex 4 Ycoordinate
    45.5;                     !- Vertex 4 Zcoordinate

SHADING:SITE:DETAILED,
    shade_way/265301894_1,    !- Name
    ,                         !- Transmittance Schedule Name
    autocalculate,            !- Number of Vertices
    41.97560802695807,        !- Vertex 1 Xcoordinate
    -1.193490e+01,            !- Vertex 1 Ycoordinate
    14.6,                     !- Vertex 1 Zcoordinate
    41.97560802695807,        !- Vertex 2 Xcoordinate
    -1.193490e+01,            !- Vertex 2 Ycoordinate
    0,                        !- Vertex 2 Zcoordinate
    29.542870510020293,       !- Vertex 3 Xcoordinate
    -3.547206e+01,            !- Vertex 3 Ycoordinate
    0,                        !- Vertex 3 Zcoordinate
    29.542870510020293,       !- Vertex 4 Xcoordinate
    -3.547206e+01,            !- Vertex 4 Ycoordinate
    14.6;                     !- Vertex 4 Zcoordinate

SHADING:SITE:DETAILED,
    shade_way/265301894_2,    !- Name
    ,                         !- Transmittance Schedule Name
    autocalculate,            !- Number of Vertices
    29.542870510020293,       !- Vertex 1 Xcoordinate
    -3.547206e+01,            !- Vertex 1 Ycoordinate
    14.6,                     !- Vertex 1 Zcoordinate
    29.542870510020293,       !- Vertex 2 Xcoordinate
    -3.547206e+01,            !- Vertex 2 Ycoordinate
    0,                        !- Vertex 2 Zcoordinate
    22.76033856649883,        !- Vertex 3 Xcoordinate
    -3.188941e+01,            !- Vertex 3 Ycoordinate
    0,                        !- Vertex 3 Zcoordinate
    22.76033856649883,        !- Vertex 4 Xcoordinate
    -3.188941e+01,            !- Vertex 4 Ycoordinate
    14.6;                     !- Vertex 4 Zcoordinate

SHADING:SITE:DETAILED,
    shade_way/265301894_3,    !- Name
    ,                         !- Transmittance Schedule Name
    autocalculate,            !- Number of Vertices
    22.76033856649883,        !- Vertex 1 Xcoordinate
    -3.188941e+01,            !- Vertex 1 Ycoordinate
    14.6,                     !- Vertex 1 Zcoordinate
    22.76033856649883,        !- Vertex 2 Xcoordinate
    -3.188941e+01,            !- Vertex 2 Ycoordinate
    0,                        !- Vertex 2 Zcoordinate
    35.19307608332019,        !- Vertex 3 Xcoordinate
    -8.352246776223183,       !- Vertex 3 Ycoordinate
    0,                        !- Vertex 3 Zcoordinate
    35.19307608332019,        !- Vertex 4 Xcoordinate
    -8.352246776223183,       !- Vertex 4 Ycoordinate
    14.6;                     !- Vertex 4 Zcoordinate

SHADING:SITE:DETAILED,
    shade_way/265301894_4,    !- Name
    ,                         !- Transmittance Schedule Name
    autocalculate,            !- Number of Vertices
    35.19307608332019,        !- Vertex 1 Xcoordinate
    -8.352246776223183,       !- Vertex 1 Ycoordinate
    14.6,                     !- Vertex 1 Zcoordinate
    35.19307608332019,        !- Vertex 2 Xcoordinate
    -8.352246776223183,       !- Vertex 2 Ycoordinate
    0,                        !- Vertex 2 Zcoordinate
    41.97560802695807,        !- Vertex 3 Xcoordinate
    -1.193490e+01,            !- Vertex 3 Ycoordinate
    0,                        !- Vertex 3 Zcoordinate
    41.97560802695807,        !- Vertex 4 Xcoordinate
    -1.193490e+01,            !- Vertex 4 Ycoordinate
    14.6;                     !- Vertex 4 Zcoordinate

SHADING:SITE:DETAILED,
    shade_way/265301931_1,    !- Name
    ,                         !- Transmittance Schedule Name
    autocalculate,            !- Number of Vertices
    -1.058132e+01,            !- Vertex 1 Xcoordinate
    -48.87742514722049,       !- Vertex 1 Ycoordinate
    13.9,                     !- Vertex 1 Zcoordinate
    -1.058132e+01,            !- Vertex 2 Xcoordinate
    -48.87742514722049,       !- Vertex 2 Ycoordinate
    0,                        !- Vertex 2 Zcoordinate
    1.9363257550867274,       !- Vertex 3 Xcoordinate
    -25.18384873587638,       !- Vertex 3 Ycoordinate
    0,                        !- Vertex 3 Zcoordinate
    1.9363257550867274,       !- Vertex 4 Xcoordinate
    -25.18384873587638,       !- Vertex 4 Ycoordinate
    13.9;                     !- Vertex 4 Zcoordinate

SHADING:SITE:DETAILED,
    shade_way/265301931_2,    !- Name
    ,                         !- Transmittance Schedule Name
    autocalculate,            !- Number of Vertices
    1.9363257550867274,       !- Vertex 1 Xcoordinate
    -25.18384873587638,       !- Vertex 1 Ycoordinate
    13.9,                     !- Vertex 1 Zcoordinate
    1.9363257550867274,       !- Vertex 2 Xcoordinate
    -25.18384873587638,       !- Vertex 2 Ycoordinate
    0,                        !- Vertex 2 Zcoordinate
    7.322759661008604,        !- Vertex 3 Xcoordinate
    -28.02982514258474,       !- Vertex 3 Ycoordinate
    0,                        !- Vertex 3 Zcoordinate
    7.322759661008604,        !- Vertex 4 Xcoordinate
    -28.02982514258474,       !- Vertex 4 Ycoordinate
    13.9;                     !- Vertex 4 Zcoordinate

SHADING:SITE:DETAILED,
    shade_way/265301931_3,    !- Name
    ,                         !- Transmittance Schedule Name
    autocalculate,            !- Number of Vertices
    7.322759661008604,        !- Vertex 1 Xcoordinate
    -28.02982514258474,       !- Vertex 1 Ycoordinate
    13.9,                     !- Vertex 1 Zcoordinate
    7.322759661008604,        !- Vertex 2 Xcoordinate
    -28.02982514258474,       !- Vertex 2 Ycoordinate
    0,                        !- Vertex 2 Zcoordinate
    -5.195230551878922,       !- Vertex 3 Xcoordinate
    -5.172286e+01,            !- Vertex 3 Ycoordinate
    0,                        !- Vertex 3 Zcoordinate
    -5.195230551878922,       !- Vertex 4 Xcoordinate
    -5.172286e+01,            !- Vertex 4 Ycoordinate
    13.9;                     !- Vertex 4 Zcoordinate

SHADING:SITE:DETAILED,
    shade_way/265301931_4,    !- Name
    ,                         !- Transmittance Schedule Name
    autocalculate,            !- Number of Vertices
    -5.195230551878922,       !- Vertex 1 Xcoordinate
    -5.172286e+01,            !- Vertex 1 Ycoordinate
    13.9,                     !- Vertex 1 Zcoordinate
    -5.195230551878922,       !- Vertex 2 Xcoordinate
    -5.172286e+01,            !- Vertex 2 Ycoordinate
    0,                        !- Vertex 2 Zcoordinate
    -1.058132e+01,            !- Vertex 3 Xcoordinate
    -48.87742514722049,       !- Vertex 3 Ycoordinate
    0,                        !- Vertex 3 Zcoordinate
    -1.058132e+01,            !- Vertex 4 Xcoordinate
    -48.87742514722049,       !- Vertex 4 Ycoordinate
    13.9;                     !- Vertex 4 Zcoordinate

SHADING:SITE:DETAILED,
    shade_way/265301972_1,    !- Name
    ,                         !- Transmittance Schedule Name
    autocalculate,            !- Number of Vertices
    -53.37915999267716,       !- Vertex 1 Xcoordinate
    -2.626834e+01,            !- Vertex 1 Ycoordinate
    45.1,                     !- Vertex 1 Zcoordinate
    -53.37915999267716,       !- Vertex 2 Xcoordinate
    -2.626834e+01,            !- Vertex 2 Ycoordinate
    0,                        !- Vertex 2 Zcoordinate
    -4.086112e+01,            !- Vertex 3 Xcoordinate
    -2.574806e+00,            !- Vertex 3 Ycoordinate
    0,                        !- Vertex 3 Zcoordinate
    -4.086112e+01,            !- Vertex 4 Xcoordinate
    -2.574806e+00,            !- Vertex 4 Ycoordinate
    45.1;                     !- Vertex 4 Zcoordinate

SHADING:SITE:DETAILED,
    shade_way/265301972_2,    !- Name
    ,                         !- Transmittance Schedule Name
    autocalculate,            !- Number of Vertices
    -4.086112e+01,            !- Vertex 1 Xcoordinate
    -2.574806e+00,            !- Vertex 1 Ycoordinate
    45.1,                     !- Vertex 1 Zcoordinate
    -4.086112e+01,            !- Vertex 2 Xcoordinate
    -2.574806e+00,            !- Vertex 2 Ycoordinate
    0,                        !- Vertex 2 Zcoordinate
    -25.11100518575404,       !- Vertex 3 Xcoordinate
    -1.089625e+01,            !- Vertex 3 Ycoordinate
    0,                        !- Vertex 3 Zcoordinate
    -25.11100518575404,       !- Vertex 4 Xcoordinate
    -1.089625e+01,            !- Vertex 4 Ycoordinate
    45.1;                     !- Vertex 4 Zcoordinate

SHADING:SITE:DETAILED,
    shade_way/265301972_3,    !- Name
    ,                         !- Transmittance Schedule Name
    autocalculate,            !- Number of Vertices
    -25.11100518575404,       !- Vertex 1 Xcoordinate
    -1.089625e+01,            !- Vertex 1 Ycoordinate
    45.1,                     !- Vertex 1 Zcoordinate
    -25.11100518575404,       !- Vertex 2 Xcoordinate
    -1.089625e+01,            !- Vertex 2 Ycoordinate
    0,                        !- Vertex 2 Zcoordinate
    -37.628978581517,         !- Vertex 3 Xcoordinate
    -3.458954e+01,            !- Vertex 3 Ycoordinate
    0,                        !- Vertex 3 Zcoordinate
    -37.628978581517,         !- Vertex 4 Xcoordinate
    -3.458954e+01,            !- Vertex 4 Ycoordinate
    45.1;                     !- Vertex 4 Zcoordinate

SHADING:SITE:DETAILED,
    shade_way/265301972_4,    !- Name
    ,                         !- Transmittance Schedule Name
    autocalculate,            !- Number of Vertices
    -37.628978581517,         !- Vertex 1 Xcoordinate
    -3.458954e+01,            !- Vertex 1 Ycoordinate
    45.1,                     !- Vertex 1 Zcoordinate
    -37.628978581517,         !- Vertex 2 Xcoordinate
    -3.458954e+01,            !- Vertex 2 Ycoordinate
    0,                        !- Vertex 2 Zcoordinate
    -53.37915999267716,       !- Vertex 3 Xcoordinate
    -2.626834e+01,            !- Vertex 3 Ycoordinate
    0,                        !- Vertex 3 Zcoordinate
    -53.37915999267716,       !- Vertex 4 Xcoordinate
    -2.626834e+01,            !- Vertex 4 Ycoordinate
    45.1;                     !- Vertex 4 Zcoordinate

SHADING:SITE:DETAILED,
    shade_way/265302101_1,    !- Name
    ,                         !- Transmittance Schedule Name
    autocalculate,            !- Number of Vertices
    10.708142836927436,       !- Vertex 1 Xcoordinate
    -2.153000e+01,            !- Vertex 1 Ycoordinate
    49.3,                     !- Vertex 1 Zcoordinate
    10.708142836927436,       !- Vertex 2 Xcoordinate
    -2.153000e+01,            !- Vertex 2 Ycoordinate
    0,                        !- Vertex 2 Zcoordinate
    22.706624031066895,       !- Vertex 3 Xcoordinate
    1.1941862795501947,       !- Vertex 3 Ycoordinate
    0,                        !- Vertex 3 Zcoordinate
    22.706624031066895,       !- Vertex 4 Xcoordinate
    1.1941862795501947,       !- Vertex 4 Ycoordinate
    49.3;                     !- Vertex 4 Zcoordinate

SHADING:SITE:DETAILED,
    shade_way/265302101_2,    !- Name
    ,                         !- Transmittance Schedule Name
    autocalculate,            !- Number of Vertices
    22.706624031066895,       !- Vertex 1 Xcoordinate
    1.1941862795501947,       !- Vertex 1 Ycoordinate
    49.3,                     !- Vertex 1 Zcoordinate
    22.706624031066895,       !- Vertex 2 Xcoordinate
    1.1941862795501947,       !- Vertex 2 Ycoordinate
    0,                        !- Vertex 2 Zcoordinate
    36.42085510992911,        !- Vertex 3 Xcoordinate
    -6.046995e+00,            !- Vertex 3 Ycoordinate
    0,                        !- Vertex 3 Zcoordinate
    36.42085510992911,        !- Vertex 4 Xcoordinate
    -6.046995e+00,            !- Vertex 4 Ycoordinate
    49.3;                     !- Vertex 4 Zcoordinate

SHADING:SITE:DETAILED,
    shade_way/265302101_3,    !- Name
    ,                         !- Transmittance Schedule Name
    autocalculate,            !- Number of Vertices
    36.42085510992911,        !- Vertex 1 Xcoordinate
    -6.046995e+00,            !- Vertex 1 Ycoordinate
    49.3,                     !- Vertex 1 Zcoordinate
    36.42085510992911,        !- Vertex 2 Xcoordinate
    -6.046995e+00,            !- Vertex 2 Ycoordinate
    0,                        !- Vertex 2 Zcoordinate
    24.42237391578965,        !- Vertex 3 Xcoordinate
    -2.877118e+01,            !- Vertex 3 Ycoordinate
    0,                        !- Vertex 3 Zcoordinate
    24.42237391578965,        !- Vertex 4 Xcoordinate
    -2.877118e+01,            !- Vertex 4 Ycoordinate
    49.3;                     !- Vertex 4 Zcoordinate

SHADING:SITE:DETAILED,
    shade_way/265302101_4,    !- Name
    ,                         !- Transmittance Schedule Name
    autocalculate,            !- Number of Vertices
    24.42237391578965,        !- Vertex 1 Xcoordinate
    -2.877118e+01,            !- Vertex 1 Ycoordinate
    49.3,                     !- Vertex 1 Zcoordinate
    24.42237391578965,        !- Vertex 2 Xcoordinate
    -2.877118e+01,            !- Vertex 2 Ycoordinate
    0,                        !- Vertex 2 Zcoordinate
    10.708142836927436,       !- Vertex 3 Xcoordinate
    -2.153000e+01,            !- Vertex 3 Ycoordinate
    0,                        !- Vertex 3 Zcoordinate
    10.708142836927436,       !- Vertex 4 Xcoordinate
    -2.153000e+01,            !- Vertex 4 Ycoordinate
    49.3;                     !- Vertex 4 Zcoordinate

SHADING:SITE:DETAILED,
    shade_way/265302149_1,    !- Name
    ,                         !- Transmittance Schedule Name
    autocalculate,            !- Number of Vertices
    -1.903909e+00,            !- Vertex 1 Xcoordinate
    -15.92950635496527,       !- Vertex 1 Ycoordinate
    51.9,                     !- Vertex 1 Zcoordinate
    -1.903909e+00,            !- Vertex 2 Xcoordinate
    -15.92950635496527,       !- Vertex 2 Ycoordinate
    0,                        !- Vertex 2 Zcoordinate
    10.587602284387685,       !- Vertex 3 Xcoordinate
    7.61872561275959,         !- Vertex 3 Ycoordinate
    0,                        !- Vertex 3 Zcoordinate
    10.587602284387685,       !- Vertex 4 Xcoordinate
    7.61872561275959,         !- Vertex 4 Ycoordinate
    51.9;                     !- Vertex 4 Zcoordinate

SHADING:SITE:DETAILED,
    shade_way/265302149_2,    !- Name
    ,                         !- Transmittance Schedule Name
    autocalculate,            !- Number of Vertices
    10.587602284387685,       !- Vertex 1 Xcoordinate
    7.61872561275959,         !- Vertex 1 Ycoordinate
    51.9,                     !- Vertex 1 Zcoordinate
    10.587602284387685,       !- Vertex 2 Xcoordinate
    7.61872561275959,         !- Vertex 2 Ycoordinate
    0,                        !- Vertex 2 Zcoordinate
    22.748919223435223,       !- Vertex 3 Xcoordinate
    1.1675734231248498,       !- Vertex 3 Ycoordinate
    0,                        !- Vertex 3 Zcoordinate
    22.748919223435223,       !- Vertex 4 Xcoordinate
    1.1675734231248498,       !- Vertex 4 Ycoordinate
    51.9;                     !- Vertex 4 Zcoordinate

SHADING:SITE:DETAILED,
    shade_way/265302149_3,    !- Name
    ,                         !- Transmittance Schedule Name
    autocalculate,            !- Number of Vertices
    22.748919223435223,       !- Vertex 1 Xcoordinate
    1.1675734231248498,       !- Vertex 1 Ycoordinate
    51.9,                     !- Vertex 1 Zcoordinate
    22.748919223435223,       !- Vertex 2 Xcoordinate
    1.1675734231248498,       !- Vertex 2 Ycoordinate
    0,                        !- Vertex 2 Zcoordinate
    10.257407907978632,       !- Vertex 3 Xcoordinate
    -2.238066e+01,            !- Vertex 3 Ycoordinate
    0,                        !- Vertex 3 Zcoordinate
    10.257407907978632,       !- Vertex 4 Xcoordinate
    -2.238066e+01,            !- Vertex 4 Ycoordinate
    51.9;                     !- Vertex 4 Zcoordinate

SHADING:SITE:DETAILED,
    shade_way/265302149_4,    !- Name
    ,                         !- Transmittance Schedule Name
    autocalculate,            !- Number of Vertices
    10.257407907978632,       !- Vertex 1 Xcoordinate
    -2.238066e+01,            !- Vertex 1 Ycoordinate
    51.9,                     !- Vertex 1 Zcoordinate
    10.257407907978632,       !- Vertex 2 Xcoordinate
    -2.238066e+01,            !- Vertex 2 Ycoordinate
    0,                        !- Vertex 2 Zcoordinate
    -1.903909e+00,            !- Vertex 3 Xcoordinate
    -15.92950635496527,       !- Vertex 3 Ycoordinate
    0,                        !- Vertex 3 Zcoordinate
    -1.903909e+00,            !- Vertex 4 Xcoordinate
    -15.92950635496527,       !- Vertex 4 Ycoordinate
    51.9;                     !- Vertex 4 Zcoordinate

SHADING:SITE:DETAILED,
    shade_way/265301912_1,    !- Name
    ,                         !- Transmittance Schedule Name
    autocalculate,            !- Number of Vertices
    18.602922891033813,       !- Vertex 1 Xcoordinate
    24.469212809577584,       !- Vertex 1 Ycoordinate
    46.2,                     !- Vertex 1 Zcoordinate
    18.602922891033813,       !- Vertex 2 Xcoordinate
    24.469212809577584,       !- Vertex 2 Ycoordinate
    0,                        !- Vertex 2 Zcoordinate
    32.680047641159035,       !- Vertex 3 Xcoordinate
    50.48944655619562,        !- Vertex 3 Ycoordinate
    0,                        !- Vertex 3 Zcoordinate
    32.680047641159035,       !- Vertex 4 Xcoordinate
    50.48944655619562,        !- Vertex 4 Ycoordinate
    46.2;                     !- Vertex 4 Zcoordinate

SHADING:SITE:DETAILED,
    shade_way/265301912_2,    !- Name
    ,                         !- Transmittance Schedule Name
    autocalculate,            !- Number of Vertices
    32.680047641159035,       !- Vertex 1 Xcoordinate
    50.48944655619562,        !- Vertex 1 Ycoordinate
    46.2,                     !- Vertex 1 Zcoordinate
    32.680047641159035,       !- Vertex 2 Xcoordinate
    50.48944655619562,        !- Vertex 2 Ycoordinate
    0,                        !- Vertex 2 Zcoordinate
    45.7298362897709,         !- Vertex 3 Xcoordinate
    43.42932949028909,        !- Vertex 3 Ycoordinate
    0,                        !- Vertex 3 Zcoordinate
    45.7298362897709,         !- Vertex 4 Xcoordinate
    43.42932949028909,        !- Vertex 4 Ycoordinate
    46.2;                     !- Vertex 4 Zcoordinate

SHADING:SITE:DETAILED,
    shade_way/265301912_3,    !- Name
    ,                         !- Transmittance Schedule Name
    autocalculate,            !- Number of Vertices
    45.7298362897709,         !- Vertex 1 Xcoordinate
    43.42932949028909,        !- Vertex 1 Ycoordinate
    46.2,                     !- Vertex 1 Zcoordinate
    45.7298362897709,         !- Vertex 2 Xcoordinate
    43.42932949028909,        !- Vertex 2 Ycoordinate
    0,                        !- Vertex 2 Zcoordinate
    31.6526366827311,         !- Vertex 3 Xcoordinate
    17.409296415746212,       !- Vertex 3 Ycoordinate
    0,                        !- Vertex 3 Zcoordinate
    31.6526366827311,         !- Vertex 4 Xcoordinate
    17.409296415746212,       !- Vertex 4 Ycoordinate
    46.2;                     !- Vertex 4 Zcoordinate

SHADING:SITE:DETAILED,
    shade_way/265301912_4,    !- Name
    ,                         !- Transmittance Schedule Name
    autocalculate,            !- Number of Vertices
    31.6526366827311,         !- Vertex 1 Xcoordinate
    17.409296415746212,       !- Vertex 1 Ycoordinate
    46.2,                     !- Vertex 1 Zcoordinate
    31.6526366827311,         !- Vertex 2 Xcoordinate
    17.409296415746212,       !- Vertex 2 Ycoordinate
    0,                        !- Vertex 2 Zcoordinate
    18.602922891033813,       !- Vertex 3 Xcoordinate
    24.469212809577584,       !- Vertex 3 Ycoordinate
    0,                        !- Vertex 3 Zcoordinate
    18.602922891033813,       !- Vertex 4 Xcoordinate
    24.469212809577584,       !- Vertex 4 Ycoordinate
    46.2;                     !- Vertex 4 Zcoordinate

SHADING:SITE:DETAILED,
    shade_way/265301919_1,    !- Name
    ,                         !- Transmittance Schedule Name
    autocalculate,            !- Number of Vertices
    31.218647240661085,       !- Vertex 1 Xcoordinate
    47.78811792191118,        !- Vertex 1 Ycoordinate
    69.8,                     !- Vertex 1 Zcoordinate
    31.218647240661085,       !- Vertex 2 Xcoordinate
    47.78811792191118,        !- Vertex 2 Ycoordinate
    0,                        !- Vertex 2 Zcoordinate
    18.94124069076497,        !- Vertex 3 Xcoordinate
    25.093961622565985,       !- Vertex 3 Ycoordinate
    0,                        !- Vertex 3 Zcoordinate
    18.94124069076497,        !- Vertex 4 Xcoordinate
    25.093961622565985,       !- Vertex 4 Ycoordinate
    69.8;                     !- Vertex 4 Zcoordinate

SHADING:SITE:DETAILED,
    shade_way/265301919_2,    !- Name
    ,                         !- Transmittance Schedule Name
    autocalculate,            !- Number of Vertices
    18.94124069076497,        !- Vertex 1 Xcoordinate
    25.093961622565985,       !- Vertex 1 Ycoordinate
    69.8,                     !- Vertex 1 Zcoordinate
    18.94124069076497,        !- Vertex 2 Xcoordinate
    25.093961622565985,       !- Vertex 2 Ycoordinate
    0,                        !- Vertex 2 Zcoordinate
    2.7651859854813665,       !- Vertex 3 Xcoordinate
    33.84509658254683,        !- Vertex 3 Ycoordinate
    0,                        !- Vertex 3 Zcoordinate
    2.7651859854813665,       !- Vertex 4 Xcoordinate
    33.84509658254683,        !- Vertex 4 Ycoordinate
    69.8;                     !- Vertex 4 Zcoordinate

SHADING:SITE:DETAILED,
    shade_way/265301919_3,    !- Name
    ,                         !- Transmittance Schedule Name
    autocalculate,            !- Number of Vertices
    2.7651859854813665,       !- Vertex 1 Xcoordinate
    33.84509658254683,        !- Vertex 1 Ycoordinate
    69.8,                     !- Vertex 1 Zcoordinate
    2.7651859854813665,       !- Vertex 2 Xcoordinate
    33.84509658254683,        !- Vertex 2 Ycoordinate
    0,                        !- Vertex 2 Zcoordinate
    15.04250088147819,        !- Vertex 3 Xcoordinate
    56.53931900858879,        !- Vertex 3 Ycoordinate
    0,                        !- Vertex 3 Zcoordinate
    15.04250088147819,        !- Vertex 4 Xcoordinate
    56.53931900858879,        !- Vertex 4 Ycoordinate
    69.8;                     !- Vertex 4 Zcoordinate

SHADING:SITE:DETAILED,
    shade_way/265301919_4,    !- Name
    ,                         !- Transmittance Schedule Name
    autocalculate,            !- Number of Vertices
    15.04250088147819,        !- Vertex 1 Xcoordinate
    56.53931900858879,        !- Vertex 1 Ycoordinate
    69.8,                     !- Vertex 1 Zcoordinate
    15.04250088147819,        !- Vertex 2 Xcoordinate
    56.53931900858879,        !- Vertex 2 Ycoordinate
    0,                        !- Vertex 2 Zcoordinate
    31.218647240661085,       !- Vertex 3 Xcoordinate
    47.78811792191118,        !- Vertex 3 Ycoordinate
    0,                        !- Vertex 3 Zcoordinate
    31.218647240661085,       !- Vertex 4 Xcoordinate
    47.78811792191118,        !- Vertex 4 Ycoordinate
    69.8;                     !- Vertex 4 Zcoordinate

SHADING:SITE:DETAILED,
    shade_way/265301952_1,    !- Name
    ,                         !- Transmittance Schedule Name
    autocalculate,            !- Number of Vertices
    2.7749366919742897,       !- Vertex 1 Xcoordinate
    33.8400224391371,         !- Vertex 1 Ycoordinate
    13.4,                     !- Vertex 1 Zcoordinate
    2.7749366919742897,       !- Vertex 2 Xcoordinate
    33.8400224391371,         !- Vertex 2 Ycoordinate
    0,                        !- Vertex 2 Zcoordinate
    -2.401928692124784,       !- Vertex 3 Xcoordinate
    36.639640636742115,       !- Vertex 3 Ycoordinate
    0,                        !- Vertex 3 Zcoordinate
    -2.401928692124784,       !- Vertex 4 Xcoordinate
    36.639640636742115,       !- Vertex 4 Ycoordinate
    13.4;                     !- Vertex 4 Zcoordinate

SHADING:SITE:DETAILED,
    shade_way/265301952_2,    !- Name
    ,                         !- Transmittance Schedule Name
    autocalculate,            !- Number of Vertices
    -2.401928692124784,       !- Vertex 1 Xcoordinate
    36.639640636742115,       !- Vertex 1 Ycoordinate
    13.4,                     !- Vertex 1 Zcoordinate
    -2.401928692124784,       !- Vertex 2 Xcoordinate
    36.639640636742115,       !- Vertex 2 Ycoordinate
    0,                        !- Vertex 2 Zcoordinate
    9.87491735315416,         !- Vertex 3 Xcoordinate
    59.34026528149843,        !- Vertex 3 Ycoordinate
    0,                        !- Vertex 3 Zcoordinate
    9.87491735315416,         !- Vertex 4 Xcoordinate
    59.34026528149843,        !- Vertex 4 Ycoordinate
    13.4;                     !- Vertex 4 Zcoordinate

SHADING:SITE:DETAILED,
    shade_way/265301952_3,    !- Name
    ,                         !- Transmittance Schedule Name
    autocalculate,            !- Number of Vertices
    9.87491735315416,         !- Vertex 1 Xcoordinate
    59.34026528149843,        !- Vertex 1 Ycoordinate
    13.4,                     !- Vertex 1 Zcoordinate
    9.87491735315416,         !- Vertex 2 Xcoordinate
    59.34026528149843,        !- Vertex 2 Ycoordinate
    0,                        !- Vertex 2 Zcoordinate
    15.051492733764462,       !- Vertex 3 Xcoordinate
    56.54100290033966,        !- Vertex 3 Ycoordinate
    0,                        !- Vertex 3 Zcoordinate
    15.051492733764462,       !- Vertex 4 Xcoordinate
    56.54100290033966,        !- Vertex 4 Ycoordinate
    13.4;                     !- Vertex 4 Zcoordinate

SHADING:SITE:DETAILED,
    shade_way/265301952_4,    !- Name
    ,                         !- Transmittance Schedule Name
    autocalculate,            !- Number of Vertices
    15.051492733764462,       !- Vertex 1 Xcoordinate
    56.54100290033966,        !- Vertex 1 Ycoordinate
    13.4,                     !- Vertex 1 Zcoordinate
    15.051492733764462,       !- Vertex 2 Xcoordinate
    56.54100290033966,        !- Vertex 2 Ycoordinate
    0,                        !- Vertex 2 Zcoordinate
    2.7749366919742897,       !- Vertex 3 Xcoordinate
    33.8400224391371,         !- Vertex 3 Ycoordinate
    0,                        !- Vertex 3 Zcoordinate
    2.7749366919742897,       !- Vertex 4 Xcoordinate
    33.8400224391371,         !- Vertex 4 Ycoordinate
    13.4;                     !- Vertex 4 Zcoordinate

SHADING:SITE:DETAILED,
    shade_way/265301956_1,    !- Name
    ,                         !- Transmittance Schedule Name
    autocalculate,            !- Number of Vertices
    5.395875770365819,        !- Vertex 1 Xcoordinate
    64.99923658464104,        !- Vertex 1 Ycoordinate
    15.6,                     !- Vertex 1 Zcoordinate
    5.395875770365819,        !- Vertex 2 Xcoordinate
    64.99923658464104,        !- Vertex 2 Ycoordinate
    0,                        !- Vertex 2 Zcoordinate
    11.232679272769019,       !- Vertex 3 Xcoordinate
    61.84189417399466,        !- Vertex 3 Ycoordinate
    0,                        !- Vertex 3 Zcoordinate
    11.232679272769019,       !- Vertex 4 Xcoordinate
    61.84189417399466,        !- Vertex 4 Ycoordinate
    15.6;                     !- Vertex 4 Zcoordinate

SHADING:SITE:DETAILED,
    shade_way/265301956_2,    !- Name
    ,                         !- Transmittance Schedule Name
    autocalculate,            !- Number of Vertices
    11.232679272769019,       !- Vertex 1 Xcoordinate
    61.84189417399466,        !- Vertex 1 Ycoordinate
    15.6,                     !- Vertex 1 Zcoordinate
    11.232679272769019,       !- Vertex 2 Xcoordinate
    61.84189417399466,        !- Vertex 2 Ycoordinate
    0,                        !- Vertex 2 Zcoordinate
    -2.590728246141225,       !- Vertex 3 Xcoordinate
    36.28732869029045,        !- Vertex 3 Ycoordinate
    0,                        !- Vertex 3 Zcoordinate
    -2.590728246141225,       !- Vertex 4 Xcoordinate
    36.28732869029045,        !- Vertex 4 Ycoordinate
    15.6;                     !- Vertex 4 Zcoordinate

SHADING:SITE:DETAILED,
    shade_way/265301956_3,    !- Name
    ,                         !- Transmittance Schedule Name
    autocalculate,            !- Number of Vertices
    -2.590728246141225,       !- Vertex 1 Xcoordinate
    36.28732869029045,        !- Vertex 1 Ycoordinate
    15.6,                     !- Vertex 1 Zcoordinate
    -2.590728246141225,       !- Vertex 2 Xcoordinate
    36.28732869029045,        !- Vertex 2 Ycoordinate
    0,                        !- Vertex 2 Zcoordinate
    -8.427422133740038,       !- Vertex 3 Xcoordinate
    39.44444537162781,        !- Vertex 3 Ycoordinate
    0,                        !- Vertex 3 Zcoordinate
    -8.427422133740038,       !- Vertex 4 Xcoordinate
    39.44444537162781,        !- Vertex 4 Ycoordinate
    15.6;                     !- Vertex 4 Zcoordinate

SHADING:SITE:DETAILED,
    shade_way/265301956_4,    !- Name
    ,                         !- Transmittance Schedule Name
    autocalculate,            !- Number of Vertices
    -8.427422133740038,       !- Vertex 1 Xcoordinate
    39.44444537162781,        !- Vertex 1 Ycoordinate
    15.6,                     !- Vertex 1 Zcoordinate
    -8.427422133740038,       !- Vertex 2 Xcoordinate
    39.44444537162781,        !- Vertex 2 Ycoordinate
    0,                        !- Vertex 2 Zcoordinate
    5.395875770365819,        !- Vertex 3 Xcoordinate
    64.99923658464104,        !- Vertex 3 Ycoordinate
    0,                        !- Vertex 3 Zcoordinate
    5.395875770365819,        !- Vertex 4 Xcoordinate
    64.99923658464104,        !- Vertex 4 Ycoordinate
    15.6;                     !- Vertex 4 Zcoordinate

PEOPLE,
    People_way/265301955_F0_whole,    !- Name
    way/265301955_F0_whole,    !- Zone or ZoneList or Space or SpaceList Name
    Occupancy_Schedule_SmallOffice,    !- Number of People Schedule Name
    People,                   !- Number of People Calculation Method
    18.582362287570746,       !- Number of People
    ,                         !- People per Floor Area
    ,                         !- Floor Area per Person
    0.3,                      !- Fraction Radiant
    autocalculate,            !- Sensible Heat Fraction
    Activity_Level,           !- Activity Level Schedule Name
    3.82e-08,                 !- Carbon Dioxide Generation Rate
    No,                       !- Enable ASHRAE 55 Comfort Warnings
    ZoneAveraged,             !- Mean Radiant Temperature Calculation Type
    ,                         !- Surface NameAngle Factor List Name
    ,                         !- Work Efficiency Schedule Name
    ClothingInsulationSchedule,    !- Clothing Insulation Calculation Method
    ,                         !- Clothing Insulation Calculation Method Schedule Name
    ,                         !- Clothing Insulation Schedule Name
    ,                         !- Air Velocity Schedule Name
    ,                         !- Thermal Comfort Model 1 Type
    ,                         !- Thermal Comfort Model 2 Type
    ,                         !- Thermal Comfort Model 3 Type
    ,                         !- Thermal Comfort Model 4 Type
    ,                         !- Thermal Comfort Model 5 Type
    ,                         !- Thermal Comfort Model 6 Type
    ,                         !- Thermal Comfort Model 7 Type
    ,                         !- Ankle Level Air Velocity Schedule Name
    15.56,                    !- Cold Stress Temperature Threshold
    30;                       !- Heat Stress Temperature Threshold

LIGHTS,
    Lights_way/265301955_F0_whole,    !- Name
    way/265301955_F0_whole,    !- Zone or ZoneList or Space or SpaceList Name
    Lighting_Schedule_SmallOffice,    !- Schedule Name
    LightingLevel,            !- Design Level Calculation Method
    3715.0007344209725,       !- Lighting Level
    ,                         !- Watts per Zone Floor Area
    ,                         !- Watts per Person
    0,                        !- Return Air Fraction
    0.42,                     !- Fraction Radiant
    0,                        !- Fraction Visible
    1,                        !- Fraction Replaceable
    General,                  !- EndUse Subcategory
    No,                       !- Return Air Fraction Calculated from Plenum Temperature
    0,                        !- Return Air Fraction Function of Plenum Temperature Coefficient 1
    0;                        !- Return Air Fraction Function of Plenum Temperature Coefficient 2

ELECTRICEQUIPMENT,
    Equipment_way/265301955_F0_whole,    !- Name
    way/265301955_F0_whole,    !- Zone or ZoneList or Space or SpaceList Name
    Equipment_Schedule_SmallOffice,    !- Schedule Name
    EquipmentLevel,           !- Design Level Calculation Method
    2340.8647750347764,       !- Design Level
    ,                         !- Watts per Zone Floor Area
    ,                         !- Watts per Person
    0,                        !- Fraction Latent
    0.5,                      !- Fraction Radiant
    0,                        !- Fraction Lost
    General;                  !- EndUse Subcategory

ZONEINFILTRATION:DESIGNFLOWRATE,
    Infiltration_way/265301955_F0_whole,    !- Name
    way/265301955_F0_whole,    !- Zone or ZoneList or Space or SpaceList Name
    Infiltration_Schedule_SmallOffice,    !- Schedule Name
    Flow/ExteriorWallArea,    !- Design Flow Rate Calculation Method
    ,                         !- Design Flow Rate
    ,                         !- Flow Rate per Floor Area
    0.000285,                 !- Flow Rate per Exterior Surface Area
    ,                         !- Air Changes per Hour
    1,                        !- Constant Term Coefficient
    0,                        !- Temperature Term Coefficient
    0,                        !- Velocity Term Coefficient
    0;                        !- Velocity Squared Term Coefficient

HVACTEMPLATE:THERMOSTAT,
    way/265301955_F0_whole_Thermostat,    !- Name
    Heating_Setpoint_SmallOffice,    !- Heating Setpoint Schedule Name
    ,                         !- Constant Heating Setpoint
    Cooling_Setpoint_SmallOffice;    !- Cooling Setpoint Schedule Name

HVACTEMPLATE:ZONE:UNITARY,
    way/265301955_F0_whole,    !- Zone Name
    way/265301955_F0_whole_HP_Sys,    !- Template Unitary System Name
    way/265301955_F0_whole_Thermostat,    !- Template Thermostat Name
    autosize,                 !- Supply Air Maximum Flow Rate
    ,                         !- Zone Heating Sizing Factor
    ,                         !- Zone Cooling Sizing Factor
    Flow/Person,              !- Outdoor Air Method
    0.01,                     !- Outdoor Air Flow Rate per Person
    0.0,                      !- Outdoor Air Flow Rate per Zone Floor Area
    0,                        !- Outdoor Air Flow Rate per Zone
    ,                         !- Supply Plenum Name
    ,                         !- Return Plenum Name
    None,                     !- Baseboard Heating Type
    ,                         !- Baseboard Heating Availability Schedule Name
    autosize,                 !- Baseboard Heating Capacity
    SystemSupplyAirTemperature,    !- Zone Cooling Design Supply Air Temperature Input Method
    12.8,                     !- Zone Cooling Design Supply Air Temperature
    11.11,                    !- Zone Cooling Design Supply Air Temperature Difference
    SystemSupplyAirTemperature,    !- Zone Heating Design Supply Air Temperature Input Method
    50,                       !- Zone Heating Design Supply Air Temperature
    30;                       !- Zone Heating Design Supply Air Temperature Difference

HVACTEMPLATE:SYSTEM:UNITARYHEATPUMP:AIRTOAIR,
    way/265301955_F0_whole_HP_Sys,    !- Name
    ,                         !- System Availability Schedule Name
    way/265301955_F0_whole,    !- Control Zone or Thermostat Location Name
    autosize,                 !- Cooling Supply Air Flow Rate
    autosize,                 !- Heating Supply Air Flow Rate
    autosize,                 !- No Load Supply Air Flow Rate
    ,                         !- Supply Fan Operating Mode Schedule Name
    BlowThrough,              !- Supply Fan Placement
    0.55575,                  !- Supply Fan Total Efficiency
    622.5,                    !- Supply Fan Delta Pressure
    0.9,                      !- Supply Fan Motor Efficiency
    1.0,                      !- Supply Fan Motor in Air Stream Fraction
    SingleSpeedDX,            !- Cooling Coil Type
    ,                         !- Cooling Coil Availability Schedule Name
    12.8,                     !- Cooling Design Supply Air Temperature
    autosize,                 !- Cooling Coil Gross Rated Total Capacity
    autosize,                 !- Cooling Coil Gross Rated Sensible Heat Ratio
    4.52884559038969,         !- Cooling Coil Gross Rated COP
    SingleSpeedDXHeatPump,    !- Heat Pump Heating Coil Type
    ,                         !- Heat Pump Heating Coil Availability Schedule Name
    50.0,                     !- Heating Design Supply Air Temperature
    autosize,                 !- Heat Pump Heating Coil Gross Rated Capacity
    2.75,                     !- Heat Pump Heating Coil Rated COP
    -8,                       !- Heat Pump Heating Minimum Outdoor DryBulb Temperature
    5,                        !- Heat Pump Defrost Maximum Outdoor DryBulb Temperature
    ReverseCycle,             !- Heat Pump Defrost Strategy
    Timed,                    !- Heat Pump Defrost Control
    0.058333,                 !- Heat Pump Defrost Time Period Fraction
    Gas,                      !- Supplemental Heating Coil Type
    ,                         !- Supplemental Heating Coil Availability Schedule Name
    autosize,                 !- Supplemental Heating Coil Capacity
    21,                       !- Supplemental Heating Coil Maximum Outdoor DryBulb Temperature
    0.84,                     !- Supplemental Gas Heating Coil Efficiency
    0.0,                      !- Supplemental Gas Heating Coil Parasitic Electric Load
    autosize,                 !- Maximum Outdoor Air Flow Rate
    autosize,                 !- Minimum Outdoor Air Flow Rate
    ,                         !- Minimum Outdoor Air Schedule Name
    DifferentialDryBulb,      !- Economizer Type
    NoLockout,                !- Economizer Lockout
    ,                         !- Economizer Maximum Limit DryBulb Temperature
    ,                         !- Economizer Maximum Limit Enthalpy
    ,                         !- Economizer Maximum Limit Dewpoint Temperature
    ,                         !- Economizer Minimum Limit DryBulb Temperature
    ,                         !- Supply Plenum Name
    ,                         !- Return Plenum Name
    StayOff,                  !- Night Cycle Control
    ,                         !- Night Cycle Control Zone Name
    None,                     !- Heat Recovery Type
    0.70,                     !- Sensible Heat Recovery Effectiveness
    0.65,                     !- Latent Heat Recovery Effectiveness
    None,                     !- Humidifier Type
    ,                         !- Humidifier Availability Schedule Name
    1e-06,                    !- Humidifier Rated Capacity
    autosize,                 !- Humidifier Rated Electric Power
    ,                         !- Humidifier Control Zone Name
    30,                       !- Humidifier Setpoint
    No,                       !- Return Fan
    0.7,                      !- Return Fan Total Efficiency
    500,                      !- Return Fan Delta Pressure
    0.9,                      !- Return Fan Motor Efficiency
    1.0;                      !- Return Fan Motor in Air Stream Fraction

WATERHEATER:MIXED,
    DHW_Heater_SmallOffice,    !- Name
    0.3785,                   !- Tank Volume
    OpenUBEM_DHW_Setpoint,    !- Setpoint Temperature Schedule Name
    0,                        !- Deadband Temperature Difference
    ,                         !- Maximum Temperature Limit
    Cycle,                    !- Heater Control Type
    1000,                     !- Heater Maximum Capacity
    ,                         !- Heater Minimum Capacity
    0,                        !- Heater Ignition Minimum Flow Rate
    0,                        !- Heater Ignition Delay
    Electricity,              !- Heater Fuel Type
    1,                        !- Heater Thermal Efficiency
    ,                         !- Part Load Factor Curve Name
    0,                        !- Off Cycle Parasitic Fuel Consumption Rate
    Electricity,              !- Off Cycle Parasitic Fuel Type
    0,                        !- Off Cycle Parasitic Heat Fraction to Tank
    0,                        !- On Cycle Parasitic Fuel Consumption Rate
    ,                         !- On Cycle Parasitic Fuel Type
    0,                        !- On Cycle Parasitic Heat Fraction to Tank
    Zone,                     !- Ambient Temperature Indicator
    ,                         !- Ambient Temperature Schedule Name
    way/265301955_F0_whole,    !- Ambient Temperature Zone Name
    ,                         !- Ambient Temperature Outdoor Air Node Name
    2.01,                     !- Off Cycle Loss Coefficient to Ambient Temperature
    1,                        !- Off Cycle Loss Fraction to Zone
    2.01,                     !- On Cycle Loss Coefficient to Ambient Temperature
    1,                        !- On Cycle Loss Fraction to Zone
    1.295110e-06,             !- Peak Use Flow Rate
    OpenUBEM_DHW_FlowFrac_SmallOffice,    !- Use Flow Rate Fraction Schedule Name
    ,                         !- Cold Water Supply Temperature Schedule Name
    ,                         !- Use Side Inlet Node Name
    ,                         !- Use Side Outlet Node Name
    1,                        !- Use Side Effectiveness
    ,                         !- Source Side Inlet Node Name
    ,                         !- Source Side Outlet Node Name
    1,                        !- Source Side Effectiveness
    autosize,                 !- Use Side Design Flow Rate
    autosize,                 !- Source Side Design Flow Rate
    1.5,                      !- Indirect Water Heating Recovery Time
    IndirectHeatPrimarySetpoint,    !- Source Side Flow Control Mode
    ,                         !- Indirect Alternate Setpoint Temperature Schedule Name
    DHW;                      !- EndUse Subcategory

WATERUSE:EQUIPMENT,
    DHW_WaterUse_SmallOffice,    !- Name
    DHW,                      !- EndUse Subcategory
    1.295110e-06,             !- Peak Flow Rate
    OpenUBEM_DHW_FlowFrac_SmallOffice,    !- Flow Rate Fraction Schedule Name
    OpenUBEM_DHW_Setpoint,    !- Target Temperature Schedule Name
    ,                         !- Hot Water Supply Temperature Schedule Name
    ,                         !- Cold Water Supply Temperature Schedule Name
    way/265301955_F0_whole,    !- Zone Name
    OpenUBEM_DHW_SensibleFrac,    !- Sensible Fraction Schedule Name
    OpenUBEM_DHW_LatentFrac;    !- Latent Fraction Schedule Name

WATERUSE:CONNECTIONS,
    DHW_WaterConn_SmallOffice,    !- Name
    ,                         !- Inlet Node Name
    ,                         !- Outlet Node Name
    ,                         !- Supply Water Storage Tank Name
    ,                         !- Reclamation Water Storage Tank Name
    OpenUBEM_DHW_Setpoint,    !- Hot Water Supply Temperature Schedule Name
    ,                         !- Cold Water Supply Temperature Schedule Name
    None,                     !- Drain Water Heat Exchanger Type
    Plant,                    !- Drain Water Heat Exchanger Destination
    ,                         !- Drain Water Heat Exchanger UFactor Times Area
    DHW_WaterUse_SmallOffice;    !- Water Use Equipment 1 Name

OUTPUT:TABLE:SUMMARYREPORTS,
    AllSummary;               !- Report 1 Name

OUTPUTCONTROL:TABLE:STYLE,
    HTML,                     !- Column Separator
    None;                     !- Unit Conversion

OUTPUT:VARIABLE,
    *,                        !- Key Value
    Zone Ideal Loads Zone Total Heating Energy,    !- Variable Name
    Hourly;                   !- Reporting Frequency

OUTPUT:VARIABLE,
    *,                        !- Key Value
    Zone Ideal Loads Zone Total Cooling Energy,    !- Variable Name
    Hourly;                   !- Reporting Frequency

OUTPUT:VARIABLE,
    *,                        !- Key Value
    Zone People Occupant Count,    !- Variable Name
    Hourly;                   !- Reporting Frequency

OUTPUT:VARIABLE,
    *,                        !- Key Value
    Zone Lights Electricity Energy,    !- Variable Name
    Hourly;                   !- Reporting Frequency

OUTPUT:VARIABLE,
    *,                        !- Key Value
    Zone Electric Equipment Electricity Energy,    !- Variable Name
    Hourly;                   !- Reporting Frequency

OUTPUT:VARIABLE,
    *,                        !- Key Value
    Zone Infiltration Sensible Heat Loss Energy,    !- Variable Name
    Hourly;                   !- Reporting Frequency

OUTPUT:VARIABLE,
    *,                        !- Key Value
    Zone Mechanical Ventilation Mass Flow Rate,    !- Variable Name
    Hourly;                   !- Reporting Frequency

OUTPUT:VARIABLE,
    *,                        !- Key Value
    Zone Mean Air Temperature,    !- Variable Name
    Hourly;                   !- Reporting Frequency

OUTPUT:VARIABLE,
    *,                        !- Key Value
    Zone Operative Temperature,    !- Variable Name
    Hourly;                   !- Reporting Frequency

OUTPUT:VARIABLE,
    *,                        !- Key Value
    Site Outdoor Air Drybulb Temperature,    !- Variable Name
    Hourly;                   !- Reporting Frequency

OUTPUT:VARIABLE,
    *,                        !- Key Value
    Site Wind Speed,          !- Variable Name
    Hourly;                   !- Reporting Frequency

OUTPUT:METER,
    Cooling:Electricity,      !- Key Name
    RunPeriod;                !- Reporting Frequency

OUTPUT:METER,
    Heating:Electricity,      !- Key Name
    RunPeriod;                !- Reporting Frequency

OUTPUT:METER,
    Heating:NaturalGas,       !- Key Name
    RunPeriod;                !- Reporting Frequency

OUTPUT:METER,
    Fans:Electricity,         !- Key Name
    RunPeriod;                !- Reporting Frequency

OUTPUT:METER,
    Pumps:Electricity,        !- Key Name
    RunPeriod;                !- Reporting Frequency

OUTPUT:METER,
    WaterSystems:NaturalGas,    !- Key Name
    RunPeriod;                !- Reporting Frequency

OUTPUT:METER,
    WaterSystems:Electricity,    !- Key Name
    RunPeriod;                !- Reporting Frequency

OUTPUT:METER,
    Refrigeration:Electricity,    !- Key Name
    RunPeriod;                !- Reporting Frequency

OUTPUT:METER,
    InteriorEquipment:NaturalGas,    !- Key Name
    RunPeriod;                !- Reporting Frequency

OUTPUT:METER,
    Cooking:InteriorEquipment:Electricity,    !- Key Name
    RunPeriod;                !- Reporting Frequency

OUTPUT:METER,
    Refrigeration:InteriorEquipment:Electricity,    !- Key Name
    RunPeriod;                !- Reporting Frequency

OUTPUT:METER,
    InteriorLights:Electricity,    !- Key Name
    RunPeriod;                !- Reporting Frequency

OUTPUT:METER,
    InteriorEquipment:Electricity,    !- Key Name
    RunPeriod;                !- Reporting Frequency

OUTPUT:METER:METERFILEONLY,
    Electricity:Facility,     !- Key Name
    RunPeriod;                !- Reporting Frequency

OUTPUT:METER:METERFILEONLY,
    NaturalGas:Facility,      !- Key Name
    RunPeriod;                !- Reporting Frequency

OUTPUT:SQLITE,
    SimpleAndTabular,         !- Option Type
    UseOutputControlTableStyle;    !- Unit Conversion for Tabular Data