!- Windows Line endings 

Version,
    23.1;                     !- Version Identifier

SimulationControl,
    Yes,                      !- Do Zone Sizing Calculation
    Yes,                      !- Do System Sizing Calculation
    Yes,                      !- Do Plant Sizing Calculation
    No,                       !- Run Simulation for Sizing Periods
    Yes,                      !- Run Simulation for Weather File Run Periods
    No,                       !- Do HVAC Sizing Simulation for Sizing Periods
    1;                        !- Maximum Number of HVAC Sizing Simulation Passes

Building,
    EU S2 Campaign,           !- Name
    0,                        !- North Axis
    City,                     !- Terrain
    ,                         !- Loads Convergence Tolerance Value
    ,                         !- Temperature Convergence Tolerance Value
    FullExterior,             !- Solar Distribution
    ,                         !- Maximum Number of Warmup Days
    ;                         !- Minimum Number of Warmup Days

ShadowCalculation,
    PolygonClipping,          !- Shading Calculation Method
    Periodic,                 !- Shading Calculation Update Frequency Method
    1;                        !- Shading Calculation Update Frequency

HeatBalanceAlgorithm,
    ConductionTransferFunction,    !- Algorithm
    200,                      !- Surface Temperature Upper Limit
    0.1,                      !- Minimum Surface Convection Heat Transfer Coefficient Value
    10000000;                 !- Maximum Surface Convection Heat Transfer Coefficient Value

Timestep,
    12;                       !- Number of Timesteps per Hour

Site:Location,
    London,                   !- Name
    51.5,                     !- Latitude
    -0.5,                     !- Longitude
    0,                        !- Time Zone
    25;                       !- Elevation

SizingPeriod:WeatherFileDays,
    AnnualSizingPeriod,       !- Name
    1,                        !- Begin Month
    1,                        !- Begin Day of Month
    12,                       !- End Month
    31,                       !- End Day of Month
    Monday,                   !- Day of Week for Start Day
    No,                       !- Use Weather File Daylight Saving Period
    No;                       !- Use Weather File Rain and Snow Indicators

RunPeriod,
    RunPeriod1,               !- Name
    1,                        !- Begin Month
    1,                        !- Begin Day of Month
    ,                         !- Begin Year
    12,                       !- End Month
    31,                       !- End Day of Month
    ,                         !- End Year
    Sunday,                   !- Day of Week for Start Day
    No,                       !- Use Weather File Holidays and Special Days
    No,                       !- Use Weather File Daylight Saving Period
    No,                       !- Apply Weekend Holiday Rule
    Yes,                      !- Use Weather File Rain Indicators
    Yes;                      !- Use Weather File Snow Indicators

ScheduleTypeLimits,
    Any Number;               !- Name

SCHEDULETYPELIMITS,
    EU_Step8_AnyNumber_Wm2,    !- Name
    ,                         !- Lower Limit Value
    ,                         !- Upper Limit Value
    Continuous,               !- Numeric Type
    Dimensionless;            !- Unit Type

SCHEDULE:CONSTANT,
    EU_AlwaysOn,              !- Name
    ,                         !- Schedule Type Limits Name
    1;                        !- Hourly Value

SCHEDULE:CONSTANT,
    EU_CoolingOff,            !- Name
    ,                         !- Schedule Type Limits Name
    0;                        !- Hourly Value

SCHEDULE:FILE,
    EU_Step8_GainSchedule_1ad443429865899f_F0_dwelling_0_f000,    !- Name
    EU_Step8_AnyNumber_Wm2,    !- Schedule Type Limits Name
    ../../schedules/1ad443429865899f/1ad443429865899f_F0_dwelling_0_f000_gain.csv,    !- File Name
    1,                        !- Column Number
    0,                        !- Rows to Skip at Top
    8760,                     !- Number of Hours of Data
    Comma,                    !- Column Separator
    No,                       !- Interpolate to Timestep
    60,                       !- Minutes per Item
    Yes;                      !- Adjust Schedule for Daylight Savings

MATERIAL,
    EU_InternalMass_Material,    !- Name
    MediumRough,              !- Roughness
    0.1,                      !- Thickness
    1,                        !- Conductivity
    1800,                     !- Density
    900,                      !- Specific Heat
    0.9,                      !- Thermal Absorptance
    0.7,                      !- Solar Absorptance
    0.7;                      !- Visible Absorptance

MATERIAL:NOMASS,
    EU_wall_NoMass,           !- Name
    MediumRough,              !- Roughness
    0.5555555555555555,       !- Thermal Resistance
    0.9,                      !- Thermal Absorptance
    0.7,                      !- Solar Absorptance
    0.7;                      !- Visible Absorptance

MATERIAL:NOMASS,
    EU_roof_NoMass,           !- Name
    MediumRough,              !- Roughness
    0.5102040816326531,       !- Thermal Resistance
    0.9,                      !- Thermal Absorptance
    0.7,                      !- Solar Absorptance
    0.7;                      !- Visible Absorptance

MATERIAL:NOMASS,
    EU_floor_NoMass,          !- Name
    MediumRough,              !- Roughness
    1.6891891891891893,       !- Thermal Resistance
    0.9,                      !- Thermal Absorptance
    0.7,                      !- Solar Absorptance
    0.7;                      !- Visible Absorptance

CONSTRUCTION,
    EU_wall_Construction,     !- Name
    EU_wall_NoMass;           !- Outside Layer

CONSTRUCTION,
    EU_roof_Construction,     !- Name
    EU_roof_NoMass;           !- Outside Layer

CONSTRUCTION,
    EU_floor_Construction,    !- Name
    EU_floor_NoMass;          !- Outside Layer

CONSTRUCTION,
    EU_InternalMass_Construction,    !- Name
    EU_InternalMass_Material;    !- Outside Layer

GlobalGeometryRules,
    UpperLeftCorner,          !- Starting Vertex Position
    CounterClockWise,         !- Vertex Entry Direction
    World;                    !- Coordinate System

ZONE,
    1ad443429865899f_F0_dwelling_0,    !- Name
    0,                        !- Direction of Relative North
    0,                        !- X Origin
    0,                        !- Y Origin
    0,                        !- Z Origin
    1,                        !- Type
    1,                        !- Multiplier
    autocalculate,            !- Ceiling Height
    367.412109375,            !- Volume
    autocalculate,            !- Floor Area
    ,                         !- Zone Inside Convection Algorithm
    ,                         !- Zone Outside Convection Algorithm
    Yes;                      !- Part of Total Floor Area

BUILDINGSURFACE:DETAILED,
    Block 1ad443429865899f_0 Storey 0 Wall 0001,    !- Name
    wall,                     !- Surface Type
    EU_wall_Construction,     !- Construction Name
    1ad443429865899f_F0_dwelling_0,    !- Zone Name
    ,                         !- Space Name
    outdoors,                 !- Outside Boundary Condition
    ,                         !- Outside Boundary Condition Object
    SunExposed,               !- Sun Exposure
    WindExposed,              !- Wind Exposure
    autocalculate,            !- View Factor to Ground
    autocalculate,            !- Number of Vertices
    704824.14,                !- Vertex 1 Xcoordinate
    5711861.9,                !- Vertex 1 Ycoordinate
    6,                        !- Vertex 1 Zcoordinate
    704824.14,                !- Vertex 2 Xcoordinate
    5711861.9,                !- Vertex 2 Ycoordinate
    0,                        !- Vertex 2 Zcoordinate
    704821.821,               !- Vertex 3 Xcoordinate
    5711860.503,              !- Vertex 3 Ycoordinate
    0,                        !- Vertex 3 Zcoordinate
    704821.821,               !- Vertex 4 Xcoordinate
    5711860.503,              !- Vertex 4 Ycoordinate
    6;                        !- Vertex 4 Zcoordinate

BUILDINGSURFACE:DETAILED,
    Block 1ad443429865899f_0 Storey 0 Wall 0002,    !- Name
    wall,                     !- Surface Type
    EU_wall_Construction,     !- Construction Name
    1ad443429865899f_F0_dwelling_0,    !- Zone Name
    ,                         !- Space Name
    Adiabatic,                !- Outside Boundary Condition
    ,                         !- Outside Boundary Condition Object
    NoSun,                    !- Sun Exposure
    NoWind,                   !- Wind Exposure
    autocalculate,            !- View Factor to Ground
    autocalculate,            !- Number of Vertices
    704821.821,               !- Vertex 1 Xcoordinate
    5711860.503,              !- Vertex 1 Ycoordinate
    6,                        !- Vertex 1 Zcoordinate
    704821.821,               !- Vertex 2 Xcoordinate
    5711860.503,              !- Vertex 2 Ycoordinate
    0,                        !- Vertex 2 Zcoordinate
    704813.334,               !- Vertex 3 Xcoordinate
    5711874.192,              !- Vertex 3 Ycoordinate
    0,                        !- Vertex 3 Zcoordinate
    704813.334,               !- Vertex 4 Xcoordinate
    5711874.192,              !- Vertex 4 Ycoordinate
    6;                        !- Vertex 4 Zcoordinate

BUILDINGSURFACE:DETAILED,
    Block 1ad443429865899f_0 Storey 0 Wall 0003,    !- Name
    wall,                     !- Surface Type
    EU_wall_Construction,     !- Construction Name
    1ad443429865899f_F0_dwelling_0,    !- Zone Name
    ,                         !- Space Name
    outdoors,                 !- Outside Boundary Condition
    ,                         !- Outside Boundary Condition Object
    SunExposed,               !- Sun Exposure
    WindExposed,              !- Wind Exposure
    autocalculate,            !- View Factor to Ground
    autocalculate,            !- Number of Vertices
    704813.334,               !- Vertex 1 Xcoordinate
    5711874.192,              !- Vertex 1 Ycoordinate
    6,                        !- Vertex 1 Zcoordinate
    704813.334,               !- Vertex 2 Xcoordinate
    5711874.192,              !- Vertex 2 Ycoordinate
    0,                        !- Vertex 2 Zcoordinate
    704817.399,               !- Vertex 3 Xcoordinate
    5711876.594,              !- Vertex 3 Ycoordinate
    0,                        !- Vertex 3 Zcoordinate
    704817.399,               !- Vertex 4 Xcoordinate
    5711876.594,              !- Vertex 4 Ycoordinate
    6;                        !- Vertex 4 Zcoordinate

BUILDINGSURFACE:DETAILED,
    Block 1ad443429865899f_0 Storey 0 Wall 0004,    !- Name
    wall,                     !- Surface Type
    EU_wall_Construction,     !- Construction Name
    1ad443429865899f_F0_dwelling_0,    !- Zone Name
    ,                         !- Space Name
    Adiabatic,                !- Outside Boundary Condition
    ,                         !- Outside Boundary Condition Object
    NoSun,                    !- Sun Exposure
    NoWind,                   !- Wind Exposure
    autocalculate,            !- View Factor to Ground
    autocalculate,            !- Number of Vertices
    704817.399,               !- Vertex 1 Xcoordinate
    5711876.594,              !- Vertex 1 Ycoordinate
    6,                        !- Vertex 1 Zcoordinate
    704817.399,               !- Vertex 2 Xcoordinate
    5711876.594,              !- Vertex 2 Ycoordinate
    0,                        !- Vertex 2 Zcoordinate
    704821.964,               !- Vertex 3 Xcoordinate
    5711869.184,              !- Vertex 3 Ycoordinate
    0,                        !- Vertex 3 Zcoordinate
    704821.964,               !- Vertex 4 Xcoordinate
    5711869.184,              !- Vertex 4 Ycoordinate
    6;                        !- Vertex 4 Zcoordinate

BUILDINGSURFACE:DETAILED,
    Block 1ad443429865899f_0 Storey 0 Wall 0005,    !- Name
    wall,                     !- Surface Type
    EU_wall_Construction,     !- Construction Name
    1ad443429865899f_F0_dwelling_0,    !- Zone Name
    ,                         !- Space Name
    outdoors,                 !- Outside Boundary Condition
    ,                         !- Outside Boundary Condition Object
    SunExposed,               !- Sun Exposure
    WindExposed,              !- Wind Exposure
    autocalculate,            !- View Factor to Ground
    autocalculate,            !- Number of Vertices
    704821.964,               !- Vertex 1 Xcoordinate
    5711869.184,              !- Vertex 1 Ycoordinate
    6,                        !- Vertex 1 Zcoordinate
    704821.964,               !- Vertex 2 Xcoordinate
    5711869.184,              !- Vertex 2 Ycoordinate
    0,                        !- Vertex 2 Zcoordinate
    704820.3,                 !- Vertex 3 Xcoordinate
    5711868.237,              !- Vertex 3 Ycoordinate
    0,                        !- Vertex 3 Zcoordinate
    704820.3,                 !- Vertex 4 Xcoordinate
    5711868.237,              !- Vertex 4 Ycoordinate
    6;                        !- Vertex 4 Zcoordinate

BUILDINGSURFACE:DETAILED,
    Block 1ad443429865899f_0 Storey 0 Wall 0006,    !- Name
    wall,                     !- Surface Type
    EU_wall_Construction,     !- Construction Name
    1ad443429865899f_F0_dwelling_0,    !- Zone Name
    ,                         !- Space Name
    outdoors,                 !- Outside Boundary Condition
    ,                         !- Outside Boundary Condition Object
    SunExposed,               !- Sun Exposure
    WindExposed,              !- Wind Exposure
    autocalculate,            !- View Factor to Ground
    autocalculate,            !- Number of Vertices
    704820.3,                 !- Vertex 1 Xcoordinate
    5711868.237,              !- Vertex 1 Ycoordinate
    6,                        !- Vertex 1 Zcoordinate
    704820.3,                 !- Vertex 2 Xcoordinate
    5711868.237,              !- Vertex 2 Ycoordinate
    0,                        !- Vertex 2 Zcoordinate
    704824.14,                !- Vertex 3 Xcoordinate
    5711861.9,                !- Vertex 3 Ycoordinate
    0,                        !- Vertex 3 Zcoordinate
    704824.14,                !- Vertex 4 Xcoordinate
    5711861.9,                !- Vertex 4 Ycoordinate
    6;                        !- Vertex 4 Zcoordinate

BUILDINGSURFACE:DETAILED,
    Block 1ad443429865899f_0 Storey 0 Floor 0001,    !- Name
    floor,                    !- Surface Type
    EU_floor_Construction,    !- Construction Name
    1ad443429865899f_F0_dwelling_0,    !- Zone Name
    ,                         !- Space Name
    ground,                   !- Outside Boundary Condition
    ,                         !- Outside Boundary Condition Object
    NoSun,                    !- Sun Exposure
    NoWind,                   !- Wind Exposure
    autocalculate,            !- View Factor to Ground
    autocalculate,            !- Number of Vertices
    704824.14,                !- Vertex 1 Xcoordinate
    5711861.9,                !- Vertex 1 Ycoordinate
    0,                        !- Vertex 1 Zcoordinate
    704820.3,                 !- Vertex 2 Xcoordinate
    5711868.237,              !- Vertex 2 Ycoordinate
    0,                        !- Vertex 2 Zcoordinate
    704821.964,               !- Vertex 3 Xcoordinate
    5711869.184,              !- Vertex 3 Ycoordinate
    0,                        !- Vertex 3 Zcoordinate
    704817.399,               !- Vertex 4 Xcoordinate
    5711876.594,              !- Vertex 4 Ycoordinate
    0,                        !- Vertex 4 Zcoordinate
    704813.334,               !- Vertex 5 Xcoordinate
    5711874.192,              !- Vertex 5 Ycoordinate
    0,                        !- Vertex 5 Zcoordinate
    704821.821,               !- Vertex 6 Xcoordinate
    5711860.503,              !- Vertex 6 Ycoordinate
    0;                        !- Vertex 6 Zcoordinate

BUILDINGSURFACE:DETAILED,
    Block 1ad443429865899f_0 Storey 0 Roof 0001,    !- Name
    roof,                     !- Surface Type
    EU_roof_Construction,     !- Construction Name
    1ad443429865899f_F0_dwelling_0,    !- Zone Name
    ,                         !- Space Name
    outdoors,                 !- Outside Boundary Condition
    ,                         !- Outside Boundary Condition Object
    NoSun,                    !- Sun Exposure
    WindExposed,              !- Wind Exposure
    autocalculate,            !- View Factor to Ground
    autocalculate,            !- Number of Vertices
    704817.399,               !- Vertex 1 Xcoordinate
    5711876.594,              !- Vertex 1 Ycoordinate
    6,                        !- Vertex 1 Zcoordinate
    704821.964,               !- Vertex 2 Xcoordinate
    5711869.184,              !- Vertex 2 Ycoordinate
    6,                        !- Vertex 2 Zcoordinate
    704820.3,                 !- Vertex 3 Xcoordinate
    5711868.237,              !- Vertex 3 Ycoordinate
    6,                        !- Vertex 3 Zcoordinate
    704824.14,                !- Vertex 4 Xcoordinate
    5711861.9,                !- Vertex 4 Ycoordinate
    6,                        !- Vertex 4 Zcoordinate
    704821.821,               !- Vertex 5 Xcoordinate
    5711860.503,              !- Vertex 5 Ycoordinate
    6,                        !- Vertex 5 Zcoordinate
    704813.334,               !- Vertex 6 Xcoordinate
    5711874.192,              !- Vertex 6 Ycoordinate
    6;                        !- Vertex 6 Zcoordinate

INTERNALMASS,
    1ad443429865899f_F0_dwelling_0_EU_InternalMass,    !- Name
    EU_InternalMass_Construction,    !- Construction Name
    1ad443429865899f_F0_dwelling_0,    !- Zone or ZoneList Name
    ,                         !- Space or SpaceList Name
    61.235087000842206;       !- Surface Area

SHADING:SITE:DETAILED,
    shade_way/1432575698_1,    !- Name
    ,                         !- Transmittance Schedule Name
    autocalculate,            !- Number of Vertices
    704796.9601330992,        !- Vertex 1 Xcoordinate
    5711864.590062569,        !- Vertex 1 Ycoordinate
    6,                        !- Vertex 1 Zcoordinate
    704796.9601330992,        !- Vertex 2 Xcoordinate
    5711864.590062569,        !- Vertex 2 Ycoordinate
    0,                        !- Vertex 2 Zcoordinate
    704804.5027563614,        !- Vertex 3 Xcoordinate
    5711852.019199857,        !- Vertex 3 Ycoordinate
    0,                        !- Vertex 3 Zcoordinate
    704804.5027563614,        !- Vertex 4 Xcoordinate
    5711852.019199857,        !- Vertex 4 Ycoordinate
    6;                        !- Vertex 4 Zcoordinate

SHADING:SITE:DETAILED,
    shade_way/1432575698_2,    !- Name
    ,                         !- Transmittance Schedule Name
    autocalculate,            !- Number of Vertices
    704804.5027563614,        !- Vertex 1 Xcoordinate
    5711852.019199857,        !- Vertex 1 Ycoordinate
    6,                        !- Vertex 1 Zcoordinate
    704804.5027563614,        !- Vertex 2 Xcoordinate
    5711852.019199857,        !- Vertex 2 Ycoordinate
    0,                        !- Vertex 2 Zcoordinate
    704798.192018544,         !- Vertex 3 Xcoordinate
    5711848.232925306,        !- Vertex 3 Ycoordinate
    0,                        !- Vertex 3 Zcoordinate
    704798.192018544,         !- Vertex 4 Xcoordinate
    5711848.232925306,        !- Vertex 4 Ycoordinate
    6;                        !- Vertex 4 Zcoordinate

SHADING:SITE:DETAILED,
    shade_way/1432575698_3,    !- Name
    ,                         !- Transmittance Schedule Name
    autocalculate,            !- Number of Vertices
    704798.192018544,         !- Vertex 1 Xcoordinate
    5711848.232925306,        !- Vertex 1 Ycoordinate
    6,                        !- Vertex 1 Zcoordinate
    704798.192018544,         !- Vertex 2 Xcoordinate
    5711848.232925306,        !- Vertex 2 Ycoordinate
    0,                        !- Vertex 2 Zcoordinate
    704790.6494145795,        !- Vertex 3 Xcoordinate
    5711860.803185436,        !- Vertex 3 Ycoordinate
    0,                        !- Vertex 3 Zcoordinate
    704790.6494145795,        !- Vertex 4 Xcoordinate
    5711860.803185436,        !- Vertex 4 Ycoordinate
    6;                        !- Vertex 4 Zcoordinate

SHADING:SITE:DETAILED,
    shade_way/1432575698_4,    !- Name
    ,                         !- Transmittance Schedule Name
    autocalculate,            !- Number of Vertices
    704790.6494145795,        !- Vertex 1 Xcoordinate
    5711860.803185436,        !- Vertex 1 Ycoordinate
    6,                        !- Vertex 1 Zcoordinate
    704790.6494145795,        !- Vertex 2 Xcoordinate
    5711860.803185436,        !- Vertex 2 Ycoordinate
    0,                        !- Vertex 2 Zcoordinate
    704796.9601330992,        !- Vertex 3 Xcoordinate
    5711864.590062569,        !- Vertex 3 Ycoordinate
    0,                        !- Vertex 3 Zcoordinate
    704796.9601330992,        !- Vertex 4 Xcoordinate
    5711864.590062569,        !- Vertex 4 Ycoordinate
    6;                        !- Vertex 4 Zcoordinate

SHADING:SITE:DETAILED,
    shade_way/1432575697_1,    !- Name
    ,                         !- Transmittance Schedule Name
    autocalculate,            !- Number of Vertices
    704804.5286081504,        !- Vertex 1 Xcoordinate
    5711851.976400333,        !- Vertex 1 Ycoordinate
    6,                        !- Vertex 1 Zcoordinate
    704804.5286081504,        !- Vertex 2 Xcoordinate
    5711851.976400333,        !- Vertex 2 Ycoordinate
    0,                        !- Vertex 2 Zcoordinate
    704796.9872066213,        !- Vertex 3 Xcoordinate
    5711864.544656477,        !- Vertex 3 Ycoordinate
    0,                        !- Vertex 3 Zcoordinate
    704796.9872066213,        !- Vertex 4 Xcoordinate
    5711864.544656477,        !- Vertex 4 Ycoordinate
    6;                        !- Vertex 4 Zcoordinate

SHADING:SITE:DETAILED,
    shade_way/1432575697_2,    !- Name
    ,                         !- Transmittance Schedule Name
    autocalculate,            !- Number of Vertices
    704796.9872066213,        !- Vertex 1 Xcoordinate
    5711864.544656477,        !- Vertex 1 Ycoordinate
    6,                        !- Vertex 1 Zcoordinate
    704796.9872066213,        !- Vertex 2 Xcoordinate
    5711864.544656477,        !- Vertex 2 Ycoordinate
    0,                        !- Vertex 2 Zcoordinate
    704801.2703626035,        !- Vertex 3 Xcoordinate
    5711867.1149514485,       !- Vertex 3 Ycoordinate
    0,                        !- Vertex 3 Zcoordinate
    704801.2703626035,        !- Vertex 4 Xcoordinate
    5711867.1149514485,       !- Vertex 4 Ycoordinate
    6;                        !- Vertex 4 Zcoordinate

SHADING:SITE:DETAILED,
    shade_way/1432575697_3,    !- Name
    ,                         !- Transmittance Schedule Name
    autocalculate,            !- Number of Vertices
    704801.2703626035,        !- Vertex 1 Xcoordinate
    5711867.1149514485,       !- Vertex 1 Ycoordinate
    6,                        !- Vertex 1 Zcoordinate
    704801.2703626035,        !- Vertex 2 Xcoordinate
    5711867.1149514485,       !- Vertex 2 Ycoordinate
    0,                        !- Vertex 2 Zcoordinate
    704808.8117737805,        !- Vertex 3 Xcoordinate
    5711854.546394015,        !- Vertex 3 Ycoordinate
    0,                        !- Vertex 3 Zcoordinate
    704808.8117737805,        !- Vertex 4 Xcoordinate
    5711854.546394015,        !- Vertex 4 Ycoordinate
    6;                        !- Vertex 4 Zcoordinate

SHADING:SITE:DETAILED,
    shade_way/1432575697_4,    !- Name
    ,                         !- Transmittance Schedule Name
    autocalculate,            !- Number of Vertices
    704808.8117737805,        !- Vertex 1 Xcoordinate
    5711854.546394015,        !- Vertex 1 Ycoordinate
    6,                        !- Vertex 1 Zcoordinate
    704808.8117737805,        !- Vertex 2 Xcoordinate
    5711854.546394015,        !- Vertex 2 Ycoordinate
    0,                        !- Vertex 2 Zcoordinate
    704804.5286081504,        !- Vertex 3 Xcoordinate
    5711851.976400333,        !- Vertex 3 Ycoordinate
    0,                        !- Vertex 3 Zcoordinate
    704804.5286081504,        !- Vertex 4 Xcoordinate
    5711851.976400333,        !- Vertex 4 Ycoordinate
    6;                        !- Vertex 4 Zcoordinate

SHADING:SITE:DETAILED,
    shade_way/1432575696_1,    !- Name
    ,                         !- Transmittance Schedule Name
    autocalculate,            !- Number of Vertices
    704805.1571055823,        !- Vertex 1 Xcoordinate
    5711869.539744231,        !- Vertex 1 Ycoordinate
    6,                        !- Vertex 1 Zcoordinate
    704805.1571055823,        !- Vertex 2 Xcoordinate
    5711869.539744231,        !- Vertex 2 Ycoordinate
    0,                        !- Vertex 2 Zcoordinate
    704813.6840915038,        !- Vertex 3 Xcoordinate
    5711856.053668276,        !- Vertex 3 Ycoordinate
    0,                        !- Vertex 3 Zcoordinate
    704813.6840915038,        !- Vertex 4 Xcoordinate
    5711856.053668276,        !- Vertex 4 Ycoordinate
    6;                        !- Vertex 4 Zcoordinate

SHADING:SITE:DETAILED,
    shade_way/1432575696_2,    !- Name
    ,                         !- Transmittance Schedule Name
    autocalculate,            !- Number of Vertices
    704813.6840915038,        !- Vertex 1 Xcoordinate
    5711856.053668276,        !- Vertex 1 Ycoordinate
    6,                        !- Vertex 1 Zcoordinate
    704813.6840915038,        !- Vertex 2 Xcoordinate
    5711856.053668276,        !- Vertex 2 Ycoordinate
    0,                        !- Vertex 2 Zcoordinate
    704809.565640668,         !- Vertex 3 Xcoordinate
    5711853.44954157,         !- Vertex 3 Ycoordinate
    0,                        !- Vertex 3 Zcoordinate
    704809.565640668,         !- Vertex 4 Xcoordinate
    5711853.44954157,         !- Vertex 4 Ycoordinate
    6;                        !- Vertex 4 Zcoordinate

SHADING:SITE:DETAILED,
    shade_way/1432575696_3,    !- Name
    ,                         !- Transmittance Schedule Name
    autocalculate,            !- Number of Vertices
    704809.565640668,         !- Vertex 1 Xcoordinate
    5711853.44954157,         !- Vertex 1 Ycoordinate
    6,                        !- Vertex 1 Zcoordinate
    704809.565640668,         !- Vertex 2 Xcoordinate
    5711853.44954157,         !- Vertex 2 Ycoordinate
    0,                        !- Vertex 2 Zcoordinate
    704801.038260993,         !- Vertex 3 Xcoordinate
    5711866.935431643,        !- Vertex 3 Ycoordinate
    0,                        !- Vertex 3 Zcoordinate
    704801.038260993,         !- Vertex 4 Xcoordinate
    5711866.935431643,        !- Vertex 4 Ycoordinate
    6;                        !- Vertex 4 Zcoordinate

SHADING:SITE:DETAILED,
    shade_way/1432575696_4,    !- Name
    ,                         !- Transmittance Schedule Name
    autocalculate,            !- Number of Vertices
    704801.038260993,         !- Vertex 1 Xcoordinate
    5711866.935431643,        !- Vertex 1 Ycoordinate
    6,                        !- Vertex 1 Zcoordinate
    704801.038260993,         !- Vertex 2 Xcoordinate
    5711866.935431643,        !- Vertex 2 Ycoordinate
    0,                        !- Vertex 2 Zcoordinate
    704805.1571055823,        !- Vertex 3 Xcoordinate
    5711869.539744231,        !- Vertex 3 Ycoordinate
    0,                        !- Vertex 3 Zcoordinate
    704805.1571055823,        !- Vertex 4 Xcoordinate
    5711869.539744231,        !- Vertex 4 Ycoordinate
    6;                        !- Vertex 4 Zcoordinate

SHADING:SITE:DETAILED,
    shade_way/1432575695_1,    !- Name
    ,                         !- Transmittance Schedule Name
    autocalculate,            !- Number of Vertices
    704813.7456193687,        !- Vertex 1 Xcoordinate
    5711855.956764507,        !- Vertex 1 Ycoordinate
    6,                        !- Vertex 1 Zcoordinate
    704813.7456193687,        !- Vertex 2 Xcoordinate
    5711855.956764507,        !- Vertex 2 Ycoordinate
    0,                        !- Vertex 2 Zcoordinate
    704805.2387626905,        !- Vertex 3 Xcoordinate
    5711869.410196876,        !- Vertex 3 Ycoordinate
    0,                        !- Vertex 3 Zcoordinate
    704805.2387626905,        !- Vertex 4 Xcoordinate
    5711869.410196876,        !- Vertex 4 Ycoordinate
    6;                        !- Vertex 4 Zcoordinate

SHADING:SITE:DETAILED,
    shade_way/1432575695_2,    !- Name
    ,                         !- Transmittance Schedule Name
    autocalculate,            !- Number of Vertices
    704805.2387626905,        !- Vertex 1 Xcoordinate
    5711869.410196876,        !- Vertex 1 Ycoordinate
    6,                        !- Vertex 1 Zcoordinate
    704805.2387626905,        !- Vertex 2 Xcoordinate
    5711869.410196876,        !- Vertex 2 Ycoordinate
    0,                        !- Vertex 2 Zcoordinate
    704809.2917450854,        !- Vertex 3 Xcoordinate
    5711871.972864819,        !- Vertex 3 Ycoordinate
    0,                        !- Vertex 3 Zcoordinate
    704809.2917450854,        !- Vertex 4 Xcoordinate
    5711871.972864819,        !- Vertex 4 Ycoordinate
    6;                        !- Vertex 4 Zcoordinate

SHADING:SITE:DETAILED,
    shade_way/1432575695_3,    !- Name
    ,                         !- Transmittance Schedule Name
    autocalculate,            !- Number of Vertices
    704809.2917450854,        !- Vertex 1 Xcoordinate
    5711871.972864819,        !- Vertex 1 Ycoordinate
    6,                        !- Vertex 1 Zcoordinate
    704809.2917450854,        !- Vertex 2 Xcoordinate
    5711871.972864819,        !- Vertex 2 Ycoordinate
    0,                        !- Vertex 2 Zcoordinate
    704817.7984048867,        !- Vertex 3 Xcoordinate
    5711858.519339509,        !- Vertex 3 Ycoordinate
    0,                        !- Vertex 3 Zcoordinate
    704817.7984048867,        !- Vertex 4 Xcoordinate
    5711858.519339509,        !- Vertex 4 Ycoordinate
    6;                        !- Vertex 4 Zcoordinate

SHADING:SITE:DETAILED,
    shade_way/1432575695_4,    !- Name
    ,                         !- Transmittance Schedule Name
    autocalculate,            !- Number of Vertices
    704817.7984048867,        !- Vertex 1 Xcoordinate
    5711858.519339509,        !- Vertex 1 Ycoordinate
    6,                        !- Vertex 1 Zcoordinate
    704817.7984048867,        !- Vertex 2 Xcoordinate
    5711858.519339509,        !- Vertex 2 Ycoordinate
    0,                        !- Vertex 2 Zcoordinate
    704813.7456193687,        !- Vertex 3 Xcoordinate
    5711855.956764507,        !- Vertex 3 Ycoordinate
    0,                        !- Vertex 3 Zcoordinate
    704813.7456193687,        !- Vertex 4 Xcoordinate
    5711855.956764507,        !- Vertex 4 Ycoordinate
    6;                        !- Vertex 4 Zcoordinate

SHADING:SITE:DETAILED,
    shade_way/1432575692_1,    !- Name
    ,                         !- Transmittance Schedule Name
    autocalculate,            !- Number of Vertices
    704821.7087458053,        !- Vertex 1 Xcoordinate
    5711879.196260476,        !- Vertex 1 Ycoordinate
    6,                        !- Vertex 1 Zcoordinate
    704821.7087458053,        !- Vertex 2 Xcoordinate
    5711879.196260476,        !- Vertex 2 Ycoordinate
    0,                        !- Vertex 2 Zcoordinate
    704829.7157401587,        !- Vertex 3 Xcoordinate
    5711865.932824379,        !- Vertex 3 Ycoordinate
    0,                        !- Vertex 3 Zcoordinate
    704829.7157401587,        !- Vertex 4 Xcoordinate
    5711865.932824379,        !- Vertex 4 Ycoordinate
    6;                        !- Vertex 4 Zcoordinate

SHADING:SITE:DETAILED,
    shade_way/1432575692_2,    !- Name
    ,                         !- Transmittance Schedule Name
    autocalculate,            !- Number of Vertices
    704829.7157401587,        !- Vertex 1 Xcoordinate
    5711865.932824379,        !- Vertex 1 Ycoordinate
    6,                        !- Vertex 1 Zcoordinate
    704829.7157401587,        !- Vertex 2 Xcoordinate
    5711865.932824379,        !- Vertex 2 Ycoordinate
    0,                        !- Vertex 2 Zcoordinate
    704825.4068378727,        !- Vertex 3 Xcoordinate
    5711863.331169407,        !- Vertex 3 Ycoordinate
    0,                        !- Vertex 3 Zcoordinate
    704825.4068378727,        !- Vertex 4 Xcoordinate
    5711863.331169407,        !- Vertex 4 Ycoordinate
    6;                        !- Vertex 4 Zcoordinate

SHADING:SITE:DETAILED,
    shade_way/1432575692_3,    !- Name
    ,                         !- Transmittance Schedule Name
    autocalculate,            !- Number of Vertices
    704825.4068378727,        !- Vertex 1 Xcoordinate
    5711863.331169407,        !- Vertex 1 Ycoordinate
    6,                        !- Vertex 1 Zcoordinate
    704825.4068378727,        !- Vertex 2 Xcoordinate
    5711863.331169407,        !- Vertex 2 Ycoordinate
    0,                        !- Vertex 2 Zcoordinate
    704817.398379168,         !- Vertex 3 Xcoordinate
    5711876.5939508565,       !- Vertex 3 Ycoordinate
    0,                        !- Vertex 3 Zcoordinate
    704817.398379168,         !- Vertex 4 Xcoordinate
    5711876.5939508565,       !- Vertex 4 Ycoordinate
    6;                        !- Vertex 4 Zcoordinate

SHADING:SITE:DETAILED,
    shade_way/1432575692_4,    !- Name
    ,                         !- Transmittance Schedule Name
    autocalculate,            !- Number of Vertices
    704817.398379168,         !- Vertex 1 Xcoordinate
    5711876.5939508565,       !- Vertex 1 Ycoordinate
    6,                        !- Vertex 1 Zcoordinate
    704817.398379168,         !- Vertex 2 Xcoordinate
    5711876.5939508565,       !- Vertex 2 Ycoordinate
    0,                        !- Vertex 2 Zcoordinate
    704821.7087458053,        !- Vertex 3 Xcoordinate
    5711879.196260476,        !- Vertex 3 Ycoordinate
    0,                        !- Vertex 3 Zcoordinate
    704821.7087458053,        !- Vertex 4 Xcoordinate
    5711879.196260476,        !- Vertex 4 Ycoordinate
    6;                        !- Vertex 4 Zcoordinate

SHADING:SITE:DETAILED,
    shade_way/396524529_1,    !- Name
    ,                         !- Transmittance Schedule Name
    autocalculate,            !- Number of Vertices
    704829.7157401587,        !- Vertex 1 Xcoordinate
    5711865.932824379,        !- Vertex 1 Ycoordinate
    6,                        !- Vertex 1 Zcoordinate
    704829.7157401587,        !- Vertex 2 Xcoordinate
    5711865.932824379,        !- Vertex 2 Ycoordinate
    0,                        !- Vertex 2 Zcoordinate
    704821.734443767,         !- Vertex 3 Xcoordinate
    5711879.152157206,        !- Vertex 3 Ycoordinate
    0,                        !- Vertex 3 Zcoordinate
    704821.734443767,         !- Vertex 4 Xcoordinate
    5711879.152157206,        !- Vertex 4 Ycoordinate
    6;                        !- Vertex 4 Zcoordinate

SHADING:SITE:DETAILED,
    shade_way/396524529_2,    !- Name
    ,                         !- Transmittance Schedule Name
    autocalculate,            !- Number of Vertices
    704821.734443767,         !- Vertex 1 Xcoordinate
    5711879.152157206,        !- Vertex 1 Ycoordinate
    6,                        !- Vertex 1 Zcoordinate
    704821.734443767,         !- Vertex 2 Xcoordinate
    5711879.152157206,        !- Vertex 2 Ycoordinate
    0,                        !- Vertex 2 Zcoordinate
    704826.1777250353,        !- Vertex 3 Xcoordinate
    5711881.8347152835,       !- Vertex 3 Ycoordinate
    0,                        !- Vertex 3 Zcoordinate
    704826.1777250353,        !- Vertex 4 Xcoordinate
    5711881.8347152835,       !- Vertex 4 Ycoordinate
    6;                        !- Vertex 4 Zcoordinate

SHADING:SITE:DETAILED,
    shade_way/396524529_3,    !- Name
    ,                         !- Transmittance Schedule Name
    autocalculate,            !- Number of Vertices
    704826.1777250353,        !- Vertex 1 Xcoordinate
    5711881.8347152835,       !- Vertex 1 Ycoordinate
    6,                        !- Vertex 1 Zcoordinate
    704826.1777250353,        !- Vertex 2 Xcoordinate
    5711881.8347152835,       !- Vertex 2 Ycoordinate
    0,                        !- Vertex 2 Zcoordinate
    704834.159021426,         !- Vertex 3 Xcoordinate
    5711868.615382454,        !- Vertex 3 Ycoordinate
    0,                        !- Vertex 3 Zcoordinate
    704834.159021426,         !- Vertex 4 Xcoordinate
    5711868.615382454,        !- Vertex 4 Ycoordinate
    6;                        !- Vertex 4 Zcoordinate

SHADING:SITE:DETAILED,
    shade_way/396524529_4,    !- Name
    ,                         !- Transmittance Schedule Name
    autocalculate,            !- Number of Vertices
    704834.159021426,         !- Vertex 1 Xcoordinate
    5711868.615382454,        !- Vertex 1 Ycoordinate
    6,                        !- Vertex 1 Zcoordinate
    704834.159021426,         !- Vertex 2 Xcoordinate
    5711868.615382454,        !- Vertex 2 Ycoordinate
    0,                        !- Vertex 2 Zcoordinate
    704829.7157401587,        !- Vertex 3 Xcoordinate
    5711865.932824379,        !- Vertex 3 Ycoordinate
    0,                        !- Vertex 3 Zcoordinate
    704829.7157401587,        !- Vertex 4 Xcoordinate
    5711865.932824379,        !- Vertex 4 Ycoordinate
    6;                        !- Vertex 4 Zcoordinate

SHADING:SITE:DETAILED,
    shade_way/396524531_1,    !- Name
    ,                         !- Transmittance Schedule Name
    autocalculate,            !- Number of Vertices
    704825.488641027,         !- Vertex 1 Xcoordinate
    5711882.96593908,         !- Vertex 1 Ycoordinate
    6,                        !- Vertex 1 Zcoordinate
    704825.488641027,         !- Vertex 2 Xcoordinate
    5711882.96593908,         !- Vertex 2 Ycoordinate
    0,                        !- Vertex 2 Zcoordinate
    704829.6743499927,        !- Vertex 3 Xcoordinate
    5711885.424463188,        !- Vertex 3 Ycoordinate
    0,                        !- Vertex 3 Zcoordinate
    704829.6743499927,        !- Vertex 4 Xcoordinate
    5711885.424463188,        !- Vertex 4 Ycoordinate
    6;                        !- Vertex 4 Zcoordinate

SHADING:SITE:DETAILED,
    shade_way/396524531_2,    !- Name
    ,                         !- Transmittance Schedule Name
    autocalculate,            !- Number of Vertices
    704829.6743499927,        !- Vertex 1 Xcoordinate
    5711885.424463188,        !- Vertex 1 Ycoordinate
    6,                        !- Vertex 1 Zcoordinate
    704829.6743499927,        !- Vertex 2 Xcoordinate
    5711885.424463188,        !- Vertex 2 Ycoordinate
    0,                        !- Vertex 2 Zcoordinate
    704833.4541828888,        !- Vertex 3 Xcoordinate
    5711878.990592171,        !- Vertex 3 Ycoordinate
    0,                        !- Vertex 3 Zcoordinate
    704833.4541828888,        !- Vertex 4 Xcoordinate
    5711878.990592171,        !- Vertex 4 Ycoordinate
    6;                        !- Vertex 4 Zcoordinate

SHADING:SITE:DETAILED,
    shade_way/396524531_3,    !- Name
    ,                         !- Transmittance Schedule Name
    autocalculate,            !- Number of Vertices
    704833.4541828888,        !- Vertex 1 Xcoordinate
    5711878.990592171,        !- Vertex 1 Ycoordinate
    6,                        !- Vertex 1 Zcoordinate
    704833.4541828888,        !- Vertex 2 Xcoordinate
    5711878.990592171,        !- Vertex 2 Ycoordinate
    0,                        !- Vertex 2 Zcoordinate
    704829.267816036,         !- Vertex 3 Xcoordinate
    5711876.531783456,        !- Vertex 3 Ycoordinate
    0,                        !- Vertex 3 Zcoordinate
    704829.267816036,         !- Vertex 4 Xcoordinate
    5711876.531783456,        !- Vertex 4 Ycoordinate
    6;                        !- Vertex 4 Zcoordinate

SHADING:SITE:DETAILED,
    shade_way/396524531_4,    !- Name
    ,                         !- Transmittance Schedule Name
    autocalculate,            !- Number of Vertices
    704829.267816036,         !- Vertex 1 Xcoordinate
    5711876.531783456,        !- Vertex 1 Ycoordinate
    6,                        !- Vertex 1 Zcoordinate
    704829.267816036,         !- Vertex 2 Xcoordinate
    5711876.531783456,        !- Vertex 2 Ycoordinate
    0,                        !- Vertex 2 Zcoordinate
    704825.488641027,         !- Vertex 3 Xcoordinate
    5711882.96593908,         !- Vertex 3 Ycoordinate
    0,                        !- Vertex 3 Zcoordinate
    704825.488641027,         !- Vertex 4 Xcoordinate
    5711882.96593908,         !- Vertex 4 Ycoordinate
    6;                        !- Vertex 4 Zcoordinate

SHADING:SITE:DETAILED,
    shade_way/1432575736_1,    !- Name
    ,                         !- Transmittance Schedule Name
    autocalculate,            !- Number of Vertices
    704833.4668712548,        !- Vertex 1 Xcoordinate
    5711878.966968931,        !- Vertex 1 Ycoordinate
    6,                        !- Vertex 1 Zcoordinate
    704833.4668712548,        !- Vertex 2 Xcoordinate
    5711878.966968931,        !- Vertex 2 Ycoordinate
    0,                        !- Vertex 2 Zcoordinate
    704829.66537336,          !- Vertex 3 Xcoordinate
    5711885.419088851,        !- Vertex 3 Ycoordinate
    0,                        !- Vertex 3 Zcoordinate
    704829.66537336,          !- Vertex 4 Xcoordinate
    5711885.419088851,        !- Vertex 4 Ycoordinate
    6;                        !- Vertex 4 Zcoordinate

SHADING:SITE:DETAILED,
    shade_way/1432575736_2,    !- Name
    ,                         !- Transmittance Schedule Name
    autocalculate,            !- Number of Vertices
    704829.66537336,          !- Vertex 1 Xcoordinate
    5711885.419088851,        !- Vertex 1 Ycoordinate
    6,                        !- Vertex 1 Zcoordinate
    704829.66537336,          !- Vertex 2 Xcoordinate
    5711885.419088851,        !- Vertex 2 Ycoordinate
    0,                        !- Vertex 2 Zcoordinate
    704833.8659660963,        !- Vertex 3 Xcoordinate
    5711887.894974889,        !- Vertex 3 Ycoordinate
    0,                        !- Vertex 3 Zcoordinate
    704833.8659660963,        !- Vertex 4 Xcoordinate
    5711887.894974889,        !- Vertex 4 Ycoordinate
    6;                        !- Vertex 4 Zcoordinate

SHADING:SITE:DETAILED,
    shade_way/1432575736_3,    !- Name
    ,                         !- Transmittance Schedule Name
    autocalculate,            !- Number of Vertices
    704833.8659660963,        !- Vertex 1 Xcoordinate
    5711887.894974889,        !- Vertex 1 Ycoordinate
    6,                        !- Vertex 1 Zcoordinate
    704833.8659660963,        !- Vertex 2 Xcoordinate
    5711887.894974889,        !- Vertex 2 Ycoordinate
    0,                        !- Vertex 2 Zcoordinate
    704837.6694299419,        !- Vertex 3 Xcoordinate
    5711881.4437089525,       !- Vertex 3 Ycoordinate
    0,                        !- Vertex 3 Zcoordinate
    704837.6694299419,        !- Vertex 4 Xcoordinate
    5711881.4437089525,       !- Vertex 4 Ycoordinate
    6;                        !- Vertex 4 Zcoordinate

SHADING:SITE:DETAILED,
    shade_way/1432575736_4,    !- Name
    ,                         !- Transmittance Schedule Name
    autocalculate,            !- Number of Vertices
    704837.6694299419,        !- Vertex 1 Xcoordinate
    5711881.4437089525,       !- Vertex 1 Ycoordinate
    6,                        !- Vertex 1 Zcoordinate
    704837.6694299419,        !- Vertex 2 Xcoordinate
    5711881.4437089525,       !- Vertex 2 Ycoordinate
    0,                        !- Vertex 2 Zcoordinate
    704833.4668712548,        !- Vertex 3 Xcoordinate
    5711878.966968931,        !- Vertex 3 Ycoordinate
    0,                        !- Vertex 3 Zcoordinate
    704833.4668712548,        !- Vertex 4 Xcoordinate
    5711878.966968931,        !- Vertex 4 Ycoordinate
    6;                        !- Vertex 4 Zcoordinate

SHADING:SITE:DETAILED,
    shade_way/1432575672_1,    !- Name
    ,                         !- Transmittance Schedule Name
    autocalculate,            !- Number of Vertices
    704844.5014645244,        !- Vertex 1 Xcoordinate
    5711861.256635337,        !- Vertex 1 Ycoordinate
    6,                        !- Vertex 1 Zcoordinate
    704844.5014645244,        !- Vertex 2 Xcoordinate
    5711861.256635337,        !- Vertex 2 Ycoordinate
    0,                        !- Vertex 2 Zcoordinate
    704849.0363131327,        !- Vertex 3 Xcoordinate
    5711854.062261988,        !- Vertex 3 Ycoordinate
    0,                        !- Vertex 3 Zcoordinate
    704849.0363131327,        !- Vertex 4 Xcoordinate
    5711854.062261988,        !- Vertex 4 Ycoordinate
    6;                        !- Vertex 4 Zcoordinate

SHADING:SITE:DETAILED,
    shade_way/1432575672_2,    !- Name
    ,                         !- Transmittance Schedule Name
    autocalculate,            !- Number of Vertices
    704849.0363131327,        !- Vertex 1 Xcoordinate
    5711854.062261988,        !- Vertex 1 Ycoordinate
    6,                        !- Vertex 1 Zcoordinate
    704849.0363131327,        !- Vertex 2 Xcoordinate
    5711854.062261988,        !- Vertex 2 Ycoordinate
    0,                        !- Vertex 2 Zcoordinate
    704844.783352307,         !- Vertex 3 Xcoordinate
    5711851.380481102,        !- Vertex 3 Ycoordinate
    0,                        !- Vertex 3 Zcoordinate
    704844.783352307,         !- Vertex 4 Xcoordinate
    5711851.380481102,        !- Vertex 4 Ycoordinate
    6;                        !- Vertex 4 Zcoordinate

SHADING:SITE:DETAILED,
    shade_way/1432575672_3,    !- Name
    ,                         !- Transmittance Schedule Name
    autocalculate,            !- Number of Vertices
    704844.783352307,         !- Vertex 1 Xcoordinate
    5711851.380481102,        !- Vertex 1 Ycoordinate
    6,                        !- Vertex 1 Zcoordinate
    704844.783352307,         !- Vertex 2 Xcoordinate
    5711851.380481102,        !- Vertex 2 Ycoordinate
    0,                        !- Vertex 2 Zcoordinate
    704840.2463436059,        !- Vertex 3 Xcoordinate
    5711858.573838089,        !- Vertex 3 Ycoordinate
    0,                        !- Vertex 3 Zcoordinate
    704840.2463436059,        !- Vertex 4 Xcoordinate
    5711858.573838089,        !- Vertex 4 Ycoordinate
    6;                        !- Vertex 4 Zcoordinate

SHADING:SITE:DETAILED,
    shade_way/1432575672_4,    !- Name
    ,                         !- Transmittance Schedule Name
    autocalculate,            !- Number of Vertices
    704840.2463436059,        !- Vertex 1 Xcoordinate
    5711858.573838089,        !- Vertex 1 Ycoordinate
    6,                        !- Vertex 1 Zcoordinate
    704840.2463436059,        !- Vertex 2 Xcoordinate
    5711858.573838089,        !- Vertex 2 Ycoordinate
    0,                        !- Vertex 2 Zcoordinate
    704844.5014645244,        !- Vertex 3 Xcoordinate
    5711861.256635337,        !- Vertex 3 Ycoordinate
    0,                        !- Vertex 3 Zcoordinate
    704844.5014645244,        !- Vertex 4 Xcoordinate
    5711861.256635337,        !- Vertex 4 Ycoordinate
    6;                        !- Vertex 4 Zcoordinate

SHADING:SITE:DETAILED,
    shade_way/1432575694_1,    !- Name
    ,                         !- Transmittance Schedule Name
    autocalculate,            !- Number of Vertices
    704813.2823220653,        !- Vertex 1 Xcoordinate
    5711874.275445564,        !- Vertex 1 Ycoordinate
    6,                        !- Vertex 1 Zcoordinate
    704813.2823220653,        !- Vertex 2 Xcoordinate
    5711874.275445564,        !- Vertex 2 Ycoordinate
    0,                        !- Vertex 2 Zcoordinate
    704821.8204717655,        !- Vertex 3 Xcoordinate
    5711860.50254737,         !- Vertex 3 Ycoordinate
    0,                        !- Vertex 3 Zcoordinate
    704821.8204717655,        !- Vertex 4 Xcoordinate
    5711860.50254737,         !- Vertex 4 Ycoordinate
    6;                        !- Vertex 4 Zcoordinate

SHADING:SITE:DETAILED,
    shade_way/1432575694_2,    !- Name
    ,                         !- Transmittance Schedule Name
    autocalculate,            !- Number of Vertices
    704821.8204717655,        !- Vertex 1 Xcoordinate
    5711860.50254737,         !- Vertex 1 Ycoordinate
    6,                        !- Vertex 1 Zcoordinate
    704821.8204717655,        !- Vertex 2 Xcoordinate
    5711860.50254737,         !- Vertex 2 Ycoordinate
    0,                        !- Vertex 2 Zcoordinate
    704817.8490307732,        !- Vertex 3 Xcoordinate
    5711858.040367331,        !- Vertex 3 Ycoordinate
    0,                        !- Vertex 3 Zcoordinate
    704817.8490307732,        !- Vertex 4 Xcoordinate
    5711858.040367331,        !- Vertex 4 Ycoordinate
    6;                        !- Vertex 4 Zcoordinate

SHADING:SITE:DETAILED,
    shade_way/1432575694_3,    !- Name
    ,                         !- Transmittance Schedule Name
    autocalculate,            !- Number of Vertices
    704817.8490307732,        !- Vertex 1 Xcoordinate
    5711858.040367331,        !- Vertex 1 Ycoordinate
    6,                        !- Vertex 1 Zcoordinate
    704817.8490307732,        !- Vertex 2 Xcoordinate
    5711858.040367331,        !- Vertex 2 Ycoordinate
    0,                        !- Vertex 2 Zcoordinate
    704809.3101687734,        !- Vertex 3 Xcoordinate
    5711871.812936958,        !- Vertex 3 Ycoordinate
    0,                        !- Vertex 3 Zcoordinate
    704809.3101687734,        !- Vertex 4 Xcoordinate
    5711871.812936958,        !- Vertex 4 Ycoordinate
    6;                        !- Vertex 4 Zcoordinate

SHADING:SITE:DETAILED,
    shade_way/1432575694_4,    !- Name
    ,                         !- Transmittance Schedule Name
    autocalculate,            !- Number of Vertices
    704809.3101687734,        !- Vertex 1 Xcoordinate
    5711871.812936958,        !- Vertex 1 Ycoordinate
    6,                        !- Vertex 1 Zcoordinate
    704809.3101687734,        !- Vertex 2 Xcoordinate
    5711871.812936958,        !- Vertex 2 Ycoordinate
    0,                        !- Vertex 2 Zcoordinate
    704813.2823220653,        !- Vertex 3 Xcoordinate
    5711874.275445564,        !- Vertex 3 Ycoordinate
    0,                        !- Vertex 3 Zcoordinate
    704813.2823220653,        !- Vertex 4 Xcoordinate
    5711874.275445564,        !- Vertex 4 Ycoordinate
    6;                        !- Vertex 4 Zcoordinate

SHADING:SITE:DETAILED,
    shade_way/1432575737_1,    !- Name
    ,                         !- Transmittance Schedule Name
    autocalculate,            !- Number of Vertices
    704838.0276739481,        !- Vertex 1 Xcoordinate
    5711890.281913805,        !- Vertex 1 Ycoordinate
    6,                        !- Vertex 1 Zcoordinate
    704838.0276739481,        !- Vertex 2 Xcoordinate
    5711890.281913805,        !- Vertex 2 Ycoordinate
    0,                        !- Vertex 2 Zcoordinate
    704841.7967493609,        !- Vertex 3 Xcoordinate
    5711883.837598219,        !- Vertex 3 Ycoordinate
    0,                        !- Vertex 3 Zcoordinate
    704841.7967493609,        !- Vertex 4 Xcoordinate
    5711883.837598219,        !- Vertex 4 Ycoordinate
    6;                        !- Vertex 4 Zcoordinate

SHADING:SITE:DETAILED,
    shade_way/1432575737_2,    !- Name
    ,                         !- Transmittance Schedule Name
    autocalculate,            !- Number of Vertices
    704841.7967493609,        !- Vertex 1 Xcoordinate
    5711883.837598219,        !- Vertex 1 Ycoordinate
    6,                        !- Vertex 1 Zcoordinate
    704841.7967493609,        !- Vertex 2 Xcoordinate
    5711883.837598219,        !- Vertex 2 Ycoordinate
    0,                        !- Vertex 2 Zcoordinate
    704837.6362852112,        !- Vertex 3 Xcoordinate
    5711881.404292478,        !- Vertex 3 Ycoordinate
    0,                        !- Vertex 3 Zcoordinate
    704837.6362852112,        !- Vertex 4 Xcoordinate
    5711881.404292478,        !- Vertex 4 Ycoordinate
    6;                        !- Vertex 4 Zcoordinate

SHADING:SITE:DETAILED,
    shade_way/1432575737_3,    !- Name
    ,                         !- Transmittance Schedule Name
    autocalculate,            !- Number of Vertices
    704837.6362852112,        !- Vertex 1 Xcoordinate
    5711881.404292478,        !- Vertex 1 Ycoordinate
    6,                        !- Vertex 1 Zcoordinate
    704837.6362852112,        !- Vertex 2 Xcoordinate
    5711881.404292478,        !- Vertex 2 Ycoordinate
    0,                        !- Vertex 2 Zcoordinate
    704833.8676421731,        !- Vertex 3 Xcoordinate
    5711887.849406386,        !- Vertex 3 Ycoordinate
    0,                        !- Vertex 3 Zcoordinate
    704833.8676421731,        !- Vertex 4 Xcoordinate
    5711887.849406386,        !- Vertex 4 Ycoordinate
    6;                        !- Vertex 4 Zcoordinate

SHADING:SITE:DETAILED,
    shade_way/1432575737_4,    !- Name
    ,                         !- Transmittance Schedule Name
    autocalculate,            !- Number of Vertices
    704833.8676421731,        !- Vertex 1 Xcoordinate
    5711887.849406386,        !- Vertex 1 Ycoordinate
    6,                        !- Vertex 1 Zcoordinate
    704833.8676421731,        !- Vertex 2 Xcoordinate
    5711887.849406386,        !- Vertex 2 Ycoordinate
    0,                        !- Vertex 2 Zcoordinate
    704838.0276739481,        !- Vertex 3 Xcoordinate
    5711890.281913805,        !- Vertex 3 Ycoordinate
    0,                        !- Vertex 3 Zcoordinate
    704838.0276739481,        !- Vertex 4 Xcoordinate
    5711890.281913805,        !- Vertex 4 Ycoordinate
    6;                        !- Vertex 4 Zcoordinate

SHADING:SITE:DETAILED,
    shade_way/1432575722_1,    !- Name
    ,                         !- Transmittance Schedule Name
    autocalculate,            !- Number of Vertices
    704824.310839725,         !- Vertex 1 Xcoordinate
    5711895.180902422,        !- Vertex 1 Ycoordinate
    6,                        !- Vertex 1 Zcoordinate
    704824.310839725,         !- Vertex 2 Xcoordinate
    5711895.180902422,        !- Vertex 2 Ycoordinate
    0,                        !- Vertex 2 Zcoordinate
    704820.3177221746,        !- Vertex 3 Xcoordinate
    5711902.024330096,        !- Vertex 3 Ycoordinate
    0,                        !- Vertex 3 Zcoordinate
    704820.3177221746,        !- Vertex 4 Xcoordinate
    5711902.024330096,        !- Vertex 4 Ycoordinate
    6;                        !- Vertex 4 Zcoordinate

SHADING:SITE:DETAILED,
    shade_way/1432575722_2,    !- Name
    ,                         !- Transmittance Schedule Name
    autocalculate,            !- Number of Vertices
    704820.3177221746,        !- Vertex 1 Xcoordinate
    5711902.024330096,        !- Vertex 1 Ycoordinate
    6,                        !- Vertex 1 Zcoordinate
    704820.3177221746,        !- Vertex 2 Xcoordinate
    5711902.024330096,        !- Vertex 2 Ycoordinate
    0,                        !- Vertex 2 Zcoordinate
    704825.2536214832,        !- Vertex 3 Xcoordinate
    5711904.90411908,         !- Vertex 3 Ycoordinate
    0,                        !- Vertex 3 Zcoordinate
    704825.2536214832,        !- Vertex 4 Xcoordinate
    5711904.90411908,         !- Vertex 4 Ycoordinate
    6;                        !- Vertex 4 Zcoordinate

SHADING:SITE:DETAILED,
    shade_way/1432575722_3,    !- Name
    ,                         !- Transmittance Schedule Name
    autocalculate,            !- Number of Vertices
    704825.2536214832,        !- Vertex 1 Xcoordinate
    5711904.90411908,         !- Vertex 1 Ycoordinate
    6,                        !- Vertex 1 Zcoordinate
    704825.2536214832,        !- Vertex 2 Xcoordinate
    5711904.90411908,         !- Vertex 2 Ycoordinate
    0,                        !- Vertex 2 Zcoordinate
    704829.2467390341,        !- Vertex 3 Xcoordinate
    5711898.060691406,        !- Vertex 3 Ycoordinate
    0,                        !- Vertex 3 Zcoordinate
    704829.2467390341,        !- Vertex 4 Xcoordinate
    5711898.060691406,        !- Vertex 4 Ycoordinate
    6;                        !- Vertex 4 Zcoordinate

SHADING:SITE:DETAILED,
    shade_way/1432575722_4,    !- Name
    ,                         !- Transmittance Schedule Name
    autocalculate,            !- Number of Vertices
    704829.2467390341,        !- Vertex 1 Xcoordinate
    5711898.060691406,        !- Vertex 1 Ycoordinate
    6,                        !- Vertex 1 Zcoordinate
    704829.2467390341,        !- Vertex 2 Xcoordinate
    5711898.060691406,        !- Vertex 2 Ycoordinate
    0,                        !- Vertex 2 Zcoordinate
    704824.310839725,         !- Vertex 3 Xcoordinate
    5711895.180902422,        !- Vertex 3 Ycoordinate
    0,                        !- Vertex 3 Zcoordinate
    704824.310839725,         !- Vertex 4 Xcoordinate
    5711895.180902422,        !- Vertex 4 Ycoordinate
    6;                        !- Vertex 4 Zcoordinate

SHADING:SITE:DETAILED,
    shade_way/1432575712_1,    !- Name
    ,                         !- Transmittance Schedule Name
    autocalculate,            !- Number of Vertices
    704795.1762812362,        !- Vertex 1 Xcoordinate
    5711896.618937657,        !- Vertex 1 Ycoordinate
    6,                        !- Vertex 1 Zcoordinate
    704795.1762812362,        !- Vertex 2 Xcoordinate
    5711896.618937657,        !- Vertex 2 Ycoordinate
    0,                        !- Vertex 2 Zcoordinate
    704800.2760757116,        !- Vertex 3 Xcoordinate
    5711888.052241319,        !- Vertex 3 Ycoordinate
    0,                        !- Vertex 3 Zcoordinate
    704800.2760757116,        !- Vertex 4 Xcoordinate
    5711888.052241319,        !- Vertex 4 Ycoordinate
    6;                        !- Vertex 4 Zcoordinate

SHADING:SITE:DETAILED,
    shade_way/1432575712_2,    !- Name
    ,                         !- Transmittance Schedule Name
    autocalculate,            !- Number of Vertices
    704800.2760757116,        !- Vertex 1 Xcoordinate
    5711888.052241319,        !- Vertex 1 Ycoordinate
    6,                        !- Vertex 1 Zcoordinate
    704800.2760757116,        !- Vertex 2 Xcoordinate
    5711888.052241319,        !- Vertex 2 Ycoordinate
    0,                        !- Vertex 2 Zcoordinate
    704795.2860195789,        !- Vertex 3 Xcoordinate
    5711885.081097289,        !- Vertex 3 Ycoordinate
    0,                        !- Vertex 3 Zcoordinate
    704795.2860195789,        !- Vertex 4 Xcoordinate
    5711885.081097289,        !- Vertex 4 Ycoordinate
    6;                        !- Vertex 4 Zcoordinate

SHADING:SITE:DETAILED,
    shade_way/1432575712_3,    !- Name
    ,                         !- Transmittance Schedule Name
    autocalculate,            !- Number of Vertices
    704795.2860195789,        !- Vertex 1 Xcoordinate
    5711885.081097289,        !- Vertex 1 Ycoordinate
    6,                        !- Vertex 1 Zcoordinate
    704795.2860195789,        !- Vertex 2 Xcoordinate
    5711885.081097289,        !- Vertex 2 Ycoordinate
    0,                        !- Vertex 2 Zcoordinate
    704790.1850120379,        !- Vertex 3 Xcoordinate
    5711893.647260243,        !- Vertex 3 Ycoordinate
    0,                        !- Vertex 3 Zcoordinate
    704790.1850120379,        !- Vertex 4 Xcoordinate
    5711893.647260243,        !- Vertex 4 Ycoordinate
    6;                        !- Vertex 4 Zcoordinate

SHADING:SITE:DETAILED,
    shade_way/1432575712_4,    !- Name
    ,                         !- Transmittance Schedule Name
    autocalculate,            !- Number of Vertices
    704790.1850120379,        !- Vertex 1 Xcoordinate
    5711893.647260243,        !- Vertex 1 Ycoordinate
    6,                        !- Vertex 1 Zcoordinate
    704790.1850120379,        !- Vertex 2 Xcoordinate
    5711893.647260243,        !- Vertex 2 Ycoordinate
    0,                        !- Vertex 2 Zcoordinate
    704795.1762812362,        !- Vertex 3 Xcoordinate
    5711896.618937657,        !- Vertex 3 Ycoordinate
    0,                        !- Vertex 3 Zcoordinate
    704795.1762812362,        !- Vertex 4 Xcoordinate
    5711896.618937657,        !- Vertex 4 Ycoordinate
    6;                        !- Vertex 4 Zcoordinate

SHADING:SITE:DETAILED,
    shade_way/1432575713_1,    !- Name
    ,                         !- Transmittance Schedule Name
    autocalculate,            !- Number of Vertices
    704800.3081020622,        !- Vertex 1 Xcoordinate
    5711899.617733263,        !- Vertex 1 Ycoordinate
    6,                        !- Vertex 1 Zcoordinate
    704800.3081020622,        !- Vertex 2 Xcoordinate
    5711899.617733263,        !- Vertex 2 Ycoordinate
    0,                        !- Vertex 2 Zcoordinate
    704805.3792997734,        !- Vertex 3 Xcoordinate
    5711891.053442966,        !- Vertex 3 Ycoordinate
    0,                        !- Vertex 3 Zcoordinate
    704805.3792997734,        !- Vertex 4 Xcoordinate
    5711891.053442966,        !- Vertex 4 Ycoordinate
    6;                        !- Vertex 4 Zcoordinate

SHADING:SITE:DETAILED,
    shade_way/1432575713_2,    !- Name
    ,                         !- Transmittance Schedule Name
    autocalculate,            !- Number of Vertices
    704805.3792997734,        !- Vertex 1 Xcoordinate
    5711891.053442966,        !- Vertex 1 Ycoordinate
    6,                        !- Vertex 1 Zcoordinate
    704805.3792997734,        !- Vertex 2 Xcoordinate
    5711891.053442966,        !- Vertex 2 Ycoordinate
    0,                        !- Vertex 2 Zcoordinate
    704800.2652242255,        !- Vertex 3 Xcoordinate
    5711888.024935561,        !- Vertex 3 Ycoordinate
    0,                        !- Vertex 3 Zcoordinate
    704800.2652242255,        !- Vertex 4 Xcoordinate
    5711888.024935561,        !- Vertex 4 Ycoordinate
    6;                        !- Vertex 4 Zcoordinate

SHADING:SITE:DETAILED,
    shade_way/1432575713_3,    !- Name
    ,                         !- Transmittance Schedule Name
    autocalculate,            !- Number of Vertices
    704800.2652242255,        !- Vertex 1 Xcoordinate
    5711888.024935561,        !- Vertex 1 Ycoordinate
    6,                        !- Vertex 1 Zcoordinate
    704800.2652242255,        !- Vertex 2 Xcoordinate
    5711888.024935561,        !- Vertex 2 Ycoordinate
    0,                        !- Vertex 2 Zcoordinate
    704795.193375482,         !- Vertex 3 Xcoordinate
    5711896.588941444,        !- Vertex 3 Ycoordinate
    0,                        !- Vertex 3 Zcoordinate
    704795.193375482,         !- Vertex 4 Xcoordinate
    5711896.588941444,        !- Vertex 4 Ycoordinate
    6;                        !- Vertex 4 Zcoordinate

SHADING:SITE:DETAILED,
    shade_way/1432575713_4,    !- Name
    ,                         !- Transmittance Schedule Name
    autocalculate,            !- Number of Vertices
    704795.193375482,         !- Vertex 1 Xcoordinate
    5711896.588941444,        !- Vertex 1 Ycoordinate
    6,                        !- Vertex 1 Zcoordinate
    704795.193375482,         !- Vertex 2 Xcoordinate
    5711896.588941444,        !- Vertex 2 Ycoordinate
    0,                        !- Vertex 2 Zcoordinate
    704800.3081020622,        !- Vertex 3 Xcoordinate
    5711899.617733263,        !- Vertex 3 Ycoordinate
    0,                        !- Vertex 3 Zcoordinate
    704800.3081020622,        !- Vertex 4 Xcoordinate
    5711899.617733263,        !- Vertex 4 Ycoordinate
    6;                        !- Vertex 4 Zcoordinate

SHADING:SITE:DETAILED,
    shade_way/1432575708_1,    !- Name
    ,                         !- Transmittance Schedule Name
    autocalculate,            !- Number of Vertices
    704805.3805356445,        !- Vertex 1 Xcoordinate
    5711891.05204788,         !- Vertex 1 Ycoordinate
    6,                        !- Vertex 1 Zcoordinate
    704805.3805356445,        !- Vertex 2 Xcoordinate
    5711891.05204788,         !- Vertex 2 Ycoordinate
    0,                        !- Vertex 2 Zcoordinate
    704800.3169522784,        !- Vertex 3 Xcoordinate
    5711899.602096237,        !- Vertex 3 Ycoordinate
    0,                        !- Vertex 3 Zcoordinate
    704800.3169522784,        !- Vertex 4 Xcoordinate
    5711899.602096237,        !- Vertex 4 Ycoordinate
    6;                        !- Vertex 4 Zcoordinate

SHADING:SITE:DETAILED,
    shade_way/1432575708_2,    !- Name
    ,                         !- Transmittance Schedule Name
    autocalculate,            !- Number of Vertices
    704800.3169522784,        !- Vertex 1 Xcoordinate
    5711899.602096237,        !- Vertex 1 Ycoordinate
    6,                        !- Vertex 1 Zcoordinate
    704800.3169522784,        !- Vertex 2 Xcoordinate
    5711899.602096237,        !- Vertex 2 Ycoordinate
    0,                        !- Vertex 2 Zcoordinate
    704805.4663422499,        !- Vertex 3 Xcoordinate
    5711902.651415048,        !- Vertex 3 Ycoordinate
    0,                        !- Vertex 3 Zcoordinate
    704805.4663422499,        !- Vertex 4 Xcoordinate
    5711902.651415048,        !- Vertex 4 Ycoordinate
    6;                        !- Vertex 4 Zcoordinate

SHADING:SITE:DETAILED,
    shade_way/1432575708_3,    !- Name
    ,                         !- Transmittance Schedule Name
    autocalculate,            !- Number of Vertices
    704805.4663422499,        !- Vertex 1 Xcoordinate
    5711902.651415048,        !- Vertex 1 Ycoordinate
    6,                        !- Vertex 1 Zcoordinate
    704805.4663422499,        !- Vertex 2 Xcoordinate
    5711902.651415048,        !- Vertex 2 Ycoordinate
    0,                        !- Vertex 2 Zcoordinate
    704810.5292745829,        !- Vertex 3 Xcoordinate
    5711894.1010822775,       !- Vertex 3 Ycoordinate
    0,                        !- Vertex 3 Zcoordinate
    704810.5292745829,        !- Vertex 4 Xcoordinate
    5711894.1010822775,       !- Vertex 4 Ycoordinate
    6;                        !- Vertex 4 Zcoordinate

SHADING:SITE:DETAILED,
    shade_way/1432575708_4,    !- Name
    ,                         !- Transmittance Schedule Name
    autocalculate,            !- Number of Vertices
    704810.5292745829,        !- Vertex 1 Xcoordinate
    5711894.1010822775,       !- Vertex 1 Ycoordinate
    6,                        !- Vertex 1 Zcoordinate
    704810.5292745829,        !- Vertex 2 Xcoordinate
    5711894.1010822775,       !- Vertex 2 Ycoordinate
    0,                        !- Vertex 2 Zcoordinate
    704805.3805356445,        !- Vertex 3 Xcoordinate
    5711891.05204788,         !- Vertex 3 Ycoordinate
    0,                        !- Vertex 3 Zcoordinate
    704805.3805356445,        !- Vertex 4 Xcoordinate
    5711891.05204788,         !- Vertex 4 Ycoordinate
    6;                        !- Vertex 4 Zcoordinate

SHADING:SITE:DETAILED,
    shade_way/1432575721_1,    !- Name
    ,                         !- Transmittance Schedule Name
    autocalculate,            !- Number of Vertices
    704819.3839263681,        !- Vertex 1 Xcoordinate
    5711892.287024757,        !- Vertex 1 Ycoordinate
    6,                        !- Vertex 1 Zcoordinate
    704819.3839263681,        !- Vertex 2 Xcoordinate
    5711892.287024757,        !- Vertex 2 Ycoordinate
    0,                        !- Vertex 2 Zcoordinate
    704815.39550545,          !- Vertex 3 Xcoordinate
    5711899.186326435,        !- Vertex 3 Ycoordinate
    0,                        !- Vertex 3 Zcoordinate
    704815.39550545,          !- Vertex 4 Xcoordinate
    5711899.186326435,        !- Vertex 4 Ycoordinate
    6;                        !- Vertex 4 Zcoordinate

SHADING:SITE:DETAILED,
    shade_way/1432575721_2,    !- Name
    ,                         !- Transmittance Schedule Name
    autocalculate,            !- Number of Vertices
    704815.39550545,          !- Vertex 1 Xcoordinate
    5711899.186326435,        !- Vertex 1 Ycoordinate
    6,                        !- Vertex 1 Zcoordinate
    704815.39550545,          !- Vertex 2 Xcoordinate
    5711899.186326435,        !- Vertex 2 Ycoordinate
    0,                        !- Vertex 2 Zcoordinate
    704820.3423636971,        !- Vertex 3 Xcoordinate
    5711902.046034636,        !- Vertex 3 Ycoordinate
    0,                        !- Vertex 3 Zcoordinate
    704820.3423636971,        !- Vertex 4 Xcoordinate
    5711902.046034636,        !- Vertex 4 Ycoordinate
    6;                        !- Vertex 4 Zcoordinate

SHADING:SITE:DETAILED,
    shade_way/1432575721_3,    !- Name
    ,                         !- Transmittance Schedule Name
    autocalculate,            !- Number of Vertices
    704820.3423636971,        !- Vertex 1 Xcoordinate
    5711902.046034636,        !- Vertex 1 Ycoordinate
    6,                        !- Vertex 1 Zcoordinate
    704820.3423636971,        !- Vertex 2 Xcoordinate
    5711902.046034636,        !- Vertex 2 Ycoordinate
    0,                        !- Vertex 2 Zcoordinate
    704824.3307846152,        !- Vertex 3 Xcoordinate
    5711895.146732957,        !- Vertex 3 Ycoordinate
    0,                        !- Vertex 3 Zcoordinate
    704824.3307846152,        !- Vertex 4 Xcoordinate
    5711895.146732957,        !- Vertex 4 Ycoordinate
    6;                        !- Vertex 4 Zcoordinate

SHADING:SITE:DETAILED,
    shade_way/1432575721_4,    !- Name
    ,                         !- Transmittance Schedule Name
    autocalculate,            !- Number of Vertices
    704824.3307846152,        !- Vertex 1 Xcoordinate
    5711895.146732957,        !- Vertex 1 Ycoordinate
    6,                        !- Vertex 1 Zcoordinate
    704824.3307846152,        !- Vertex 2 Xcoordinate
    5711895.146732957,        !- Vertex 2 Ycoordinate
    0,                        !- Vertex 2 Zcoordinate
    704819.3839263681,        !- Vertex 3 Xcoordinate
    5711892.287024757,        !- Vertex 3 Ycoordinate
    0,                        !- Vertex 3 Zcoordinate
    704819.3839263681,        !- Vertex 4 Xcoordinate
    5711892.287024757,        !- Vertex 4 Ycoordinate
    6;                        !- Vertex 4 Zcoordinate

SHADING:SITE:DETAILED,
    shade_way/396524527_1,    !- Name
    ,                         !- Transmittance Schedule Name
    autocalculate,            !- Number of Vertices
    704811.4684057377,        !- Vertex 1 Xcoordinate
    5711894.56014366,         !- Vertex 1 Ycoordinate
    6,                        !- Vertex 1 Zcoordinate
    704811.4684057377,        !- Vertex 2 Xcoordinate
    5711894.56014366,         !- Vertex 2 Ycoordinate
    0,                        !- Vertex 2 Zcoordinate
    704806.3739016035,        !- Vertex 3 Xcoordinate
    5711903.243155677,        !- Vertex 3 Ycoordinate
    0,                        !- Vertex 3 Zcoordinate
    704806.3739016035,        !- Vertex 4 Xcoordinate
    5711903.243155677,        !- Vertex 4 Ycoordinate
    6;                        !- Vertex 4 Zcoordinate

SHADING:SITE:DETAILED,
    shade_way/396524527_2,    !- Name
    ,                         !- Transmittance Schedule Name
    autocalculate,            !- Number of Vertices
    704806.3739016035,        !- Vertex 1 Xcoordinate
    5711903.243155677,        !- Vertex 1 Ycoordinate
    6,                        !- Vertex 1 Zcoordinate
    704806.3739016035,        !- Vertex 2 Xcoordinate
    5711903.243155677,        !- Vertex 2 Ycoordinate
    0,                        !- Vertex 2 Zcoordinate
    704811.3127367873,        !- Vertex 3 Xcoordinate
    5711906.141355298,        !- Vertex 3 Ycoordinate
    0,                        !- Vertex 3 Zcoordinate
    704811.3127367873,        !- Vertex 4 Xcoordinate
    5711906.141355298,        !- Vertex 4 Ycoordinate
    6;                        !- Vertex 4 Zcoordinate

SHADING:SITE:DETAILED,
    shade_way/396524527_3,    !- Name
    ,                         !- Transmittance Schedule Name
    autocalculate,            !- Number of Vertices
    704811.3127367873,        !- Vertex 1 Xcoordinate
    5711906.141355298,        !- Vertex 1 Ycoordinate
    6,                        !- Vertex 1 Zcoordinate
    704811.3127367873,        !- Vertex 2 Xcoordinate
    5711906.141355298,        !- Vertex 2 Ycoordinate
    0,                        !- Vertex 2 Zcoordinate
    704816.4080314402,        !- Vertex 3 Xcoordinate
    5711897.4589909585,       !- Vertex 3 Ycoordinate
    0,                        !- Vertex 3 Zcoordinate
    704816.4080314402,        !- Vertex 4 Xcoordinate
    5711897.4589909585,       !- Vertex 4 Ycoordinate
    6;                        !- Vertex 4 Zcoordinate

SHADING:SITE:DETAILED,
    shade_way/396524527_4,    !- Name
    ,                         !- Transmittance Schedule Name
    autocalculate,            !- Number of Vertices
    704816.4080314402,        !- Vertex 1 Xcoordinate
    5711897.4589909585,       !- Vertex 1 Ycoordinate
    6,                        !- Vertex 1 Zcoordinate
    704816.4080314402,        !- Vertex 2 Xcoordinate
    5711897.4589909585,       !- Vertex 2 Ycoordinate
    0,                        !- Vertex 2 Zcoordinate
    704811.4684057377,        !- Vertex 3 Xcoordinate
    5711894.56014366,         !- Vertex 3 Ycoordinate
    0,                        !- Vertex 3 Zcoordinate
    704811.4684057377,        !- Vertex 4 Xcoordinate
    5711894.56014366,         !- Vertex 4 Ycoordinate
    6;                        !- Vertex 4 Zcoordinate

OTHEREQUIPMENT,
    EU_Step8_InternalGain_1ad443429865899f_F0_dwelling_0_f000,    !- Name
    Electricity,              !- Fuel Type
    1ad443429865899f_F0_dwelling_0,    !- Zone or ZoneList or Space or SpaceList Name
    EU_Step8_GainSchedule_1ad443429865899f_F0_dwelling_0_f000,    !- Schedule Name
    Watts/Area,               !- Design Level Calculation Method
    ,                         !- Design Level
    1,                        !- Power per Zone Floor Area
    ,                         !- Power per Person
    0,                        !- Fraction Latent
    0,                        !- Fraction Radiant
    0,                        !- Fraction Lost
    0,                        !- Carbon Dioxide Generation Rate
    EU_Step8_InternalGains;    !- EndUse Subcategory

ZONEVENTILATION:DESIGNFLOWRATE,
    EU_ConstantAir_1ad443429865899f_F0_dwelling_0,    !- Name
    1ad443429865899f_F0_dwelling_0,    !- Zone or ZoneList or Space or SpaceList Name
    EU_AlwaysOn,              !- Schedule Name
    AirChanges/Hour,          !- Design Flow Rate Calculation Method
    ,                         !- Design Flow Rate
    ,                         !- Flow Rate per Floor Area
    ,                         !- Flow Rate per Person
    0.4800000000000001,       !- Air Changes per Hour
    Natural,                  !- Ventilation Type
    0,                        !- Fan Pressure Rise
    1,                        !- Fan Total Efficiency
    1,                        !- Constant Term Coefficient
    0,                        !- Temperature Term Coefficient
    0,                        !- Velocity Term Coefficient
    0,                        !- Velocity Squared Term Coefficient
    -100,                     !- Minimum Indoor Temperature
    ,                         !- Minimum Indoor Temperature Schedule Name
    100,                      !- Maximum Indoor Temperature
    ,                         !- Maximum Indoor Temperature Schedule Name
    -100,                     !- Delta Temperature
    ,                         !- Delta Temperature Schedule Name
    -100,                     !- Minimum Outdoor Temperature
    ,                         !- Minimum Outdoor Temperature Schedule Name
    100,                      !- Maximum Outdoor Temperature
    ,                         !- Maximum Outdoor Temperature Schedule Name
    40;                       !- Maximum Wind Speed

HVACTEMPLATE:THERMOSTAT,
    EU_HeatOnly_1ad443429865899f_F0_dwelling_0,    !- Name
    ,                         !- Heating Setpoint Schedule Name
    20,                       !- Constant Heating Setpoint
    ,                         !- Cooling Setpoint Schedule Name
    50;                       !- Constant Cooling Setpoint

HVACTEMPLATE:ZONE:IDEALLOADSAIRSYSTEM,
    1ad443429865899f_F0_dwelling_0,    !- Zone Name
    EU_HeatOnly_1ad443429865899f_F0_dwelling_0,    !- Template Thermostat Name
    EU_AlwaysOn,              !- System Availability Schedule Name
    50,                       !- Maximum Heating Supply Air Temperature
    13,                       !- Minimum Cooling Supply Air Temperature
    0.0156,                   !- Maximum Heating Supply Air Humidity Ratio
    0.0077,                   !- Minimum Cooling Supply Air Humidity Ratio
    NoLimit,                  !- Heating Limit
    ,                         !- Maximum Heating Air Flow Rate
    ,                         !- Maximum Sensible Heating Capacity
    NoLimit,                  !- Cooling Limit
    ,                         !- Maximum Cooling Air Flow Rate
    ,                         !- Maximum Total Cooling Capacity
    EU_AlwaysOn,              !- Heating Availability Schedule Name
    EU_CoolingOff,            !- Cooling Availability Schedule Name
    ConstantSensibleHeatRatio,    !- Dehumidification Control Type
    0.7,                      !- Cooling Sensible Heat Ratio
    60,                       !- Dehumidification Setpoint
    None,                     !- Humidification Control Type
    30,                       !- Humidification Setpoint
    None,                     !- Outdoor Air Method
    0.00944,                  !- Outdoor Air Flow Rate per Person
    0.0,                      !- Outdoor Air Flow Rate per Zone Floor Area
    0,                        !- Outdoor Air Flow Rate per Zone
    ,                         !- Design Specification Outdoor Air Object Name
    None,                     !- Demand Controlled Ventilation Type
    NoEconomizer,             !- Outdoor Air Economizer Type
    None,                     !- Heat Recovery Type
    0.70,                     !- Sensible Heat Recovery Effectiveness
    0.65;                     !- Latent Heat Recovery Effectiveness

SIZING:ZONE,
    1ad443429865899f_F0_dwelling_0,    !- Zone or ZoneList Name
    SupplyAirTemperature,     !- Zone Cooling Design Supply Air Temperature Input Method
    13,                       !- Zone Cooling Design Supply Air Temperature
    ,                         !- Zone Cooling Design Supply Air Temperature Difference
    SupplyAirTemperature,     !- Zone Heating Design Supply Air Temperature Input Method
    50,                       !- Zone Heating Design Supply Air Temperature
    ,                         !- Zone Heating Design Supply Air Temperature Difference
    0.008,                    !- Zone Cooling Design Supply Air Humidity Ratio
    0.008,                    !- Zone Heating Design Supply Air Humidity Ratio
    ,                         !- Design Specification Outdoor Air Object Name
    ,                         !- Zone Heating Sizing Factor
    ,                         !- Zone Cooling Sizing Factor
    DesignDay,                !- Cooling Design Air Flow Method
    0,                        !- Cooling Design Air Flow Rate
    0.000762,                 !- Cooling Minimum Air Flow per Zone Floor Area
    0,                        !- Cooling Minimum Air Flow
    0.2,                      !- Cooling Minimum Air Flow Fraction
    DesignDay,                !- Heating Design Air Flow Method
    0,                        !- Heating Design Air Flow Rate
    0.002032,                 !- Heating Maximum Air Flow per Zone Floor Area
    0.1415762,                !- Heating Maximum Air Flow
    0.3,                      !- Heating Maximum Air Flow Fraction
    ,                         !- Design Specification Zone Air Distribution Object Name
    No,                       !- Account for Dedicated Outdoor Air System
    NeutralSupplyAir,         !- Dedicated Outdoor Air System Control Strategy
    autosize,                 !- Dedicated Outdoor Air Low Setpoint Temperature for Design
    autosize,                 !- Dedicated Outdoor Air High Setpoint Temperature for Design
    Sensible Load Only No Latent Load,    !- Zone Load Sizing Method
    HumidityRatioDifference,    !- Zone Latent Cooling Design Supply Air Humidity Ratio Input Method
    ,                         !- Zone Dehumidification Design Supply Air Humidity Ratio
    0.005,                    !- Zone Cooling Design Supply Air Humidity Ratio Difference
    HumidityRatioDifference,    !- Zone Latent Heating Design Supply Air Humidity Ratio Input Method
    ,                         !- Zone Humidification Design Supply Air Humidity Ratio
    0.005;                    !- Zone Humidification Design Supply Air Humidity Ratio Difference

OUTPUT:VARIABLE,
    *,                        !- Key Value
    Zone Ideal Loads Zone Total Heating Energy,    !- Variable Name
    Hourly;                   !- Reporting Frequency

OUTPUT:SQLITE,
    SimpleAndTabular,         !- Option Type
    UseOutputControlTableStyle;    !- Unit Conversion for Tabular Data