!- Windows Line endings 

Version,
    23.1;                     !- Version Identifier

SimulationControl,
    Yes,                      !- Do Zone Sizing Calculation
    Yes,                      !- Do System Sizing Calculation
    Yes,                      !- Do Plant Sizing Calculation
    No,                       !- Run Simulation for Sizing Periods
    Yes,                      !- Run Simulation for Weather File Run Periods
    No,                       !- Do HVAC Sizing Simulation for Sizing Periods
    1;                        !- Maximum Number of HVAC Sizing Simulation Passes

Building,
    EU S2 Campaign,           !- Name
    0,                        !- North Axis
    City,                     !- Terrain
    ,                         !- Loads Convergence Tolerance Value
    ,                         !- Temperature Convergence Tolerance Value
    FullExterior,             !- Solar Distribution
    ,                         !- Maximum Number of Warmup Days
    ;                         !- Minimum Number of Warmup Days

ShadowCalculation,
    PolygonClipping,          !- Shading Calculation Method
    Periodic,                 !- Shading Calculation Update Frequency Method
    1;                        !- Shading Calculation Update Frequency

HeatBalanceAlgorithm,
    ConductionTransferFunction,    !- Algorithm
    200,                      !- Surface Temperature Upper Limit
    0.1,                      !- Minimum Surface Convection Heat Transfer Coefficient Value
    10000000;                 !- Maximum Surface Convection Heat Transfer Coefficient Value

Timestep,
    12;                       !- Number of Timesteps per Hour

Site:Location,
    London,                   !- Name
    51.5,                     !- Latitude
    -0.5,                     !- Longitude
    0,                        !- Time Zone
    25;                       !- Elevation

SizingPeriod:WeatherFileDays,
    AnnualSizingPeriod,       !- Name
    1,                        !- Begin Month
    1,                        !- Begin Day of Month
    12,                       !- End Month
    31,                       !- End Day of Month
    Monday,                   !- Day of Week for Start Day
    No,                       !- Use Weather File Daylight Saving Period
    No;                       !- Use Weather File Rain and Snow Indicators

RunPeriod,
    RunPeriod1,               !- Name
    1,                        !- Begin Month
    1,                        !- Begin Day of Month
    ,                         !- Begin Year
    12,                       !- End Month
    31,                       !- End Day of Month
    ,                         !- End Year
    Sunday,                   !- Day of Week for Start Day
    No,                       !- Use Weather File Holidays and Special Days
    No,                       !- Use Weather File Daylight Saving Period
    No,                       !- Apply Weekend Holiday Rule
    Yes,                      !- Use Weather File Rain Indicators
    Yes;                      !- Use Weather File Snow Indicators

ScheduleTypeLimits,
    Any Number;               !- Name

SCHEDULETYPELIMITS,
    EU_Step8_AnyNumber_Wm2,    !- Name
    ,                         !- Lower Limit Value
    ,                         !- Upper Limit Value
    Continuous,               !- Numeric Type
    Dimensionless;            !- Unit Type

SCHEDULE:CONSTANT,
    EU_AlwaysOn,              !- Name
    ,                         !- Schedule Type Limits Name
    1;                        !- Hourly Value

SCHEDULE:CONSTANT,
    EU_CoolingOff,            !- Name
    ,                         !- Schedule Type Limits Name
    0;                        !- Hourly Value

SCHEDULE:FILE,
    EU_Step8_GainSchedule_5c66e941d668b317_F0_dwelling_0_f000,    !- Name
    EU_Step8_AnyNumber_Wm2,    !- Schedule Type Limits Name
    ../../schedules/5c66e941d668b317/5c66e941d668b317_F0_dwelling_0_f000_gain.csv,    !- File Name
    1,                        !- Column Number
    0,                        !- Rows to Skip at Top
    8760,                     !- Number of Hours of Data
    Comma,                    !- Column Separator
    No,                       !- Interpolate to Timestep
    60,                       !- Minutes per Item
    Yes;                      !- Adjust Schedule for Daylight Savings

MATERIAL,
    EU_InternalMass_Material,    !- Name
    MediumRough,              !- Roughness
    0.1,                      !- Thickness
    1,                        !- Conductivity
    1800,                     !- Density
    900,                      !- Specific Heat
    0.9,                      !- Thermal Absorptance
    0.7,                      !- Solar Absorptance
    0.7;                      !- Visible Absorptance

MATERIAL:NOMASS,
    EU_wall_NoMass,           !- Name
    MediumRough,              !- Roughness
    0.7247189243747139,       !- Thermal Resistance
    0.9,                      !- Thermal Absorptance
    0.7,                      !- Solar Absorptance
    0.7;                      !- Visible Absorptance

MATERIAL:NOMASS,
    EU_roof_NoMass,           !- Name
    MediumRough,              !- Roughness
    2.989465563045695,        !- Thermal Resistance
    0.9,                      !- Thermal Absorptance
    0.7,                      !- Solar Absorptance
    0.7;                      !- Visible Absorptance

MATERIAL:NOMASS,
    EU_floor_NoMass,          !- Name
    MediumRough,              !- Roughness
    2.3915724504365556,       !- Thermal Resistance
    0.9,                      !- Thermal Absorptance
    0.7,                      !- Solar Absorptance
    0.7;                      !- Visible Absorptance

CONSTRUCTION,
    EU_wall_Construction,     !- Name
    EU_wall_NoMass;           !- Outside Layer

CONSTRUCTION,
    EU_roof_Construction,     !- Name
    EU_roof_NoMass;           !- Outside Layer

CONSTRUCTION,
    EU_floor_Construction,    !- Name
    EU_floor_NoMass;          !- Outside Layer

CONSTRUCTION,
    EU_InternalMass_Construction,    !- Name
    EU_InternalMass_Material;    !- Outside Layer

GlobalGeometryRules,
    UpperLeftCorner,          !- Starting Vertex Position
    CounterClockWise,         !- Vertex Entry Direction
    World;                    !- Coordinate System

ZONE,
    5c66e941d668b317_F0_dwelling_0,    !- Name
    0,                        !- Direction of Relative North
    0,                        !- X Origin
    0,                        !- Y Origin
    0,                        !- Z Origin
    1,                        !- Type
    1,                        !- Multiplier
    autocalculate,            !- Ceiling Height
    297.78076171875,          !- Volume
    autocalculate,            !- Floor Area
    ,                         !- Zone Inside Convection Algorithm
    ,                         !- Zone Outside Convection Algorithm
    Yes;                      !- Part of Total Floor Area

BUILDINGSURFACE:DETAILED,
    Block 5c66e941d668b317_0 Storey 0 Wall 0001,    !- Name
    wall,                     !- Surface Type
    EU_wall_Construction,     !- Construction Name
    5c66e941d668b317_F0_dwelling_0,    !- Zone Name
    ,                         !- Space Name
    outdoors,                 !- Outside Boundary Condition
    ,                         !- Outside Boundary Condition Object
    SunExposed,               !- Sun Exposure
    WindExposed,              !- Wind Exposure
    autocalculate,            !- View Factor to Ground
    autocalculate,            !- Number of Vertices
    705739.85,                !- Vertex 1 Xcoordinate
    5711479.584,              !- Vertex 1 Ycoordinate
    6,                        !- Vertex 1 Zcoordinate
    705739.85,                !- Vertex 2 Xcoordinate
    5711479.584,              !- Vertex 2 Ycoordinate
    0,                        !- Vertex 2 Zcoordinate
    705739.841,               !- Vertex 3 Xcoordinate
    5711489.394,              !- Vertex 3 Ycoordinate
    0,                        !- Vertex 3 Zcoordinate
    705739.841,               !- Vertex 4 Xcoordinate
    5711489.394,              !- Vertex 4 Ycoordinate
    6;                        !- Vertex 4 Zcoordinate

BUILDINGSURFACE:DETAILED,
    Block 5c66e941d668b317_0 Storey 0 Wall 0002,    !- Name
    wall,                     !- Surface Type
    EU_wall_Construction,     !- Construction Name
    5c66e941d668b317_F0_dwelling_0,    !- Zone Name
    ,                         !- Space Name
    Adiabatic,                !- Outside Boundary Condition
    ,                         !- Outside Boundary Condition Object
    NoSun,                    !- Sun Exposure
    NoWind,                   !- Wind Exposure
    autocalculate,            !- View Factor to Ground
    autocalculate,            !- Number of Vertices
    705739.841,               !- Vertex 1 Xcoordinate
    5711489.394,              !- Vertex 1 Ycoordinate
    6,                        !- Vertex 1 Zcoordinate
    705739.841,               !- Vertex 2 Xcoordinate
    5711489.394,              !- Vertex 2 Ycoordinate
    0,                        !- Vertex 2 Zcoordinate
    705744.893,               !- Vertex 3 Xcoordinate
    5711489.387,              !- Vertex 3 Ycoordinate
    0,                        !- Vertex 3 Zcoordinate
    705744.893,               !- Vertex 4 Xcoordinate
    5711489.387,              !- Vertex 4 Ycoordinate
    6;                        !- Vertex 4 Zcoordinate

BUILDINGSURFACE:DETAILED,
    Block 5c66e941d668b317_0 Storey 0 Wall 0003,    !- Name
    wall,                     !- Surface Type
    EU_wall_Construction,     !- Construction Name
    5c66e941d668b317_F0_dwelling_0,    !- Zone Name
    ,                         !- Space Name
    outdoors,                 !- Outside Boundary Condition
    ,                         !- Outside Boundary Condition Object
    SunExposed,               !- Sun Exposure
    WindExposed,              !- Wind Exposure
    autocalculate,            !- View Factor to Ground
    autocalculate,            !- Number of Vertices
    705744.893,               !- Vertex 1 Xcoordinate
    5711489.387,              !- Vertex 1 Ycoordinate
    6,                        !- Vertex 1 Zcoordinate
    705744.893,               !- Vertex 2 Xcoordinate
    5711489.387,              !- Vertex 2 Ycoordinate
    0,                        !- Vertex 2 Zcoordinate
    705744.928,               !- Vertex 3 Xcoordinate
    5711479.6,                !- Vertex 3 Ycoordinate
    0,                        !- Vertex 3 Zcoordinate
    705744.928,               !- Vertex 4 Xcoordinate
    5711479.6,                !- Vertex 4 Ycoordinate
    6;                        !- Vertex 4 Zcoordinate

BUILDINGSURFACE:DETAILED,
    Block 5c66e941d668b317_0 Storey 0 Wall 0004,    !- Name
    wall,                     !- Surface Type
    EU_wall_Construction,     !- Construction Name
    5c66e941d668b317_F0_dwelling_0,    !- Zone Name
    ,                         !- Space Name
    Adiabatic,                !- Outside Boundary Condition
    ,                         !- Outside Boundary Condition Object
    NoSun,                    !- Sun Exposure
    NoWind,                   !- Wind Exposure
    autocalculate,            !- View Factor to Ground
    autocalculate,            !- Number of Vertices
    705744.928,               !- Vertex 1 Xcoordinate
    5711479.6,                !- Vertex 1 Ycoordinate
    6,                        !- Vertex 1 Zcoordinate
    705744.928,               !- Vertex 2 Xcoordinate
    5711479.6,                !- Vertex 2 Ycoordinate
    0,                        !- Vertex 2 Zcoordinate
    705739.85,                !- Vertex 3 Xcoordinate
    5711479.584,              !- Vertex 3 Ycoordinate
    0,                        !- Vertex 3 Zcoordinate
    705739.85,                !- Vertex 4 Xcoordinate
    5711479.584,              !- Vertex 4 Ycoordinate
    6;                        !- Vertex 4 Zcoordinate

BUILDINGSURFACE:DETAILED,
    Block 5c66e941d668b317_0 Storey 0 Floor 0001,    !- Name
    floor,                    !- Surface Type
    EU_floor_Construction,    !- Construction Name
    5c66e941d668b317_F0_dwelling_0,    !- Zone Name
    ,                         !- Space Name
    ground,                   !- Outside Boundary Condition
    ,                         !- Outside Boundary Condition Object
    NoSun,                    !- Sun Exposure
    NoWind,                   !- Wind Exposure
    autocalculate,            !- View Factor to Ground
    autocalculate,            !- Number of Vertices
    705744.928,               !- Vertex 1 Xcoordinate
    5711479.6,                !- Vertex 1 Ycoordinate
    0,                        !- Vertex 1 Zcoordinate
    705744.893,               !- Vertex 2 Xcoordinate
    5711489.387,              !- Vertex 2 Ycoordinate
    0,                        !- Vertex 2 Zcoordinate
    705739.841,               !- Vertex 3 Xcoordinate
    5711489.394,              !- Vertex 3 Ycoordinate
    0,                        !- Vertex 3 Zcoordinate
    705739.85,                !- Vertex 4 Xcoordinate
    5711479.584,              !- Vertex 4 Ycoordinate
    0;                        !- Vertex 4 Zcoordinate

BUILDINGSURFACE:DETAILED,
    Block 5c66e941d668b317_0 Storey 0 Roof 0001,    !- Name
    roof,                     !- Surface Type
    EU_roof_Construction,     !- Construction Name
    5c66e941d668b317_F0_dwelling_0,    !- Zone Name
    ,                         !- Space Name
    outdoors,                 !- Outside Boundary Condition
    ,                         !- Outside Boundary Condition Object
    NoSun,                    !- Sun Exposure
    WindExposed,              !- Wind Exposure
    autocalculate,            !- View Factor to Ground
    autocalculate,            !- Number of Vertices
    705744.893,               !- Vertex 1 Xcoordinate
    5711489.387,              !- Vertex 1 Ycoordinate
    6,                        !- Vertex 1 Zcoordinate
    705744.928,               !- Vertex 2 Xcoordinate
    5711479.6,                !- Vertex 2 Ycoordinate
    6,                        !- Vertex 2 Zcoordinate
    705739.85,                !- Vertex 3 Xcoordinate
    5711479.584,              !- Vertex 3 Ycoordinate
    6,                        !- Vertex 3 Zcoordinate
    705739.841,               !- Vertex 4 Xcoordinate
    5711489.394,              !- Vertex 4 Ycoordinate
    6;                        !- Vertex 4 Zcoordinate

INTERNALMASS,
    5c66e941d668b317_F0_dwelling_0_EU_InternalMass,    !- Name
    EU_InternalMass_Construction,    !- Construction Name
    5c66e941d668b317_F0_dwelling_0,    !- Zone or ZoneList Name
    ,                         !- Space or SpaceList Name
    49.62950149962825;        !- Surface Area

SHADING:SITE:DETAILED,
    shade_way/328227201_1,    !- Name
    ,                         !- Transmittance Schedule Name
    autocalculate,            !- Number of Vertices
    705739.9622670165,        !- Vertex 1 Xcoordinate
    5711458.473319783,        !- Vertex 1 Ycoordinate
    6,                        !- Vertex 1 Zcoordinate
    705739.9622670165,        !- Vertex 2 Xcoordinate
    5711458.473319783,        !- Vertex 2 Ycoordinate
    0,                        !- Vertex 2 Zcoordinate
    705739.7956874166,        !- Vertex 3 Xcoordinate
    5711468.578318049,        !- Vertex 3 Ycoordinate
    0,                        !- Vertex 3 Zcoordinate
    705739.7956874166,        !- Vertex 4 Xcoordinate
    5711468.578318049,        !- Vertex 4 Ycoordinate
    6;                        !- Vertex 4 Zcoordinate

SHADING:SITE:DETAILED,
    shade_way/328227201_2,    !- Name
    ,                         !- Transmittance Schedule Name
    autocalculate,            !- Number of Vertices
    705739.7956874166,        !- Vertex 1 Xcoordinate
    5711468.578318049,        !- Vertex 1 Ycoordinate
    6,                        !- Vertex 1 Zcoordinate
    705739.7956874166,        !- Vertex 2 Xcoordinate
    5711468.578318049,        !- Vertex 2 Ycoordinate
    0,                        !- Vertex 2 Zcoordinate
    705745.0120239706,        !- Vertex 3 Xcoordinate
    5711468.664171644,        !- Vertex 3 Ycoordinate
    0,                        !- Vertex 3 Zcoordinate
    705745.0120239706,        !- Vertex 4 Xcoordinate
    5711468.664171644,        !- Vertex 4 Ycoordinate
    6;                        !- Vertex 4 Zcoordinate

SHADING:SITE:DETAILED,
    shade_way/328227201_3,    !- Name
    ,                         !- Transmittance Schedule Name
    autocalculate,            !- Number of Vertices
    705745.0120239706,        !- Vertex 1 Xcoordinate
    5711468.664171644,        !- Vertex 1 Ycoordinate
    6,                        !- Vertex 1 Zcoordinate
    705745.0120239706,        !- Vertex 2 Xcoordinate
    5711468.664171644,        !- Vertex 2 Ycoordinate
    0,                        !- Vertex 2 Zcoordinate
    705745.178603571,         !- Vertex 3 Xcoordinate
    5711458.559173377,        !- Vertex 3 Ycoordinate
    0,                        !- Vertex 3 Zcoordinate
    705745.178603571,         !- Vertex 4 Xcoordinate
    5711458.559173377,        !- Vertex 4 Ycoordinate
    6;                        !- Vertex 4 Zcoordinate

SHADING:SITE:DETAILED,
    shade_way/328227201_4,    !- Name
    ,                         !- Transmittance Schedule Name
    autocalculate,            !- Number of Vertices
    705745.178603571,         !- Vertex 1 Xcoordinate
    5711458.559173377,        !- Vertex 1 Ycoordinate
    6,                        !- Vertex 1 Zcoordinate
    705745.178603571,         !- Vertex 2 Xcoordinate
    5711458.559173377,        !- Vertex 2 Ycoordinate
    0,                        !- Vertex 2 Zcoordinate
    705739.9622670165,        !- Vertex 3 Xcoordinate
    5711458.473319783,        !- Vertex 3 Ycoordinate
    0,                        !- Vertex 3 Zcoordinate
    705739.9622670165,        !- Vertex 4 Xcoordinate
    5711458.473319783,        !- Vertex 4 Ycoordinate
    6;                        !- Vertex 4 Zcoordinate

SHADING:SITE:DETAILED,
    shade_way/1058438122_1,    !- Name
    ,                         !- Transmittance Schedule Name
    autocalculate,            !- Number of Vertices
    705714.0883125697,        !- Vertex 1 Xcoordinate
    5711468.349294695,        !- Vertex 1 Ycoordinate
    6,                        !- Vertex 1 Zcoordinate
    705714.0883125697,        !- Vertex 2 Xcoordinate
    5711468.349294695,        !- Vertex 2 Ycoordinate
    0,                        !- Vertex 2 Zcoordinate
    705724.4777111558,        !- Vertex 3 Xcoordinate
    5711468.346961671,        !- Vertex 3 Ycoordinate
    0,                        !- Vertex 3 Zcoordinate
    705724.4777111558,        !- Vertex 4 Xcoordinate
    5711468.346961671,        !- Vertex 4 Ycoordinate
    6;                        !- Vertex 4 Zcoordinate

SHADING:SITE:DETAILED,
    shade_way/1058438122_2,    !- Name
    ,                         !- Transmittance Schedule Name
    autocalculate,            !- Number of Vertices
    705724.4777111558,        !- Vertex 1 Xcoordinate
    5711468.346961671,        !- Vertex 1 Ycoordinate
    6,                        !- Vertex 1 Zcoordinate
    705724.4777111558,        !- Vertex 2 Xcoordinate
    5711468.346961671,        !- Vertex 2 Ycoordinate
    0,                        !- Vertex 2 Zcoordinate
    705724.4766313221,        !- Vertex 3 Xcoordinate
    5711464.136513841,        !- Vertex 3 Ycoordinate
    0,                        !- Vertex 3 Zcoordinate
    705724.4766313221,        !- Vertex 4 Xcoordinate
    5711464.136513841,        !- Vertex 4 Ycoordinate
    6;                        !- Vertex 4 Zcoordinate

SHADING:SITE:DETAILED,
    shade_way/1058438122_3,    !- Name
    ,                         !- Transmittance Schedule Name
    autocalculate,            !- Number of Vertices
    705724.4766313221,        !- Vertex 1 Xcoordinate
    5711464.136513841,        !- Vertex 1 Ycoordinate
    6,                        !- Vertex 1 Zcoordinate
    705724.4766313221,        !- Vertex 2 Xcoordinate
    5711464.136513841,        !- Vertex 2 Ycoordinate
    0,                        !- Vertex 2 Zcoordinate
    705714.0873054066,        !- Vertex 3 Xcoordinate
    5711464.139330822,        !- Vertex 3 Ycoordinate
    0,                        !- Vertex 3 Zcoordinate
    705714.0873054066,        !- Vertex 4 Xcoordinate
    5711464.139330822,        !- Vertex 4 Ycoordinate
    6;                        !- Vertex 4 Zcoordinate

SHADING:SITE:DETAILED,
    shade_way/1058438122_4,    !- Name
    ,                         !- Transmittance Schedule Name
    autocalculate,            !- Number of Vertices
    705714.0873054066,        !- Vertex 1 Xcoordinate
    5711464.139330822,        !- Vertex 1 Ycoordinate
    6,                        !- Vertex 1 Zcoordinate
    705714.0873054066,        !- Vertex 2 Xcoordinate
    5711464.139330822,        !- Vertex 2 Ycoordinate
    0,                        !- Vertex 2 Zcoordinate
    705714.0883125697,        !- Vertex 3 Xcoordinate
    5711468.349294695,        !- Vertex 3 Ycoordinate
    0,                        !- Vertex 3 Zcoordinate
    705714.0883125697,        !- Vertex 4 Xcoordinate
    5711468.349294695,        !- Vertex 4 Ycoordinate
    6;                        !- Vertex 4 Zcoordinate

SHADING:SITE:DETAILED,
    shade_way/1058438123_1,    !- Name
    ,                         !- Transmittance Schedule Name
    autocalculate,            !- Number of Vertices
    705714.0737860192,        !- Vertex 1 Xcoordinate
    5711472.869632762,        !- Vertex 1 Ycoordinate
    6,                        !- Vertex 1 Zcoordinate
    705714.0737860192,        !- Vertex 2 Xcoordinate
    5711472.869632762,        !- Vertex 2 Ycoordinate
    0,                        !- Vertex 2 Zcoordinate
    705724.4806202092,        !- Vertex 3 Xcoordinate
    5711472.901822204,        !- Vertex 3 Ycoordinate
    0,                        !- Vertex 3 Zcoordinate
    705724.4806202092,        !- Vertex 4 Xcoordinate
    5711472.901822204,        !- Vertex 4 Ycoordinate
    6;                        !- Vertex 4 Zcoordinate

SHADING:SITE:DETAILED,
    shade_way/1058438123_2,    !- Name
    ,                         !- Transmittance Schedule Name
    autocalculate,            !- Number of Vertices
    705724.4806202092,        !- Vertex 1 Xcoordinate
    5711472.901822204,        !- Vertex 1 Ycoordinate
    6,                        !- Vertex 1 Zcoordinate
    705724.4806202092,        !- Vertex 2 Xcoordinate
    5711472.901822204,        !- Vertex 2 Ycoordinate
    0,                        !- Vertex 2 Zcoordinate
    705724.4945080517,        !- Vertex 3 Xcoordinate
    5711468.346792033,        !- Vertex 3 Ycoordinate
    0,                        !- Vertex 3 Zcoordinate
    705724.4945080517,        !- Vertex 4 Xcoordinate
    5711468.346792033,        !- Vertex 4 Ycoordinate
    6;                        !- Vertex 4 Zcoordinate

SHADING:SITE:DETAILED,
    shade_way/1058438123_3,    !- Name
    ,                         !- Transmittance Schedule Name
    autocalculate,            !- Number of Vertices
    705724.4945080517,        !- Vertex 1 Xcoordinate
    5711468.346792033,        !- Vertex 1 Ycoordinate
    6,                        !- Vertex 1 Zcoordinate
    705724.4945080517,        !- Vertex 2 Xcoordinate
    5711468.346792033,        !- Vertex 2 Ycoordinate
    0,                        !- Vertex 2 Zcoordinate
    705714.0876738616,        !- Vertex 3 Xcoordinate
    5711468.314602594,        !- Vertex 3 Ycoordinate
    0,                        !- Vertex 3 Zcoordinate
    705714.0876738616,        !- Vertex 4 Xcoordinate
    5711468.314602594,        !- Vertex 4 Ycoordinate
    6;                        !- Vertex 4 Zcoordinate

SHADING:SITE:DETAILED,
    shade_way/1058438123_4,    !- Name
    ,                         !- Transmittance Schedule Name
    autocalculate,            !- Number of Vertices
    705714.0876738616,        !- Vertex 1 Xcoordinate
    5711468.314602594,        !- Vertex 1 Ycoordinate
    6,                        !- Vertex 1 Zcoordinate
    705714.0876738616,        !- Vertex 2 Xcoordinate
    5711468.314602594,        !- Vertex 2 Ycoordinate
    0,                        !- Vertex 2 Zcoordinate
    705714.0737860192,        !- Vertex 3 Xcoordinate
    5711472.869632762,        !- Vertex 3 Ycoordinate
    0,                        !- Vertex 3 Zcoordinate
    705714.0737860192,        !- Vertex 4 Xcoordinate
    5711472.869632762,        !- Vertex 4 Ycoordinate
    6;                        !- Vertex 4 Zcoordinate

SHADING:SITE:DETAILED,
    shade_way/1057778443_1,    !- Name
    ,                         !- Transmittance Schedule Name
    autocalculate,            !- Number of Vertices
    705745.0136599264,        !- Vertex 1 Xcoordinate
    5711468.578321921,        !- Vertex 1 Ycoordinate
    6,                        !- Vertex 1 Zcoordinate
    705745.0136599264,        !- Vertex 2 Xcoordinate
    5711468.578321921,        !- Vertex 2 Ycoordinate
    0,                        !- Vertex 2 Zcoordinate
    705739.7956874166,        !- Vertex 3 Xcoordinate
    5711468.578318049,        !- Vertex 3 Ycoordinate
    0,                        !- Vertex 3 Zcoordinate
    705739.7956874166,        !- Vertex 4 Xcoordinate
    5711468.578318049,        !- Vertex 4 Ycoordinate
    6;                        !- Vertex 4 Zcoordinate

SHADING:SITE:DETAILED,
    shade_way/1057778443_2,    !- Name
    ,                         !- Transmittance Schedule Name
    autocalculate,            !- Number of Vertices
    705739.7956874166,        !- Vertex 1 Xcoordinate
    5711468.578318049,        !- Vertex 1 Ycoordinate
    6,                        !- Vertex 1 Zcoordinate
    705739.7956874166,        !- Vertex 2 Xcoordinate
    5711468.578318049,        !- Vertex 2 Ycoordinate
    0,                        !- Vertex 2 Zcoordinate
    705739.795916403,         !- Vertex 3 Xcoordinate
    5711479.599992538,        !- Vertex 3 Ycoordinate
    0,                        !- Vertex 3 Zcoordinate
    705739.795916403,         !- Vertex 4 Xcoordinate
    5711479.599992538,        !- Vertex 4 Ycoordinate
    6;                        !- Vertex 4 Zcoordinate

SHADING:SITE:DETAILED,
    shade_way/1057778443_3,    !- Name
    ,                         !- Transmittance Schedule Name
    autocalculate,            !- Number of Vertices
    705739.795916403,         !- Vertex 1 Xcoordinate
    5711479.599992538,        !- Vertex 1 Ycoordinate
    6,                        !- Vertex 1 Zcoordinate
    705739.795916403,         !- Vertex 2 Xcoordinate
    5711479.599992538,        !- Vertex 2 Ycoordinate
    0,                        !- Vertex 2 Zcoordinate
    705745.0138889129,        !- Vertex 3 Xcoordinate
    5711479.599996411,        !- Vertex 3 Ycoordinate
    0,                        !- Vertex 3 Zcoordinate
    705745.0138889129,        !- Vertex 4 Xcoordinate
    5711479.599996411,        !- Vertex 4 Ycoordinate
    6;                        !- Vertex 4 Zcoordinate

SHADING:SITE:DETAILED,
    shade_way/1057778443_4,    !- Name
    ,                         !- Transmittance Schedule Name
    autocalculate,            !- Number of Vertices
    705745.0138889129,        !- Vertex 1 Xcoordinate
    5711479.599996411,        !- Vertex 1 Ycoordinate
    6,                        !- Vertex 1 Zcoordinate
    705745.0138889129,        !- Vertex 2 Xcoordinate
    5711479.599996411,        !- Vertex 2 Ycoordinate
    0,                        !- Vertex 2 Zcoordinate
    705745.0136599264,        !- Vertex 3 Xcoordinate
    5711468.578321921,        !- Vertex 3 Ycoordinate
    0,                        !- Vertex 3 Zcoordinate
    705745.0136599264,        !- Vertex 4 Xcoordinate
    5711468.578321921,        !- Vertex 4 Ycoordinate
    6;                        !- Vertex 4 Zcoordinate

SHADING:SITE:DETAILED,
    shade_way/1058438124_1,    !- Name
    ,                         !- Transmittance Schedule Name
    autocalculate,            !- Number of Vertices
    705714.0770809677,        !- Vertex 1 Xcoordinate
    5711476.901102802,        !- Vertex 1 Ycoordinate
    6,                        !- Vertex 1 Zcoordinate
    705714.0770809677,        !- Vertex 2 Xcoordinate
    5711476.901102802,        !- Vertex 2 Ycoordinate
    0,                        !- Vertex 2 Zcoordinate
    705724.5286822566,        !- Vertex 3 Xcoordinate
    5711476.857153958,        !- Vertex 3 Ycoordinate
    0,                        !- Vertex 3 Zcoordinate
    705724.5286822566,        !- Vertex 4 Xcoordinate
    5711476.857153958,        !- Vertex 4 Ycoordinate
    6;                        !- Vertex 4 Zcoordinate

SHADING:SITE:DETAILED,
    shade_way/1058438124_2,    !- Name
    ,                         !- Transmittance Schedule Name
    autocalculate,            !- Number of Vertices
    705724.5286822566,        !- Vertex 1 Xcoordinate
    5711476.857153958,        !- Vertex 1 Ycoordinate
    6,                        !- Vertex 1 Zcoordinate
    705724.5286822566,        !- Vertex 2 Xcoordinate
    5711476.857153958,        !- Vertex 2 Ycoordinate
    0,                        !- Vertex 2 Zcoordinate
    705724.511440947,         !- Vertex 3 Xcoordinate
    5711472.825778324,        !- Vertex 3 Ycoordinate
    0,                        !- Vertex 3 Zcoordinate
    705724.511440947,         !- Vertex 4 Xcoordinate
    5711472.825778324,        !- Vertex 4 Ycoordinate
    6;                        !- Vertex 4 Zcoordinate

SHADING:SITE:DETAILED,
    shade_way/1058438124_3,    !- Name
    ,                         !- Transmittance Schedule Name
    autocalculate,            !- Number of Vertices
    705724.511440947,         !- Vertex 1 Xcoordinate
    5711472.825778324,        !- Vertex 1 Ycoordinate
    6,                        !- Vertex 1 Zcoordinate
    705724.511440947,         !- Vertex 2 Xcoordinate
    5711472.825778324,        !- Vertex 2 Ycoordinate
    0,                        !- Vertex 2 Zcoordinate
    705714.0598396579,        !- Vertex 3 Xcoordinate
    5711472.869727168,        !- Vertex 3 Ycoordinate
    0,                        !- Vertex 3 Zcoordinate
    705714.0598396579,        !- Vertex 4 Xcoordinate
    5711472.869727168,        !- Vertex 4 Ycoordinate
    6;                        !- Vertex 4 Zcoordinate

SHADING:SITE:DETAILED,
    shade_way/1058438124_4,    !- Name
    ,                         !- Transmittance Schedule Name
    autocalculate,            !- Number of Vertices
    705714.0598396579,        !- Vertex 1 Xcoordinate
    5711472.869727168,        !- Vertex 1 Ycoordinate
    6,                        !- Vertex 1 Zcoordinate
    705714.0598396579,        !- Vertex 2 Xcoordinate
    5711472.869727168,        !- Vertex 2 Ycoordinate
    0,                        !- Vertex 2 Zcoordinate
    705714.0770809677,        !- Vertex 3 Xcoordinate
    5711476.901102802,        !- Vertex 3 Ycoordinate
    0,                        !- Vertex 3 Zcoordinate
    705714.0770809677,        !- Vertex 4 Xcoordinate
    5711476.901102802,        !- Vertex 4 Ycoordinate
    6;                        !- Vertex 4 Zcoordinate

SHADING:SITE:DETAILED,
    shade_way/1058438125_1,    !- Name
    ,                         !- Transmittance Schedule Name
    autocalculate,            !- Number of Vertices
    705714.067745121,         !- Vertex 1 Xcoordinate
    5711481.478202245,        !- Vertex 1 Ycoordinate
    6,                        !- Vertex 1 Zcoordinate
    705714.067745121,         !- Vertex 2 Xcoordinate
    5711481.478202245,        !- Vertex 2 Ycoordinate
    0,                        !- Vertex 2 Zcoordinate
    705724.5192078856,        !- Vertex 3 Xcoordinate
    5711481.500167061,        !- Vertex 3 Ycoordinate
    0,                        !- Vertex 3 Zcoordinate
    705724.5192078856,        !- Vertex 4 Xcoordinate
    5711481.500167061,        !- Vertex 4 Ycoordinate
    6;                        !- Vertex 4 Zcoordinate

SHADING:SITE:DETAILED,
    shade_way/1058438125_2,    !- Name
    ,                         !- Transmittance Schedule Name
    autocalculate,            !- Number of Vertices
    705724.5192078856,        !- Vertex 1 Xcoordinate
    5711481.500167061,        !- Vertex 1 Ycoordinate
    6,                        !- Vertex 1 Zcoordinate
    705724.5192078856,        !- Vertex 2 Xcoordinate
    5711481.500167061,        !- Vertex 2 Ycoordinate
    0,                        !- Vertex 2 Zcoordinate
    705724.5286822566,        !- Vertex 3 Xcoordinate
    5711476.857153958,        !- Vertex 3 Ycoordinate
    0,                        !- Vertex 3 Zcoordinate
    705724.5286822566,        !- Vertex 4 Xcoordinate
    5711476.857153958,        !- Vertex 4 Ycoordinate
    6;                        !- Vertex 4 Zcoordinate

SHADING:SITE:DETAILED,
    shade_way/1058438125_3,    !- Name
    ,                         !- Transmittance Schedule Name
    autocalculate,            !- Number of Vertices
    705724.5286822566,        !- Vertex 1 Xcoordinate
    5711476.857153958,        !- Vertex 1 Ycoordinate
    6,                        !- Vertex 1 Zcoordinate
    705724.5286822566,        !- Vertex 2 Xcoordinate
    5711476.857153958,        !- Vertex 2 Ycoordinate
    0,                        !- Vertex 2 Zcoordinate
    705714.0775022663,        !- Vertex 3 Xcoordinate
    5711476.835483348,        !- Vertex 3 Ycoordinate
    0,                        !- Vertex 3 Zcoordinate
    705714.0775022663,        !- Vertex 4 Xcoordinate
    5711476.835483348,        !- Vertex 4 Ycoordinate
    6;                        !- Vertex 4 Zcoordinate

SHADING:SITE:DETAILED,
    shade_way/1058438125_4,    !- Name
    ,                         !- Transmittance Schedule Name
    autocalculate,            !- Number of Vertices
    705714.0775022663,        !- Vertex 1 Xcoordinate
    5711476.835483348,        !- Vertex 1 Ycoordinate
    6,                        !- Vertex 1 Zcoordinate
    705714.0775022663,        !- Vertex 2 Xcoordinate
    5711476.835483348,        !- Vertex 2 Ycoordinate
    0,                        !- Vertex 2 Zcoordinate
    705714.067745121,         !- Vertex 3 Xcoordinate
    5711481.478202245,        !- Vertex 3 Ycoordinate
    0,                        !- Vertex 3 Zcoordinate
    705714.067745121,         !- Vertex 4 Xcoordinate
    5711481.478202245,        !- Vertex 4 Ycoordinate
    6;                        !- Vertex 4 Zcoordinate

SHADING:SITE:DETAILED,
    shade_way/1057778426_1,    !- Name
    ,                         !- Transmittance Schedule Name
    autocalculate,            !- Number of Vertices
    705764.1554353635,        !- Vertex 1 Xcoordinate
    5711483.998812933,        !- Vertex 1 Ycoordinate
    9,                        !- Vertex 1 Zcoordinate
    705764.1554353635,        !- Vertex 2 Xcoordinate
    5711483.998812933,        !- Vertex 2 Ycoordinate
    0,                        !- Vertex 2 Zcoordinate
    705772.1791861559,        !- Vertex 3 Xcoordinate
    5711487.249405439,        !- Vertex 3 Ycoordinate
    0,                        !- Vertex 3 Zcoordinate
    705772.1791861559,        !- Vertex 4 Xcoordinate
    5711487.249405439,        !- Vertex 4 Ycoordinate
    9;                        !- Vertex 4 Zcoordinate

SHADING:SITE:DETAILED,
    shade_way/1057778426_2,    !- Name
    ,                         !- Transmittance Schedule Name
    autocalculate,            !- Number of Vertices
    705772.1791861559,        !- Vertex 1 Xcoordinate
    5711487.249405439,        !- Vertex 1 Ycoordinate
    9,                        !- Vertex 1 Zcoordinate
    705772.1791861559,        !- Vertex 2 Xcoordinate
    5711487.249405439,        !- Vertex 2 Ycoordinate
    0,                        !- Vertex 2 Zcoordinate
    705774.196041011,         !- Vertex 3 Xcoordinate
    5711482.267854314,        !- Vertex 3 Ycoordinate
    0,                        !- Vertex 3 Zcoordinate
    705774.196041011,         !- Vertex 4 Xcoordinate
    5711482.267854314,        !- Vertex 4 Ycoordinate
    9;                        !- Vertex 4 Zcoordinate

SHADING:SITE:DETAILED,
    shade_way/1057778426_3,    !- Name
    ,                         !- Transmittance Schedule Name
    autocalculate,            !- Number of Vertices
    705774.196041011,         !- Vertex 1 Xcoordinate
    5711482.267854314,        !- Vertex 1 Ycoordinate
    9,                        !- Vertex 1 Zcoordinate
    705774.196041011,         !- Vertex 2 Xcoordinate
    5711482.267854314,        !- Vertex 2 Ycoordinate
    0,                        !- Vertex 2 Zcoordinate
    705766.1741593893,        !- Vertex 3 Xcoordinate
    5711479.018388911,        !- Vertex 3 Ycoordinate
    0,                        !- Vertex 3 Zcoordinate
    705766.1741593893,        !- Vertex 4 Xcoordinate
    5711479.018388911,        !- Vertex 4 Ycoordinate
    9;                        !- Vertex 4 Zcoordinate

SHADING:SITE:DETAILED,
    shade_way/1057778426_4,    !- Name
    ,                         !- Transmittance Schedule Name
    autocalculate,            !- Number of Vertices
    705766.1741593893,        !- Vertex 1 Xcoordinate
    5711479.018388911,        !- Vertex 1 Ycoordinate
    9,                        !- Vertex 1 Zcoordinate
    705766.1741593893,        !- Vertex 2 Xcoordinate
    5711479.018388911,        !- Vertex 2 Ycoordinate
    0,                        !- Vertex 2 Zcoordinate
    705764.1554353635,        !- Vertex 3 Xcoordinate
    5711483.998812933,        !- Vertex 3 Ycoordinate
    0,                        !- Vertex 3 Zcoordinate
    705764.1554353635,        !- Vertex 4 Xcoordinate
    5711483.998812933,        !- Vertex 4 Ycoordinate
    9;                        !- Vertex 4 Zcoordinate

SHADING:SITE:DETAILED,
    shade_way/1058438126_1,    !- Name
    ,                         !- Transmittance Schedule Name
    autocalculate,            !- Number of Vertices
    705714.0858004031,        !- Vertex 1 Xcoordinate
    5711485.71108771,         !- Vertex 1 Ycoordinate
    6,                        !- Vertex 1 Zcoordinate
    705714.0858004031,        !- Vertex 2 Xcoordinate
    5711485.71108771,         !- Vertex 2 Ycoordinate
    0,                        !- Vertex 2 Zcoordinate
    705724.5184728035,        !- Vertex 3 Xcoordinate
    5711485.676681811,        !- Vertex 3 Ycoordinate
    0,                        !- Vertex 3 Zcoordinate
    705724.5184728035,        !- Vertex 4 Xcoordinate
    5711485.676681811,        !- Vertex 4 Ycoordinate
    6;                        !- Vertex 4 Zcoordinate

SHADING:SITE:DETAILED,
    shade_way/1058438126_2,    !- Name
    ,                         !- Transmittance Schedule Name
    autocalculate,            !- Number of Vertices
    705724.5184728035,        !- Vertex 1 Xcoordinate
    5711485.676681811,        !- Vertex 1 Ycoordinate
    6,                        !- Vertex 1 Zcoordinate
    705724.5184728035,        !- Vertex 2 Xcoordinate
    5711485.676681811,        !- Vertex 2 Ycoordinate
    0,                        !- Vertex 2 Zcoordinate
    705724.504286614,         !- Vertex 3 Xcoordinate
    5711481.443745698,        !- Vertex 3 Ycoordinate
    0,                        !- Vertex 3 Zcoordinate
    705724.504286614,         !- Vertex 4 Xcoordinate
    5711481.443745698,        !- Vertex 4 Ycoordinate
    6;                        !- Vertex 4 Zcoordinate

SHADING:SITE:DETAILED,
    shade_way/1058438126_3,    !- Name
    ,                         !- Transmittance Schedule Name
    autocalculate,            !- Number of Vertices
    705724.504286614,         !- Vertex 1 Xcoordinate
    5711481.443745698,        !- Vertex 1 Ycoordinate
    6,                        !- Vertex 1 Zcoordinate
    705724.504286614,         !- Vertex 2 Xcoordinate
    5711481.443745698,        !- Vertex 2 Ycoordinate
    0,                        !- Vertex 2 Zcoordinate
    705714.0721603178,        !- Vertex 3 Xcoordinate
    5711481.477917917,        !- Vertex 3 Ycoordinate
    0,                        !- Vertex 3 Zcoordinate
    705714.0721603178,        !- Vertex 4 Xcoordinate
    5711481.477917917,        !- Vertex 4 Ycoordinate
    6;                        !- Vertex 4 Zcoordinate

SHADING:SITE:DETAILED,
    shade_way/1058438126_4,    !- Name
    ,                         !- Transmittance Schedule Name
    autocalculate,            !- Number of Vertices
    705714.0721603178,        !- Vertex 1 Xcoordinate
    5711481.477917917,        !- Vertex 1 Ycoordinate
    6,                        !- Vertex 1 Zcoordinate
    705714.0721603178,        !- Vertex 2 Xcoordinate
    5711481.477917917,        !- Vertex 2 Ycoordinate
    0,                        !- Vertex 2 Zcoordinate
    705714.0858004031,        !- Vertex 3 Xcoordinate
    5711485.71108771,         !- Vertex 3 Ycoordinate
    0,                        !- Vertex 3 Zcoordinate
    705714.0858004031,        !- Vertex 4 Xcoordinate
    5711485.71108771,         !- Vertex 4 Ycoordinate
    6;                        !- Vertex 4 Zcoordinate

SHADING:SITE:DETAILED,
    shade_way/1058438127_1,    !- Name
    ,                         !- Transmittance Schedule Name
    autocalculate,            !- Number of Vertices
    705724.5184728035,        !- Vertex 1 Xcoordinate
    5711485.676681811,        !- Vertex 1 Ycoordinate
    6,                        !- Vertex 1 Zcoordinate
    705724.5184728035,        !- Vertex 2 Xcoordinate
    5711485.676681811,        !- Vertex 2 Ycoordinate
    0,                        !- Vertex 2 Zcoordinate
    705714.1020233994,        !- Vertex 3 Xcoordinate
    5711485.710918447,        !- Vertex 3 Ycoordinate
    0,                        !- Vertex 3 Zcoordinate
    705714.1020233994,        !- Vertex 4 Xcoordinate
    5711485.710918447,        !- Vertex 4 Ycoordinate
    6;                        !- Vertex 4 Zcoordinate

SHADING:SITE:DETAILED,
    shade_way/1058438127_2,    !- Name
    ,                         !- Transmittance Schedule Name
    autocalculate,            !- Number of Vertices
    705714.1020233994,        !- Vertex 1 Xcoordinate
    5711485.710918447,        !- Vertex 1 Ycoordinate
    6,                        !- Vertex 1 Zcoordinate
    705714.1020233994,        !- Vertex 2 Xcoordinate
    5711485.710918447,        !- Vertex 2 Ycoordinate
    0,                        !- Vertex 2 Zcoordinate
    705714.115628946,         !- Vertex 3 Xcoordinate
    5711489.93357994,         !- Vertex 3 Ycoordinate
    0,                        !- Vertex 3 Zcoordinate
    705714.115628946,         !- Vertex 4 Xcoordinate
    5711489.93357994,         !- Vertex 4 Ycoordinate
    6;                        !- Vertex 4 Zcoordinate

SHADING:SITE:DETAILED,
    shade_way/1058438127_3,    !- Name
    ,                         !- Transmittance Schedule Name
    autocalculate,            !- Number of Vertices
    705714.115628946,         !- Vertex 1 Xcoordinate
    5711489.93357994,         !- Vertex 1 Ycoordinate
    6,                        !- Vertex 1 Zcoordinate
    705714.115628946,         !- Vertex 2 Xcoordinate
    5711489.93357994,         !- Vertex 2 Ycoordinate
    0,                        !- Vertex 2 Zcoordinate
    705724.5320783502,        !- Vertex 3 Xcoordinate
    5711489.899343306,        !- Vertex 3 Ycoordinate
    0,                        !- Vertex 3 Zcoordinate
    705724.5320783502,        !- Vertex 4 Xcoordinate
    5711489.899343306,        !- Vertex 4 Ycoordinate
    6;                        !- Vertex 4 Zcoordinate

SHADING:SITE:DETAILED,
    shade_way/1058438127_4,    !- Name
    ,                         !- Transmittance Schedule Name
    autocalculate,            !- Number of Vertices
    705724.5320783502,        !- Vertex 1 Xcoordinate
    5711489.899343306,        !- Vertex 1 Ycoordinate
    6,                        !- Vertex 1 Zcoordinate
    705724.5320783502,        !- Vertex 2 Xcoordinate
    5711489.899343306,        !- Vertex 2 Ycoordinate
    0,                        !- Vertex 2 Zcoordinate
    705724.5184728035,        !- Vertex 3 Xcoordinate
    5711485.676681811,        !- Vertex 3 Ycoordinate
    0,                        !- Vertex 3 Zcoordinate
    705724.5184728035,        !- Vertex 4 Xcoordinate
    5711485.676681811,        !- Vertex 4 Ycoordinate
    6;                        !- Vertex 4 Zcoordinate

SHADING:SITE:DETAILED,
    shade_way/1057778427_1,    !- Name
    ,                         !- Transmittance Schedule Name
    autocalculate,            !- Number of Vertices
    705762.1952575573,        !- Vertex 1 Xcoordinate
    5711488.240260404,        !- Vertex 1 Ycoordinate
    9,                        !- Vertex 1 Zcoordinate
    705762.1952575573,        !- Vertex 2 Xcoordinate
    5711488.240260404,        !- Vertex 2 Ycoordinate
    0,                        !- Vertex 2 Zcoordinate
    705769.9056690322,        !- Vertex 3 Xcoordinate
    5711491.803445643,        !- Vertex 3 Ycoordinate
    0,                        !- Vertex 3 Zcoordinate
    705769.9056690322,        !- Vertex 4 Xcoordinate
    5711491.803445643,        !- Vertex 4 Ycoordinate
    9;                        !- Vertex 4 Zcoordinate

SHADING:SITE:DETAILED,
    shade_way/1057778427_2,    !- Name
    ,                         !- Transmittance Schedule Name
    autocalculate,            !- Number of Vertices
    705769.9056690322,        !- Vertex 1 Xcoordinate
    5711491.803445643,        !- Vertex 1 Ycoordinate
    9,                        !- Vertex 1 Zcoordinate
    705769.9056690322,        !- Vertex 2 Xcoordinate
    5711491.803445643,        !- Vertex 2 Ycoordinate
    0,                        !- Vertex 2 Zcoordinate
    705772.0370066356,        !- Vertex 3 Xcoordinate
    5711487.191623809,        !- Vertex 3 Ycoordinate
    0,                        !- Vertex 3 Zcoordinate
    705772.0370066356,        !- Vertex 4 Xcoordinate
    5711487.191623809,        !- Vertex 4 Ycoordinate
    9;                        !- Vertex 4 Zcoordinate

SHADING:SITE:DETAILED,
    shade_way/1057778427_3,    !- Name
    ,                         !- Transmittance Schedule Name
    autocalculate,            !- Number of Vertices
    705772.0370066356,        !- Vertex 1 Xcoordinate
    5711487.191623809,        !- Vertex 1 Ycoordinate
    9,                        !- Vertex 1 Zcoordinate
    705772.0370066356,        !- Vertex 2 Xcoordinate
    5711487.191623809,        !- Vertex 2 Ycoordinate
    0,                        !- Vertex 2 Zcoordinate
    705764.3266396008,        !- Vertex 3 Xcoordinate
    5711483.628141906,        !- Vertex 3 Ycoordinate
    0,                        !- Vertex 3 Zcoordinate
    705764.3266396008,        !- Vertex 4 Xcoordinate
    5711483.628141906,        !- Vertex 4 Ycoordinate
    9;                        !- Vertex 4 Zcoordinate

SHADING:SITE:DETAILED,
    shade_way/1057778427_4,    !- Name
    ,                         !- Transmittance Schedule Name
    autocalculate,            !- Number of Vertices
    705764.3266396008,        !- Vertex 1 Xcoordinate
    5711483.628141906,        !- Vertex 1 Ycoordinate
    9,                        !- Vertex 1 Zcoordinate
    705764.3266396008,        !- Vertex 2 Xcoordinate
    5711483.628141906,        !- Vertex 2 Ycoordinate
    0,                        !- Vertex 2 Zcoordinate
    705762.1952575573,        !- Vertex 3 Xcoordinate
    5711488.240260404,        !- Vertex 3 Ycoordinate
    0,                        !- Vertex 3 Zcoordinate
    705762.1952575573,        !- Vertex 4 Xcoordinate
    5711488.240260404,        !- Vertex 4 Ycoordinate
    9;                        !- Vertex 4 Zcoordinate

SHADING:SITE:DETAILED,
    shade_way/1057778428_1,    !- Name
    ,                         !- Transmittance Schedule Name
    autocalculate,            !- Number of Vertices
    705760.0918616398,        !- Vertex 1 Xcoordinate
    5711492.197372706,        !- Vertex 1 Ycoordinate
    9,                        !- Vertex 1 Zcoordinate
    705760.0918616398,        !- Vertex 2 Xcoordinate
    5711492.197372706,        !- Vertex 2 Ycoordinate
    0,                        !- Vertex 2 Zcoordinate
    705767.7515872158,        !- Vertex 3 Xcoordinate
    5711496.405720083,        !- Vertex 3 Ycoordinate
    0,                        !- Vertex 3 Zcoordinate
    705767.7515872158,        !- Vertex 4 Xcoordinate
    5711496.405720083,        !- Vertex 4 Ycoordinate
    9;                        !- Vertex 4 Zcoordinate

SHADING:SITE:DETAILED,
    shade_way/1057778428_2,    !- Name
    ,                         !- Transmittance Schedule Name
    autocalculate,            !- Number of Vertices
    705767.7515872158,        !- Vertex 1 Xcoordinate
    5711496.405720083,        !- Vertex 1 Ycoordinate
    9,                        !- Vertex 1 Zcoordinate
    705767.7515872158,        !- Vertex 2 Xcoordinate
    5711496.405720083,        !- Vertex 2 Ycoordinate
    0,                        !- Vertex 2 Zcoordinate
    705770.189474964,         !- Vertex 3 Xcoordinate
    5711491.968393671,        !- Vertex 3 Ycoordinate
    0,                        !- Vertex 3 Zcoordinate
    705770.189474964,         !- Vertex 4 Xcoordinate
    5711491.968393671,        !- Vertex 4 Ycoordinate
    9;                        !- Vertex 4 Zcoordinate

SHADING:SITE:DETAILED,
    shade_way/1057778428_3,    !- Name
    ,                         !- Transmittance Schedule Name
    autocalculate,            !- Number of Vertices
    705770.189474964,         !- Vertex 1 Xcoordinate
    5711491.968393671,        !- Vertex 1 Ycoordinate
    9,                        !- Vertex 1 Zcoordinate
    705770.189474964,         !- Vertex 2 Xcoordinate
    5711491.968393671,        !- Vertex 2 Ycoordinate
    0,                        !- Vertex 2 Zcoordinate
    705762.5297493864,        !- Vertex 3 Xcoordinate
    5711487.760046296,        !- Vertex 3 Ycoordinate
    0,                        !- Vertex 3 Zcoordinate
    705762.5297493864,        !- Vertex 4 Xcoordinate
    5711487.760046296,        !- Vertex 4 Ycoordinate
    9;                        !- Vertex 4 Zcoordinate

SHADING:SITE:DETAILED,
    shade_way/1057778428_4,    !- Name
    ,                         !- Transmittance Schedule Name
    autocalculate,            !- Number of Vertices
    705762.5297493864,        !- Vertex 1 Xcoordinate
    5711487.760046296,        !- Vertex 1 Ycoordinate
    9,                        !- Vertex 1 Zcoordinate
    705762.5297493864,        !- Vertex 2 Xcoordinate
    5711487.760046296,        !- Vertex 2 Ycoordinate
    0,                        !- Vertex 2 Zcoordinate
    705760.0918616398,        !- Vertex 3 Xcoordinate
    5711492.197372706,        !- Vertex 3 Ycoordinate
    0,                        !- Vertex 3 Zcoordinate
    705760.0918616398,        !- Vertex 4 Xcoordinate
    5711492.197372706,        !- Vertex 4 Ycoordinate
    9;                        !- Vertex 4 Zcoordinate

SHADING:SITE:DETAILED,
    shade_way/1058438128_1,    !- Name
    ,                         !- Transmittance Schedule Name
    autocalculate,            !- Number of Vertices
    705724.5591358463,        !- Vertex 1 Xcoordinate
    5711495.649079537,        !- Vertex 1 Ycoordinate
    9,                        !- Vertex 1 Zcoordinate
    705724.5591358463,        !- Vertex 2 Xcoordinate
    5711495.649079537,        !- Vertex 2 Ycoordinate
    0,                        !- Vertex 2 Zcoordinate
    705724.5139116795,        !- Vertex 3 Xcoordinate
    5711489.852456138,        !- Vertex 3 Ycoordinate
    0,                        !- Vertex 3 Zcoordinate
    705724.5139116795,        !- Vertex 4 Xcoordinate
    5711489.852456138,        !- Vertex 4 Ycoordinate
    9;                        !- Vertex 4 Zcoordinate

SHADING:SITE:DETAILED,
    shade_way/1058438128_2,    !- Name
    ,                         !- Transmittance Schedule Name
    autocalculate,            !- Number of Vertices
    705724.5139116795,        !- Vertex 1 Xcoordinate
    5711489.852456138,        !- Vertex 1 Ycoordinate
    9,                        !- Vertex 1 Zcoordinate
    705724.5139116795,        !- Vertex 2 Xcoordinate
    5711489.852456138,        !- Vertex 2 Ycoordinate
    0,                        !- Vertex 2 Zcoordinate
    705714.1462100332,        !- Vertex 3 Xcoordinate
    5711489.933363485,        !- Vertex 3 Ycoordinate
    0,                        !- Vertex 3 Zcoordinate
    705714.1462100332,        !- Vertex 4 Xcoordinate
    5711489.933363485,        !- Vertex 4 Ycoordinate
    9;                        !- Vertex 4 Zcoordinate

SHADING:SITE:DETAILED,
    shade_way/1058438128_3,    !- Name
    ,                         !- Transmittance Schedule Name
    autocalculate,            !- Number of Vertices
    705714.1462100332,        !- Vertex 1 Xcoordinate
    5711489.933363485,        !- Vertex 1 Ycoordinate
    9,                        !- Vertex 1 Zcoordinate
    705714.1462100332,        !- Vertex 2 Xcoordinate
    5711489.933363485,        !- Vertex 2 Ycoordinate
    0,                        !- Vertex 2 Zcoordinate
    705714.1915998319,        !- Vertex 3 Xcoordinate
    5711495.729965106,        !- Vertex 3 Ycoordinate
    0,                        !- Vertex 3 Zcoordinate
    705714.1915998319,        !- Vertex 4 Xcoordinate
    5711495.729965106,        !- Vertex 4 Ycoordinate
    9;                        !- Vertex 4 Zcoordinate

SHADING:SITE:DETAILED,
    shade_way/1058438128_4,    !- Name
    ,                         !- Transmittance Schedule Name
    autocalculate,            !- Number of Vertices
    705714.1915998319,        !- Vertex 1 Xcoordinate
    5711495.729965106,        !- Vertex 1 Ycoordinate
    9,                        !- Vertex 1 Zcoordinate
    705714.1915998319,        !- Vertex 2 Xcoordinate
    5711495.729965106,        !- Vertex 2 Ycoordinate
    0,                        !- Vertex 2 Zcoordinate
    705724.5591358463,        !- Vertex 3 Xcoordinate
    5711495.649079537,        !- Vertex 3 Ycoordinate
    0,                        !- Vertex 3 Zcoordinate
    705724.5591358463,        !- Vertex 4 Xcoordinate
    5711495.649079537,        !- Vertex 4 Ycoordinate
    9;                        !- Vertex 4 Zcoordinate

SHADING:SITE:DETAILED,
    shade_way/1057778445_1,    !- Name
    ,                         !- Transmittance Schedule Name
    autocalculate,            !- Number of Vertices
    705739.841133511,         !- Vertex 1 Xcoordinate
    5711489.392456512,        !- Vertex 1 Ycoordinate
    6,                        !- Vertex 1 Zcoordinate
    705739.841133511,         !- Vertex 2 Xcoordinate
    5711489.392456512,        !- Vertex 2 Ycoordinate
    0,                        !- Vertex 2 Zcoordinate
    705739.8517360912,        !- Vertex 3 Xcoordinate
    5711499.751073437,        !- Vertex 3 Ycoordinate
    0,                        !- Vertex 3 Zcoordinate
    705739.8517360912,        !- Vertex 4 Xcoordinate
    5711499.751073437,        !- Vertex 4 Ycoordinate
    6;                        !- Vertex 4 Zcoordinate

SHADING:SITE:DETAILED,
    shade_way/1057778445_2,    !- Name
    ,                         !- Transmittance Schedule Name
    autocalculate,            !- Number of Vertices
    705739.8517360912,        !- Vertex 1 Xcoordinate
    5711499.751073437,        !- Vertex 1 Ycoordinate
    6,                        !- Vertex 1 Zcoordinate
    705739.8517360912,        !- Vertex 2 Xcoordinate
    5711499.751073437,        !- Vertex 2 Ycoordinate
    0,                        !- Vertex 2 Zcoordinate
    705744.9033937178,        !- Vertex 3 Xcoordinate
    5711499.745872997,        !- Vertex 3 Ycoordinate
    0,                        !- Vertex 3 Zcoordinate
    705744.9033937178,        !- Vertex 4 Xcoordinate
    5711499.745872997,        !- Vertex 4 Ycoordinate
    6;                        !- Vertex 4 Zcoordinate

SHADING:SITE:DETAILED,
    shade_way/1057778445_3,    !- Name
    ,                         !- Transmittance Schedule Name
    autocalculate,            !- Number of Vertices
    705744.9033937178,        !- Vertex 1 Xcoordinate
    5711499.745872997,        !- Vertex 1 Ycoordinate
    6,                        !- Vertex 1 Zcoordinate
    705744.9033937178,        !- Vertex 2 Xcoordinate
    5711499.745872997,        !- Vertex 2 Ycoordinate
    0,                        !- Vertex 2 Zcoordinate
    705744.8924246551,        !- Vertex 3 Xcoordinate
    5711489.387137404,        !- Vertex 3 Ycoordinate
    0,                        !- Vertex 3 Zcoordinate
    705744.8924246551,        !- Vertex 4 Xcoordinate
    5711489.387137404,        !- Vertex 4 Ycoordinate
    6;                        !- Vertex 4 Zcoordinate

SHADING:SITE:DETAILED,
    shade_way/1057778445_4,    !- Name
    ,                         !- Transmittance Schedule Name
    autocalculate,            !- Number of Vertices
    705744.8924246551,        !- Vertex 1 Xcoordinate
    5711489.387137404,        !- Vertex 1 Ycoordinate
    6,                        !- Vertex 1 Zcoordinate
    705744.8924246551,        !- Vertex 2 Xcoordinate
    5711489.387137404,        !- Vertex 2 Ycoordinate
    0,                        !- Vertex 2 Zcoordinate
    705739.841133511,         !- Vertex 3 Xcoordinate
    5711489.392456512,        !- Vertex 3 Ycoordinate
    0,                        !- Vertex 3 Zcoordinate
    705739.841133511,         !- Vertex 4 Xcoordinate
    5711489.392456512,        !- Vertex 4 Ycoordinate
    6;                        !- Vertex 4 Zcoordinate

SHADING:SITE:DETAILED,
    shade_way/1057778429_1,    !- Name
    ,                         !- Transmittance Schedule Name
    autocalculate,            !- Number of Vertices
    705757.7827023427,        !- Vertex 1 Xcoordinate
    5711496.368927103,        !- Vertex 1 Ycoordinate
    9,                        !- Vertex 1 Zcoordinate
    705757.7827023427,        !- Vertex 2 Xcoordinate
    5711496.368927103,        !- Vertex 2 Ycoordinate
    0,                        !- Vertex 2 Zcoordinate
    705765.6259304292,        !- Vertex 3 Xcoordinate
    5711500.506759358,        !- Vertex 3 Ycoordinate
    0,                        !- Vertex 3 Zcoordinate
    705765.6259304292,        !- Vertex 4 Xcoordinate
    5711500.506759358,        !- Vertex 4 Ycoordinate
    9;                        !- Vertex 4 Zcoordinate

SHADING:SITE:DETAILED,
    shade_way/1057778429_2,    !- Name
    ,                         !- Transmittance Schedule Name
    autocalculate,            !- Number of Vertices
    705765.6259304292,        !- Vertex 1 Xcoordinate
    5711500.506759358,        !- Vertex 1 Ycoordinate
    9,                        !- Vertex 1 Zcoordinate
    705765.6259304292,        !- Vertex 2 Xcoordinate
    5711500.506759358,        !- Vertex 2 Ycoordinate
    0,                        !- Vertex 2 Zcoordinate
    705767.8510053172,        !- Vertex 3 Xcoordinate
    5711496.291049426,        !- Vertex 3 Ycoordinate
    0,                        !- Vertex 3 Zcoordinate
    705767.8510053172,        !- Vertex 4 Xcoordinate
    5711496.291049426,        !- Vertex 4 Ycoordinate
    9;                        !- Vertex 4 Zcoordinate

SHADING:SITE:DETAILED,
    shade_way/1057778429_3,    !- Name
    ,                         !- Transmittance Schedule Name
    autocalculate,            !- Number of Vertices
    705767.8510053172,        !- Vertex 1 Xcoordinate
    5711496.291049426,        !- Vertex 1 Ycoordinate
    9,                        !- Vertex 1 Zcoordinate
    705767.8510053172,        !- Vertex 2 Xcoordinate
    5711496.291049426,        !- Vertex 2 Ycoordinate
    0,                        !- Vertex 2 Zcoordinate
    705760.0077772315,        !- Vertex 3 Xcoordinate
    5711492.153217169,        !- Vertex 3 Ycoordinate
    0,                        !- Vertex 3 Zcoordinate
    705760.0077772315,        !- Vertex 4 Xcoordinate
    5711492.153217169,        !- Vertex 4 Ycoordinate
    9;                        !- Vertex 4 Zcoordinate

SHADING:SITE:DETAILED,
    shade_way/1057778429_4,    !- Name
    ,                         !- Transmittance Schedule Name
    autocalculate,            !- Number of Vertices
    705760.0077772315,        !- Vertex 1 Xcoordinate
    5711492.153217169,        !- Vertex 1 Ycoordinate
    9,                        !- Vertex 1 Zcoordinate
    705760.0077772315,        !- Vertex 2 Xcoordinate
    5711492.153217169,        !- Vertex 2 Ycoordinate
    0,                        !- Vertex 2 Zcoordinate
    705757.7827023427,        !- Vertex 3 Xcoordinate
    5711496.368927103,        !- Vertex 3 Ycoordinate
    0,                        !- Vertex 3 Zcoordinate
    705757.7827023427,        !- Vertex 4 Xcoordinate
    5711496.368927103,        !- Vertex 4 Ycoordinate
    9;                        !- Vertex 4 Zcoordinate

SHADING:SITE:DETAILED,
    shade_way/1058438129_1,    !- Name
    ,                         !- Transmittance Schedule Name
    autocalculate,            !- Number of Vertices
    705724.6031604956,        !- Vertex 1 Xcoordinate
    5711501.237513483,        !- Vertex 1 Ycoordinate
    9,                        !- Vertex 1 Zcoordinate
    705724.6031604956,        !- Vertex 2 Xcoordinate
    5711501.237513483,        !- Vertex 2 Ycoordinate
    0,                        !- Vertex 2 Zcoordinate
    705724.5589405773,        !- Vertex 3 Xcoordinate
    5711495.645302592,        !- Vertex 3 Ycoordinate
    0,                        !- Vertex 3 Zcoordinate
    705724.5589405773,        !- Vertex 4 Xcoordinate
    5711495.645302592,        !- Vertex 4 Ycoordinate
    9;                        !- Vertex 4 Zcoordinate

SHADING:SITE:DETAILED,
    shade_way/1058438129_2,    !- Name
    ,                         !- Transmittance Schedule Name
    autocalculate,            !- Number of Vertices
    705724.5589405773,        !- Vertex 1 Xcoordinate
    5711495.645302592,        !- Vertex 1 Ycoordinate
    9,                        !- Vertex 1 Zcoordinate
    705724.5589405773,        !- Vertex 2 Xcoordinate
    5711495.645302592,        !- Vertex 2 Ycoordinate
    0,                        !- Vertex 2 Zcoordinate
    705714.2723520237,        !- Vertex 3 Xcoordinate
    5711495.726330037,        !- Vertex 3 Ycoordinate
    0,                        !- Vertex 3 Zcoordinate
    705714.2723520237,        !- Vertex 4 Xcoordinate
    5711495.726330037,        !- Vertex 4 Ycoordinate
    9;                        !- Vertex 4 Zcoordinate

SHADING:SITE:DETAILED,
    shade_way/1058438129_3,    !- Name
    ,                         !- Transmittance Schedule Name
    autocalculate,            !- Number of Vertices
    705714.2723520237,        !- Vertex 1 Xcoordinate
    5711495.726330037,        !- Vertex 1 Ycoordinate
    9,                        !- Vertex 1 Zcoordinate
    705714.2723520237,        !- Vertex 2 Xcoordinate
    5711495.726330037,        !- Vertex 2 Ycoordinate
    0,                        !- Vertex 2 Zcoordinate
    705714.316571942,         !- Vertex 3 Xcoordinate
    5711501.318540929,        !- Vertex 3 Ycoordinate
    0,                        !- Vertex 3 Zcoordinate
    705714.316571942,         !- Vertex 4 Xcoordinate
    5711501.318540929,        !- Vertex 4 Ycoordinate
    9;                        !- Vertex 4 Zcoordinate

SHADING:SITE:DETAILED,
    shade_way/1058438129_4,    !- Name
    ,                         !- Transmittance Schedule Name
    autocalculate,            !- Number of Vertices
    705714.316571942,         !- Vertex 1 Xcoordinate
    5711501.318540929,        !- Vertex 1 Ycoordinate
    9,                        !- Vertex 1 Zcoordinate
    705714.316571942,         !- Vertex 2 Xcoordinate
    5711501.318540929,        !- Vertex 2 Ycoordinate
    0,                        !- Vertex 2 Zcoordinate
    705724.6031604956,        !- Vertex 3 Xcoordinate
    5711501.237513483,        !- Vertex 3 Ycoordinate
    0,                        !- Vertex 3 Zcoordinate
    705724.6031604956,        !- Vertex 4 Xcoordinate
    5711501.237513483,        !- Vertex 4 Ycoordinate
    9;                        !- Vertex 4 Zcoordinate

SHADING:SITE:DETAILED,
    shade_way/1057778430_1,    !- Name
    ,                         !- Transmittance Schedule Name
    autocalculate,            !- Number of Vertices
    705763.0247045557,        !- Vertex 1 Xcoordinate
    5711504.855783515,        !- Vertex 1 Ycoordinate
    9,                        !- Vertex 1 Zcoordinate
    705763.0247045557,        !- Vertex 2 Xcoordinate
    5711504.855783515,        !- Vertex 2 Ycoordinate
    0,                        !- Vertex 2 Zcoordinate
    705765.6259304292,        !- Vertex 3 Xcoordinate
    5711500.506759358,        !- Vertex 3 Ycoordinate
    0,                        !- Vertex 3 Zcoordinate
    705765.6259304292,        !- Vertex 4 Xcoordinate
    5711500.506759358,        !- Vertex 4 Ycoordinate
    9;                        !- Vertex 4 Zcoordinate

SHADING:SITE:DETAILED,
    shade_way/1057778430_2,    !- Name
    ,                         !- Transmittance Schedule Name
    autocalculate,            !- Number of Vertices
    705765.6259304292,        !- Vertex 1 Xcoordinate
    5711500.506759358,        !- Vertex 1 Ycoordinate
    9,                        !- Vertex 1 Zcoordinate
    705765.6259304292,        !- Vertex 2 Xcoordinate
    5711500.506759358,        !- Vertex 2 Ycoordinate
    0,                        !- Vertex 2 Zcoordinate
    705758.0268893079,        !- Vertex 3 Xcoordinate
    5711495.961881571,        !- Vertex 3 Ycoordinate
    0,                        !- Vertex 3 Zcoordinate
    705758.0268893079,        !- Vertex 4 Xcoordinate
    5711495.961881571,        !- Vertex 4 Ycoordinate
    9;                        !- Vertex 4 Zcoordinate

SHADING:SITE:DETAILED,
    shade_way/1057778430_3,    !- Name
    ,                         !- Transmittance Schedule Name
    autocalculate,            !- Number of Vertices
    705758.0268893079,        !- Vertex 1 Xcoordinate
    5711495.961881571,        !- Vertex 1 Ycoordinate
    9,                        !- Vertex 1 Zcoordinate
    705758.0268893079,        !- Vertex 2 Xcoordinate
    5711495.961881571,        !- Vertex 2 Ycoordinate
    0,                        !- Vertex 2 Zcoordinate
    705755.4256634355,        !- Vertex 3 Xcoordinate
    5711500.310905728,        !- Vertex 3 Ycoordinate
    0,                        !- Vertex 3 Zcoordinate
    705755.4256634355,        !- Vertex 4 Xcoordinate
    5711500.310905728,        !- Vertex 4 Ycoordinate
    9;                        !- Vertex 4 Zcoordinate

SHADING:SITE:DETAILED,
    shade_way/1057778430_4,    !- Name
    ,                         !- Transmittance Schedule Name
    autocalculate,            !- Number of Vertices
    705755.4256634355,        !- Vertex 1 Xcoordinate
    5711500.310905728,        !- Vertex 1 Ycoordinate
    9,                        !- Vertex 1 Zcoordinate
    705755.4256634355,        !- Vertex 2 Xcoordinate
    5711500.310905728,        !- Vertex 2 Ycoordinate
    0,                        !- Vertex 2 Zcoordinate
    705763.0247045557,        !- Vertex 3 Xcoordinate
    5711504.855783515,        !- Vertex 3 Ycoordinate
    0,                        !- Vertex 3 Zcoordinate
    705763.0247045557,        !- Vertex 4 Xcoordinate
    5711504.855783515,        !- Vertex 4 Ycoordinate
    9;                        !- Vertex 4 Zcoordinate

SHADING:SITE:DETAILED,
    shade_way/1057778431_1,    !- Name
    ,                         !- Transmittance Schedule Name
    autocalculate,            !- Number of Vertices
    705763.1808064621,        !- Vertex 1 Xcoordinate
    5711504.9550189935,       !- Vertex 1 Ycoordinate
    9,                        !- Vertex 1 Zcoordinate
    705763.1808064621,        !- Vertex 2 Xcoordinate
    5711504.9550189935,       !- Vertex 2 Ycoordinate
    0,                        !- Vertex 2 Zcoordinate
    705755.6687766953,        !- Vertex 3 Xcoordinate
    5711500.180902082,        !- Vertex 3 Ycoordinate
    0,                        !- Vertex 3 Zcoordinate
    705755.6687766953,        !- Vertex 4 Xcoordinate
    5711500.180902082,        !- Vertex 4 Ycoordinate
    9;                        !- Vertex 4 Zcoordinate

SHADING:SITE:DETAILED,
    shade_way/1057778431_2,    !- Name
    ,                         !- Transmittance Schedule Name
    autocalculate,            !- Number of Vertices
    705755.6687766953,        !- Vertex 1 Xcoordinate
    5711500.180902082,        !- Vertex 1 Ycoordinate
    9,                        !- Vertex 1 Zcoordinate
    705755.6687766953,        !- Vertex 2 Xcoordinate
    5711500.180902082,        !- Vertex 2 Ycoordinate
    0,                        !- Vertex 2 Zcoordinate
    705753.1595645598,        !- Vertex 3 Xcoordinate
    5711504.128782945,        !- Vertex 3 Ycoordinate
    0,                        !- Vertex 3 Zcoordinate
    705753.1595645598,        !- Vertex 4 Xcoordinate
    5711504.128782945,        !- Vertex 4 Ycoordinate
    9;                        !- Vertex 4 Zcoordinate

SHADING:SITE:DETAILED,
    shade_way/1057778431_3,    !- Name
    ,                         !- Transmittance Schedule Name
    autocalculate,            !- Number of Vertices
    705753.1595645598,        !- Vertex 1 Xcoordinate
    5711504.128782945,        !- Vertex 1 Ycoordinate
    9,                        !- Vertex 1 Zcoordinate
    705753.1595645598,        !- Vertex 2 Xcoordinate
    5711504.128782945,        !- Vertex 2 Ycoordinate
    0,                        !- Vertex 2 Zcoordinate
    705760.6719511949,        !- Vertex 3 Xcoordinate
    5711508.903069255,        !- Vertex 3 Ycoordinate
    0,                        !- Vertex 3 Zcoordinate
    705760.6719511949,        !- Vertex 4 Xcoordinate
    5711508.903069255,        !- Vertex 4 Ycoordinate
    9;                        !- Vertex 4 Zcoordinate

SHADING:SITE:DETAILED,
    shade_way/1057778431_4,    !- Name
    ,                         !- Transmittance Schedule Name
    autocalculate,            !- Number of Vertices
    705760.6719511949,        !- Vertex 1 Xcoordinate
    5711508.903069255,        !- Vertex 1 Ycoordinate
    9,                        !- Vertex 1 Zcoordinate
    705760.6719511949,        !- Vertex 2 Xcoordinate
    5711508.903069255,        !- Vertex 2 Ycoordinate
    0,                        !- Vertex 2 Zcoordinate
    705763.1808064621,        !- Vertex 3 Xcoordinate
    5711504.9550189935,       !- Vertex 3 Ycoordinate
    0,                        !- Vertex 3 Zcoordinate
    705763.1808064621,        !- Vertex 4 Xcoordinate
    5711504.9550189935,       !- Vertex 4 Ycoordinate
    9;                        !- Vertex 4 Zcoordinate

SHADING:SITE:DETAILED,
    shade_way/1057778432_1,    !- Name
    ,                         !- Transmittance Schedule Name
    autocalculate,            !- Number of Vertices
    705747.9998275732,        !- Vertex 1 Xcoordinate
    5711506.948953707,        !- Vertex 1 Ycoordinate
    9,                        !- Vertex 1 Zcoordinate
    705747.9998275732,        !- Vertex 2 Xcoordinate
    5711506.948953707,        !- Vertex 2 Ycoordinate
    0,                        !- Vertex 2 Zcoordinate
    705757.8514341353,        !- Vertex 3 Xcoordinate
    5711513.287001336,        !- Vertex 3 Ycoordinate
    0,                        !- Vertex 3 Zcoordinate
    705757.8514341353,        !- Vertex 4 Xcoordinate
    5711513.287001336,        !- Vertex 4 Ycoordinate
    9;                        !- Vertex 4 Zcoordinate

SHADING:SITE:DETAILED,
    shade_way/1057778432_2,    !- Name
    ,                         !- Transmittance Schedule Name
    autocalculate,            !- Number of Vertices
    705757.8514341353,        !- Vertex 1 Xcoordinate
    5711513.287001336,        !- Vertex 1 Ycoordinate
    9,                        !- Vertex 1 Zcoordinate
    705757.8514341353,        !- Vertex 2 Xcoordinate
    5711513.287001336,        !- Vertex 2 Ycoordinate
    0,                        !- Vertex 2 Zcoordinate
    705760.6719511949,        !- Vertex 3 Xcoordinate
    5711508.903069255,        !- Vertex 3 Ycoordinate
    0,                        !- Vertex 3 Zcoordinate
    705760.6719511949,        !- Vertex 4 Xcoordinate
    5711508.903069255,        !- Vertex 4 Ycoordinate
    9;                        !- Vertex 4 Zcoordinate

SHADING:SITE:DETAILED,
    shade_way/1057778432_3,    !- Name
    ,                         !- Transmittance Schedule Name
    autocalculate,            !- Number of Vertices
    705760.6719511949,        !- Vertex 1 Xcoordinate
    5711508.903069255,        !- Vertex 1 Ycoordinate
    9,                        !- Vertex 1 Zcoordinate
    705760.6719511949,        !- Vertex 2 Xcoordinate
    5711508.903069255,        !- Vertex 2 Ycoordinate
    0,                        !- Vertex 2 Zcoordinate
    705750.8202629456,        !- Vertex 3 Xcoordinate
    5711502.564982293,        !- Vertex 3 Ycoordinate
    0,                        !- Vertex 3 Zcoordinate
    705750.8202629456,        !- Vertex 4 Xcoordinate
    5711502.564982293,        !- Vertex 4 Ycoordinate
    9;                        !- Vertex 4 Zcoordinate

SHADING:SITE:DETAILED,
    shade_way/1057778432_4,    !- Name
    ,                         !- Transmittance Schedule Name
    autocalculate,            !- Number of Vertices
    705750.8202629456,        !- Vertex 1 Xcoordinate
    5711502.564982293,        !- Vertex 1 Ycoordinate
    9,                        !- Vertex 1 Zcoordinate
    705750.8202629456,        !- Vertex 2 Xcoordinate
    5711502.564982293,        !- Vertex 2 Ycoordinate
    0,                        !- Vertex 2 Zcoordinate
    705747.9998275732,        !- Vertex 3 Xcoordinate
    5711506.948953707,        !- Vertex 3 Ycoordinate
    0,                        !- Vertex 3 Zcoordinate
    705747.9998275732,        !- Vertex 4 Xcoordinate
    5711506.948953707,        !- Vertex 4 Ycoordinate
    9;                        !- Vertex 4 Zcoordinate

SHADING:SITE:DETAILED,
    shade_way/328227199_1,    !- Name
    ,                         !- Transmittance Schedule Name
    autocalculate,            !- Number of Vertices
    705709.9315777881,        !- Vertex 1 Xcoordinate
    5711521.367744859,        !- Vertex 1 Ycoordinate
    9,                        !- Vertex 1 Zcoordinate
    705709.9315777881,        !- Vertex 2 Xcoordinate
    5711521.367744859,        !- Vertex 2 Ycoordinate
    0,                        !- Vertex 2 Zcoordinate
    705727.2837919602,        !- Vertex 3 Xcoordinate
    5711503.900161804,        !- Vertex 3 Ycoordinate
    0,                        !- Vertex 3 Zcoordinate
    705727.2837919602,        !- Vertex 4 Xcoordinate
    5711503.900161804,        !- Vertex 4 Ycoordinate
    9;                        !- Vertex 4 Zcoordinate

SHADING:SITE:DETAILED,
    shade_way/328227199_2,    !- Name
    ,                         !- Transmittance Schedule Name
    autocalculate,            !- Number of Vertices
    705727.2837919602,        !- Vertex 1 Xcoordinate
    5711503.900161804,        !- Vertex 1 Ycoordinate
    9,                        !- Vertex 1 Zcoordinate
    705727.2837919602,        !- Vertex 2 Xcoordinate
    5711503.900161804,        !- Vertex 2 Ycoordinate
    0,                        !- Vertex 2 Zcoordinate
    705719.4638312551,        !- Vertex 3 Xcoordinate
    5711496.131849923,        !- Vertex 3 Ycoordinate
    0,                        !- Vertex 3 Zcoordinate
    705719.4638312551,        !- Vertex 4 Xcoordinate
    5711496.131849923,        !- Vertex 4 Ycoordinate
    9;                        !- Vertex 4 Zcoordinate

SHADING:SITE:DETAILED,
    shade_way/328227199_3,    !- Name
    ,                         !- Transmittance Schedule Name
    autocalculate,            !- Number of Vertices
    705719.4638312551,        !- Vertex 1 Xcoordinate
    5711496.131849923,        !- Vertex 1 Ycoordinate
    9,                        !- Vertex 1 Zcoordinate
    705719.4638312551,        !- Vertex 2 Xcoordinate
    5711496.131849923,        !- Vertex 2 Ycoordinate
    0,                        !- Vertex 2 Zcoordinate
    705702.1116170828,        !- Vertex 3 Xcoordinate
    5711513.599432979,        !- Vertex 3 Ycoordinate
    0,                        !- Vertex 3 Zcoordinate
    705702.1116170828,        !- Vertex 4 Xcoordinate
    5711513.599432979,        !- Vertex 4 Ycoordinate
    9;                        !- Vertex 4 Zcoordinate

SHADING:SITE:DETAILED,
    shade_way/328227199_4,    !- Name
    ,                         !- Transmittance Schedule Name
    autocalculate,            !- Number of Vertices
    705702.1116170828,        !- Vertex 1 Xcoordinate
    5711513.599432979,        !- Vertex 1 Ycoordinate
    9,                        !- Vertex 1 Zcoordinate
    705702.1116170828,        !- Vertex 2 Xcoordinate
    5711513.599432979,        !- Vertex 2 Ycoordinate
    0,                        !- Vertex 2 Zcoordinate
    705709.9315777881,        !- Vertex 3 Xcoordinate
    5711521.367744859,        !- Vertex 3 Ycoordinate
    0,                        !- Vertex 3 Zcoordinate
    705709.9315777881,        !- Vertex 4 Xcoordinate
    5711521.367744859,        !- Vertex 4 Ycoordinate
    9;                        !- Vertex 4 Zcoordinate

OTHEREQUIPMENT,
    EU_Step8_InternalGain_5c66e941d668b317_F0_dwelling_0_f000,    !- Name
    Electricity,              !- Fuel Type
    5c66e941d668b317_F0_dwelling_0,    !- Zone or ZoneList or Space or SpaceList Name
    EU_Step8_GainSchedule_5c66e941d668b317_F0_dwelling_0_f000,    !- Schedule Name
    Watts/Area,               !- Design Level Calculation Method
    ,                         !- Design Level
    1,                        !- Power per Zone Floor Area
    ,                         !- Power per Person
    0,                        !- Fraction Latent
    0,                        !- Fraction Radiant
    0,                        !- Fraction Lost
    0,                        !- Carbon Dioxide Generation Rate
    EU_Step8_InternalGains;    !- EndUse Subcategory

ZONEVENTILATION:DESIGNFLOWRATE,
    EU_ConstantAir_5c66e941d668b317_F0_dwelling_0,    !- Name
    5c66e941d668b317_F0_dwelling_0,    !- Zone or ZoneList or Space or SpaceList Name
    EU_AlwaysOn,              !- Schedule Name
    AirChanges/Hour,          !- Design Flow Rate Calculation Method
    ,                         !- Design Flow Rate
    ,                         !- Flow Rate per Floor Area
    ,                         !- Flow Rate per Person
    0.418134938716768,        !- Air Changes per Hour
    Natural,                  !- Ventilation Type
    0,                        !- Fan Pressure Rise
    1,                        !- Fan Total Efficiency
    1,                        !- Constant Term Coefficient
    0,                        !- Temperature Term Coefficient
    0,                        !- Velocity Term Coefficient
    0,                        !- Velocity Squared Term Coefficient
    -100,                     !- Minimum Indoor Temperature
    ,                         !- Minimum Indoor Temperature Schedule Name
    100,                      !- Maximum Indoor Temperature
    ,                         !- Maximum Indoor Temperature Schedule Name
    -100,                     !- Delta Temperature
    ,                         !- Delta Temperature Schedule Name
    -100,                     !- Minimum Outdoor Temperature
    ,                         !- Minimum Outdoor Temperature Schedule Name
    100,                      !- Maximum Outdoor Temperature
    ,                         !- Maximum Outdoor Temperature Schedule Name
    40;                       !- Maximum Wind Speed

HVACTEMPLATE:THERMOSTAT,
    EU_HeatOnly_5c66e941d668b317_F0_dwelling_0,    !- Name
    ,                         !- Heating Setpoint Schedule Name
    20,                       !- Constant Heating Setpoint
    ,                         !- Cooling Setpoint Schedule Name
    50;                       !- Constant Cooling Setpoint

HVACTEMPLATE:ZONE:IDEALLOADSAIRSYSTEM,
    5c66e941d668b317_F0_dwelling_0,    !- Zone Name
    EU_HeatOnly_5c66e941d668b317_F0_dwelling_0,    !- Template Thermostat Name
    EU_AlwaysOn,              !- System Availability Schedule Name
    50,                       !- Maximum Heating Supply Air Temperature
    13,                       !- Minimum Cooling Supply Air Temperature
    0.0156,                   !- Maximum Heating Supply Air Humidity Ratio
    0.0077,                   !- Minimum Cooling Supply Air Humidity Ratio
    NoLimit,                  !- Heating Limit
    ,                         !- Maximum Heating Air Flow Rate
    ,                         !- Maximum Sensible Heating Capacity
    NoLimit,                  !- Cooling Limit
    ,                         !- Maximum Cooling Air Flow Rate
    ,                         !- Maximum Total Cooling Capacity
    EU_AlwaysOn,              !- Heating Availability Schedule Name
    EU_CoolingOff,            !- Cooling Availability Schedule Name
    ConstantSensibleHeatRatio,    !- Dehumidification Control Type
    0.7,                      !- Cooling Sensible Heat Ratio
    60,                       !- Dehumidification Setpoint
    None,                     !- Humidification Control Type
    30,                       !- Humidification Setpoint
    None,                     !- Outdoor Air Method
    0.00944,                  !- Outdoor Air Flow Rate per Person
    0.0,                      !- Outdoor Air Flow Rate per Zone Floor Area
    0,                        !- Outdoor Air Flow Rate per Zone
    ,                         !- Design Specification Outdoor Air Object Name
    None,                     !- Demand Controlled Ventilation Type
    NoEconomizer,             !- Outdoor Air Economizer Type
    None,                     !- Heat Recovery Type
    0.70,                     !- Sensible Heat Recovery Effectiveness
    0.65;                     !- Latent Heat Recovery Effectiveness

SIZING:ZONE,
    5c66e941d668b317_F0_dwelling_0,    !- Zone or ZoneList Name
    SupplyAirTemperature,     !- Zone Cooling Design Supply Air Temperature Input Method
    13,                       !- Zone Cooling Design Supply Air Temperature
    ,                         !- Zone Cooling Design Supply Air Temperature Difference
    SupplyAirTemperature,     !- Zone Heating Design Supply Air Temperature Input Method
    50,                       !- Zone Heating Design Supply Air Temperature
    ,                         !- Zone Heating Design Supply Air Temperature Difference
    0.008,                    !- Zone Cooling Design Supply Air Humidity Ratio
    0.008,                    !- Zone Heating Design Supply Air Humidity Ratio
    ,                         !- Design Specification Outdoor Air Object Name
    ,                         !- Zone Heating Sizing Factor
    ,                         !- Zone Cooling Sizing Factor
    DesignDay,                !- Cooling Design Air Flow Method
    0,                        !- Cooling Design Air Flow Rate
    0.000762,                 !- Cooling Minimum Air Flow per Zone Floor Area
    0,                        !- Cooling Minimum Air Flow
    0.2,                      !- Cooling Minimum Air Flow Fraction
    DesignDay,                !- Heating Design Air Flow Method
    0,                        !- Heating Design Air Flow Rate
    0.002032,                 !- Heating Maximum Air Flow per Zone Floor Area
    0.1415762,                !- Heating Maximum Air Flow
    0.3,                      !- Heating Maximum Air Flow Fraction
    ,                         !- Design Specification Zone Air Distribution Object Name
    No,                       !- Account for Dedicated Outdoor Air System
    NeutralSupplyAir,         !- Dedicated Outdoor Air System Control Strategy
    autosize,                 !- Dedicated Outdoor Air Low Setpoint Temperature for Design
    autosize,                 !- Dedicated Outdoor Air High Setpoint Temperature for Design
    Sensible Load Only No Latent Load,    !- Zone Load Sizing Method
    HumidityRatioDifference,    !- Zone Latent Cooling Design Supply Air Humidity Ratio Input Method
    ,                         !- Zone Dehumidification Design Supply Air Humidity Ratio
    0.005,                    !- Zone Cooling Design Supply Air Humidity Ratio Difference
    HumidityRatioDifference,    !- Zone Latent Heating Design Supply Air Humidity Ratio Input Method
    ,                         !- Zone Humidification Design Supply Air Humidity Ratio
    0.005;                    !- Zone Humidification Design Supply Air Humidity Ratio Difference

OUTPUT:VARIABLE,
    *,                        !- Key Value
    Zone Ideal Loads Zone Total Heating Energy,    !- Variable Name
    Hourly;                   !- Reporting Frequency

OUTPUT:SQLITE,
    SimpleAndTabular,         !- Option Type
    UseOutputControlTableStyle;    !- Unit Conversion for Tabular Data