!- Windows Line endings 

Version,
    23.1;                     !- Version Identifier

SimulationControl,
    Yes,                      !- Do Zone Sizing Calculation
    Yes,                      !- Do System Sizing Calculation
    Yes,                      !- Do Plant Sizing Calculation
    No,                       !- Run Simulation for Sizing Periods
    Yes,                      !- Run Simulation for Weather File Run Periods
    No,                       !- Do HVAC Sizing Simulation for Sizing Periods
    1;                        !- Maximum Number of HVAC Sizing Simulation Passes

Building,
    EU S2 Campaign,           !- Name
    0,                        !- North Axis
    City,                     !- Terrain
    ,                         !- Loads Convergence Tolerance Value
    ,                         !- Temperature Convergence Tolerance Value
    FullExterior,             !- Solar Distribution
    ,                         !- Maximum Number of Warmup Days
    ;                         !- Minimum Number of Warmup Days

ShadowCalculation,
    PolygonClipping,          !- Shading Calculation Method
    Periodic,                 !- Shading Calculation Update Frequency Method
    1;                        !- Shading Calculation Update Frequency

HeatBalanceAlgorithm,
    ConductionTransferFunction,    !- Algorithm
    200,                      !- Surface Temperature Upper Limit
    0.1,                      !- Minimum Surface Convection Heat Transfer Coefficient Value
    10000000;                 !- Maximum Surface Convection Heat Transfer Coefficient Value

Timestep,
    12;                       !- Number of Timesteps per Hour

Site:Location,
    London,                   !- Name
    51.5,                     !- Latitude
    -0.5,                     !- Longitude
    0,                        !- Time Zone
    25;                       !- Elevation

SizingPeriod:WeatherFileDays,
    AnnualSizingPeriod,       !- Name
    1,                        !- Begin Month
    1,                        !- Begin Day of Month
    12,                       !- End Month
    31,                       !- End Day of Month
    Monday,                   !- Day of Week for Start Day
    No,                       !- Use Weather File Daylight Saving Period
    No;                       !- Use Weather File Rain and Snow Indicators

RunPeriod,
    RunPeriod1,               !- Name
    1,                        !- Begin Month
    1,                        !- Begin Day of Month
    ,                         !- Begin Year
    12,                       !- End Month
    31,                       !- End Day of Month
    ,                         !- End Year
    Sunday,                   !- Day of Week for Start Day
    No,                       !- Use Weather File Holidays and Special Days
    No,                       !- Use Weather File Daylight Saving Period
    No,                       !- Apply Weekend Holiday Rule
    Yes,                      !- Use Weather File Rain Indicators
    Yes;                      !- Use Weather File Snow Indicators

ScheduleTypeLimits,
    Any Number;               !- Name

SCHEDULETYPELIMITS,
    EU_Step8_AnyNumber_Wm2,    !- Name
    ,                         !- Lower Limit Value
    ,                         !- Upper Limit Value
    Continuous,               !- Numeric Type
    Dimensionless;            !- Unit Type

SCHEDULE:CONSTANT,
    EU_AlwaysOn,              !- Name
    ,                         !- Schedule Type Limits Name
    1;                        !- Hourly Value

SCHEDULE:CONSTANT,
    EU_CoolingOff,            !- Name
    ,                         !- Schedule Type Limits Name
    0;                        !- Hourly Value

SCHEDULE:FILE,
    EU_Step8_GainSchedule_663e37bc995d3a5e_F0_dwelling_0_f000,    !- Name
    EU_Step8_AnyNumber_Wm2,    !- Schedule Type Limits Name
    ../../schedules/663e37bc995d3a5e/663e37bc995d3a5e_F0_dwelling_0_f000_gain.csv,    !- File Name
    1,                        !- Column Number
    0,                        !- Rows to Skip at Top
    8760,                     !- Number of Hours of Data
    Comma,                    !- Column Separator
    No,                       !- Interpolate to Timestep
    60,                       !- Minutes per Item
    Yes;                      !- Adjust Schedule for Daylight Savings

MATERIAL,
    EU_InternalMass_Material,    !- Name
    MediumRough,              !- Roughness
    0.1,                      !- Thickness
    1,                        !- Conductivity
    1800,                     !- Density
    900,                      !- Specific Heat
    0.9,                      !- Thermal Absorptance
    0.7,                      !- Solar Absorptance
    0.7;                      !- Visible Absorptance

MATERIAL:NOMASS,
    EU_wall_NoMass,           !- Name
    MediumRough,              !- Roughness
    0.7247189243747139,       !- Thermal Resistance
    0.9,                      !- Thermal Absorptance
    0.7,                      !- Solar Absorptance
    0.7;                      !- Visible Absorptance

MATERIAL:NOMASS,
    EU_roof_NoMass,           !- Name
    MediumRough,              !- Roughness
    2.989465563045695,        !- Thermal Resistance
    0.9,                      !- Thermal Absorptance
    0.7,                      !- Solar Absorptance
    0.7;                      !- Visible Absorptance

MATERIAL:NOMASS,
    EU_floor_NoMass,          !- Name
    MediumRough,              !- Roughness
    2.3915724504365556,       !- Thermal Resistance
    0.9,                      !- Thermal Absorptance
    0.7,                      !- Solar Absorptance
    0.7;                      !- Visible Absorptance

CONSTRUCTION,
    EU_wall_Construction,     !- Name
    EU_wall_NoMass;           !- Outside Layer

CONSTRUCTION,
    EU_roof_Construction,     !- Name
    EU_roof_NoMass;           !- Outside Layer

CONSTRUCTION,
    EU_floor_Construction,    !- Name
    EU_floor_NoMass;          !- Outside Layer

CONSTRUCTION,
    EU_InternalMass_Construction,    !- Name
    EU_InternalMass_Material;    !- Outside Layer

GlobalGeometryRules,
    UpperLeftCorner,          !- Starting Vertex Position
    CounterClockWise,         !- Vertex Entry Direction
    World;                    !- Coordinate System

ZONE,
    663e37bc995d3a5e_F0_dwelling_0,    !- Name
    0,                        !- Direction of Relative North
    0,                        !- X Origin
    0,                        !- Y Origin
    0,                        !- Z Origin
    1,                        !- Type
    1,                        !- Multiplier
    autocalculate,            !- Ceiling Height
    309.80712890625,          !- Volume
    autocalculate,            !- Floor Area
    ,                         !- Zone Inside Convection Algorithm
    ,                         !- Zone Outside Convection Algorithm
    Yes;                      !- Part of Total Floor Area

BUILDINGSURFACE:DETAILED,
    Block 663e37bc995d3a5e_0 Storey 0 Wall 0001,    !- Name
    wall,                     !- Surface Type
    EU_wall_Construction,     !- Construction Name
    663e37bc995d3a5e_F0_dwelling_0,    !- Zone Name
    ,                         !- Space Name
    Adiabatic,                !- Outside Boundary Condition
    ,                         !- Outside Boundary Condition Object
    NoSun,                    !- Sun Exposure
    NoWind,                   !- Wind Exposure
    autocalculate,            !- View Factor to Ground
    autocalculate,            !- Number of Vertices
    705511.885,               !- Vertex 1 Xcoordinate
    5711223.297,              !- Vertex 1 Ycoordinate
    6,                        !- Vertex 1 Zcoordinate
    705511.885,               !- Vertex 2 Xcoordinate
    5711223.297,              !- Vertex 2 Ycoordinate
    0,                        !- Vertex 2 Zcoordinate
    705512.177,               !- Vertex 3 Xcoordinate
    5711213.365,              !- Vertex 3 Ycoordinate
    0,                        !- Vertex 3 Zcoordinate
    705512.177,               !- Vertex 4 Xcoordinate
    5711213.365,              !- Vertex 4 Ycoordinate
    6;                        !- Vertex 4 Zcoordinate

BUILDINGSURFACE:DETAILED,
    Block 663e37bc995d3a5e_0 Storey 0 Wall 0002,    !- Name
    wall,                     !- Surface Type
    EU_wall_Construction,     !- Construction Name
    663e37bc995d3a5e_F0_dwelling_0,    !- Zone Name
    ,                         !- Space Name
    outdoors,                 !- Outside Boundary Condition
    ,                         !- Outside Boundary Condition Object
    SunExposed,               !- Sun Exposure
    WindExposed,              !- Wind Exposure
    autocalculate,            !- View Factor to Ground
    autocalculate,            !- Number of Vertices
    705512.177,               !- Vertex 1 Xcoordinate
    5711213.365,              !- Vertex 1 Ycoordinate
    6,                        !- Vertex 1 Zcoordinate
    705512.177,               !- Vertex 2 Xcoordinate
    5711213.365,              !- Vertex 2 Ycoordinate
    0,                        !- Vertex 2 Zcoordinate
    705508.281,               !- Vertex 3 Xcoordinate
    5711213.296,              !- Vertex 3 Ycoordinate
    0,                        !- Vertex 3 Zcoordinate
    705508.281,               !- Vertex 4 Xcoordinate
    5711213.296,              !- Vertex 4 Ycoordinate
    6;                        !- Vertex 4 Zcoordinate

BUILDINGSURFACE:DETAILED,
    Block 663e37bc995d3a5e_0 Storey 0 Wall 0003,    !- Name
    wall,                     !- Surface Type
    EU_wall_Construction,     !- Construction Name
    663e37bc995d3a5e_F0_dwelling_0,    !- Zone Name
    ,                         !- Space Name
    outdoors,                 !- Outside Boundary Condition
    ,                         !- Outside Boundary Condition Object
    SunExposed,               !- Sun Exposure
    WindExposed,              !- Wind Exposure
    autocalculate,            !- View Factor to Ground
    autocalculate,            !- Number of Vertices
    705508.281,               !- Vertex 1 Xcoordinate
    5711213.296,              !- Vertex 1 Ycoordinate
    6,                        !- Vertex 1 Zcoordinate
    705508.281,               !- Vertex 2 Xcoordinate
    5711213.296,              !- Vertex 2 Ycoordinate
    0,                        !- Vertex 2 Zcoordinate
    705506.983,               !- Vertex 3 Xcoordinate
    5711213.277,              !- Vertex 3 Ycoordinate
    0,                        !- Vertex 3 Zcoordinate
    705506.983,               !- Vertex 4 Xcoordinate
    5711213.277,              !- Vertex 4 Ycoordinate
    6;                        !- Vertex 4 Zcoordinate

BUILDINGSURFACE:DETAILED,
    Block 663e37bc995d3a5e_0 Storey 0 Wall 0004,    !- Name
    wall,                     !- Surface Type
    EU_wall_Construction,     !- Construction Name
    663e37bc995d3a5e_F0_dwelling_0,    !- Zone Name
    ,                         !- Space Name
    Adiabatic,                !- Outside Boundary Condition
    ,                         !- Outside Boundary Condition Object
    NoSun,                    !- Sun Exposure
    NoWind,                   !- Wind Exposure
    autocalculate,            !- View Factor to Ground
    autocalculate,            !- Number of Vertices
    705506.983,               !- Vertex 1 Xcoordinate
    5711213.277,              !- Vertex 1 Ycoordinate
    6,                        !- Vertex 1 Zcoordinate
    705506.983,               !- Vertex 2 Xcoordinate
    5711213.277,              !- Vertex 2 Ycoordinate
    0,                        !- Vertex 2 Zcoordinate
    705506.627,               !- Vertex 3 Xcoordinate
    5711223.084,              !- Vertex 3 Ycoordinate
    0,                        !- Vertex 3 Zcoordinate
    705506.627,               !- Vertex 4 Xcoordinate
    5711223.084,              !- Vertex 4 Ycoordinate
    6;                        !- Vertex 4 Zcoordinate

BUILDINGSURFACE:DETAILED,
    Block 663e37bc995d3a5e_0 Storey 0 Wall 0005,    !- Name
    wall,                     !- Surface Type
    EU_wall_Construction,     !- Construction Name
    663e37bc995d3a5e_F0_dwelling_0,    !- Zone Name
    ,                         !- Space Name
    outdoors,                 !- Outside Boundary Condition
    ,                         !- Outside Boundary Condition Object
    SunExposed,               !- Sun Exposure
    WindExposed,              !- Wind Exposure
    autocalculate,            !- View Factor to Ground
    autocalculate,            !- Number of Vertices
    705506.627,               !- Vertex 1 Xcoordinate
    5711223.084,              !- Vertex 1 Ycoordinate
    6,                        !- Vertex 1 Zcoordinate
    705506.627,               !- Vertex 2 Xcoordinate
    5711223.084,              !- Vertex 2 Ycoordinate
    0,                        !- Vertex 2 Zcoordinate
    705511.885,               !- Vertex 3 Xcoordinate
    5711223.297,              !- Vertex 3 Ycoordinate
    0,                        !- Vertex 3 Zcoordinate
    705511.885,               !- Vertex 4 Xcoordinate
    5711223.297,              !- Vertex 4 Ycoordinate
    6;                        !- Vertex 4 Zcoordinate

BUILDINGSURFACE:DETAILED,
    Block 663e37bc995d3a5e_0 Storey 0 Floor 0001,    !- Name
    floor,                    !- Surface Type
    EU_floor_Construction,    !- Construction Name
    663e37bc995d3a5e_F0_dwelling_0,    !- Zone Name
    ,                         !- Space Name
    ground,                   !- Outside Boundary Condition
    ,                         !- Outside Boundary Condition Object
    NoSun,                    !- Sun Exposure
    NoWind,                   !- Wind Exposure
    autocalculate,            !- View Factor to Ground
    autocalculate,            !- Number of Vertices
    705512.177,               !- Vertex 1 Xcoordinate
    5711213.365,              !- Vertex 1 Ycoordinate
    0,                        !- Vertex 1 Zcoordinate
    705511.885,               !- Vertex 2 Xcoordinate
    5711223.297,              !- Vertex 2 Ycoordinate
    0,                        !- Vertex 2 Zcoordinate
    705506.627,               !- Vertex 3 Xcoordinate
    5711223.084,              !- Vertex 3 Ycoordinate
    0,                        !- Vertex 3 Zcoordinate
    705506.983,               !- Vertex 4 Xcoordinate
    5711213.277,              !- Vertex 4 Ycoordinate
    0,                        !- Vertex 4 Zcoordinate
    705508.281,               !- Vertex 5 Xcoordinate
    5711213.296,              !- Vertex 5 Ycoordinate
    0;                        !- Vertex 5 Zcoordinate

BUILDINGSURFACE:DETAILED,
    Block 663e37bc995d3a5e_0 Storey 0 Roof 0001,    !- Name
    roof,                     !- Surface Type
    EU_roof_Construction,     !- Construction Name
    663e37bc995d3a5e_F0_dwelling_0,    !- Zone Name
    ,                         !- Space Name
    outdoors,                 !- Outside Boundary Condition
    ,                         !- Outside Boundary Condition Object
    NoSun,                    !- Sun Exposure
    WindExposed,              !- Wind Exposure
    autocalculate,            !- View Factor to Ground
    autocalculate,            !- Number of Vertices
    705511.885,               !- Vertex 1 Xcoordinate
    5711223.297,              !- Vertex 1 Ycoordinate
    6,                        !- Vertex 1 Zcoordinate
    705512.177,               !- Vertex 2 Xcoordinate
    5711213.365,              !- Vertex 2 Ycoordinate
    6,                        !- Vertex 2 Zcoordinate
    705508.281,               !- Vertex 3 Xcoordinate
    5711213.296,              !- Vertex 3 Ycoordinate
    6,                        !- Vertex 3 Zcoordinate
    705506.983,               !- Vertex 4 Xcoordinate
    5711213.277,              !- Vertex 4 Ycoordinate
    6,                        !- Vertex 4 Zcoordinate
    705506.627,               !- Vertex 5 Xcoordinate
    5711223.084,              !- Vertex 5 Ycoordinate
    6;                        !- Vertex 5 Zcoordinate

INTERNALMASS,
    663e37bc995d3a5e_F0_dwelling_0_EU_InternalMass,    !- Name
    EU_InternalMass_Construction,    !- Construction Name
    663e37bc995d3a5e_F0_dwelling_0,    !- Zone or ZoneList Name
    ,                         !- Space or SpaceList Name
    51.63453799942386;        !- Surface Area

SHADING:SITE:DETAILED,
    shade_way/1055232808_1,    !- Name
    ,                         !- Transmittance Schedule Name
    autocalculate,            !- Number of Vertices
    705493.6718174244,        !- Vertex 1 Xcoordinate
    5711189.8675496,          !- Vertex 1 Ycoordinate
    6,                        !- Vertex 1 Zcoordinate
    705493.6718174244,        !- Vertex 2 Xcoordinate
    5711189.8675496,          !- Vertex 2 Ycoordinate
    0,                        !- Vertex 2 Zcoordinate
    705494.0687579621,        !- Vertex 3 Xcoordinate
    5711200.704814209,        !- Vertex 3 Ycoordinate
    0,                        !- Vertex 3 Zcoordinate
    705494.0687579621,        !- Vertex 4 Xcoordinate
    5711200.704814209,        !- Vertex 4 Ycoordinate
    6;                        !- Vertex 4 Zcoordinate

SHADING:SITE:DETAILED,
    shade_way/1055232808_2,    !- Name
    ,                         !- Transmittance Schedule Name
    autocalculate,            !- Number of Vertices
    705494.0687579621,        !- Vertex 1 Xcoordinate
    5711200.704814209,        !- Vertex 1 Ycoordinate
    6,                        !- Vertex 1 Zcoordinate
    705494.0687579621,        !- Vertex 2 Xcoordinate
    5711200.704814209,        !- Vertex 2 Ycoordinate
    0,                        !- Vertex 2 Zcoordinate
    705501.7504293867,        !- Vertex 3 Xcoordinate
    5711200.42345476,         !- Vertex 3 Ycoordinate
    0,                        !- Vertex 3 Zcoordinate
    705501.7504293867,        !- Vertex 4 Xcoordinate
    5711200.42345476,         !- Vertex 4 Ycoordinate
    6;                        !- Vertex 4 Zcoordinate

SHADING:SITE:DETAILED,
    shade_way/1055232808_3,    !- Name
    ,                         !- Transmittance Schedule Name
    autocalculate,            !- Number of Vertices
    705501.7504293867,        !- Vertex 1 Xcoordinate
    5711200.42345476,         !- Vertex 1 Ycoordinate
    6,                        !- Vertex 1 Zcoordinate
    705501.7504293867,        !- Vertex 2 Xcoordinate
    5711200.42345476,         !- Vertex 2 Ycoordinate
    0,                        !- Vertex 2 Zcoordinate
    705501.353488849,         !- Vertex 3 Xcoordinate
    5711189.58619015,         !- Vertex 3 Ycoordinate
    0,                        !- Vertex 3 Zcoordinate
    705501.353488849,         !- Vertex 4 Xcoordinate
    5711189.58619015,         !- Vertex 4 Ycoordinate
    6;                        !- Vertex 4 Zcoordinate

SHADING:SITE:DETAILED,
    shade_way/1055232808_4,    !- Name
    ,                         !- Transmittance Schedule Name
    autocalculate,            !- Number of Vertices
    705501.353488849,         !- Vertex 1 Xcoordinate
    5711189.58619015,         !- Vertex 1 Ycoordinate
    6,                        !- Vertex 1 Zcoordinate
    705501.353488849,         !- Vertex 2 Xcoordinate
    5711189.58619015,         !- Vertex 2 Ycoordinate
    0,                        !- Vertex 2 Zcoordinate
    705493.6718174244,        !- Vertex 3 Xcoordinate
    5711189.8675496,          !- Vertex 3 Ycoordinate
    0,                        !- Vertex 3 Zcoordinate
    705493.6718174244,        !- Vertex 4 Xcoordinate
    5711189.8675496,          !- Vertex 4 Ycoordinate
    6;                        !- Vertex 4 Zcoordinate

SHADING:SITE:DETAILED,
    shade_way/1055232807_1,    !- Name
    ,                         !- Transmittance Schedule Name
    autocalculate,            !- Number of Vertices
    705489.1384870711,        !- Vertex 1 Xcoordinate
    5711200.907235196,        !- Vertex 1 Ycoordinate
    6,                        !- Vertex 1 Zcoordinate
    705489.1384870711,        !- Vertex 2 Xcoordinate
    5711200.907235196,        !- Vertex 2 Ycoordinate
    0,                        !- Vertex 2 Zcoordinate
    705495.7086539852,        !- Vertex 3 Xcoordinate
    5711198.92395815,         !- Vertex 3 Ycoordinate
    0,                        !- Vertex 3 Zcoordinate
    705495.7086539852,        !- Vertex 4 Xcoordinate
    5711198.92395815,         !- Vertex 4 Ycoordinate
    6;                        !- Vertex 4 Zcoordinate

SHADING:SITE:DETAILED,
    shade_way/1055232807_2,    !- Name
    ,                         !- Transmittance Schedule Name
    autocalculate,            !- Number of Vertices
    705495.7086539852,        !- Vertex 1 Xcoordinate
    5711198.92395815,         !- Vertex 1 Ycoordinate
    6,                        !- Vertex 1 Zcoordinate
    705495.7086539852,        !- Vertex 2 Xcoordinate
    5711198.92395815,         !- Vertex 2 Ycoordinate
    0,                        !- Vertex 2 Zcoordinate
    705493.6764521613,        !- Vertex 3 Xcoordinate
    5711192.191714056,        !- Vertex 3 Ycoordinate
    0,                        !- Vertex 3 Zcoordinate
    705493.6764521613,        !- Vertex 4 Xcoordinate
    5711192.191714056,        !- Vertex 4 Ycoordinate
    6;                        !- Vertex 4 Zcoordinate

SHADING:SITE:DETAILED,
    shade_way/1055232807_3,    !- Name
    ,                         !- Transmittance Schedule Name
    autocalculate,            !- Number of Vertices
    705493.6764521613,        !- Vertex 1 Xcoordinate
    5711192.191714056,        !- Vertex 1 Ycoordinate
    6,                        !- Vertex 1 Zcoordinate
    705493.6764521613,        !- Vertex 2 Xcoordinate
    5711192.191714056,        !- Vertex 2 Ycoordinate
    0,                        !- Vertex 2 Zcoordinate
    705487.1062339239,        !- Vertex 3 Xcoordinate
    5711194.17492847,         !- Vertex 3 Ycoordinate
    0,                        !- Vertex 3 Zcoordinate
    705487.1062339239,        !- Vertex 4 Xcoordinate
    5711194.17492847,         !- Vertex 4 Ycoordinate
    6;                        !- Vertex 4 Zcoordinate

SHADING:SITE:DETAILED,
    shade_way/1055232807_4,    !- Name
    ,                         !- Transmittance Schedule Name
    autocalculate,            !- Number of Vertices
    705487.1062339239,        !- Vertex 1 Xcoordinate
    5711194.17492847,         !- Vertex 1 Ycoordinate
    6,                        !- Vertex 1 Zcoordinate
    705487.1062339239,        !- Vertex 2 Xcoordinate
    5711194.17492847,         !- Vertex 2 Ycoordinate
    0,                        !- Vertex 2 Zcoordinate
    705489.1384870711,        !- Vertex 3 Xcoordinate
    5711200.907235196,        !- Vertex 3 Ycoordinate
    0,                        !- Vertex 3 Zcoordinate
    705489.1384870711,        !- Vertex 4 Xcoordinate
    5711200.907235196,        !- Vertex 4 Ycoordinate
    6;                        !- Vertex 4 Zcoordinate

SHADING:SITE:DETAILED,
    shade_way/397131465_1,    !- Name
    ,                         !- Transmittance Schedule Name
    autocalculate,            !- Number of Vertices
    705518.1828059069,        !- Vertex 1 Xcoordinate
    5711181.564180611,        !- Vertex 1 Ycoordinate
    9,                        !- Vertex 1 Zcoordinate
    705518.1828059069,        !- Vertex 2 Xcoordinate
    5711181.564180611,        !- Vertex 2 Ycoordinate
    0,                        !- Vertex 2 Zcoordinate
    705517.8880626556,        !- Vertex 3 Xcoordinate
    5711195.5479774615,       !- Vertex 3 Ycoordinate
    0,                        !- Vertex 3 Zcoordinate
    705517.8880626556,        !- Vertex 4 Xcoordinate
    5711195.5479774615,       !- Vertex 4 Ycoordinate
    9;                        !- Vertex 4 Zcoordinate

SHADING:SITE:DETAILED,
    shade_way/397131465_2,    !- Name
    ,                         !- Transmittance Schedule Name
    autocalculate,            !- Number of Vertices
    705517.8880626556,        !- Vertex 1 Xcoordinate
    5711195.5479774615,       !- Vertex 1 Ycoordinate
    9,                        !- Vertex 1 Zcoordinate
    705517.8880626556,        !- Vertex 2 Xcoordinate
    5711195.5479774615,       !- Vertex 2 Ycoordinate
    0,                        !- Vertex 2 Zcoordinate
    705525.8412291975,        !- Vertex 3 Xcoordinate
    5711195.7156102015,       !- Vertex 3 Ycoordinate
    0,                        !- Vertex 3 Zcoordinate
    705525.8412291975,        !- Vertex 4 Xcoordinate
    5711195.7156102015,       !- Vertex 4 Ycoordinate
    9;                        !- Vertex 4 Zcoordinate

SHADING:SITE:DETAILED,
    shade_way/397131465_3,    !- Name
    ,                         !- Transmittance Schedule Name
    autocalculate,            !- Number of Vertices
    705525.8412291975,        !- Vertex 1 Xcoordinate
    5711195.7156102015,       !- Vertex 1 Ycoordinate
    9,                        !- Vertex 1 Zcoordinate
    705525.8412291975,        !- Vertex 2 Xcoordinate
    5711195.7156102015,       !- Vertex 2 Ycoordinate
    0,                        !- Vertex 2 Zcoordinate
    705526.1359724487,        !- Vertex 3 Xcoordinate
    5711181.731813351,        !- Vertex 3 Ycoordinate
    0,                        !- Vertex 3 Zcoordinate
    705526.1359724487,        !- Vertex 4 Xcoordinate
    5711181.731813351,        !- Vertex 4 Ycoordinate
    9;                        !- Vertex 4 Zcoordinate

SHADING:SITE:DETAILED,
    shade_way/397131465_4,    !- Name
    ,                         !- Transmittance Schedule Name
    autocalculate,            !- Number of Vertices
    705526.1359724487,        !- Vertex 1 Xcoordinate
    5711181.731813351,        !- Vertex 1 Ycoordinate
    9,                        !- Vertex 1 Zcoordinate
    705526.1359724487,        !- Vertex 2 Xcoordinate
    5711181.731813351,        !- Vertex 2 Ycoordinate
    0,                        !- Vertex 2 Zcoordinate
    705518.1828059069,        !- Vertex 3 Xcoordinate
    5711181.564180611,        !- Vertex 3 Ycoordinate
    0,                        !- Vertex 3 Zcoordinate
    705518.1828059069,        !- Vertex 4 Xcoordinate
    5711181.564180611,        !- Vertex 4 Ycoordinate
    9;                        !- Vertex 4 Zcoordinate

SHADING:SITE:DETAILED,
    shade_way/1055232809_1,    !- Name
    ,                         !- Transmittance Schedule Name
    autocalculate,            !- Number of Vertices
    705508.4348173303,        !- Vertex 1 Xcoordinate
    5711197.884424415,        !- Vertex 1 Ycoordinate
    6,                        !- Vertex 1 Zcoordinate
    705508.4348173303,        !- Vertex 2 Xcoordinate
    5711197.884424415,        !- Vertex 2 Ycoordinate
    0,                        !- Vertex 2 Zcoordinate
    705508.5332631762,        !- Vertex 3 Xcoordinate
    5711188.35920588,         !- Vertex 3 Ycoordinate
    0,                        !- Vertex 3 Zcoordinate
    705508.5332631762,        !- Vertex 4 Xcoordinate
    5711188.35920588,         !- Vertex 4 Ycoordinate
    6;                        !- Vertex 4 Zcoordinate

SHADING:SITE:DETAILED,
    shade_way/1055232809_2,    !- Name
    ,                         !- Transmittance Schedule Name
    autocalculate,            !- Number of Vertices
    705508.5332631762,        !- Vertex 1 Xcoordinate
    5711188.35920588,         !- Vertex 1 Ycoordinate
    6,                        !- Vertex 1 Zcoordinate
    705508.5332631762,        !- Vertex 2 Xcoordinate
    5711188.35920588,         !- Vertex 2 Ycoordinate
    0,                        !- Vertex 2 Zcoordinate
    705501.2440476596,        !- Vertex 3 Xcoordinate
    5711188.283869758,        !- Vertex 3 Ycoordinate
    0,                        !- Vertex 3 Zcoordinate
    705501.2440476596,        !- Vertex 4 Xcoordinate
    5711188.283869758,        !- Vertex 4 Ycoordinate
    6;                        !- Vertex 4 Zcoordinate

SHADING:SITE:DETAILED,
    shade_way/1055232809_3,    !- Name
    ,                         !- Transmittance Schedule Name
    autocalculate,            !- Number of Vertices
    705501.2440476596,        !- Vertex 1 Xcoordinate
    5711188.283869758,        !- Vertex 1 Ycoordinate
    6,                        !- Vertex 1 Zcoordinate
    705501.2440476596,        !- Vertex 2 Xcoordinate
    5711188.283869758,        !- Vertex 2 Ycoordinate
    0,                        !- Vertex 2 Zcoordinate
    705501.1456018138,        !- Vertex 3 Xcoordinate
    5711197.809088294,        !- Vertex 3 Ycoordinate
    0,                        !- Vertex 3 Zcoordinate
    705501.1456018138,        !- Vertex 4 Xcoordinate
    5711197.809088294,        !- Vertex 4 Ycoordinate
    6;                        !- Vertex 4 Zcoordinate

SHADING:SITE:DETAILED,
    shade_way/1055232809_4,    !- Name
    ,                         !- Transmittance Schedule Name
    autocalculate,            !- Number of Vertices
    705501.1456018138,        !- Vertex 1 Xcoordinate
    5711197.809088294,        !- Vertex 1 Ycoordinate
    6,                        !- Vertex 1 Zcoordinate
    705501.1456018138,        !- Vertex 2 Xcoordinate
    5711197.809088294,        !- Vertex 2 Ycoordinate
    0,                        !- Vertex 2 Zcoordinate
    705508.4348173303,        !- Vertex 3 Xcoordinate
    5711197.884424415,        !- Vertex 3 Ycoordinate
    0,                        !- Vertex 3 Zcoordinate
    705508.4348173303,        !- Vertex 4 Xcoordinate
    5711197.884424415,        !- Vertex 4 Ycoordinate
    6;                        !- Vertex 4 Zcoordinate

SHADING:SITE:DETAILED,
    shade_way/1055232806_1,    !- Name
    ,                         !- Transmittance Schedule Name
    autocalculate,            !- Number of Vertices
    705486.2396959827,        !- Vertex 1 Xcoordinate
    5711207.217965466,        !- Vertex 1 Ycoordinate
    6,                        !- Vertex 1 Zcoordinate
    705486.2396959827,        !- Vertex 2 Xcoordinate
    5711207.217965466,        !- Vertex 2 Ycoordinate
    0,                        !- Vertex 2 Zcoordinate
    705490.7098769598,        !- Vertex 3 Xcoordinate
    5711205.836575471,        !- Vertex 3 Ycoordinate
    0,                        !- Vertex 3 Zcoordinate
    705490.7098769598,        !- Vertex 4 Xcoordinate
    5711205.836575471,        !- Vertex 4 Ycoordinate
    6;                        !- Vertex 4 Zcoordinate

SHADING:SITE:DETAILED,
    shade_way/1055232806_2,    !- Name
    ,                         !- Transmittance Schedule Name
    autocalculate,            !- Number of Vertices
    705490.7098769598,        !- Vertex 1 Xcoordinate
    5711205.836575471,        !- Vertex 1 Ycoordinate
    6,                        !- Vertex 1 Zcoordinate
    705490.7098769598,        !- Vertex 2 Xcoordinate
    5711205.836575471,        !- Vertex 2 Ycoordinate
    0,                        !- Vertex 2 Zcoordinate
    705487.0772402773,        !- Vertex 3 Xcoordinate
    5711194.081355398,        !- Vertex 3 Ycoordinate
    0,                        !- Vertex 3 Zcoordinate
    705487.0772402773,        !- Vertex 4 Xcoordinate
    5711194.081355398,        !- Vertex 4 Ycoordinate
    6;                        !- Vertex 4 Zcoordinate

SHADING:SITE:DETAILED,
    shade_way/1055232806_3,    !- Name
    ,                         !- Transmittance Schedule Name
    autocalculate,            !- Number of Vertices
    705487.0772402773,        !- Vertex 1 Xcoordinate
    5711194.081355398,        !- Vertex 1 Ycoordinate
    6,                        !- Vertex 1 Zcoordinate
    705487.0772402773,        !- Vertex 2 Xcoordinate
    5711194.081355398,        !- Vertex 2 Ycoordinate
    0,                        !- Vertex 2 Zcoordinate
    705482.607127246,         !- Vertex 3 Xcoordinate
    5711195.462714835,        !- Vertex 3 Ycoordinate
    0,                        !- Vertex 3 Zcoordinate
    705482.607127246,         !- Vertex 4 Xcoordinate
    5711195.462714835,        !- Vertex 4 Ycoordinate
    6;                        !- Vertex 4 Zcoordinate

SHADING:SITE:DETAILED,
    shade_way/1055232806_4,    !- Name
    ,                         !- Transmittance Schedule Name
    autocalculate,            !- Number of Vertices
    705482.607127246,         !- Vertex 1 Xcoordinate
    5711195.462714835,        !- Vertex 1 Ycoordinate
    6,                        !- Vertex 1 Zcoordinate
    705482.607127246,         !- Vertex 2 Xcoordinate
    5711195.462714835,        !- Vertex 2 Ycoordinate
    0,                        !- Vertex 2 Zcoordinate
    705486.2396959827,        !- Vertex 3 Xcoordinate
    5711207.217965466,        !- Vertex 3 Ycoordinate
    0,                        !- Vertex 3 Zcoordinate
    705486.2396959827,        !- Vertex 4 Xcoordinate
    5711207.217965466,        !- Vertex 4 Ycoordinate
    6;                        !- Vertex 4 Zcoordinate

SHADING:SITE:DETAILED,
    shade_way/635993716_1,    !- Name
    ,                         !- Transmittance Schedule Name
    autocalculate,            !- Number of Vertices
    705476.2252885087,        !- Vertex 1 Xcoordinate
    5711215.850980711,        !- Vertex 1 Ycoordinate
    6,                        !- Vertex 1 Zcoordinate
    705476.2252885087,        !- Vertex 2 Xcoordinate
    5711215.850980711,        !- Vertex 2 Ycoordinate
    0,                        !- Vertex 2 Zcoordinate
    705491.2361206709,        !- Vertex 3 Xcoordinate
    5711216.759449919,        !- Vertex 3 Ycoordinate
    0,                        !- Vertex 3 Zcoordinate
    705491.2361206709,        !- Vertex 4 Xcoordinate
    5711216.759449919,        !- Vertex 4 Ycoordinate
    6;                        !- Vertex 4 Zcoordinate

SHADING:SITE:DETAILED,
    shade_way/635993716_2,    !- Name
    ,                         !- Transmittance Schedule Name
    autocalculate,            !- Number of Vertices
    705491.2361206709,        !- Vertex 1 Xcoordinate
    5711216.759449919,        !- Vertex 1 Ycoordinate
    6,                        !- Vertex 1 Zcoordinate
    705491.2361206709,        !- Vertex 2 Xcoordinate
    5711216.759449919,        !- Vertex 2 Ycoordinate
    0,                        !- Vertex 2 Zcoordinate
    705491.5217430871,        !- Vertex 3 Xcoordinate
    5711212.037917594,        !- Vertex 3 Ycoordinate
    0,                        !- Vertex 3 Zcoordinate
    705491.5217430871,        !- Vertex 4 Xcoordinate
    5711212.037917594,        !- Vertex 4 Ycoordinate
    6;                        !- Vertex 4 Zcoordinate

SHADING:SITE:DETAILED,
    shade_way/635993716_3,    !- Name
    ,                         !- Transmittance Schedule Name
    autocalculate,            !- Number of Vertices
    705491.5217430871,        !- Vertex 1 Xcoordinate
    5711212.037917594,        !- Vertex 1 Ycoordinate
    6,                        !- Vertex 1 Zcoordinate
    705491.5217430871,        !- Vertex 2 Xcoordinate
    5711212.037917594,        !- Vertex 2 Ycoordinate
    0,                        !- Vertex 2 Zcoordinate
    705476.5111095277,        !- Vertex 3 Xcoordinate
    5711211.1292729275,       !- Vertex 3 Ycoordinate
    0,                        !- Vertex 3 Zcoordinate
    705476.5111095277,        !- Vertex 4 Xcoordinate
    5711211.1292729275,       !- Vertex 4 Ycoordinate
    6;                        !- Vertex 4 Zcoordinate

SHADING:SITE:DETAILED,
    shade_way/635993716_4,    !- Name
    ,                         !- Transmittance Schedule Name
    autocalculate,            !- Number of Vertices
    705476.5111095277,        !- Vertex 1 Xcoordinate
    5711211.1292729275,       !- Vertex 1 Ycoordinate
    6,                        !- Vertex 1 Zcoordinate
    705476.5111095277,        !- Vertex 2 Xcoordinate
    5711211.1292729275,       !- Vertex 2 Ycoordinate
    0,                        !- Vertex 2 Zcoordinate
    705476.2252885087,        !- Vertex 3 Xcoordinate
    5711215.850980711,        !- Vertex 3 Ycoordinate
    0,                        !- Vertex 3 Zcoordinate
    705476.2252885087,        !- Vertex 4 Xcoordinate
    5711215.850980711,        !- Vertex 4 Ycoordinate
    6;                        !- Vertex 4 Zcoordinate

SHADING:SITE:DETAILED,
    shade_way/694412122_1,    !- Name
    ,                         !- Transmittance Schedule Name
    autocalculate,            !- Number of Vertices
    705506.9831454509,        !- Vertex 1 Xcoordinate
    5711213.276786098,        !- Vertex 1 Ycoordinate
    6,                        !- Vertex 1 Zcoordinate
    705506.9831454509,        !- Vertex 2 Xcoordinate
    5711213.276786098,        !- Vertex 2 Ycoordinate
    0,                        !- Vertex 2 Zcoordinate
    705501.8558259805,        !- Vertex 3 Xcoordinate
    5711213.091398635,        !- Vertex 3 Ycoordinate
    0,                        !- Vertex 3 Zcoordinate
    705501.8558259805,        !- Vertex 4 Xcoordinate
    5711213.091398635,        !- Vertex 4 Ycoordinate
    6;                        !- Vertex 4 Zcoordinate

SHADING:SITE:DETAILED,
    shade_way/694412122_2,    !- Name
    ,                         !- Transmittance Schedule Name
    autocalculate,            !- Number of Vertices
    705501.8558259805,        !- Vertex 1 Xcoordinate
    5711213.091398635,        !- Vertex 1 Ycoordinate
    6,                        !- Vertex 1 Zcoordinate
    705501.8558259805,        !- Vertex 2 Xcoordinate
    5711213.091398635,        !- Vertex 2 Ycoordinate
    0,                        !- Vertex 2 Zcoordinate
    705501.5011070546,        !- Vertex 3 Xcoordinate
    5711222.899163716,        !- Vertex 3 Ycoordinate
    0,                        !- Vertex 3 Zcoordinate
    705501.5011070546,        !- Vertex 4 Xcoordinate
    5711222.899163716,        !- Vertex 4 Ycoordinate
    6;                        !- Vertex 4 Zcoordinate

SHADING:SITE:DETAILED,
    shade_way/694412122_3,    !- Name
    ,                         !- Transmittance Schedule Name
    autocalculate,            !- Number of Vertices
    705501.5011070546,        !- Vertex 1 Xcoordinate
    5711222.899163716,        !- Vertex 1 Ycoordinate
    6,                        !- Vertex 1 Zcoordinate
    705501.5011070546,        !- Vertex 2 Xcoordinate
    5711222.899163716,        !- Vertex 2 Ycoordinate
    0,                        !- Vertex 2 Zcoordinate
    705506.6284265252,        !- Vertex 3 Xcoordinate
    5711223.084551179,        !- Vertex 3 Ycoordinate
    0,                        !- Vertex 3 Zcoordinate
    705506.6284265252,        !- Vertex 4 Xcoordinate
    5711223.084551179,        !- Vertex 4 Ycoordinate
    6;                        !- Vertex 4 Zcoordinate

SHADING:SITE:DETAILED,
    shade_way/694412122_4,    !- Name
    ,                         !- Transmittance Schedule Name
    autocalculate,            !- Number of Vertices
    705506.6284265252,        !- Vertex 1 Xcoordinate
    5711223.084551179,        !- Vertex 1 Ycoordinate
    6,                        !- Vertex 1 Zcoordinate
    705506.6284265252,        !- Vertex 2 Xcoordinate
    5711223.084551179,        !- Vertex 2 Ycoordinate
    0,                        !- Vertex 2 Zcoordinate
    705506.9831454509,        !- Vertex 3 Xcoordinate
    5711213.276786098,        !- Vertex 3 Ycoordinate
    0,                        !- Vertex 3 Zcoordinate
    705506.9831454509,        !- Vertex 4 Xcoordinate
    5711213.276786098,        !- Vertex 4 Ycoordinate
    6;                        !- Vertex 4 Zcoordinate

SHADING:SITE:DETAILED,
    shade_way/1055854771_1,    !- Name
    ,                         !- Transmittance Schedule Name
    autocalculate,            !- Number of Vertices
    705491.2615700627,        !- Vertex 1 Xcoordinate
    5711216.761177938,        !- Vertex 1 Ycoordinate
    6,                        !- Vertex 1 Zcoordinate
    705491.2615700627,        !- Vertex 2 Xcoordinate
    5711216.761177938,        !- Vertex 2 Ycoordinate
    0,                        !- Vertex 2 Zcoordinate
    705476.2089455305,        !- Vertex 3 Xcoordinate
    5711215.849991415,        !- Vertex 3 Ycoordinate
    0,                        !- Vertex 3 Zcoordinate
    705476.2089455305,        !- Vertex 4 Xcoordinate
    5711215.849991415,        !- Vertex 4 Ycoordinate
    6;                        !- Vertex 4 Zcoordinate

SHADING:SITE:DETAILED,
    shade_way/1055854771_2,    !- Name
    ,                         !- Transmittance Schedule Name
    autocalculate,            !- Number of Vertices
    705476.2089455305,        !- Vertex 1 Xcoordinate
    5711215.849991415,        !- Vertex 1 Ycoordinate
    6,                        !- Vertex 1 Zcoordinate
    705476.2089455305,        !- Vertex 2 Xcoordinate
    5711215.849991415,        !- Vertex 2 Ycoordinate
    0,                        !- Vertex 2 Zcoordinate
    705475.8937323922,        !- Vertex 3 Xcoordinate
    5711221.060356732,        !- Vertex 3 Ycoordinate
    0,                        !- Vertex 3 Zcoordinate
    705475.8937323922,        !- Vertex 4 Xcoordinate
    5711221.060356732,        !- Vertex 4 Ycoordinate
    6;                        !- Vertex 4 Zcoordinate

SHADING:SITE:DETAILED,
    shade_way/1055854771_3,    !- Name
    ,                         !- Transmittance Schedule Name
    autocalculate,            !- Number of Vertices
    705475.8937323922,        !- Vertex 1 Xcoordinate
    5711221.060356732,        !- Vertex 1 Ycoordinate
    6,                        !- Vertex 1 Zcoordinate
    705475.8937323922,        !- Vertex 2 Xcoordinate
    5711221.060356732,        !- Vertex 2 Ycoordinate
    0,                        !- Vertex 2 Zcoordinate
    705490.9461583217,        !- Vertex 3 Xcoordinate
    5711221.97171871,         !- Vertex 3 Ycoordinate
    0,                        !- Vertex 3 Zcoordinate
    705490.9461583217,        !- Vertex 4 Xcoordinate
    5711221.97171871,         !- Vertex 4 Ycoordinate
    6;                        !- Vertex 4 Zcoordinate

SHADING:SITE:DETAILED,
    shade_way/1055854771_4,    !- Name
    ,                         !- Transmittance Schedule Name
    autocalculate,            !- Number of Vertices
    705490.9461583217,        !- Vertex 1 Xcoordinate
    5711221.97171871,         !- Vertex 1 Ycoordinate
    6,                        !- Vertex 1 Zcoordinate
    705490.9461583217,        !- Vertex 2 Xcoordinate
    5711221.97171871,         !- Vertex 2 Ycoordinate
    0,                        !- Vertex 2 Zcoordinate
    705491.2615700627,        !- Vertex 3 Xcoordinate
    5711216.761177938,        !- Vertex 3 Ycoordinate
    0,                        !- Vertex 3 Zcoordinate
    705491.2615700627,        !- Vertex 4 Xcoordinate
    5711216.761177938,        !- Vertex 4 Ycoordinate
    6;                        !- Vertex 4 Zcoordinate

SHADING:SITE:DETAILED,
    shade_way/1055232811_1,    !- Name
    ,                         !- Transmittance Schedule Name
    autocalculate,            !- Number of Vertices
    705517.0061921363,        !- Vertex 1 Xcoordinate
    5711223.482645068,        !- Vertex 1 Ycoordinate
    6,                        !- Vertex 1 Zcoordinate
    705517.0061921363,        !- Vertex 2 Xcoordinate
    5711223.482645068,        !- Vertex 2 Ycoordinate
    0,                        !- Vertex 2 Zcoordinate
    705517.3468381676,        !- Vertex 3 Xcoordinate
    5711213.532403624,        !- Vertex 3 Ycoordinate
    0,                        !- Vertex 3 Zcoordinate
    705517.3468381676,        !- Vertex 4 Xcoordinate
    5711213.532403624,        !- Vertex 4 Ycoordinate
    6;                        !- Vertex 4 Zcoordinate

SHADING:SITE:DETAILED,
    shade_way/1055232811_2,    !- Name
    ,                         !- Transmittance Schedule Name
    autocalculate,            !- Number of Vertices
    705517.3468381676,        !- Vertex 1 Xcoordinate
    5711213.532403624,        !- Vertex 1 Ycoordinate
    6,                        !- Vertex 1 Zcoordinate
    705517.3468381676,        !- Vertex 2 Xcoordinate
    5711213.532403624,        !- Vertex 2 Ycoordinate
    0,                        !- Vertex 2 Zcoordinate
    705512.1774771695,        !- Vertex 3 Xcoordinate
    5711213.355542711,        !- Vertex 3 Ycoordinate
    0,                        !- Vertex 3 Zcoordinate
    705512.1774771695,        !- Vertex 4 Xcoordinate
    5711213.355542711,        !- Vertex 4 Ycoordinate
    6;                        !- Vertex 4 Zcoordinate

SHADING:SITE:DETAILED,
    shade_way/1055232811_3,    !- Name
    ,                         !- Transmittance Schedule Name
    autocalculate,            !- Number of Vertices
    705512.1774771695,        !- Vertex 1 Xcoordinate
    5711213.355542711,        !- Vertex 1 Ycoordinate
    6,                        !- Vertex 1 Zcoordinate
    705512.1774771695,        !- Vertex 2 Xcoordinate
    5711213.355542711,        !- Vertex 2 Ycoordinate
    0,                        !- Vertex 2 Zcoordinate
    705511.8370500106,        !- Vertex 3 Xcoordinate
    5711223.305682902,        !- Vertex 3 Ycoordinate
    0,                        !- Vertex 3 Zcoordinate
    705511.8370500106,        !- Vertex 4 Xcoordinate
    5711223.305682902,        !- Vertex 4 Ycoordinate
    6;                        !- Vertex 4 Zcoordinate

SHADING:SITE:DETAILED,
    shade_way/1055232811_4,    !- Name
    ,                         !- Transmittance Schedule Name
    autocalculate,            !- Number of Vertices
    705511.8370500106,        !- Vertex 1 Xcoordinate
    5711223.305682902,        !- Vertex 1 Ycoordinate
    6,                        !- Vertex 1 Zcoordinate
    705511.8370500106,        !- Vertex 2 Xcoordinate
    5711223.305682902,        !- Vertex 2 Ycoordinate
    0,                        !- Vertex 2 Zcoordinate
    705517.0061921363,        !- Vertex 3 Xcoordinate
    5711223.482645068,        !- Vertex 3 Ycoordinate
    0,                        !- Vertex 3 Zcoordinate
    705517.0061921363,        !- Vertex 4 Xcoordinate
    5711223.482645068,        !- Vertex 4 Ycoordinate
    6;                        !- Vertex 4 Zcoordinate

SHADING:SITE:DETAILED,
    shade_way/1055232812_1,    !- Name
    ,                         !- Transmittance Schedule Name
    autocalculate,            !- Number of Vertices
    705522.279177593,         !- Vertex 1 Xcoordinate
    5711223.673948621,        !- Vertex 1 Ycoordinate
    6,                        !- Vertex 1 Zcoordinate
    705522.279177593,         !- Vertex 2 Xcoordinate
    5711223.673948621,        !- Vertex 2 Ycoordinate
    0,                        !- Vertex 2 Zcoordinate
    705522.5739312756,        !- Vertex 3 Xcoordinate
    5711213.652121678,        !- Vertex 3 Ycoordinate
    0,                        !- Vertex 3 Zcoordinate
    705522.5739312756,        !- Vertex 4 Xcoordinate
    5711213.652121678,        !- Vertex 4 Ycoordinate
    6;                        !- Vertex 4 Zcoordinate

SHADING:SITE:DETAILED,
    shade_way/1055232812_2,    !- Name
    ,                         !- Transmittance Schedule Name
    autocalculate,            !- Number of Vertices
    705522.5739312756,        !- Vertex 1 Xcoordinate
    5711213.652121678,        !- Vertex 1 Ycoordinate
    6,                        !- Vertex 1 Zcoordinate
    705522.5739312756,        !- Vertex 2 Xcoordinate
    5711213.652121678,        !- Vertex 2 Ycoordinate
    0,                        !- Vertex 2 Zcoordinate
    705517.3002135031,        !- Vertex 3 Xcoordinate
    5711213.496892719,        !- Vertex 3 Ycoordinate
    0,                        !- Vertex 3 Zcoordinate
    705517.3002135031,        !- Vertex 4 Xcoordinate
    5711213.496892719,        !- Vertex 4 Ycoordinate
    6;                        !- Vertex 4 Zcoordinate

SHADING:SITE:DETAILED,
    shade_way/1055232812_3,    !- Name
    ,                         !- Transmittance Schedule Name
    autocalculate,            !- Number of Vertices
    705517.3002135031,        !- Vertex 1 Xcoordinate
    5711213.496892719,        !- Vertex 1 Ycoordinate
    6,                        !- Vertex 1 Zcoordinate
    705517.3002135031,        !- Vertex 2 Xcoordinate
    5711213.496892719,        !- Vertex 2 Ycoordinate
    0,                        !- Vertex 2 Zcoordinate
    705517.005459821,         !- Vertex 3 Xcoordinate
    5711223.518719662,        !- Vertex 3 Ycoordinate
    0,                        !- Vertex 3 Zcoordinate
    705517.005459821,         !- Vertex 4 Xcoordinate
    5711223.518719662,        !- Vertex 4 Ycoordinate
    6;                        !- Vertex 4 Zcoordinate

SHADING:SITE:DETAILED,
    shade_way/1055232812_4,    !- Name
    ,                         !- Transmittance Schedule Name
    autocalculate,            !- Number of Vertices
    705517.005459821,         !- Vertex 1 Xcoordinate
    5711223.518719662,        !- Vertex 1 Ycoordinate
    6,                        !- Vertex 1 Zcoordinate
    705517.005459821,         !- Vertex 2 Xcoordinate
    5711223.518719662,        !- Vertex 2 Ycoordinate
    0,                        !- Vertex 2 Zcoordinate
    705522.279177593,         !- Vertex 3 Xcoordinate
    5711223.673948621,        !- Vertex 3 Ycoordinate
    0,                        !- Vertex 3 Zcoordinate
    705522.279177593,         !- Vertex 4 Xcoordinate
    5711223.673948621,        !- Vertex 4 Ycoordinate
    6;                        !- Vertex 4 Zcoordinate

SHADING:SITE:DETAILED,
    shade_way/1055232813_1,    !- Name
    ,                         !- Transmittance Schedule Name
    autocalculate,            !- Number of Vertices
    705527.4134239424,        !- Vertex 1 Xcoordinate
    5711223.859637983,        !- Vertex 1 Ycoordinate
    6,                        !- Vertex 1 Zcoordinate
    705527.4134239424,        !- Vertex 2 Xcoordinate
    5711223.859637983,        !- Vertex 2 Ycoordinate
    0,                        !- Vertex 2 Zcoordinate
    705527.7713038183,        !- Vertex 3 Xcoordinate
    5711213.822857247,        !- Vertex 3 Ycoordinate
    0,                        !- Vertex 3 Zcoordinate
    705527.7713038183,        !- Vertex 4 Xcoordinate
    5711213.822857247,        !- Vertex 4 Ycoordinate
    6;                        !- Vertex 4 Zcoordinate

SHADING:SITE:DETAILED,
    shade_way/1055232813_2,    !- Name
    ,                         !- Transmittance Schedule Name
    autocalculate,            !- Number of Vertices
    705527.7713038183,        !- Vertex 1 Xcoordinate
    5711213.822857247,        !- Vertex 1 Ycoordinate
    6,                        !- Vertex 1 Zcoordinate
    705527.7713038183,        !- Vertex 2 Xcoordinate
    5711213.822857247,        !- Vertex 2 Ycoordinate
    0,                        !- Vertex 2 Zcoordinate
    705522.574456649,         !- Vertex 3 Xcoordinate
    5711213.637557241,        !- Vertex 3 Ycoordinate
    0,                        !- Vertex 3 Zcoordinate
    705522.574456649,         !- Vertex 4 Xcoordinate
    5711213.637557241,        !- Vertex 4 Ycoordinate
    6;                        !- Vertex 4 Zcoordinate

SHADING:SITE:DETAILED,
    shade_way/1055232813_3,    !- Name
    ,                         !- Transmittance Schedule Name
    autocalculate,            !- Number of Vertices
    705522.574456649,         !- Vertex 1 Xcoordinate
    5711213.637557241,        !- Vertex 1 Ycoordinate
    6,                        !- Vertex 1 Zcoordinate
    705522.574456649,         !- Vertex 2 Xcoordinate
    5711213.637557241,        !- Vertex 2 Ycoordinate
    0,                        !- Vertex 2 Zcoordinate
    705522.2165857774,        !- Vertex 3 Xcoordinate
    5711223.674255416,        !- Vertex 3 Ycoordinate
    0,                        !- Vertex 3 Zcoordinate
    705522.2165857774,        !- Vertex 4 Xcoordinate
    5711223.674255416,        !- Vertex 4 Ycoordinate
    6;                        !- Vertex 4 Zcoordinate

SHADING:SITE:DETAILED,
    shade_way/1055232813_4,    !- Name
    ,                         !- Transmittance Schedule Name
    autocalculate,            !- Number of Vertices
    705522.2165857774,        !- Vertex 1 Xcoordinate
    5711223.674255416,        !- Vertex 1 Ycoordinate
    6,                        !- Vertex 1 Zcoordinate
    705522.2165857774,        !- Vertex 2 Xcoordinate
    5711223.674255416,        !- Vertex 2 Ycoordinate
    0,                        !- Vertex 2 Zcoordinate
    705527.4134239424,        !- Vertex 3 Xcoordinate
    5711223.859637983,        !- Vertex 3 Ycoordinate
    0,                        !- Vertex 3 Zcoordinate
    705527.4134239424,        !- Vertex 4 Xcoordinate
    5711223.859637983,        !- Vertex 4 Ycoordinate
    6;                        !- Vertex 4 Zcoordinate

SHADING:SITE:DETAILED,
    shade_way/1055232814_1,    !- Name
    ,                         !- Transmittance Schedule Name
    autocalculate,            !- Number of Vertices
    705527.7712582984,        !- Vertex 1 Xcoordinate
    5711213.82413388,         !- Vertex 1 Ycoordinate
    6,                        !- Vertex 1 Zcoordinate
    705527.7712582984,        !- Vertex 2 Xcoordinate
    5711213.82413388,         !- Vertex 2 Ycoordinate
    0,                        !- Vertex 2 Zcoordinate
    705527.4133537861,        !- Vertex 3 Xcoordinate
    5711223.861775525,        !- Vertex 3 Ycoordinate
    0,                        !- Vertex 3 Zcoordinate
    705527.4133537861,        !- Vertex 4 Xcoordinate
    5711223.861775525,        !- Vertex 4 Ycoordinate
    6;                        !- Vertex 4 Zcoordinate

SHADING:SITE:DETAILED,
    shade_way/1055232814_2,    !- Name
    ,                         !- Transmittance Schedule Name
    autocalculate,            !- Number of Vertices
    705527.4133537861,        !- Vertex 1 Xcoordinate
    5711223.861775525,        !- Vertex 1 Ycoordinate
    6,                        !- Vertex 1 Zcoordinate
    705527.4133537861,        !- Vertex 2 Xcoordinate
    5711223.861775525,        !- Vertex 2 Ycoordinate
    0,                        !- Vertex 2 Zcoordinate
    705532.4644268173,        !- Vertex 3 Xcoordinate
    5711224.041960657,        !- Vertex 3 Ycoordinate
    0,                        !- Vertex 3 Zcoordinate
    705532.4644268173,        !- Vertex 4 Xcoordinate
    5711224.041960657,        !- Vertex 4 Ycoordinate
    6;                        !- Vertex 4 Zcoordinate

SHADING:SITE:DETAILED,
    shade_way/1055232814_3,    !- Name
    ,                         !- Transmittance Schedule Name
    autocalculate,            !- Number of Vertices
    705532.4644268173,        !- Vertex 1 Xcoordinate
    5711224.041960657,        !- Vertex 1 Ycoordinate
    6,                        !- Vertex 1 Zcoordinate
    705532.4644268173,        !- Vertex 2 Xcoordinate
    5711224.041960657,        !- Vertex 2 Ycoordinate
    0,                        !- Vertex 2 Zcoordinate
    705532.8223403337,        !- Vertex 3 Xcoordinate
    5711214.0042364495,       !- Vertex 3 Ycoordinate
    0,                        !- Vertex 3 Zcoordinate
    705532.8223403337,        !- Vertex 4 Xcoordinate
    5711214.0042364495,       !- Vertex 4 Ycoordinate
    6;                        !- Vertex 4 Zcoordinate

SHADING:SITE:DETAILED,
    shade_way/1055232814_4,    !- Name
    ,                         !- Transmittance Schedule Name
    autocalculate,            !- Number of Vertices
    705532.8223403337,        !- Vertex 1 Xcoordinate
    5711214.0042364495,       !- Vertex 1 Ycoordinate
    6,                        !- Vertex 1 Zcoordinate
    705532.8223403337,        !- Vertex 2 Xcoordinate
    5711214.0042364495,       !- Vertex 2 Ycoordinate
    0,                        !- Vertex 2 Zcoordinate
    705527.7712582984,        !- Vertex 3 Xcoordinate
    5711213.82413388,         !- Vertex 3 Ycoordinate
    0,                        !- Vertex 3 Zcoordinate
    705527.7712582984,        !- Vertex 4 Xcoordinate
    5711213.82413388,         !- Vertex 4 Ycoordinate
    6;                        !- Vertex 4 Zcoordinate

OTHEREQUIPMENT,
    EU_Step8_InternalGain_663e37bc995d3a5e_F0_dwelling_0_f000,    !- Name
    Electricity,              !- Fuel Type
    663e37bc995d3a5e_F0_dwelling_0,    !- Zone or ZoneList or Space or SpaceList Name
    EU_Step8_GainSchedule_663e37bc995d3a5e_F0_dwelling_0_f000,    !- Schedule Name
    Watts/Area,               !- Design Level Calculation Method
    ,                         !- Design Level
    1,                        !- Power per Zone Floor Area
    ,                         !- Power per Person
    0,                        !- Fraction Latent
    0,                        !- Fraction Radiant
    0,                        !- Fraction Lost
    0,                        !- Carbon Dioxide Generation Rate
    EU_Step8_InternalGains;    !- EndUse Subcategory

ZONEVENTILATION:DESIGNFLOWRATE,
    EU_ConstantAir_663e37bc995d3a5e_F0_dwelling_0,    !- Name
    663e37bc995d3a5e_F0_dwelling_0,    !- Zone or ZoneList or Space or SpaceList Name
    EU_AlwaysOn,              !- Schedule Name
    AirChanges/Hour,          !- Design Flow Rate Calculation Method
    ,                         !- Design Flow Rate
    ,                         !- Flow Rate per Floor Area
    ,                         !- Flow Rate per Person
    0.418134938716768,        !- Air Changes per Hour
    Natural,                  !- Ventilation Type
    0,                        !- Fan Pressure Rise
    1,                        !- Fan Total Efficiency
    1,                        !- Constant Term Coefficient
    0,                        !- Temperature Term Coefficient
    0,                        !- Velocity Term Coefficient
    0,                        !- Velocity Squared Term Coefficient
    -100,                     !- Minimum Indoor Temperature
    ,                         !- Minimum Indoor Temperature Schedule Name
    100,                      !- Maximum Indoor Temperature
    ,                         !- Maximum Indoor Temperature Schedule Name
    -100,                     !- Delta Temperature
    ,                         !- Delta Temperature Schedule Name
    -100,                     !- Minimum Outdoor Temperature
    ,                         !- Minimum Outdoor Temperature Schedule Name
    100,                      !- Maximum Outdoor Temperature
    ,                         !- Maximum Outdoor Temperature Schedule Name
    40;                       !- Maximum Wind Speed

HVACTEMPLATE:THERMOSTAT,
    EU_HeatOnly_663e37bc995d3a5e_F0_dwelling_0,    !- Name
    ,                         !- Heating Setpoint Schedule Name
    20,                       !- Constant Heating Setpoint
    ,                         !- Cooling Setpoint Schedule Name
    50;                       !- Constant Cooling Setpoint

HVACTEMPLATE:ZONE:IDEALLOADSAIRSYSTEM,
    663e37bc995d3a5e_F0_dwelling_0,    !- Zone Name
    EU_HeatOnly_663e37bc995d3a5e_F0_dwelling_0,    !- Template Thermostat Name
    EU_AlwaysOn,              !- System Availability Schedule Name
    50,                       !- Maximum Heating Supply Air Temperature
    13,                       !- Minimum Cooling Supply Air Temperature
    0.0156,                   !- Maximum Heating Supply Air Humidity Ratio
    0.0077,                   !- Minimum Cooling Supply Air Humidity Ratio
    NoLimit,                  !- Heating Limit
    ,                         !- Maximum Heating Air Flow Rate
    ,                         !- Maximum Sensible Heating Capacity
    NoLimit,                  !- Cooling Limit
    ,                         !- Maximum Cooling Air Flow Rate
    ,                         !- Maximum Total Cooling Capacity
    EU_AlwaysOn,              !- Heating Availability Schedule Name
    EU_CoolingOff,            !- Cooling Availability Schedule Name
    ConstantSensibleHeatRatio,    !- Dehumidification Control Type
    0.7,                      !- Cooling Sensible Heat Ratio
    60,                       !- Dehumidification Setpoint
    None,                     !- Humidification Control Type
    30,                       !- Humidification Setpoint
    None,                     !- Outdoor Air Method
    0.00944,                  !- Outdoor Air Flow Rate per Person
    0.0,                      !- Outdoor Air Flow Rate per Zone Floor Area
    0,                        !- Outdoor Air Flow Rate per Zone
    ,                         !- Design Specification Outdoor Air Object Name
    None,                     !- Demand Controlled Ventilation Type
    NoEconomizer,             !- Outdoor Air Economizer Type
    None,                     !- Heat Recovery Type
    0.70,                     !- Sensible Heat Recovery Effectiveness
    0.65;                     !- Latent Heat Recovery Effectiveness

SIZING:ZONE,
    663e37bc995d3a5e_F0_dwelling_0,    !- Zone or ZoneList Name
    SupplyAirTemperature,     !- Zone Cooling Design Supply Air Temperature Input Method
    13,                       !- Zone Cooling Design Supply Air Temperature
    ,                         !- Zone Cooling Design Supply Air Temperature Difference
    SupplyAirTemperature,     !- Zone Heating Design Supply Air Temperature Input Method
    50,                       !- Zone Heating Design Supply Air Temperature
    ,                         !- Zone Heating Design Supply Air Temperature Difference
    0.008,                    !- Zone Cooling Design Supply Air Humidity Ratio
    0.008,                    !- Zone Heating Design Supply Air Humidity Ratio
    ,                         !- Design Specification Outdoor Air Object Name
    ,                         !- Zone Heating Sizing Factor
    ,                         !- Zone Cooling Sizing Factor
    DesignDay,                !- Cooling Design Air Flow Method
    0,                        !- Cooling Design Air Flow Rate
    0.000762,                 !- Cooling Minimum Air Flow per Zone Floor Area
    0,                        !- Cooling Minimum Air Flow
    0.2,                      !- Cooling Minimum Air Flow Fraction
    DesignDay,                !- Heating Design Air Flow Method
    0,                        !- Heating Design Air Flow Rate
    0.002032,                 !- Heating Maximum Air Flow per Zone Floor Area
    0.1415762,                !- Heating Maximum Air Flow
    0.3,                      !- Heating Maximum Air Flow Fraction
    ,                         !- Design Specification Zone Air Distribution Object Name
    No,                       !- Account for Dedicated Outdoor Air System
    NeutralSupplyAir,         !- Dedicated Outdoor Air System Control Strategy
    autosize,                 !- Dedicated Outdoor Air Low Setpoint Temperature for Design
    autosize,                 !- Dedicated Outdoor Air High Setpoint Temperature for Design
    Sensible Load Only No Latent Load,    !- Zone Load Sizing Method
    HumidityRatioDifference,    !- Zone Latent Cooling Design Supply Air Humidity Ratio Input Method
    ,                         !- Zone Dehumidification Design Supply Air Humidity Ratio
    0.005,                    !- Zone Cooling Design Supply Air Humidity Ratio Difference
    HumidityRatioDifference,    !- Zone Latent Heating Design Supply Air Humidity Ratio Input Method
    ,                         !- Zone Humidification Design Supply Air Humidity Ratio
    0.005;                    !- Zone Humidification Design Supply Air Humidity Ratio Difference

OUTPUT:VARIABLE,
    *,                        !- Key Value
    Zone Ideal Loads Zone Total Heating Energy,    !- Variable Name
    Hourly;                   !- Reporting Frequency

OUTPUT:SQLITE,
    SimpleAndTabular,         !- Option Type
    UseOutputControlTableStyle;    !- Unit Conversion for Tabular Data