!- Windows Line endings 

Version,
    23.1;                     !- Version Identifier

SimulationControl,
    Yes,                      !- Do Zone Sizing Calculation
    Yes,                      !- Do System Sizing Calculation
    Yes,                      !- Do Plant Sizing Calculation
    No,                       !- Run Simulation for Sizing Periods
    Yes,                      !- Run Simulation for Weather File Run Periods
    No,                       !- Do HVAC Sizing Simulation for Sizing Periods
    1;                        !- Maximum Number of HVAC Sizing Simulation Passes

Building,
    EU S2 Campaign,           !- Name
    0,                        !- North Axis
    City,                     !- Terrain
    ,                         !- Loads Convergence Tolerance Value
    ,                         !- Temperature Convergence Tolerance Value
    FullExterior,             !- Solar Distribution
    ,                         !- Maximum Number of Warmup Days
    ;                         !- Minimum Number of Warmup Days

ShadowCalculation,
    PolygonClipping,          !- Shading Calculation Method
    Periodic,                 !- Shading Calculation Update Frequency Method
    1;                        !- Shading Calculation Update Frequency

HeatBalanceAlgorithm,
    ConductionTransferFunction,    !- Algorithm
    200,                      !- Surface Temperature Upper Limit
    0.1,                      !- Minimum Surface Convection Heat Transfer Coefficient Value
    10000000;                 !- Maximum Surface Convection Heat Transfer Coefficient Value

Timestep,
    12;                       !- Number of Timesteps per Hour

Site:Location,
    London,                   !- Name
    51.5,                     !- Latitude
    -0.5,                     !- Longitude
    0,                        !- Time Zone
    25;                       !- Elevation

SizingPeriod:WeatherFileDays,
    AnnualSizingPeriod,       !- Name
    1,                        !- Begin Month
    1,                        !- Begin Day of Month
    12,                       !- End Month
    31,                       !- End Day of Month
    Monday,                   !- Day of Week for Start Day
    No,                       !- Use Weather File Daylight Saving Period
    No;                       !- Use Weather File Rain and Snow Indicators

RunPeriod,
    RunPeriod1,               !- Name
    1,                        !- Begin Month
    1,                        !- Begin Day of Month
    ,                         !- Begin Year
    12,                       !- End Month
    31,                       !- End Day of Month
    ,                         !- End Year
    Sunday,                   !- Day of Week for Start Day
    No,                       !- Use Weather File Holidays and Special Days
    No,                       !- Use Weather File Daylight Saving Period
    No,                       !- Apply Weekend Holiday Rule
    Yes,                      !- Use Weather File Rain Indicators
    Yes;                      !- Use Weather File Snow Indicators

ScheduleTypeLimits,
    Any Number;               !- Name

SCHEDULETYPELIMITS,
    EU_Step8_AnyNumber_Wm2,    !- Name
    ,                         !- Lower Limit Value
    ,                         !- Upper Limit Value
    Continuous,               !- Numeric Type
    Dimensionless;            !- Unit Type

SCHEDULE:CONSTANT,
    EU_AlwaysOn,              !- Name
    ,                         !- Schedule Type Limits Name
    1;                        !- Hourly Value

SCHEDULE:CONSTANT,
    EU_CoolingOff,            !- Name
    ,                         !- Schedule Type Limits Name
    0;                        !- Hourly Value

SCHEDULE:FILE,
    EU_Step8_GainSchedule_7bbd1251968d36ca_F0_dwelling_0_f000,    !- Name
    EU_Step8_AnyNumber_Wm2,    !- Schedule Type Limits Name
    ../../schedules/7bbd1251968d36ca/7bbd1251968d36ca_F0_dwelling_0_f000_gain.csv,    !- File Name
    1,                        !- Column Number
    0,                        !- Rows to Skip at Top
    8760,                     !- Number of Hours of Data
    Comma,                    !- Column Separator
    No,                       !- Interpolate to Timestep
    60,                       !- Minutes per Item
    Yes;                      !- Adjust Schedule for Daylight Savings

MATERIAL,
    EU_InternalMass_Material,    !- Name
    MediumRough,              !- Roughness
    0.1,                      !- Thickness
    1,                        !- Conductivity
    1800,                     !- Density
    900,                      !- Specific Heat
    0.9,                      !- Thermal Absorptance
    0.7,                      !- Solar Absorptance
    0.7;                      !- Visible Absorptance

MATERIAL:NOMASS,
    EU_wall_NoMass,           !- Name
    MediumRough,              !- Roughness
    0.5555555555555555,       !- Thermal Resistance
    0.9,                      !- Thermal Absorptance
    0.7,                      !- Solar Absorptance
    0.7;                      !- Visible Absorptance

MATERIAL:NOMASS,
    EU_roof_NoMass,           !- Name
    MediumRough,              !- Roughness
    0.5102040816326531,       !- Thermal Resistance
    0.9,                      !- Thermal Absorptance
    0.7,                      !- Solar Absorptance
    0.7;                      !- Visible Absorptance

MATERIAL:NOMASS,
    EU_floor_NoMass,          !- Name
    MediumRough,              !- Roughness
    1.6891891891891893,       !- Thermal Resistance
    0.9,                      !- Thermal Absorptance
    0.7,                      !- Solar Absorptance
    0.7;                      !- Visible Absorptance

CONSTRUCTION,
    EU_wall_Construction,     !- Name
    EU_wall_NoMass;           !- Outside Layer

CONSTRUCTION,
    EU_roof_Construction,     !- Name
    EU_roof_NoMass;           !- Outside Layer

CONSTRUCTION,
    EU_floor_Construction,    !- Name
    EU_floor_NoMass;          !- Outside Layer

CONSTRUCTION,
    EU_InternalMass_Construction,    !- Name
    EU_InternalMass_Material;    !- Outside Layer

GlobalGeometryRules,
    UpperLeftCorner,          !- Starting Vertex Position
    CounterClockWise,         !- Vertex Entry Direction
    World;                    !- Coordinate System

ZONE,
    7bbd1251968d36ca_F0_dwelling_0,    !- Name
    0,                        !- Direction of Relative North
    0,                        !- X Origin
    0,                        !- Y Origin
    0,                        !- Z Origin
    1,                        !- Type
    1,                        !- Multiplier
    autocalculate,            !- Ceiling Height
    193.880859375,            !- Volume
    autocalculate,            !- Floor Area
    ,                         !- Zone Inside Convection Algorithm
    ,                         !- Zone Outside Convection Algorithm
    Yes;                      !- Part of Total Floor Area

BUILDINGSURFACE:DETAILED,
    Block 7bbd1251968d36ca_0 Storey 0 Wall 0001,    !- Name
    wall,                     !- Surface Type
    EU_wall_Construction,     !- Construction Name
    7bbd1251968d36ca_F0_dwelling_0,    !- Zone Name
    ,                         !- Space Name
    outdoors,                 !- Outside Boundary Condition
    ,                         !- Outside Boundary Condition Object
    SunExposed,               !- Sun Exposure
    WindExposed,              !- Wind Exposure
    autocalculate,            !- View Factor to Ground
    autocalculate,            !- Number of Vertices
    705321.758,               !- Vertex 1 Xcoordinate
    5711304.022,              !- Vertex 1 Ycoordinate
    6,                        !- Vertex 1 Zcoordinate
    705321.758,               !- Vertex 2 Xcoordinate
    5711304.022,              !- Vertex 2 Ycoordinate
    0,                        !- Vertex 2 Zcoordinate
    705319.301,               !- Vertex 3 Xcoordinate
    5711303.778,              !- Vertex 3 Ycoordinate
    0,                        !- Vertex 3 Zcoordinate
    705319.301,               !- Vertex 4 Xcoordinate
    5711303.778,              !- Vertex 4 Ycoordinate
    6;                        !- Vertex 4 Zcoordinate

BUILDINGSURFACE:DETAILED,
    Block 7bbd1251968d36ca_0 Storey 0 Wall 0002,    !- Name
    wall,                     !- Surface Type
    EU_wall_Construction,     !- Construction Name
    7bbd1251968d36ca_F0_dwelling_0,    !- Zone Name
    ,                         !- Space Name
    Adiabatic,                !- Outside Boundary Condition
    ,                         !- Outside Boundary Condition Object
    NoSun,                    !- Sun Exposure
    NoWind,                   !- Wind Exposure
    autocalculate,            !- View Factor to Ground
    autocalculate,            !- Number of Vertices
    705319.301,               !- Vertex 1 Xcoordinate
    5711303.778,              !- Vertex 1 Ycoordinate
    6,                        !- Vertex 1 Zcoordinate
    705319.301,               !- Vertex 2 Xcoordinate
    5711303.778,              !- Vertex 2 Ycoordinate
    0,                        !- Vertex 2 Zcoordinate
    705318.278,               !- Vertex 3 Xcoordinate
    5711313.96,               !- Vertex 3 Ycoordinate
    0,                        !- Vertex 3 Zcoordinate
    705318.278,               !- Vertex 4 Xcoordinate
    5711313.96,               !- Vertex 4 Ycoordinate
    6;                        !- Vertex 4 Zcoordinate

BUILDINGSURFACE:DETAILED,
    Block 7bbd1251968d36ca_0 Storey 0 Wall 0003,    !- Name
    wall,                     !- Surface Type
    EU_wall_Construction,     !- Construction Name
    7bbd1251968d36ca_F0_dwelling_0,    !- Zone Name
    ,                         !- Space Name
    outdoors,                 !- Outside Boundary Condition
    ,                         !- Outside Boundary Condition Object
    SunExposed,               !- Sun Exposure
    WindExposed,              !- Wind Exposure
    autocalculate,            !- View Factor to Ground
    autocalculate,            !- Number of Vertices
    705318.278,               !- Vertex 1 Xcoordinate
    5711313.96,               !- Vertex 1 Ycoordinate
    6,                        !- Vertex 1 Zcoordinate
    705318.278,               !- Vertex 2 Xcoordinate
    5711313.96,               !- Vertex 2 Ycoordinate
    0,                        !- Vertex 2 Zcoordinate
    705322.386,               !- Vertex 3 Xcoordinate
    5711314.271,              !- Vertex 3 Ycoordinate
    0,                        !- Vertex 3 Zcoordinate
    705322.386,               !- Vertex 4 Xcoordinate
    5711314.271,              !- Vertex 4 Ycoordinate
    6;                        !- Vertex 4 Zcoordinate

BUILDINGSURFACE:DETAILED,
    Block 7bbd1251968d36ca_0 Storey 0 Wall 0004,    !- Name
    wall,                     !- Surface Type
    EU_wall_Construction,     !- Construction Name
    7bbd1251968d36ca_F0_dwelling_0,    !- Zone Name
    ,                         !- Space Name
    Adiabatic,                !- Outside Boundary Condition
    ,                         !- Outside Boundary Condition Object
    NoSun,                    !- Sun Exposure
    NoWind,                   !- Wind Exposure
    autocalculate,            !- View Factor to Ground
    autocalculate,            !- Number of Vertices
    705322.386,               !- Vertex 1 Xcoordinate
    5711314.271,              !- Vertex 1 Ycoordinate
    6,                        !- Vertex 1 Zcoordinate
    705322.386,               !- Vertex 2 Xcoordinate
    5711314.271,              !- Vertex 2 Ycoordinate
    0,                        !- Vertex 2 Zcoordinate
    705322.793,               !- Vertex 3 Xcoordinate
    5711310.033,              !- Vertex 3 Ycoordinate
    0,                        !- Vertex 3 Zcoordinate
    705322.793,               !- Vertex 4 Xcoordinate
    5711310.033,              !- Vertex 4 Ycoordinate
    6;                        !- Vertex 4 Zcoordinate

BUILDINGSURFACE:DETAILED,
    Block 7bbd1251968d36ca_0 Storey 0 Wall 0005,    !- Name
    wall,                     !- Surface Type
    EU_wall_Construction,     !- Construction Name
    7bbd1251968d36ca_F0_dwelling_0,    !- Zone Name
    ,                         !- Space Name
    outdoors,                 !- Outside Boundary Condition
    ,                         !- Outside Boundary Condition Object
    SunExposed,               !- Sun Exposure
    WindExposed,              !- Wind Exposure
    autocalculate,            !- View Factor to Ground
    autocalculate,            !- Number of Vertices
    705322.793,               !- Vertex 1 Xcoordinate
    5711310.033,              !- Vertex 1 Ycoordinate
    6,                        !- Vertex 1 Zcoordinate
    705322.793,               !- Vertex 2 Xcoordinate
    5711310.033,              !- Vertex 2 Ycoordinate
    0,                        !- Vertex 2 Zcoordinate
    705321.208,               !- Vertex 3 Xcoordinate
    5711309.891,              !- Vertex 3 Ycoordinate
    0,                        !- Vertex 3 Zcoordinate
    705321.208,               !- Vertex 4 Xcoordinate
    5711309.891,              !- Vertex 4 Ycoordinate
    6;                        !- Vertex 4 Zcoordinate

BUILDINGSURFACE:DETAILED,
    Block 7bbd1251968d36ca_0 Storey 0 Wall 0006,    !- Name
    wall,                     !- Surface Type
    EU_wall_Construction,     !- Construction Name
    7bbd1251968d36ca_F0_dwelling_0,    !- Zone Name
    ,                         !- Space Name
    outdoors,                 !- Outside Boundary Condition
    ,                         !- Outside Boundary Condition Object
    SunExposed,               !- Sun Exposure
    WindExposed,              !- Wind Exposure
    autocalculate,            !- View Factor to Ground
    autocalculate,            !- Number of Vertices
    705321.208,               !- Vertex 1 Xcoordinate
    5711309.891,              !- Vertex 1 Ycoordinate
    6,                        !- Vertex 1 Zcoordinate
    705321.208,               !- Vertex 2 Xcoordinate
    5711309.891,              !- Vertex 2 Ycoordinate
    0,                        !- Vertex 2 Zcoordinate
    705321.758,               !- Vertex 3 Xcoordinate
    5711304.022,              !- Vertex 3 Ycoordinate
    0,                        !- Vertex 3 Zcoordinate
    705321.758,               !- Vertex 4 Xcoordinate
    5711304.022,              !- Vertex 4 Ycoordinate
    6;                        !- Vertex 4 Zcoordinate

BUILDINGSURFACE:DETAILED,
    Block 7bbd1251968d36ca_0 Storey 0 Floor 0001,    !- Name
    floor,                    !- Surface Type
    EU_floor_Construction,    !- Construction Name
    7bbd1251968d36ca_F0_dwelling_0,    !- Zone Name
    ,                         !- Space Name
    ground,                   !- Outside Boundary Condition
    ,                         !- Outside Boundary Condition Object
    NoSun,                    !- Sun Exposure
    NoWind,                   !- Wind Exposure
    autocalculate,            !- View Factor to Ground
    autocalculate,            !- Number of Vertices
    705321.758,               !- Vertex 1 Xcoordinate
    5711304.022,              !- Vertex 1 Ycoordinate
    0,                        !- Vertex 1 Zcoordinate
    705321.208,               !- Vertex 2 Xcoordinate
    5711309.891,              !- Vertex 2 Ycoordinate
    0,                        !- Vertex 2 Zcoordinate
    705322.793,               !- Vertex 3 Xcoordinate
    5711310.033,              !- Vertex 3 Ycoordinate
    0,                        !- Vertex 3 Zcoordinate
    705322.386,               !- Vertex 4 Xcoordinate
    5711314.271,              !- Vertex 4 Ycoordinate
    0,                        !- Vertex 4 Zcoordinate
    705318.278,               !- Vertex 5 Xcoordinate
    5711313.96,               !- Vertex 5 Ycoordinate
    0,                        !- Vertex 5 Zcoordinate
    705319.301,               !- Vertex 6 Xcoordinate
    5711303.778,              !- Vertex 6 Ycoordinate
    0;                        !- Vertex 6 Zcoordinate

BUILDINGSURFACE:DETAILED,
    Block 7bbd1251968d36ca_0 Storey 0 Roof 0001,    !- Name
    roof,                     !- Surface Type
    EU_roof_Construction,     !- Construction Name
    7bbd1251968d36ca_F0_dwelling_0,    !- Zone Name
    ,                         !- Space Name
    outdoors,                 !- Outside Boundary Condition
    ,                         !- Outside Boundary Condition Object
    NoSun,                    !- Sun Exposure
    WindExposed,              !- Wind Exposure
    autocalculate,            !- View Factor to Ground
    autocalculate,            !- Number of Vertices
    705322.386,               !- Vertex 1 Xcoordinate
    5711314.271,              !- Vertex 1 Ycoordinate
    6,                        !- Vertex 1 Zcoordinate
    705322.793,               !- Vertex 2 Xcoordinate
    5711310.033,              !- Vertex 2 Ycoordinate
    6,                        !- Vertex 2 Zcoordinate
    705321.208,               !- Vertex 3 Xcoordinate
    5711309.891,              !- Vertex 3 Ycoordinate
    6,                        !- Vertex 3 Zcoordinate
    705321.758,               !- Vertex 4 Xcoordinate
    5711304.022,              !- Vertex 4 Ycoordinate
    6,                        !- Vertex 4 Zcoordinate
    705319.301,               !- Vertex 5 Xcoordinate
    5711303.778,              !- Vertex 5 Ycoordinate
    6,                        !- Vertex 5 Zcoordinate
    705318.278,               !- Vertex 6 Xcoordinate
    5711313.96,               !- Vertex 6 Ycoordinate
    6;                        !- Vertex 6 Zcoordinate

INTERNALMASS,
    7bbd1251968d36ca_F0_dwelling_0_EU_InternalMass,    !- Name
    EU_InternalMass_Construction,    !- Construction Name
    7bbd1251968d36ca_F0_dwelling_0,    !- Zone or ZoneList Name
    ,                         !- Space or SpaceList Name
    32.31335599964784;        !- Surface Area

SHADING:SITE:DETAILED,
    shade_way/360408502_1,    !- Name
    ,                         !- Transmittance Schedule Name
    autocalculate,            !- Number of Vertices
    705331.5813367626,        !- Vertex 1 Xcoordinate
    5711282.592260433,        !- Vertex 1 Ycoordinate
    6,                        !- Vertex 1 Zcoordinate
    705331.5813367626,        !- Vertex 2 Xcoordinate
    5711282.592260433,        !- Vertex 2 Ycoordinate
    0,                        !- Vertex 2 Zcoordinate
    705324.3459960356,        !- Vertex 3 Xcoordinate
    5711282.310723645,        !- Vertex 3 Ycoordinate
    0,                        !- Vertex 3 Zcoordinate
    705324.3459960356,        !- Vertex 4 Xcoordinate
    5711282.310723645,        !- Vertex 4 Ycoordinate
    6;                        !- Vertex 4 Zcoordinate

SHADING:SITE:DETAILED,
    shade_way/360408502_2,    !- Name
    ,                         !- Transmittance Schedule Name
    autocalculate,            !- Number of Vertices
    705324.3459960356,        !- Vertex 1 Xcoordinate
    5711282.310723645,        !- Vertex 1 Ycoordinate
    6,                        !- Vertex 1 Zcoordinate
    705324.3459960356,        !- Vertex 2 Xcoordinate
    5711282.310723645,        !- Vertex 2 Ycoordinate
    0,                        !- Vertex 2 Zcoordinate
    705324.165146117,         !- Vertex 3 Xcoordinate
    5711286.9584671175,       !- Vertex 3 Ycoordinate
    0,                        !- Vertex 3 Zcoordinate
    705324.165146117,         !- Vertex 4 Xcoordinate
    5711286.9584671175,       !- Vertex 4 Ycoordinate
    6;                        !- Vertex 4 Zcoordinate

SHADING:SITE:DETAILED,
    shade_way/360408502_3,    !- Name
    ,                         !- Transmittance Schedule Name
    autocalculate,            !- Number of Vertices
    705324.165146117,         !- Vertex 1 Xcoordinate
    5711286.9584671175,       !- Vertex 1 Ycoordinate
    6,                        !- Vertex 1 Zcoordinate
    705324.165146117,         !- Vertex 2 Xcoordinate
    5711286.9584671175,       !- Vertex 2 Ycoordinate
    0,                        !- Vertex 2 Zcoordinate
    705331.4003733422,        !- Vertex 3 Xcoordinate
    5711287.240258616,        !- Vertex 3 Ycoordinate
    0,                        !- Vertex 3 Zcoordinate
    705331.4003733422,        !- Vertex 4 Xcoordinate
    5711287.240258616,        !- Vertex 4 Ycoordinate
    6;                        !- Vertex 4 Zcoordinate

SHADING:SITE:DETAILED,
    shade_way/360408502_4,    !- Name
    ,                         !- Transmittance Schedule Name
    autocalculate,            !- Number of Vertices
    705331.4003733422,        !- Vertex 1 Xcoordinate
    5711287.240258616,        !- Vertex 1 Ycoordinate
    6,                        !- Vertex 1 Zcoordinate
    705331.4003733422,        !- Vertex 2 Xcoordinate
    5711287.240258616,        !- Vertex 2 Ycoordinate
    0,                        !- Vertex 2 Zcoordinate
    705331.5813367626,        !- Vertex 3 Xcoordinate
    5711282.592260433,        !- Vertex 3 Ycoordinate
    0,                        !- Vertex 3 Zcoordinate
    705331.5813367626,        !- Vertex 4 Xcoordinate
    5711282.592260433,        !- Vertex 4 Ycoordinate
    6;                        !- Vertex 4 Zcoordinate

SHADING:SITE:DETAILED,
    shade_way/360408511_1,    !- Name
    ,                         !- Transmittance Schedule Name
    autocalculate,            !- Number of Vertices
    705331.5744152704,        !- Vertex 1 Xcoordinate
    5711287.251170945,        !- Vertex 1 Ycoordinate
    6,                        !- Vertex 1 Zcoordinate
    705331.5744152704,        !- Vertex 2 Xcoordinate
    5711287.251170945,        !- Vertex 2 Ycoordinate
    0,                        !- Vertex 2 Zcoordinate
    705321.4839960653,        !- Vertex 3 Xcoordinate
    5711286.6252195425,       !- Vertex 3 Ycoordinate
    0,                        !- Vertex 3 Zcoordinate
    705321.4839960653,        !- Vertex 4 Xcoordinate
    5711286.6252195425,       !- Vertex 4 Ycoordinate
    6;                        !- Vertex 4 Zcoordinate

SHADING:SITE:DETAILED,
    shade_way/360408511_2,    !- Name
    ,                         !- Transmittance Schedule Name
    autocalculate,            !- Number of Vertices
    705321.4839960653,        !- Vertex 1 Xcoordinate
    5711286.6252195425,       !- Vertex 1 Ycoordinate
    6,                        !- Vertex 1 Zcoordinate
    705321.4839960653,        !- Vertex 2 Xcoordinate
    5711286.6252195425,       !- Vertex 2 Ycoordinate
    0,                        !- Vertex 2 Zcoordinate
    705321.203076029,         !- Vertex 3 Xcoordinate
    5711291.153687619,        !- Vertex 3 Ycoordinate
    0,                        !- Vertex 3 Zcoordinate
    705321.203076029,         !- Vertex 4 Xcoordinate
    5711291.153687619,        !- Vertex 4 Ycoordinate
    6;                        !- Vertex 4 Zcoordinate

SHADING:SITE:DETAILED,
    shade_way/360408511_3,    !- Name
    ,                         !- Transmittance Schedule Name
    autocalculate,            !- Number of Vertices
    705321.203076029,         !- Vertex 1 Xcoordinate
    5711291.153687619,        !- Vertex 1 Ycoordinate
    6,                        !- Vertex 1 Zcoordinate
    705321.203076029,         !- Vertex 2 Xcoordinate
    5711291.153687619,        !- Vertex 2 Ycoordinate
    0,                        !- Vertex 2 Zcoordinate
    705331.2931115633,        !- Vertex 3 Xcoordinate
    5711291.779499449,        !- Vertex 3 Ycoordinate
    0,                        !- Vertex 3 Zcoordinate
    705331.2931115633,        !- Vertex 4 Xcoordinate
    5711291.779499449,        !- Vertex 4 Ycoordinate
    6;                        !- Vertex 4 Zcoordinate

SHADING:SITE:DETAILED,
    shade_way/360408511_4,    !- Name
    ,                         !- Transmittance Schedule Name
    autocalculate,            !- Number of Vertices
    705331.2931115633,        !- Vertex 1 Xcoordinate
    5711291.779499449,        !- Vertex 1 Ycoordinate
    6,                        !- Vertex 1 Zcoordinate
    705331.2931115633,        !- Vertex 2 Xcoordinate
    5711291.779499449,        !- Vertex 2 Ycoordinate
    0,                        !- Vertex 2 Zcoordinate
    705331.5744152704,        !- Vertex 3 Xcoordinate
    5711287.251170945,        !- Vertex 3 Ycoordinate
    0,                        !- Vertex 3 Zcoordinate
    705331.5744152704,        !- Vertex 4 Xcoordinate
    5711287.251170945,        !- Vertex 4 Ycoordinate
    6;                        !- Vertex 4 Zcoordinate

SHADING:SITE:DETAILED,
    shade_way/360408488_1,    !- Name
    ,                         !- Transmittance Schedule Name
    autocalculate,            !- Number of Vertices
    705323.6732320131,        !- Vertex 1 Xcoordinate
    5711295.820757336,        !- Vertex 1 Ycoordinate
    6,                        !- Vertex 1 Zcoordinate
    705323.6732320131,        !- Vertex 2 Xcoordinate
    5711295.820757336,        !- Vertex 2 Ycoordinate
    0,                        !- Vertex 2 Zcoordinate
    705331.1359418493,        !- Vertex 3 Xcoordinate
    5711296.350129345,        !- Vertex 3 Ycoordinate
    0,                        !- Vertex 3 Zcoordinate
    705331.1359418493,        !- Vertex 4 Xcoordinate
    5711296.350129345,        !- Vertex 4 Ycoordinate
    6;                        !- Vertex 4 Zcoordinate

SHADING:SITE:DETAILED,
    shade_way/360408488_2,    !- Name
    ,                         !- Transmittance Schedule Name
    autocalculate,            !- Number of Vertices
    705331.1359418493,        !- Vertex 1 Xcoordinate
    5711296.350129345,        !- Vertex 1 Ycoordinate
    6,                        !- Vertex 1 Zcoordinate
    705331.1359418493,        !- Vertex 2 Xcoordinate
    5711296.350129345,        !- Vertex 2 Ycoordinate
    0,                        !- Vertex 2 Zcoordinate
    705331.4626828139,        !- Vertex 3 Xcoordinate
    5711291.746092856,        !- Vertex 3 Ycoordinate
    0,                        !- Vertex 3 Zcoordinate
    705331.4626828139,        !- Vertex 4 Xcoordinate
    5711291.746092856,        !- Vertex 4 Ycoordinate
    6;                        !- Vertex 4 Zcoordinate

SHADING:SITE:DETAILED,
    shade_way/360408488_3,    !- Name
    ,                         !- Transmittance Schedule Name
    autocalculate,            !- Number of Vertices
    705331.4626828139,        !- Vertex 1 Xcoordinate
    5711291.746092856,        !- Vertex 1 Ycoordinate
    6,                        !- Vertex 1 Zcoordinate
    705331.4626828139,        !- Vertex 2 Xcoordinate
    5711291.746092856,        !- Vertex 2 Ycoordinate
    0,                        !- Vertex 2 Zcoordinate
    705323.9994020863,        !- Vertex 3 Xcoordinate
    5711291.217076201,        !- Vertex 3 Ycoordinate
    0,                        !- Vertex 3 Zcoordinate
    705323.9994020863,        !- Vertex 4 Xcoordinate
    5711291.217076201,        !- Vertex 4 Ycoordinate
    6;                        !- Vertex 4 Zcoordinate

SHADING:SITE:DETAILED,
    shade_way/360408488_4,    !- Name
    ,                         !- Transmittance Schedule Name
    autocalculate,            !- Number of Vertices
    705323.9994020863,        !- Vertex 1 Xcoordinate
    5711291.217076201,        !- Vertex 1 Ycoordinate
    6,                        !- Vertex 1 Zcoordinate
    705323.9994020863,        !- Vertex 2 Xcoordinate
    5711291.217076201,        !- Vertex 2 Ycoordinate
    0,                        !- Vertex 2 Zcoordinate
    705323.6732320131,        !- Vertex 3 Xcoordinate
    5711295.820757336,        !- Vertex 3 Ycoordinate
    0,                        !- Vertex 3 Zcoordinate
    705323.6732320131,        !- Vertex 4 Xcoordinate
    5711295.820757336,        !- Vertex 4 Ycoordinate
    6;                        !- Vertex 4 Zcoordinate

SHADING:SITE:DETAILED,
    shade_way/360408493_1,    !- Name
    ,                         !- Transmittance Schedule Name
    autocalculate,            !- Number of Vertices
    705331.3485678016,        !- Vertex 1 Xcoordinate
    5711296.365008543,        !- Vertex 1 Ycoordinate
    6,                        !- Vertex 1 Zcoordinate
    705331.3485678016,        !- Vertex 2 Xcoordinate
    5711296.365008543,        !- Vertex 2 Ycoordinate
    0,                        !- Vertex 2 Zcoordinate
    705323.8196288074,        !- Vertex 3 Xcoordinate
    5711295.831336118,        !- Vertex 3 Ycoordinate
    0,                        !- Vertex 3 Zcoordinate
    705323.8196288074,        !- Vertex 4 Xcoordinate
    5711295.831336118,        !- Vertex 4 Ycoordinate
    6;                        !- Vertex 4 Zcoordinate

SHADING:SITE:DETAILED,
    shade_way/360408493_2,    !- Name
    ,                         !- Transmittance Schedule Name
    autocalculate,            !- Number of Vertices
    705323.8196288074,        !- Vertex 1 Xcoordinate
    5711295.831336118,        !- Vertex 1 Ycoordinate
    6,                        !- Vertex 1 Zcoordinate
    705323.8196288074,        !- Vertex 2 Xcoordinate
    5711295.831336118,        !- Vertex 2 Ycoordinate
    0,                        !- Vertex 2 Zcoordinate
    705323.4857260361,        !- Vertex 3 Xcoordinate
    5711300.544068102,        !- Vertex 3 Ycoordinate
    0,                        !- Vertex 3 Zcoordinate
    705323.4857260361,        !- Vertex 4 Xcoordinate
    5711300.544068102,        !- Vertex 4 Ycoordinate
    6;                        !- Vertex 4 Zcoordinate

SHADING:SITE:DETAILED,
    shade_way/360408493_3,    !- Name
    ,                         !- Transmittance Schedule Name
    autocalculate,            !- Number of Vertices
    705323.4857260361,        !- Vertex 1 Xcoordinate
    5711300.544068102,        !- Vertex 1 Ycoordinate
    6,                        !- Vertex 1 Zcoordinate
    705323.4857260361,        !- Vertex 2 Xcoordinate
    5711300.544068102,        !- Vertex 2 Ycoordinate
    0,                        !- Vertex 2 Zcoordinate
    705331.0140941388,        !- Vertex 3 Xcoordinate
    5711301.07809588,         !- Vertex 3 Ycoordinate
    0,                        !- Vertex 3 Zcoordinate
    705331.0140941388,        !- Vertex 4 Xcoordinate
    5711301.07809588,         !- Vertex 4 Ycoordinate
    6;                        !- Vertex 4 Zcoordinate

SHADING:SITE:DETAILED,
    shade_way/360408493_4,    !- Name
    ,                         !- Transmittance Schedule Name
    autocalculate,            !- Number of Vertices
    705331.0140941388,        !- Vertex 1 Xcoordinate
    5711301.07809588,         !- Vertex 1 Ycoordinate
    6,                        !- Vertex 1 Zcoordinate
    705331.0140941388,        !- Vertex 2 Xcoordinate
    5711301.07809588,         !- Vertex 2 Ycoordinate
    0,                        !- Vertex 2 Zcoordinate
    705331.3485678016,        !- Vertex 3 Xcoordinate
    5711296.365008543,        !- Vertex 3 Ycoordinate
    0,                        !- Vertex 3 Zcoordinate
    705331.3485678016,        !- Vertex 4 Xcoordinate
    5711296.365008543,        !- Vertex 4 Ycoordinate
    6;                        !- Vertex 4 Zcoordinate

SHADING:SITE:DETAILED,
    shade_way/360977297_1,    !- Name
    ,                         !- Transmittance Schedule Name
    autocalculate,            !- Number of Vertices
    705308.8320845071,        !- Vertex 1 Xcoordinate
    5711313.0094225705,       !- Vertex 1 Ycoordinate
    6,                        !- Vertex 1 Zcoordinate
    705308.8320845071,        !- Vertex 2 Xcoordinate
    5711313.0094225705,       !- Vertex 2 Ycoordinate
    0,                        !- Vertex 2 Zcoordinate
    705309.8541604748,        !- Vertex 3 Xcoordinate
    5711302.86113226,         !- Vertex 3 Ycoordinate
    0,                        !- Vertex 3 Zcoordinate
    705309.8541604748,        !- Vertex 4 Xcoordinate
    5711302.86113226,         !- Vertex 4 Ycoordinate
    6;                        !- Vertex 4 Zcoordinate

SHADING:SITE:DETAILED,
    shade_way/360977297_2,    !- Name
    ,                         !- Transmittance Schedule Name
    autocalculate,            !- Number of Vertices
    705309.8541604748,        !- Vertex 1 Xcoordinate
    5711302.86113226,         !- Vertex 1 Ycoordinate
    6,                        !- Vertex 1 Zcoordinate
    705309.8541604748,        !- Vertex 2 Xcoordinate
    5711302.86113226,         !- Vertex 2 Ycoordinate
    0,                        !- Vertex 2 Zcoordinate
    705305.0369466882,        !- Vertex 3 Xcoordinate
    5711302.376005647,        !- Vertex 3 Ycoordinate
    0,                        !- Vertex 3 Zcoordinate
    705305.0369466882,        !- Vertex 4 Xcoordinate
    5711302.376005647,        !- Vertex 4 Ycoordinate
    6;                        !- Vertex 4 Zcoordinate

SHADING:SITE:DETAILED,
    shade_way/360977297_3,    !- Name
    ,                         !- Transmittance Schedule Name
    autocalculate,            !- Number of Vertices
    705305.0369466882,        !- Vertex 1 Xcoordinate
    5711302.376005647,        !- Vertex 1 Ycoordinate
    6,                        !- Vertex 1 Zcoordinate
    705305.0369466882,        !- Vertex 2 Xcoordinate
    5711302.376005647,        !- Vertex 2 Ycoordinate
    0,                        !- Vertex 2 Zcoordinate
    705304.01487072,          !- Vertex 3 Xcoordinate
    5711312.524295957,        !- Vertex 3 Ycoordinate
    0,                        !- Vertex 3 Zcoordinate
    705304.01487072,          !- Vertex 4 Xcoordinate
    5711312.524295957,        !- Vertex 4 Ycoordinate
    6;                        !- Vertex 4 Zcoordinate

SHADING:SITE:DETAILED,
    shade_way/360977297_4,    !- Name
    ,                         !- Transmittance Schedule Name
    autocalculate,            !- Number of Vertices
    705304.01487072,          !- Vertex 1 Xcoordinate
    5711312.524295957,        !- Vertex 1 Ycoordinate
    6,                        !- Vertex 1 Zcoordinate
    705304.01487072,          !- Vertex 2 Xcoordinate
    5711312.524295957,        !- Vertex 2 Ycoordinate
    0,                        !- Vertex 2 Zcoordinate
    705308.8320845071,        !- Vertex 3 Xcoordinate
    5711313.0094225705,       !- Vertex 3 Ycoordinate
    0,                        !- Vertex 3 Zcoordinate
    705308.8320845071,        !- Vertex 4 Xcoordinate
    5711313.0094225705,       !- Vertex 4 Ycoordinate
    6;                        !- Vertex 4 Zcoordinate

SHADING:SITE:DETAILED,
    shade_way/360977299_1,    !- Name
    ,                         !- Transmittance Schedule Name
    autocalculate,            !- Number of Vertices
    705308.8320845071,        !- Vertex 1 Xcoordinate
    5711313.0094225705,       !- Vertex 1 Ycoordinate
    6,                        !- Vertex 1 Zcoordinate
    705308.8320845071,        !- Vertex 2 Xcoordinate
    5711313.0094225705,       !- Vertex 2 Ycoordinate
    0,                        !- Vertex 2 Zcoordinate
    705313.6484169948,        !- Vertex 3 Xcoordinate
    5711313.493852278,        !- Vertex 3 Ycoordinate
    0,                        !- Vertex 3 Zcoordinate
    705313.6484169948,        !- Vertex 4 Xcoordinate
    5711313.493852278,        !- Vertex 4 Ycoordinate
    6;                        !- Vertex 4 Zcoordinate

SHADING:SITE:DETAILED,
    shade_way/360977299_2,    !- Name
    ,                         !- Transmittance Schedule Name
    autocalculate,            !- Number of Vertices
    705313.6484169948,        !- Vertex 1 Xcoordinate
    5711313.493852278,        !- Vertex 1 Ycoordinate
    6,                        !- Vertex 1 Zcoordinate
    705313.6484169948,        !- Vertex 2 Xcoordinate
    5711313.493852278,        !- Vertex 2 Ycoordinate
    0,                        !- Vertex 2 Zcoordinate
    705314.6685426394,        !- Vertex 3 Xcoordinate
    5711303.345116464,        !- Vertex 3 Ycoordinate
    0,                        !- Vertex 3 Zcoordinate
    705314.6685426394,        !- Vertex 4 Xcoordinate
    5711303.345116464,        !- Vertex 4 Ycoordinate
    6;                        !- Vertex 4 Zcoordinate

SHADING:SITE:DETAILED,
    shade_way/360977299_3,    !- Name
    ,                         !- Transmittance Schedule Name
    autocalculate,            !- Number of Vertices
    705314.6685426394,        !- Vertex 1 Xcoordinate
    5711303.345116464,        !- Vertex 1 Ycoordinate
    6,                        !- Vertex 1 Zcoordinate
    705314.6685426394,        !- Vertex 2 Xcoordinate
    5711303.345116464,        !- Vertex 2 Ycoordinate
    0,                        !- Vertex 2 Zcoordinate
    705309.8522101516,        !- Vertex 3 Xcoordinate
    5711302.860686758,        !- Vertex 3 Ycoordinate
    0,                        !- Vertex 3 Zcoordinate
    705309.8522101516,        !- Vertex 4 Xcoordinate
    5711302.860686758,        !- Vertex 4 Ycoordinate
    6;                        !- Vertex 4 Zcoordinate

SHADING:SITE:DETAILED,
    shade_way/360977299_4,    !- Name
    ,                         !- Transmittance Schedule Name
    autocalculate,            !- Number of Vertices
    705309.8522101516,        !- Vertex 1 Xcoordinate
    5711302.860686758,        !- Vertex 1 Ycoordinate
    6,                        !- Vertex 1 Zcoordinate
    705309.8522101516,        !- Vertex 2 Xcoordinate
    5711302.860686758,        !- Vertex 2 Ycoordinate
    0,                        !- Vertex 2 Zcoordinate
    705308.8320845071,        !- Vertex 3 Xcoordinate
    5711313.0094225705,       !- Vertex 3 Ycoordinate
    0,                        !- Vertex 3 Zcoordinate
    705308.8320845071,        !- Vertex 4 Xcoordinate
    5711313.0094225705,       !- Vertex 4 Ycoordinate
    6;                        !- Vertex 4 Zcoordinate

SHADING:SITE:DETAILED,
    shade_way/360977302_1,    !- Name
    ,                         !- Transmittance Schedule Name
    autocalculate,            !- Number of Vertices
    705318.2779045355,        !- Vertex 1 Xcoordinate
    5711313.95958963,         !- Vertex 1 Ycoordinate
    6,                        !- Vertex 1 Zcoordinate
    705318.2779045355,        !- Vertex 2 Xcoordinate
    5711313.95958963,         !- Vertex 2 Ycoordinate
    0,                        !- Vertex 2 Zcoordinate
    705319.301594746,         !- Vertex 3 Xcoordinate
    5711303.775901621,        !- Vertex 3 Ycoordinate
    0,                        !- Vertex 3 Zcoordinate
    705319.301594746,         !- Vertex 4 Xcoordinate
    5711303.775901621,        !- Vertex 4 Ycoordinate
    6;                        !- Vertex 4 Zcoordinate

SHADING:SITE:DETAILED,
    shade_way/360977302_2,    !- Name
    ,                         !- Transmittance Schedule Name
    autocalculate,            !- Number of Vertices
    705319.301594746,         !- Vertex 1 Xcoordinate
    5711303.775901621,        !- Vertex 1 Ycoordinate
    6,                        !- Vertex 1 Zcoordinate
    705319.301594746,         !- Vertex 2 Xcoordinate
    5711303.775901621,        !- Vertex 2 Ycoordinate
    0,                        !- Vertex 2 Zcoordinate
    705314.6707417258,        !- Vertex 3 Xcoordinate
    5711303.310414706,        !- Vertex 3 Ycoordinate
    0,                        !- Vertex 3 Zcoordinate
    705314.6707417258,        !- Vertex 4 Xcoordinate
    5711303.310414706,        !- Vertex 4 Ycoordinate
    6;                        !- Vertex 4 Zcoordinate

SHADING:SITE:DETAILED,
    shade_way/360977302_3,    !- Name
    ,                         !- Transmittance Schedule Name
    autocalculate,            !- Number of Vertices
    705314.6707417258,        !- Vertex 1 Xcoordinate
    5711303.310414706,        !- Vertex 1 Ycoordinate
    6,                        !- Vertex 1 Zcoordinate
    705314.6707417258,        !- Vertex 2 Xcoordinate
    5711303.310414706,        !- Vertex 2 Ycoordinate
    0,                        !- Vertex 2 Zcoordinate
    705313.6470753015,        !- Vertex 3 Xcoordinate
    5711313.494264382,        !- Vertex 3 Ycoordinate
    0,                        !- Vertex 3 Zcoordinate
    705313.6470753015,        !- Vertex 4 Xcoordinate
    5711313.494264382,        !- Vertex 4 Ycoordinate
    6;                        !- Vertex 4 Zcoordinate

SHADING:SITE:DETAILED,
    shade_way/360977302_4,    !- Name
    ,                         !- Transmittance Schedule Name
    autocalculate,            !- Number of Vertices
    705313.6470753015,        !- Vertex 1 Xcoordinate
    5711313.494264382,        !- Vertex 1 Ycoordinate
    6,                        !- Vertex 1 Zcoordinate
    705313.6470753015,        !- Vertex 2 Xcoordinate
    5711313.494264382,        !- Vertex 2 Ycoordinate
    0,                        !- Vertex 2 Zcoordinate
    705318.2779045355,        !- Vertex 3 Xcoordinate
    5711313.95958963,         !- Vertex 3 Ycoordinate
    0,                        !- Vertex 3 Zcoordinate
    705318.2779045355,        !- Vertex 4 Xcoordinate
    5711313.95958963,         !- Vertex 4 Ycoordinate
    6;                        !- Vertex 4 Zcoordinate

SHADING:SITE:DETAILED,
    shade_way/360977298_1,    !- Name
    ,                         !- Transmittance Schedule Name
    autocalculate,            !- Number of Vertices
    705322.3647411639,        !- Vertex 1 Xcoordinate
    5711314.2681646785,       !- Vertex 1 Ycoordinate
    6,                        !- Vertex 1 Zcoordinate
    705322.3647411639,        !- Vertex 2 Xcoordinate
    5711314.2681646785,       !- Vertex 2 Ycoordinate
    0,                        !- Vertex 2 Zcoordinate
    705327.3653657408,        !- Vertex 3 Xcoordinate
    5711314.773993365,        !- Vertex 3 Ycoordinate
    0,                        !- Vertex 3 Zcoordinate
    705327.3653657408,        !- Vertex 4 Xcoordinate
    5711314.773993365,        !- Vertex 4 Ycoordinate
    6;                        !- Vertex 4 Zcoordinate

SHADING:SITE:DETAILED,
    shade_way/360977298_2,    !- Name
    ,                         !- Transmittance Schedule Name
    autocalculate,            !- Number of Vertices
    705327.3653657408,        !- Vertex 1 Xcoordinate
    5711314.773993365,        !- Vertex 1 Ycoordinate
    6,                        !- Vertex 1 Zcoordinate
    705327.3653657408,        !- Vertex 2 Xcoordinate
    5711314.773993365,        !- Vertex 2 Ycoordinate
    0,                        !- Vertex 2 Zcoordinate
    705328.3961886999,        !- Vertex 3 Xcoordinate
    5711304.583273196,        !- Vertex 3 Ycoordinate
    0,                        !- Vertex 3 Zcoordinate
    705328.3961886999,        !- Vertex 4 Xcoordinate
    5711304.583273196,        !- Vertex 4 Ycoordinate
    6;                        !- Vertex 4 Zcoordinate

SHADING:SITE:DETAILED,
    shade_way/360977298_3,    !- Name
    ,                         !- Transmittance Schedule Name
    autocalculate,            !- Number of Vertices
    705328.3961886999,        !- Vertex 1 Xcoordinate
    5711304.583273196,        !- Vertex 1 Ycoordinate
    6,                        !- Vertex 1 Zcoordinate
    705328.3961886999,        !- Vertex 2 Xcoordinate
    5711304.583273196,        !- Vertex 2 Ycoordinate
    0,                        !- Vertex 2 Zcoordinate
    705323.395564123,         !- Vertex 3 Xcoordinate
    5711304.07744451,         !- Vertex 3 Ycoordinate
    0,                        !- Vertex 3 Zcoordinate
    705323.395564123,         !- Vertex 4 Xcoordinate
    5711304.07744451,         !- Vertex 4 Ycoordinate
    6;                        !- Vertex 4 Zcoordinate

SHADING:SITE:DETAILED,
    shade_way/360977298_4,    !- Name
    ,                         !- Transmittance Schedule Name
    autocalculate,            !- Number of Vertices
    705323.395564123,         !- Vertex 1 Xcoordinate
    5711304.07744451,         !- Vertex 1 Ycoordinate
    6,                        !- Vertex 1 Zcoordinate
    705323.395564123,         !- Vertex 2 Xcoordinate
    5711304.07744451,         !- Vertex 2 Ycoordinate
    0,                        !- Vertex 2 Zcoordinate
    705322.3647411639,        !- Vertex 3 Xcoordinate
    5711314.2681646785,       !- Vertex 3 Ycoordinate
    0,                        !- Vertex 3 Zcoordinate
    705322.3647411639,        !- Vertex 4 Xcoordinate
    5711314.2681646785,       !- Vertex 4 Ycoordinate
    6;                        !- Vertex 4 Zcoordinate

SHADING:SITE:DETAILED,
    shade_way/360977301_1,    !- Name
    ,                         !- Transmittance Schedule Name
    autocalculate,            !- Number of Vertices
    705300.8687423007,        !- Vertex 1 Xcoordinate
    5711301.829775459,        !- Vertex 1 Ycoordinate
    6,                        !- Vertex 1 Zcoordinate
    705300.8687423007,        !- Vertex 2 Xcoordinate
    5711301.829775459,        !- Vertex 2 Ycoordinate
    0,                        !- Vertex 2 Zcoordinate
    705296.0073544758,        !- Vertex 3 Xcoordinate
    5711301.337521687,        !- Vertex 3 Ycoordinate
    0,                        !- Vertex 3 Zcoordinate
    705296.0073544758,        !- Vertex 4 Xcoordinate
    5711301.337521687,        !- Vertex 4 Ycoordinate
    6;                        !- Vertex 4 Zcoordinate

SHADING:SITE:DETAILED,
    shade_way/360977301_2,    !- Name
    ,                         !- Transmittance Schedule Name
    autocalculate,            !- Number of Vertices
    705296.0073544758,        !- Vertex 1 Xcoordinate
    5711301.337521687,        !- Vertex 1 Ycoordinate
    6,                        !- Vertex 1 Zcoordinate
    705296.0073544758,        !- Vertex 2 Xcoordinate
    5711301.337521687,        !- Vertex 2 Ycoordinate
    0,                        !- Vertex 2 Zcoordinate
    705294.9674658084,        !- Vertex 3 Xcoordinate
    5711311.607228894,        !- Vertex 3 Ycoordinate
    0,                        !- Vertex 3 Zcoordinate
    705294.9674658084,        !- Vertex 4 Xcoordinate
    5711311.607228894,        !- Vertex 4 Ycoordinate
    6;                        !- Vertex 4 Zcoordinate

SHADING:SITE:DETAILED,
    shade_way/360977301_3,    !- Name
    ,                         !- Transmittance Schedule Name
    autocalculate,            !- Number of Vertices
    705294.9674658084,        !- Vertex 1 Xcoordinate
    5711311.607228894,        !- Vertex 1 Ycoordinate
    6,                        !- Vertex 1 Zcoordinate
    705294.9674658084,        !- Vertex 2 Xcoordinate
    5711311.607228894,        !- Vertex 2 Ycoordinate
    0,                        !- Vertex 2 Zcoordinate
    705299.8293191853,        !- Vertex 3 Xcoordinate
    5711312.099472442,        !- Vertex 3 Ycoordinate
    0,                        !- Vertex 3 Zcoordinate
    705299.8293191853,        !- Vertex 4 Xcoordinate
    5711312.099472442,        !- Vertex 4 Ycoordinate
    6;                        !- Vertex 4 Zcoordinate

SHADING:SITE:DETAILED,
    shade_way/360977301_4,    !- Name
    ,                         !- Transmittance Schedule Name
    autocalculate,            !- Number of Vertices
    705299.8293191853,        !- Vertex 1 Xcoordinate
    5711312.099472442,        !- Vertex 1 Ycoordinate
    6,                        !- Vertex 1 Zcoordinate
    705299.8293191853,        !- Vertex 2 Xcoordinate
    5711312.099472442,        !- Vertex 2 Ycoordinate
    0,                        !- Vertex 2 Zcoordinate
    705300.8687423007,        !- Vertex 3 Xcoordinate
    5711301.829775459,        !- Vertex 3 Ycoordinate
    0,                        !- Vertex 3 Zcoordinate
    705300.8687423007,        !- Vertex 4 Xcoordinate
    5711301.829775459,        !- Vertex 4 Ycoordinate
    6;                        !- Vertex 4 Zcoordinate

SHADING:SITE:DETAILED,
    shade_way/360977294_1,    !- Name
    ,                         !- Transmittance Schedule Name
    autocalculate,            !- Number of Vertices
    705300.863262328,         !- Vertex 1 Xcoordinate
    5711301.829163204,        !- Vertex 1 Ycoordinate
    6,                        !- Vertex 1 Zcoordinate
    705300.863262328,         !- Vertex 2 Xcoordinate
    5711301.829163204,        !- Vertex 2 Ycoordinate
    0,                        !- Vertex 2 Zcoordinate
    705299.8293191853,        !- Vertex 3 Xcoordinate
    5711312.099472442,        !- Vertex 3 Ycoordinate
    0,                        !- Vertex 3 Zcoordinate
    705299.8293191853,        !- Vertex 4 Xcoordinate
    5711312.099472442,        !- Vertex 4 Ycoordinate
    6;                        !- Vertex 4 Zcoordinate

SHADING:SITE:DETAILED,
    shade_way/360977294_2,    !- Name
    ,                         !- Transmittance Schedule Name
    autocalculate,            !- Number of Vertices
    705299.8293191853,        !- Vertex 1 Xcoordinate
    5711312.099472442,        !- Vertex 1 Ycoordinate
    6,                        !- Vertex 1 Zcoordinate
    705299.8293191853,        !- Vertex 2 Xcoordinate
    5711312.099472442,        !- Vertex 2 Ycoordinate
    0,                        !- Vertex 2 Zcoordinate
    705304.0164984021,        !- Vertex 3 Xcoordinate
    5711312.520950296,        !- Vertex 3 Ycoordinate
    0,                        !- Vertex 3 Zcoordinate
    705304.0164984021,        !- Vertex 4 Xcoordinate
    5711312.520950296,        !- Vertex 4 Ycoordinate
    6;                        !- Vertex 4 Zcoordinate

SHADING:SITE:DETAILED,
    shade_way/360977294_3,    !- Name
    ,                         !- Transmittance Schedule Name
    autocalculate,            !- Number of Vertices
    705304.0164984021,        !- Vertex 1 Xcoordinate
    5711312.520950296,        !- Vertex 1 Ycoordinate
    6,                        !- Vertex 1 Zcoordinate
    705304.0164984021,        !- Vertex 2 Xcoordinate
    5711312.520950296,        !- Vertex 2 Ycoordinate
    0,                        !- Vertex 2 Zcoordinate
    705305.0504415439,        !- Vertex 3 Xcoordinate
    5711302.250641059,        !- Vertex 3 Ycoordinate
    0,                        !- Vertex 3 Zcoordinate
    705305.0504415439,        !- Vertex 4 Xcoordinate
    5711302.250641059,        !- Vertex 4 Ycoordinate
    6;                        !- Vertex 4 Zcoordinate

SHADING:SITE:DETAILED,
    shade_way/360977294_4,    !- Name
    ,                         !- Transmittance Schedule Name
    autocalculate,            !- Number of Vertices
    705305.0504415439,        !- Vertex 1 Xcoordinate
    5711302.250641059,        !- Vertex 1 Ycoordinate
    6,                        !- Vertex 1 Zcoordinate
    705305.0504415439,        !- Vertex 2 Xcoordinate
    5711302.250641059,        !- Vertex 2 Ycoordinate
    0,                        !- Vertex 2 Zcoordinate
    705300.863262328,         !- Vertex 3 Xcoordinate
    5711301.829163204,        !- Vertex 3 Ycoordinate
    0,                        !- Vertex 3 Zcoordinate
    705300.863262328,         !- Vertex 4 Xcoordinate
    5711301.829163204,        !- Vertex 4 Ycoordinate
    6;                        !- Vertex 4 Zcoordinate

OTHEREQUIPMENT,
    EU_Step8_InternalGain_7bbd1251968d36ca_F0_dwelling_0_f000,    !- Name
    Electricity,              !- Fuel Type
    7bbd1251968d36ca_F0_dwelling_0,    !- Zone or ZoneList or Space or SpaceList Name
    EU_Step8_GainSchedule_7bbd1251968d36ca_F0_dwelling_0_f000,    !- Schedule Name
    Watts/Area,               !- Design Level Calculation Method
    ,                         !- Design Level
    1,                        !- Power per Zone Floor Area
    ,                         !- Power per Person
    0,                        !- Fraction Latent
    0,                        !- Fraction Radiant
    0,                        !- Fraction Lost
    0,                        !- Carbon Dioxide Generation Rate
    EU_Step8_InternalGains;    !- EndUse Subcategory

ZONEVENTILATION:DESIGNFLOWRATE,
    EU_ConstantAir_7bbd1251968d36ca_F0_dwelling_0,    !- Name
    7bbd1251968d36ca_F0_dwelling_0,    !- Zone or ZoneList or Space or SpaceList Name
    EU_AlwaysOn,              !- Schedule Name
    AirChanges/Hour,          !- Design Flow Rate Calculation Method
    ,                         !- Design Flow Rate
    ,                         !- Flow Rate per Floor Area
    ,                         !- Flow Rate per Person
    0.4800000000000001,       !- Air Changes per Hour
    Natural,                  !- Ventilation Type
    0,                        !- Fan Pressure Rise
    1,                        !- Fan Total Efficiency
    1,                        !- Constant Term Coefficient
    0,                        !- Temperature Term Coefficient
    0,                        !- Velocity Term Coefficient
    0,                        !- Velocity Squared Term Coefficient
    -100,                     !- Minimum Indoor Temperature
    ,                         !- Minimum Indoor Temperature Schedule Name
    100,                      !- Maximum Indoor Temperature
    ,                         !- Maximum Indoor Temperature Schedule Name
    -100,                     !- Delta Temperature
    ,                         !- Delta Temperature Schedule Name
    -100,                     !- Minimum Outdoor Temperature
    ,                         !- Minimum Outdoor Temperature Schedule Name
    100,                      !- Maximum Outdoor Temperature
    ,                         !- Maximum Outdoor Temperature Schedule Name
    40;                       !- Maximum Wind Speed

HVACTEMPLATE:THERMOSTAT,
    EU_HeatOnly_7bbd1251968d36ca_F0_dwelling_0,    !- Name
    ,                         !- Heating Setpoint Schedule Name
    20,                       !- Constant Heating Setpoint
    ,                         !- Cooling Setpoint Schedule Name
    50;                       !- Constant Cooling Setpoint

HVACTEMPLATE:ZONE:IDEALLOADSAIRSYSTEM,
    7bbd1251968d36ca_F0_dwelling_0,    !- Zone Name
    EU_HeatOnly_7bbd1251968d36ca_F0_dwelling_0,    !- Template Thermostat Name
    EU_AlwaysOn,              !- System Availability Schedule Name
    50,                       !- Maximum Heating Supply Air Temperature
    13,                       !- Minimum Cooling Supply Air Temperature
    0.0156,                   !- Maximum Heating Supply Air Humidity Ratio
    0.0077,                   !- Minimum Cooling Supply Air Humidity Ratio
    NoLimit,                  !- Heating Limit
    ,                         !- Maximum Heating Air Flow Rate
    ,                         !- Maximum Sensible Heating Capacity
    NoLimit,                  !- Cooling Limit
    ,                         !- Maximum Cooling Air Flow Rate
    ,                         !- Maximum Total Cooling Capacity
    EU_AlwaysOn,              !- Heating Availability Schedule Name
    EU_CoolingOff,            !- Cooling Availability Schedule Name
    ConstantSensibleHeatRatio,    !- Dehumidification Control Type
    0.7,                      !- Cooling Sensible Heat Ratio
    60,                       !- Dehumidification Setpoint
    None,                     !- Humidification Control Type
    30,                       !- Humidification Setpoint
    None,                     !- Outdoor Air Method
    0.00944,                  !- Outdoor Air Flow Rate per Person
    0.0,                      !- Outdoor Air Flow Rate per Zone Floor Area
    0,                        !- Outdoor Air Flow Rate per Zone
    ,                         !- Design Specification Outdoor Air Object Name
    None,                     !- Demand Controlled Ventilation Type
    NoEconomizer,             !- Outdoor Air Economizer Type
    None,                     !- Heat Recovery Type
    0.70,                     !- Sensible Heat Recovery Effectiveness
    0.65;                     !- Latent Heat Recovery Effectiveness

SIZING:ZONE,
    7bbd1251968d36ca_F0_dwelling_0,    !- Zone or ZoneList Name
    SupplyAirTemperature,     !- Zone Cooling Design Supply Air Temperature Input Method
    13,                       !- Zone Cooling Design Supply Air Temperature
    ,                         !- Zone Cooling Design Supply Air Temperature Difference
    SupplyAirTemperature,     !- Zone Heating Design Supply Air Temperature Input Method
    50,                       !- Zone Heating Design Supply Air Temperature
    ,                         !- Zone Heating Design Supply Air Temperature Difference
    0.008,                    !- Zone Cooling Design Supply Air Humidity Ratio
    0.008,                    !- Zone Heating Design Supply Air Humidity Ratio
    ,                         !- Design Specification Outdoor Air Object Name
    ,                         !- Zone Heating Sizing Factor
    ,                         !- Zone Cooling Sizing Factor
    DesignDay,                !- Cooling Design Air Flow Method
    0,                        !- Cooling Design Air Flow Rate
    0.000762,                 !- Cooling Minimum Air Flow per Zone Floor Area
    0,                        !- Cooling Minimum Air Flow
    0.2,                      !- Cooling Minimum Air Flow Fraction
    DesignDay,                !- Heating Design Air Flow Method
    0,                        !- Heating Design Air Flow Rate
    0.002032,                 !- Heating Maximum Air Flow per Zone Floor Area
    0.1415762,                !- Heating Maximum Air Flow
    0.3,                      !- Heating Maximum Air Flow Fraction
    ,                         !- Design Specification Zone Air Distribution Object Name
    No,                       !- Account for Dedicated Outdoor Air System
    NeutralSupplyAir,         !- Dedicated Outdoor Air System Control Strategy
    autosize,                 !- Dedicated Outdoor Air Low Setpoint Temperature for Design
    autosize,                 !- Dedicated Outdoor Air High Setpoint Temperature for Design
    Sensible Load Only No Latent Load,    !- Zone Load Sizing Method
    HumidityRatioDifference,    !- Zone Latent Cooling Design Supply Air Humidity Ratio Input Method
    ,                         !- Zone Dehumidification Design Supply Air Humidity Ratio
    0.005,                    !- Zone Cooling Design Supply Air Humidity Ratio Difference
    HumidityRatioDifference,    !- Zone Latent Heating Design Supply Air Humidity Ratio Input Method
    ,                         !- Zone Humidification Design Supply Air Humidity Ratio
    0.005;                    !- Zone Humidification Design Supply Air Humidity Ratio Difference

OUTPUT:VARIABLE,
    *,                        !- Key Value
    Zone Ideal Loads Zone Total Heating Energy,    !- Variable Name
    Hourly;                   !- Reporting Frequency

OUTPUT:SQLITE,
    SimpleAndTabular,         !- Option Type
    UseOutputControlTableStyle;    !- Unit Conversion for Tabular Data