!- Windows Line endings 

Version,
    23.1;                     !- Version Identifier

SimulationControl,
    Yes,                      !- Do Zone Sizing Calculation
    Yes,                      !- Do System Sizing Calculation
    Yes,                      !- Do Plant Sizing Calculation
    No,                       !- Run Simulation for Sizing Periods
    Yes,                      !- Run Simulation for Weather File Run Periods
    No,                       !- Do HVAC Sizing Simulation for Sizing Periods
    1;                        !- Maximum Number of HVAC Sizing Simulation Passes

Building,
    EU S2 Campaign,           !- Name
    0,                        !- North Axis
    City,                     !- Terrain
    ,                         !- Loads Convergence Tolerance Value
    ,                         !- Temperature Convergence Tolerance Value
    FullExterior,             !- Solar Distribution
    ,                         !- Maximum Number of Warmup Days
    ;                         !- Minimum Number of Warmup Days

ShadowCalculation,
    PolygonClipping,          !- Shading Calculation Method
    Periodic,                 !- Shading Calculation Update Frequency Method
    1;                        !- Shading Calculation Update Frequency

HeatBalanceAlgorithm,
    ConductionTransferFunction,    !- Algorithm
    200,                      !- Surface Temperature Upper Limit
    0.1,                      !- Minimum Surface Convection Heat Transfer Coefficient Value
    10000000;                 !- Maximum Surface Convection Heat Transfer Coefficient Value

Timestep,
    12;                       !- Number of Timesteps per Hour

Site:Location,
    London,                   !- Name
    51.5,                     !- Latitude
    -0.5,                     !- Longitude
    0,                        !- Time Zone
    25;                       !- Elevation

SizingPeriod:WeatherFileDays,
    AnnualSizingPeriod,       !- Name
    1,                        !- Begin Month
    1,                        !- Begin Day of Month
    12,                       !- End Month
    31,                       !- End Day of Month
    Monday,                   !- Day of Week for Start Day
    No,                       !- Use Weather File Daylight Saving Period
    No;                       !- Use Weather File Rain and Snow Indicators

RunPeriod,
    RunPeriod1,               !- Name
    1,                        !- Begin Month
    1,                        !- Begin Day of Month
    ,                         !- Begin Year
    12,                       !- End Month
    31,                       !- End Day of Month
    ,                         !- End Year
    Sunday,                   !- Day of Week for Start Day
    No,                       !- Use Weather File Holidays and Special Days
    No,                       !- Use Weather File Daylight Saving Period
    No,                       !- Apply Weekend Holiday Rule
    Yes,                      !- Use Weather File Rain Indicators
    Yes;                      !- Use Weather File Snow Indicators

ScheduleTypeLimits,
    Any Number;               !- Name

SCHEDULETYPELIMITS,
    EU_Step8_AnyNumber_Wm2,    !- Name
    ,                         !- Lower Limit Value
    ,                         !- Upper Limit Value
    Continuous,               !- Numeric Type
    Dimensionless;            !- Unit Type

SCHEDULE:CONSTANT,
    EU_AlwaysOn,              !- Name
    ,                         !- Schedule Type Limits Name
    1;                        !- Hourly Value

SCHEDULE:CONSTANT,
    EU_CoolingOff,            !- Name
    ,                         !- Schedule Type Limits Name
    0;                        !- Hourly Value

SCHEDULE:FILE,
    EU_Step8_GainSchedule_b3e2da80f74e44e7_F0_dwelling_0_f000,    !- Name
    EU_Step8_AnyNumber_Wm2,    !- Schedule Type Limits Name
    ../../schedules/b3e2da80f74e44e7/b3e2da80f74e44e7_F0_dwelling_0_f000_gain.csv,    !- File Name
    1,                        !- Column Number
    0,                        !- Rows to Skip at Top
    8760,                     !- Number of Hours of Data
    Comma,                    !- Column Separator
    No,                       !- Interpolate to Timestep
    60,                       !- Minutes per Item
    Yes;                      !- Adjust Schedule for Daylight Savings

MATERIAL,
    EU_InternalMass_Material,    !- Name
    MediumRough,              !- Roughness
    0.1,                      !- Thickness
    1,                        !- Conductivity
    1800,                     !- Density
    900,                      !- Specific Heat
    0.9,                      !- Thermal Absorptance
    0.7,                      !- Solar Absorptance
    0.7;                      !- Visible Absorptance

MATERIAL:NOMASS,
    EU_wall_NoMass,           !- Name
    MediumRough,              !- Roughness
    0.7278629942482108,       !- Thermal Resistance
    0.9,                      !- Thermal Absorptance
    0.7,                      !- Solar Absorptance
    0.7;                      !- Visible Absorptance

MATERIAL:NOMASS,
    EU_roof_NoMass,           !- Name
    MediumRough,              !- Roughness
    0.7733544313887238,       !- Thermal Resistance
    0.9,                      !- Thermal Absorptance
    0.7,                      !- Solar Absorptance
    0.7;                      !- Visible Absorptance

MATERIAL:NOMASS,
    EU_floor_NoMass,          !- Name
    MediumRough,              !- Roughness
    1.7932856380028381,       !- Thermal Resistance
    0.9,                      !- Thermal Absorptance
    0.7,                      !- Solar Absorptance
    0.7;                      !- Visible Absorptance

CONSTRUCTION,
    EU_wall_Construction,     !- Name
    EU_wall_NoMass;           !- Outside Layer

CONSTRUCTION,
    EU_roof_Construction,     !- Name
    EU_roof_NoMass;           !- Outside Layer

CONSTRUCTION,
    EU_floor_Construction,    !- Name
    EU_floor_NoMass;          !- Outside Layer

CONSTRUCTION,
    EU_InternalMass_Construction,    !- Name
    EU_InternalMass_Material;    !- Outside Layer

GlobalGeometryRules,
    UpperLeftCorner,          !- Starting Vertex Position
    CounterClockWise,         !- Vertex Entry Direction
    World;                    !- Coordinate System

ZONE,
    b3e2da80f74e44e7_F0_dwelling_0,    !- Name
    0,                        !- Direction of Relative North
    0,                        !- X Origin
    0,                        !- Y Origin
    0,                        !- Z Origin
    1,                        !- Type
    1,                        !- Multiplier
    autocalculate,            !- Ceiling Height
    250.3388671875,           !- Volume
    autocalculate,            !- Floor Area
    ,                         !- Zone Inside Convection Algorithm
    ,                         !- Zone Outside Convection Algorithm
    Yes;                      !- Part of Total Floor Area

BUILDINGSURFACE:DETAILED,
    Block b3e2da80f74e44e7_0 Storey 0 Wall 0001,    !- Name
    wall,                     !- Surface Type
    EU_wall_Construction,     !- Construction Name
    b3e2da80f74e44e7_F0_dwelling_0,    !- Zone Name
    ,                         !- Space Name
    Adiabatic,                !- Outside Boundary Condition
    ,                         !- Outside Boundary Condition Object
    NoSun,                    !- Sun Exposure
    NoWind,                   !- Wind Exposure
    autocalculate,            !- View Factor to Ground
    autocalculate,            !- Number of Vertices
    705161.142,               !- Vertex 1 Xcoordinate
    5711903.535,              !- Vertex 1 Ycoordinate
    6,                        !- Vertex 1 Zcoordinate
    705161.142,               !- Vertex 2 Xcoordinate
    5711903.535,              !- Vertex 2 Ycoordinate
    0,                        !- Vertex 2 Zcoordinate
    705166.893,               !- Vertex 3 Xcoordinate
    5711905.806,              !- Vertex 3 Ycoordinate
    0,                        !- Vertex 3 Zcoordinate
    705166.893,               !- Vertex 4 Xcoordinate
    5711905.806,              !- Vertex 4 Ycoordinate
    6;                        !- Vertex 4 Zcoordinate

BUILDINGSURFACE:DETAILED,
    Block b3e2da80f74e44e7_0 Storey 0 Wall 0002,    !- Name
    wall,                     !- Surface Type
    EU_wall_Construction,     !- Construction Name
    b3e2da80f74e44e7_F0_dwelling_0,    !- Zone Name
    ,                         !- Space Name
    outdoors,                 !- Outside Boundary Condition
    ,                         !- Outside Boundary Condition Object
    SunExposed,               !- Sun Exposure
    WindExposed,              !- Wind Exposure
    autocalculate,            !- View Factor to Ground
    autocalculate,            !- Number of Vertices
    705166.893,               !- Vertex 1 Xcoordinate
    5711905.806,              !- Vertex 1 Ycoordinate
    6,                        !- Vertex 1 Zcoordinate
    705166.893,               !- Vertex 2 Xcoordinate
    5711905.806,              !- Vertex 2 Ycoordinate
    0,                        !- Vertex 2 Zcoordinate
    705169.263,               !- Vertex 3 Xcoordinate
    5711899.42,               !- Vertex 3 Ycoordinate
    0,                        !- Vertex 3 Zcoordinate
    705169.263,               !- Vertex 4 Xcoordinate
    5711899.42,               !- Vertex 4 Ycoordinate
    6;                        !- Vertex 4 Zcoordinate

BUILDINGSURFACE:DETAILED,
    Block b3e2da80f74e44e7_0 Storey 0 Wall 0003,    !- Name
    wall,                     !- Surface Type
    EU_wall_Construction,     !- Construction Name
    b3e2da80f74e44e7_F0_dwelling_0,    !- Zone Name
    ,                         !- Space Name
    Adiabatic,                !- Outside Boundary Condition
    ,                         !- Outside Boundary Condition Object
    NoSun,                    !- Sun Exposure
    NoWind,                   !- Wind Exposure
    autocalculate,            !- View Factor to Ground
    autocalculate,            !- Number of Vertices
    705169.263,               !- Vertex 1 Xcoordinate
    5711899.42,               !- Vertex 1 Ycoordinate
    6,                        !- Vertex 1 Zcoordinate
    705169.263,               !- Vertex 2 Xcoordinate
    5711899.42,               !- Vertex 2 Ycoordinate
    0,                        !- Vertex 2 Zcoordinate
    705163.48,                !- Vertex 3 Xcoordinate
    5711897.26,               !- Vertex 3 Ycoordinate
    0,                        !- Vertex 3 Zcoordinate
    705163.48,                !- Vertex 4 Xcoordinate
    5711897.26,               !- Vertex 4 Ycoordinate
    6;                        !- Vertex 4 Zcoordinate

BUILDINGSURFACE:DETAILED,
    Block b3e2da80f74e44e7_0 Storey 0 Wall 0004,    !- Name
    wall,                     !- Surface Type
    EU_wall_Construction,     !- Construction Name
    b3e2da80f74e44e7_F0_dwelling_0,    !- Zone Name
    ,                         !- Space Name
    outdoors,                 !- Outside Boundary Condition
    ,                         !- Outside Boundary Condition Object
    SunExposed,               !- Sun Exposure
    WindExposed,              !- Wind Exposure
    autocalculate,            !- View Factor to Ground
    autocalculate,            !- Number of Vertices
    705163.48,                !- Vertex 1 Xcoordinate
    5711897.26,               !- Vertex 1 Ycoordinate
    6,                        !- Vertex 1 Zcoordinate
    705163.48,                !- Vertex 2 Xcoordinate
    5711897.26,               !- Vertex 2 Ycoordinate
    0,                        !- Vertex 2 Zcoordinate
    705161.142,               !- Vertex 3 Xcoordinate
    5711903.535,              !- Vertex 3 Ycoordinate
    0,                        !- Vertex 3 Zcoordinate
    705161.142,               !- Vertex 4 Xcoordinate
    5711903.535,              !- Vertex 4 Ycoordinate
    6;                        !- Vertex 4 Zcoordinate

BUILDINGSURFACE:DETAILED,
    Block b3e2da80f74e44e7_0 Storey 0 Floor 0001,    !- Name
    floor,                    !- Surface Type
    EU_floor_Construction,    !- Construction Name
    b3e2da80f74e44e7_F0_dwelling_0,    !- Zone Name
    ,                         !- Space Name
    ground,                   !- Outside Boundary Condition
    ,                         !- Outside Boundary Condition Object
    NoSun,                    !- Sun Exposure
    NoWind,                   !- Wind Exposure
    autocalculate,            !- View Factor to Ground
    autocalculate,            !- Number of Vertices
    705169.263,               !- Vertex 1 Xcoordinate
    5711899.42,               !- Vertex 1 Ycoordinate
    0,                        !- Vertex 1 Zcoordinate
    705166.893,               !- Vertex 2 Xcoordinate
    5711905.806,              !- Vertex 2 Ycoordinate
    0,                        !- Vertex 2 Zcoordinate
    705161.142,               !- Vertex 3 Xcoordinate
    5711903.535,              !- Vertex 3 Ycoordinate
    0,                        !- Vertex 3 Zcoordinate
    705163.48,                !- Vertex 4 Xcoordinate
    5711897.26,               !- Vertex 4 Ycoordinate
    0;                        !- Vertex 4 Zcoordinate

BUILDINGSURFACE:DETAILED,
    Block b3e2da80f74e44e7_0 Storey 0 Roof 0001,    !- Name
    roof,                     !- Surface Type
    EU_roof_Construction,     !- Construction Name
    b3e2da80f74e44e7_F0_dwelling_0,    !- Zone Name
    ,                         !- Space Name
    outdoors,                 !- Outside Boundary Condition
    ,                         !- Outside Boundary Condition Object
    NoSun,                    !- Sun Exposure
    WindExposed,              !- Wind Exposure
    autocalculate,            !- View Factor to Ground
    autocalculate,            !- Number of Vertices
    705166.893,               !- Vertex 1 Xcoordinate
    5711905.806,              !- Vertex 1 Ycoordinate
    6,                        !- Vertex 1 Zcoordinate
    705169.263,               !- Vertex 2 Xcoordinate
    5711899.42,               !- Vertex 2 Ycoordinate
    6,                        !- Vertex 2 Zcoordinate
    705163.48,                !- Vertex 3 Xcoordinate
    5711897.26,               !- Vertex 3 Ycoordinate
    6,                        !- Vertex 3 Zcoordinate
    705161.142,               !- Vertex 4 Xcoordinate
    5711903.535,              !- Vertex 4 Ycoordinate
    6;                        !- Vertex 4 Zcoordinate

INTERNALMASS,
    b3e2da80f74e44e7_F0_dwelling_0_EU_InternalMass,    !- Name
    EU_InternalMass_Construction,    !- Construction Name
    b3e2da80f74e44e7_F0_dwelling_0,    !- Zone or ZoneList Name
    ,                         !- Space or SpaceList Name
    41.72328049921943;        !- Surface Area

SHADING:SITE:DETAILED,
    shade_way/298846086_1,    !- Name
    ,                         !- Transmittance Schedule Name
    autocalculate,            !- Number of Vertices
    705174.1574902211,        !- Vertex 1 Xcoordinate
    5711886.266282819,        !- Vertex 1 Ycoordinate
    6,                        !- Vertex 1 Zcoordinate
    705174.1574902211,        !- Vertex 2 Xcoordinate
    5711886.266282819,        !- Vertex 2 Ycoordinate
    0,                        !- Vertex 2 Zcoordinate
    705176.4719535242,        !- Vertex 3 Xcoordinate
    5711880.054793498,        !- Vertex 3 Ycoordinate
    0,                        !- Vertex 3 Zcoordinate
    705176.4719535242,        !- Vertex 4 Xcoordinate
    5711880.054793498,        !- Vertex 4 Ycoordinate
    6;                        !- Vertex 4 Zcoordinate

SHADING:SITE:DETAILED,
    shade_way/298846086_2,    !- Name
    ,                         !- Transmittance Schedule Name
    autocalculate,            !- Number of Vertices
    705176.4719535242,        !- Vertex 1 Xcoordinate
    5711880.054793498,        !- Vertex 1 Ycoordinate
    6,                        !- Vertex 1 Zcoordinate
    705176.4719535242,        !- Vertex 2 Xcoordinate
    5711880.054793498,        !- Vertex 2 Ycoordinate
    0,                        !- Vertex 2 Zcoordinate
    705170.6842596076,        !- Vertex 3 Xcoordinate
    5711877.897499612,        !- Vertex 3 Ycoordinate
    0,                        !- Vertex 3 Zcoordinate
    705170.6842596076,        !- Vertex 4 Xcoordinate
    5711877.897499612,        !- Vertex 4 Ycoordinate
    6;                        !- Vertex 4 Zcoordinate

SHADING:SITE:DETAILED,
    shade_way/298846086_3,    !- Name
    ,                         !- Transmittance Schedule Name
    autocalculate,            !- Number of Vertices
    705170.6842596076,        !- Vertex 1 Xcoordinate
    5711877.897499612,        !- Vertex 1 Ycoordinate
    6,                        !- Vertex 1 Zcoordinate
    705170.6842596076,        !- Vertex 2 Xcoordinate
    5711877.897499612,        !- Vertex 2 Ycoordinate
    0,                        !- Vertex 2 Zcoordinate
    705168.3691733808,        !- Vertex 3 Xcoordinate
    5711884.108526556,        !- Vertex 3 Ycoordinate
    0,                        !- Vertex 3 Zcoordinate
    705168.3691733808,        !- Vertex 4 Xcoordinate
    5711884.108526556,        !- Vertex 4 Ycoordinate
    6;                        !- Vertex 4 Zcoordinate

SHADING:SITE:DETAILED,
    shade_way/298846086_4,    !- Name
    ,                         !- Transmittance Schedule Name
    autocalculate,            !- Number of Vertices
    705168.3691733808,        !- Vertex 1 Xcoordinate
    5711884.108526556,        !- Vertex 1 Ycoordinate
    6,                        !- Vertex 1 Zcoordinate
    705168.3691733808,        !- Vertex 2 Xcoordinate
    5711884.108526556,        !- Vertex 2 Ycoordinate
    0,                        !- Vertex 2 Zcoordinate
    705174.1574902211,        !- Vertex 3 Xcoordinate
    5711886.266282819,        !- Vertex 3 Ycoordinate
    0,                        !- Vertex 3 Zcoordinate
    705174.1574902211,        !- Vertex 4 Xcoordinate
    5711886.266282819,        !- Vertex 4 Ycoordinate
    6;                        !- Vertex 4 Zcoordinate

SHADING:SITE:DETAILED,
    shade_way/1430536862_1,    !- Name
    ,                         !- Transmittance Schedule Name
    autocalculate,            !- Number of Vertices
    705168.3895507162,        !- Vertex 1 Xcoordinate
    5711884.07303064,         !- Vertex 1 Ycoordinate
    6,                        !- Vertex 1 Zcoordinate
    705168.3895507162,        !- Vertex 2 Xcoordinate
    5711884.07303064,         !- Vertex 2 Ycoordinate
    0,                        !- Vertex 2 Zcoordinate
    705165.9501328939,        !- Vertex 3 Xcoordinate
    5711890.6226960085,       !- Vertex 3 Ycoordinate
    0,                        !- Vertex 3 Zcoordinate
    705165.9501328939,        !- Vertex 4 Xcoordinate
    5711890.6226960085,       !- Vertex 4 Ycoordinate
    6;                        !- Vertex 4 Zcoordinate

SHADING:SITE:DETAILED,
    shade_way/1430536862_2,    !- Name
    ,                         !- Transmittance Schedule Name
    autocalculate,            !- Number of Vertices
    705165.9501328939,        !- Vertex 1 Xcoordinate
    5711890.6226960085,       !- Vertex 1 Ycoordinate
    6,                        !- Vertex 1 Zcoordinate
    705165.9501328939,        !- Vertex 2 Xcoordinate
    5711890.6226960085,       !- Vertex 2 Ycoordinate
    0,                        !- Vertex 2 Zcoordinate
    705171.7381244171,        !- Vertex 3 Xcoordinate
    5711892.778147008,        !- Vertex 3 Ycoordinate
    0,                        !- Vertex 3 Zcoordinate
    705171.7381244171,        !- Vertex 4 Xcoordinate
    5711892.778147008,        !- Vertex 4 Ycoordinate
    6;                        !- Vertex 4 Zcoordinate

SHADING:SITE:DETAILED,
    shade_way/1430536862_3,    !- Name
    ,                         !- Transmittance Schedule Name
    autocalculate,            !- Number of Vertices
    705171.7381244171,        !- Vertex 1 Xcoordinate
    5711892.778147008,        !- Vertex 1 Ycoordinate
    6,                        !- Vertex 1 Zcoordinate
    705171.7381244171,        !- Vertex 2 Xcoordinate
    5711892.778147008,        !- Vertex 2 Ycoordinate
    0,                        !- Vertex 2 Zcoordinate
    705174.1775422397,        !- Vertex 3 Xcoordinate
    5711886.22848164,         !- Vertex 3 Ycoordinate
    0,                        !- Vertex 3 Zcoordinate
    705174.1775422397,        !- Vertex 4 Xcoordinate
    5711886.22848164,         !- Vertex 4 Ycoordinate
    6;                        !- Vertex 4 Zcoordinate

SHADING:SITE:DETAILED,
    shade_way/1430536862_4,    !- Name
    ,                         !- Transmittance Schedule Name
    autocalculate,            !- Number of Vertices
    705174.1775422397,        !- Vertex 1 Xcoordinate
    5711886.22848164,         !- Vertex 1 Ycoordinate
    6,                        !- Vertex 1 Zcoordinate
    705174.1775422397,        !- Vertex 2 Xcoordinate
    5711886.22848164,         !- Vertex 2 Ycoordinate
    0,                        !- Vertex 2 Zcoordinate
    705168.3895507162,        !- Vertex 3 Xcoordinate
    5711884.07303064,         !- Vertex 3 Ycoordinate
    0,                        !- Vertex 3 Zcoordinate
    705168.3895507162,        !- Vertex 4 Xcoordinate
    5711884.07303064,         !- Vertex 4 Ycoordinate
    6;                        !- Vertex 4 Zcoordinate

SHADING:SITE:DETAILED,
    shade_way/1430536863_1,    !- Name
    ,                         !- Transmittance Schedule Name
    autocalculate,            !- Number of Vertices
    705169.2625260234,        !- Vertex 1 Xcoordinate
    5711899.420638569,        !- Vertex 1 Ycoordinate
    6,                        !- Vertex 1 Zcoordinate
    705169.2625260234,        !- Vertex 2 Xcoordinate
    5711899.420638569,        !- Vertex 2 Ycoordinate
    0,                        !- Vertex 2 Zcoordinate
    705171.740672258,         !- Vertex 3 Xcoordinate
    5711892.772315021,        !- Vertex 3 Ycoordinate
    0,                        !- Vertex 3 Zcoordinate
    705171.740672258,         !- Vertex 4 Xcoordinate
    5711892.772315021,        !- Vertex 4 Ycoordinate
    6;                        !- Vertex 4 Zcoordinate

SHADING:SITE:DETAILED,
    shade_way/1430536863_2,    !- Name
    ,                         !- Transmittance Schedule Name
    autocalculate,            !- Number of Vertices
    705171.740672258,         !- Vertex 1 Xcoordinate
    5711892.772315021,        !- Vertex 1 Ycoordinate
    6,                        !- Vertex 1 Zcoordinate
    705171.740672258,         !- Vertex 2 Xcoordinate
    5711892.772315021,        !- Vertex 2 Ycoordinate
    0,                        !- Vertex 2 Zcoordinate
    705165.9524897238,        !- Vertex 3 Xcoordinate
    5711890.614540211,        !- Vertex 3 Ycoordinate
    0,                        !- Vertex 3 Zcoordinate
    705165.9524897238,        !- Vertex 4 Xcoordinate
    5711890.614540211,        !- Vertex 4 Ycoordinate
    6;                        !- Vertex 4 Zcoordinate

SHADING:SITE:DETAILED,
    shade_way/1430536863_3,    !- Name
    ,                         !- Transmittance Schedule Name
    autocalculate,            !- Number of Vertices
    705165.9524897238,        !- Vertex 1 Xcoordinate
    5711890.614540211,        !- Vertex 1 Ycoordinate
    6,                        !- Vertex 1 Zcoordinate
    705165.9524897238,        !- Vertex 2 Xcoordinate
    5711890.614540211,        !- Vertex 2 Ycoordinate
    0,                        !- Vertex 2 Zcoordinate
    705163.4743434883,        !- Vertex 3 Xcoordinate
    5711897.262863759,        !- Vertex 3 Ycoordinate
    0,                        !- Vertex 3 Zcoordinate
    705163.4743434883,        !- Vertex 4 Xcoordinate
    5711897.262863759,        !- Vertex 4 Ycoordinate
    6;                        !- Vertex 4 Zcoordinate

SHADING:SITE:DETAILED,
    shade_way/1430536863_4,    !- Name
    ,                         !- Transmittance Schedule Name
    autocalculate,            !- Number of Vertices
    705163.4743434883,        !- Vertex 1 Xcoordinate
    5711897.262863759,        !- Vertex 1 Ycoordinate
    6,                        !- Vertex 1 Zcoordinate
    705163.4743434883,        !- Vertex 2 Xcoordinate
    5711897.262863759,        !- Vertex 2 Ycoordinate
    0,                        !- Vertex 2 Zcoordinate
    705169.2625260234,        !- Vertex 3 Xcoordinate
    5711899.420638569,        !- Vertex 3 Ycoordinate
    0,                        !- Vertex 3 Zcoordinate
    705169.2625260234,        !- Vertex 4 Xcoordinate
    5711899.420638569,        !- Vertex 4 Ycoordinate
    6;                        !- Vertex 4 Zcoordinate

SHADING:SITE:DETAILED,
    shade_way/1430536865_1,    !- Name
    ,                         !- Transmittance Schedule Name
    autocalculate,            !- Number of Vertices
    705161.1413815164,        !- Vertex 1 Xcoordinate
    5711903.535547913,        !- Vertex 1 Ycoordinate
    6,                        !- Vertex 1 Zcoordinate
    705161.1413815164,        !- Vertex 2 Xcoordinate
    5711903.535547913,        !- Vertex 2 Ycoordinate
    0,                        !- Vertex 2 Zcoordinate
    705158.7250360561,        !- Vertex 3 Xcoordinate
    5711910.03046778,         !- Vertex 3 Ycoordinate
    0,                        !- Vertex 3 Zcoordinate
    705158.7250360561,        !- Vertex 4 Xcoordinate
    5711910.03046778,         !- Vertex 4 Ycoordinate
    6;                        !- Vertex 4 Zcoordinate

SHADING:SITE:DETAILED,
    shade_way/1430536865_2,    !- Name
    ,                         !- Transmittance Schedule Name
    autocalculate,            !- Number of Vertices
    705158.7250360561,        !- Vertex 1 Xcoordinate
    5711910.03046778,         !- Vertex 1 Ycoordinate
    6,                        !- Vertex 1 Zcoordinate
    705158.7250360561,        !- Vertex 2 Xcoordinate
    5711910.03046778,         !- Vertex 2 Ycoordinate
    0,                        !- Vertex 2 Zcoordinate
    705164.5181574624,        !- Vertex 3 Xcoordinate
    5711912.185482577,        !- Vertex 3 Ycoordinate
    0,                        !- Vertex 3 Zcoordinate
    705164.5181574624,        !- Vertex 4 Xcoordinate
    5711912.185482577,        !- Vertex 4 Ycoordinate
    6;                        !- Vertex 4 Zcoordinate

SHADING:SITE:DETAILED,
    shade_way/1430536865_3,    !- Name
    ,                         !- Transmittance Schedule Name
    autocalculate,            !- Number of Vertices
    705164.5181574624,        !- Vertex 1 Xcoordinate
    5711912.185482577,        !- Vertex 1 Ycoordinate
    6,                        !- Vertex 1 Zcoordinate
    705164.5181574624,        !- Vertex 2 Xcoordinate
    5711912.185482577,        !- Vertex 2 Ycoordinate
    0,                        !- Vertex 2 Zcoordinate
    705166.9345029236,        !- Vertex 3 Xcoordinate
    5711905.69056271,         !- Vertex 3 Ycoordinate
    0,                        !- Vertex 3 Zcoordinate
    705166.9345029236,        !- Vertex 4 Xcoordinate
    5711905.69056271,         !- Vertex 4 Ycoordinate
    6;                        !- Vertex 4 Zcoordinate

SHADING:SITE:DETAILED,
    shade_way/1430536865_4,    !- Name
    ,                         !- Transmittance Schedule Name
    autocalculate,            !- Number of Vertices
    705166.9345029236,        !- Vertex 1 Xcoordinate
    5711905.69056271,         !- Vertex 1 Ycoordinate
    6,                        !- Vertex 1 Zcoordinate
    705166.9345029236,        !- Vertex 2 Xcoordinate
    5711905.69056271,         !- Vertex 2 Ycoordinate
    0,                        !- Vertex 2 Zcoordinate
    705161.1413815164,        !- Vertex 3 Xcoordinate
    5711903.535547913,        !- Vertex 3 Ycoordinate
    0,                        !- Vertex 3 Zcoordinate
    705161.1413815164,        !- Vertex 4 Xcoordinate
    5711903.535547913,        !- Vertex 4 Ycoordinate
    6;                        !- Vertex 4 Zcoordinate

SHADING:SITE:DETAILED,
    shade_way/298846071_1,    !- Name
    ,                         !- Transmittance Schedule Name
    autocalculate,            !- Number of Vertices
    705161.9941742038,        !- Vertex 1 Xcoordinate
    5711922.646379846,        !- Vertex 1 Ycoordinate
    6,                        !- Vertex 1 Zcoordinate
    705161.9941742038,        !- Vertex 2 Xcoordinate
    5711922.646379846,        !- Vertex 2 Ycoordinate
    0,                        !- Vertex 2 Zcoordinate
    705168.069693182,         !- Vertex 3 Xcoordinate
    5711924.963429493,        !- Vertex 3 Ycoordinate
    0,                        !- Vertex 3 Zcoordinate
    705168.069693182,         !- Vertex 4 Xcoordinate
    5711924.963429493,        !- Vertex 4 Ycoordinate
    6;                        !- Vertex 4 Zcoordinate

SHADING:SITE:DETAILED,
    shade_way/298846071_2,    !- Name
    ,                         !- Transmittance Schedule Name
    autocalculate,            !- Number of Vertices
    705168.069693182,         !- Vertex 1 Xcoordinate
    5711924.963429493,        !- Vertex 1 Ycoordinate
    6,                        !- Vertex 1 Zcoordinate
    705168.069693182,         !- Vertex 2 Xcoordinate
    5711924.963429493,        !- Vertex 2 Ycoordinate
    0,                        !- Vertex 2 Zcoordinate
    705170.6824674834,        !- Vertex 3 Xcoordinate
    5711918.113534191,        !- Vertex 3 Ycoordinate
    0,                        !- Vertex 3 Zcoordinate
    705170.6824674834,        !- Vertex 4 Xcoordinate
    5711918.113534191,        !- Vertex 4 Ycoordinate
    6;                        !- Vertex 4 Zcoordinate

SHADING:SITE:DETAILED,
    shade_way/298846071_3,    !- Name
    ,                         !- Transmittance Schedule Name
    autocalculate,            !- Number of Vertices
    705170.6824674834,        !- Vertex 1 Xcoordinate
    5711918.113534191,        !- Vertex 1 Ycoordinate
    6,                        !- Vertex 1 Zcoordinate
    705170.6824674834,        !- Vertex 2 Xcoordinate
    5711918.113534191,        !- Vertex 2 Ycoordinate
    0,                        !- Vertex 2 Zcoordinate
    705164.6069485046,        !- Vertex 3 Xcoordinate
    5711915.796484544,        !- Vertex 3 Ycoordinate
    0,                        !- Vertex 3 Zcoordinate
    705164.6069485046,        !- Vertex 4 Xcoordinate
    5711915.796484544,        !- Vertex 4 Ycoordinate
    6;                        !- Vertex 4 Zcoordinate

SHADING:SITE:DETAILED,
    shade_way/298846071_4,    !- Name
    ,                         !- Transmittance Schedule Name
    autocalculate,            !- Number of Vertices
    705164.6069485046,        !- Vertex 1 Xcoordinate
    5711915.796484544,        !- Vertex 1 Ycoordinate
    6,                        !- Vertex 1 Zcoordinate
    705164.6069485046,        !- Vertex 2 Xcoordinate
    5711915.796484544,        !- Vertex 2 Ycoordinate
    0,                        !- Vertex 2 Zcoordinate
    705161.9941742038,        !- Vertex 3 Xcoordinate
    5711922.646379846,        !- Vertex 3 Ycoordinate
    0,                        !- Vertex 3 Zcoordinate
    705161.9941742038,        !- Vertex 4 Xcoordinate
    5711922.646379846,        !- Vertex 4 Ycoordinate
    6;                        !- Vertex 4 Zcoordinate

SHADING:SITE:DETAILED,
    shade_way/1430536873_1,    !- Name
    ,                         !- Transmittance Schedule Name
    autocalculate,            !- Number of Vertices
    705174.2881645502,        !- Vertex 1 Xcoordinate
    5711927.353085795,        !- Vertex 1 Ycoordinate
    6,                        !- Vertex 1 Zcoordinate
    705174.2881645502,        !- Vertex 2 Xcoordinate
    5711927.353085795,        !- Vertex 2 Ycoordinate
    0,                        !- Vertex 2 Zcoordinate
    705176.9010843439,        !- Vertex 3 Xcoordinate
    5711920.4943607375,       !- Vertex 3 Ycoordinate
    0,                        !- Vertex 3 Zcoordinate
    705176.9010843439,        !- Vertex 4 Xcoordinate
    5711920.4943607375,       !- Vertex 4 Ycoordinate
    6;                        !- Vertex 4 Zcoordinate

SHADING:SITE:DETAILED,
    shade_way/1430536873_2,    !- Name
    ,                         !- Transmittance Schedule Name
    autocalculate,            !- Number of Vertices
    705176.9010843439,        !- Vertex 1 Xcoordinate
    5711920.4943607375,       !- Vertex 1 Ycoordinate
    6,                        !- Vertex 1 Zcoordinate
    705176.9010843439,        !- Vertex 2 Xcoordinate
    5711920.4943607375,       !- Vertex 2 Ycoordinate
    0,                        !- Vertex 2 Zcoordinate
    705170.6668986853,        !- Vertex 3 Xcoordinate
    5711918.119469214,        !- Vertex 3 Ycoordinate
    0,                        !- Vertex 3 Zcoordinate
    705170.6668986853,        !- Vertex 4 Xcoordinate
    5711918.119469214,        !- Vertex 4 Ycoordinate
    6;                        !- Vertex 4 Zcoordinate

SHADING:SITE:DETAILED,
    shade_way/1430536873_3,    !- Name
    ,                         !- Transmittance Schedule Name
    autocalculate,            !- Number of Vertices
    705170.6668986853,        !- Vertex 1 Xcoordinate
    5711918.119469214,        !- Vertex 1 Ycoordinate
    6,                        !- Vertex 1 Zcoordinate
    705170.6668986853,        !- Vertex 2 Xcoordinate
    5711918.119469214,        !- Vertex 2 Ycoordinate
    0,                        !- Vertex 2 Zcoordinate
    705168.0537963036,        !- Vertex 3 Xcoordinate
    5711924.977522121,        !- Vertex 3 Ycoordinate
    0,                        !- Vertex 3 Zcoordinate
    705168.0537963036,        !- Vertex 4 Xcoordinate
    5711924.977522121,        !- Vertex 4 Ycoordinate
    6;                        !- Vertex 4 Zcoordinate

SHADING:SITE:DETAILED,
    shade_way/1430536873_4,    !- Name
    ,                         !- Transmittance Schedule Name
    autocalculate,            !- Number of Vertices
    705168.0537963036,        !- Vertex 1 Xcoordinate
    5711924.977522121,        !- Vertex 1 Ycoordinate
    6,                        !- Vertex 1 Zcoordinate
    705168.0537963036,        !- Vertex 2 Xcoordinate
    5711924.977522121,        !- Vertex 2 Ycoordinate
    0,                        !- Vertex 2 Zcoordinate
    705174.2881645502,        !- Vertex 3 Xcoordinate
    5711927.353085795,        !- Vertex 3 Ycoordinate
    0,                        !- Vertex 3 Zcoordinate
    705174.2881645502,        !- Vertex 4 Xcoordinate
    5711927.353085795,        !- Vertex 4 Ycoordinate
    6;                        !- Vertex 4 Zcoordinate

SHADING:SITE:DETAILED,
    shade_way/1430536874_1,    !- Name
    ,                         !- Transmittance Schedule Name
    autocalculate,            !- Number of Vertices
    705176.8996993946,        !- Vertex 1 Xcoordinate
    5711920.49857152,         !- Vertex 1 Ycoordinate
    6,                        !- Vertex 1 Zcoordinate
    705176.8996993946,        !- Vertex 2 Xcoordinate
    5711920.49857152,         !- Vertex 2 Ycoordinate
    0,                        !- Vertex 2 Zcoordinate
    705174.286327732,         !- Vertex 3 Xcoordinate
    5711927.35733121,         !- Vertex 3 Ycoordinate
    0,                        !- Vertex 3 Zcoordinate
    705174.286327732,         !- Vertex 4 Xcoordinate
    5711927.35733121,         !- Vertex 4 Ycoordinate
    6;                        !- Vertex 4 Zcoordinate

SHADING:SITE:DETAILED,
    shade_way/1430536874_2,    !- Name
    ,                         !- Transmittance Schedule Name
    autocalculate,            !- Number of Vertices
    705174.286327732,         !- Vertex 1 Xcoordinate
    5711927.35733121,         !- Vertex 1 Ycoordinate
    6,                        !- Vertex 1 Zcoordinate
    705174.286327732,         !- Vertex 2 Xcoordinate
    5711927.35733121,         !- Vertex 2 Ycoordinate
    0,                        !- Vertex 2 Zcoordinate
    705180.6167067166,        !- Vertex 3 Xcoordinate
    5711929.769474486,        !- Vertex 3 Ycoordinate
    0,                        !- Vertex 3 Zcoordinate
    705180.6167067166,        !- Vertex 4 Xcoordinate
    5711929.769474486,        !- Vertex 4 Ycoordinate
    6;                        !- Vertex 4 Zcoordinate

SHADING:SITE:DETAILED,
    shade_way/1430536874_3,    !- Name
    ,                         !- Transmittance Schedule Name
    autocalculate,            !- Number of Vertices
    705180.6167067166,        !- Vertex 1 Xcoordinate
    5711929.769474486,        !- Vertex 1 Ycoordinate
    6,                        !- Vertex 1 Zcoordinate
    705180.6167067166,        !- Vertex 2 Xcoordinate
    5711929.769474486,        !- Vertex 2 Ycoordinate
    0,                        !- Vertex 2 Zcoordinate
    705183.2298957927,        !- Vertex 3 Xcoordinate
    5711922.91004264,         !- Vertex 3 Ycoordinate
    0,                        !- Vertex 3 Zcoordinate
    705183.2298957927,        !- Vertex 4 Xcoordinate
    5711922.91004264,         !- Vertex 4 Ycoordinate
    6;                        !- Vertex 4 Zcoordinate

SHADING:SITE:DETAILED,
    shade_way/1430536874_4,    !- Name
    ,                         !- Transmittance Schedule Name
    autocalculate,            !- Number of Vertices
    705183.2298957927,        !- Vertex 1 Xcoordinate
    5711922.91004264,         !- Vertex 1 Ycoordinate
    6,                        !- Vertex 1 Zcoordinate
    705183.2298957927,        !- Vertex 2 Xcoordinate
    5711922.91004264,         !- Vertex 2 Ycoordinate
    0,                        !- Vertex 2 Zcoordinate
    705176.8996993946,        !- Vertex 3 Xcoordinate
    5711920.49857152,         !- Vertex 3 Ycoordinate
    0,                        !- Vertex 3 Zcoordinate
    705176.8996993946,        !- Vertex 4 Xcoordinate
    5711920.49857152,         !- Vertex 4 Ycoordinate
    6;                        !- Vertex 4 Zcoordinate

OTHEREQUIPMENT,
    EU_Step8_InternalGain_b3e2da80f74e44e7_F0_dwelling_0_f000,    !- Name
    Electricity,              !- Fuel Type
    b3e2da80f74e44e7_F0_dwelling_0,    !- Zone or ZoneList or Space or SpaceList Name
    EU_Step8_GainSchedule_b3e2da80f74e44e7_F0_dwelling_0_f000,    !- Schedule Name
    Watts/Area,               !- Design Level Calculation Method
    ,                         !- Design Level
    1,                        !- Power per Zone Floor Area
    ,                         !- Power per Person
    0,                        !- Fraction Latent
    0,                        !- Fraction Radiant
    0,                        !- Fraction Lost
    0,                        !- Carbon Dioxide Generation Rate
    EU_Step8_InternalGains;    !- EndUse Subcategory

ZONEVENTILATION:DESIGNFLOWRATE,
    EU_ConstantAir_b3e2da80f74e44e7_F0_dwelling_0,    !- Name
    b3e2da80f74e44e7_F0_dwelling_0,    !- Zone or ZoneList or Space or SpaceList Name
    EU_AlwaysOn,              !- Schedule Name
    AirChanges/Hour,          !- Design Flow Rate Calculation Method
    ,                         !- Design Flow Rate
    ,                         !- Flow Rate per Floor Area
    ,                         !- Flow Rate per Person
    4.849006e-01,             !- Air Changes per Hour
    Natural,                  !- Ventilation Type
    0,                        !- Fan Pressure Rise
    1,                        !- Fan Total Efficiency
    1,                        !- Constant Term Coefficient
    0,                        !- Temperature Term Coefficient
    0,                        !- Velocity Term Coefficient
    0,                        !- Velocity Squared Term Coefficient
    -100,                     !- Minimum Indoor Temperature
    ,                         !- Minimum Indoor Temperature Schedule Name
    100,                      !- Maximum Indoor Temperature
    ,                         !- Maximum Indoor Temperature Schedule Name
    -100,                     !- Delta Temperature
    ,                         !- Delta Temperature Schedule Name
    -100,                     !- Minimum Outdoor Temperature
    ,                         !- Minimum Outdoor Temperature Schedule Name
    100,                      !- Maximum Outdoor Temperature
    ,                         !- Maximum Outdoor Temperature Schedule Name
    40;                       !- Maximum Wind Speed

HVACTEMPLATE:THERMOSTAT,
    EU_HeatOnly_b3e2da80f74e44e7_F0_dwelling_0,    !- Name
    ,                         !- Heating Setpoint Schedule Name
    20,                       !- Constant Heating Setpoint
    ,                         !- Cooling Setpoint Schedule Name
    50;                       !- Constant Cooling Setpoint

HVACTEMPLATE:ZONE:IDEALLOADSAIRSYSTEM,
    b3e2da80f74e44e7_F0_dwelling_0,    !- Zone Name
    EU_HeatOnly_b3e2da80f74e44e7_F0_dwelling_0,    !- Template Thermostat Name
    EU_AlwaysOn,              !- System Availability Schedule Name
    50,                       !- Maximum Heating Supply Air Temperature
    13,                       !- Minimum Cooling Supply Air Temperature
    0.0156,                   !- Maximum Heating Supply Air Humidity Ratio
    0.0077,                   !- Minimum Cooling Supply Air Humidity Ratio
    NoLimit,                  !- Heating Limit
    ,                         !- Maximum Heating Air Flow Rate
    ,                         !- Maximum Sensible Heating Capacity
    NoLimit,                  !- Cooling Limit
    ,                         !- Maximum Cooling Air Flow Rate
    ,                         !- Maximum Total Cooling Capacity
    EU_AlwaysOn,              !- Heating Availability Schedule Name
    EU_CoolingOff,            !- Cooling Availability Schedule Name
    ConstantSensibleHeatRatio,    !- Dehumidification Control Type
    0.7,                      !- Cooling Sensible Heat Ratio
    60,                       !- Dehumidification Setpoint
    None,                     !- Humidification Control Type
    30,                       !- Humidification Setpoint
    None,                     !- Outdoor Air Method
    0.00944,                  !- Outdoor Air Flow Rate per Person
    0.0,                      !- Outdoor Air Flow Rate per Zone Floor Area
    0,                        !- Outdoor Air Flow Rate per Zone
    ,                         !- Design Specification Outdoor Air Object Name
    None,                     !- Demand Controlled Ventilation Type
    NoEconomizer,             !- Outdoor Air Economizer Type
    None,                     !- Heat Recovery Type
    0.70,                     !- Sensible Heat Recovery Effectiveness
    0.65;                     !- Latent Heat Recovery Effectiveness

SIZING:ZONE,
    b3e2da80f74e44e7_F0_dwelling_0,    !- Zone or ZoneList Name
    SupplyAirTemperature,     !- Zone Cooling Design Supply Air Temperature Input Method
    13,                       !- Zone Cooling Design Supply Air Temperature
    ,                         !- Zone Cooling Design Supply Air Temperature Difference
    SupplyAirTemperature,     !- Zone Heating Design Supply Air Temperature Input Method
    50,                       !- Zone Heating Design Supply Air Temperature
    ,                         !- Zone Heating Design Supply Air Temperature Difference
    0.008,                    !- Zone Cooling Design Supply Air Humidity Ratio
    0.008,                    !- Zone Heating Design Supply Air Humidity Ratio
    ,                         !- Design Specification Outdoor Air Object Name
    ,                         !- Zone Heating Sizing Factor
    ,                         !- Zone Cooling Sizing Factor
    DesignDay,                !- Cooling Design Air Flow Method
    0,                        !- Cooling Design Air Flow Rate
    0.000762,                 !- Cooling Minimum Air Flow per Zone Floor Area
    0,                        !- Cooling Minimum Air Flow
    0.2,                      !- Cooling Minimum Air Flow Fraction
    DesignDay,                !- Heating Design Air Flow Method
    0,                        !- Heating Design Air Flow Rate
    0.002032,                 !- Heating Maximum Air Flow per Zone Floor Area
    0.1415762,                !- Heating Maximum Air Flow
    0.3,                      !- Heating Maximum Air Flow Fraction
    ,                         !- Design Specification Zone Air Distribution Object Name
    No,                       !- Account for Dedicated Outdoor Air System
    NeutralSupplyAir,         !- Dedicated Outdoor Air System Control Strategy
    autosize,                 !- Dedicated Outdoor Air Low Setpoint Temperature for Design
    autosize,                 !- Dedicated Outdoor Air High Setpoint Temperature for Design
    Sensible Load Only No Latent Load,    !- Zone Load Sizing Method
    HumidityRatioDifference,    !- Zone Latent Cooling Design Supply Air Humidity Ratio Input Method
    ,                         !- Zone Dehumidification Design Supply Air Humidity Ratio
    0.005,                    !- Zone Cooling Design Supply Air Humidity Ratio Difference
    HumidityRatioDifference,    !- Zone Latent Heating Design Supply Air Humidity Ratio Input Method
    ,                         !- Zone Humidification Design Supply Air Humidity Ratio
    0.005;                    !- Zone Humidification Design Supply Air Humidity Ratio Difference

OUTPUT:VARIABLE,
    *,                        !- Key Value
    Zone Ideal Loads Zone Total Heating Energy,    !- Variable Name
    Hourly;                   !- Reporting Frequency

OUTPUT:SQLITE,
    SimpleAndTabular,         !- Option Type
    UseOutputControlTableStyle;    !- Unit Conversion for Tabular Data