!- Windows Line endings 

Version,
    23.1;                     !- Version Identifier

SimulationControl,
    Yes,                      !- Do Zone Sizing Calculation
    Yes,                      !- Do System Sizing Calculation
    Yes,                      !- Do Plant Sizing Calculation
    No,                       !- Run Simulation for Sizing Periods
    Yes,                      !- Run Simulation for Weather File Run Periods
    No,                       !- Do HVAC Sizing Simulation for Sizing Periods
    1;                        !- Maximum Number of HVAC Sizing Simulation Passes

Building,
    EU S2 Campaign,           !- Name
    0,                        !- North Axis
    City,                     !- Terrain
    ,                         !- Loads Convergence Tolerance Value
    ,                         !- Temperature Convergence Tolerance Value
    FullExterior,             !- Solar Distribution
    ,                         !- Maximum Number of Warmup Days
    ;                         !- Minimum Number of Warmup Days

ShadowCalculation,
    PolygonClipping,          !- Shading Calculation Method
    Periodic,                 !- Shading Calculation Update Frequency Method
    1;                        !- Shading Calculation Update Frequency

HeatBalanceAlgorithm,
    ConductionTransferFunction,    !- Algorithm
    200,                      !- Surface Temperature Upper Limit
    0.1,                      !- Minimum Surface Convection Heat Transfer Coefficient Value
    10000000;                 !- Maximum Surface Convection Heat Transfer Coefficient Value

Timestep,
    12;                       !- Number of Timesteps per Hour

Site:Location,
    London,                   !- Name
    51.5,                     !- Latitude
    -0.5,                     !- Longitude
    0,                        !- Time Zone
    25;                       !- Elevation

SizingPeriod:WeatherFileDays,
    AnnualSizingPeriod,       !- Name
    1,                        !- Begin Month
    1,                        !- Begin Day of Month
    12,                       !- End Month
    31,                       !- End Day of Month
    Monday,                   !- Day of Week for Start Day
    No,                       !- Use Weather File Daylight Saving Period
    No;                       !- Use Weather File Rain and Snow Indicators

RunPeriod,
    RunPeriod1,               !- Name
    1,                        !- Begin Month
    1,                        !- Begin Day of Month
    ,                         !- Begin Year
    12,                       !- End Month
    31,                       !- End Day of Month
    ,                         !- End Year
    Sunday,                   !- Day of Week for Start Day
    No,                       !- Use Weather File Holidays and Special Days
    No,                       !- Use Weather File Daylight Saving Period
    No,                       !- Apply Weekend Holiday Rule
    Yes,                      !- Use Weather File Rain Indicators
    Yes;                      !- Use Weather File Snow Indicators

ScheduleTypeLimits,
    Any Number;               !- Name

SCHEDULETYPELIMITS,
    EU_Step8_AnyNumber_Wm2,    !- Name
    ,                         !- Lower Limit Value
    ,                         !- Upper Limit Value
    Continuous,               !- Numeric Type
    Dimensionless;            !- Unit Type

SCHEDULE:CONSTANT,
    EU_AlwaysOn,              !- Name
    ,                         !- Schedule Type Limits Name
    1;                        !- Hourly Value

SCHEDULE:CONSTANT,
    EU_CoolingOff,            !- Name
    ,                         !- Schedule Type Limits Name
    0;                        !- Hourly Value

SCHEDULE:FILE,
    EU_Step8_GainSchedule_eec801d181940e33_F0_dwelling_0_f000,    !- Name
    EU_Step8_AnyNumber_Wm2,    !- Schedule Type Limits Name
    ../../schedules/eec801d181940e33/eec801d181940e33_F0_dwelling_0_f000_gain.csv,    !- File Name
    1,                        !- Column Number
    0,                        !- Rows to Skip at Top
    8760,                     !- Number of Hours of Data
    Comma,                    !- Column Separator
    No,                       !- Interpolate to Timestep
    60,                       !- Minutes per Item
    Yes;                      !- Adjust Schedule for Daylight Savings

MATERIAL,
    EU_InternalMass_Material,    !- Name
    MediumRough,              !- Roughness
    0.1,                      !- Thickness
    1,                        !- Conductivity
    1800,                     !- Density
    900,                      !- Specific Heat
    0.9,                      !- Thermal Absorptance
    0.7,                      !- Solar Absorptance
    0.7;                      !- Visible Absorptance

MATERIAL:NOMASS,
    EU_wall_NoMass,           !- Name
    MediumRough,              !- Roughness
    0.7247189243747139,       !- Thermal Resistance
    0.9,                      !- Thermal Absorptance
    0.7,                      !- Solar Absorptance
    0.7;                      !- Visible Absorptance

MATERIAL:NOMASS,
    EU_roof_NoMass,           !- Name
    MediumRough,              !- Roughness
    2.989465563045695,        !- Thermal Resistance
    0.9,                      !- Thermal Absorptance
    0.7,                      !- Solar Absorptance
    0.7;                      !- Visible Absorptance

MATERIAL:NOMASS,
    EU_floor_NoMass,          !- Name
    MediumRough,              !- Roughness
    2.3915724504365556,       !- Thermal Resistance
    0.9,                      !- Thermal Absorptance
    0.7,                      !- Solar Absorptance
    0.7;                      !- Visible Absorptance

CONSTRUCTION,
    EU_wall_Construction,     !- Name
    EU_wall_NoMass;           !- Outside Layer

CONSTRUCTION,
    EU_roof_Construction,     !- Name
    EU_roof_NoMass;           !- Outside Layer

CONSTRUCTION,
    EU_floor_Construction,    !- Name
    EU_floor_NoMass;          !- Outside Layer

CONSTRUCTION,
    EU_InternalMass_Construction,    !- Name
    EU_InternalMass_Material;    !- Outside Layer

GlobalGeometryRules,
    UpperLeftCorner,          !- Starting Vertex Position
    CounterClockWise,         !- Vertex Entry Direction
    World;                    !- Coordinate System

ZONE,
    eec801d181940e33_F0_dwelling_0,    !- Name
    0,                        !- Direction of Relative North
    0,                        !- X Origin
    0,                        !- Y Origin
    0,                        !- Z Origin
    1,                        !- Type
    1,                        !- Multiplier
    autocalculate,            !- Ceiling Height
    352.048095703125,         !- Volume
    autocalculate,            !- Floor Area
    ,                         !- Zone Inside Convection Algorithm
    ,                         !- Zone Outside Convection Algorithm
    Yes;                      !- Part of Total Floor Area

BUILDINGSURFACE:DETAILED,
    Block eec801d181940e33_0 Storey 0 Wall 0001,    !- Name
    wall,                     !- Surface Type
    EU_wall_Construction,     !- Construction Name
    eec801d181940e33_F0_dwelling_0,    !- Zone Name
    ,                         !- Space Name
    Adiabatic,                !- Outside Boundary Condition
    ,                         !- Outside Boundary Condition Object
    NoSun,                    !- Sun Exposure
    NoWind,                   !- Wind Exposure
    autocalculate,            !- View Factor to Ground
    autocalculate,            !- Number of Vertices
    705651.463,               !- Vertex 1 Xcoordinate
    5711432.112,              !- Vertex 1 Ycoordinate
    9,                        !- Vertex 1 Zcoordinate
    705651.463,               !- Vertex 2 Xcoordinate
    5711432.112,              !- Vertex 2 Ycoordinate
    0,                        !- Vertex 2 Zcoordinate
    705644.589,               !- Vertex 3 Xcoordinate
    5711435.252,              !- Vertex 3 Ycoordinate
    0,                        !- Vertex 3 Zcoordinate
    705644.589,               !- Vertex 4 Xcoordinate
    5711435.252,              !- Vertex 4 Ycoordinate
    9;                        !- Vertex 4 Zcoordinate

BUILDINGSURFACE:DETAILED,
    Block eec801d181940e33_0 Storey 0 Wall 0002,    !- Name
    wall,                     !- Surface Type
    EU_wall_Construction,     !- Construction Name
    eec801d181940e33_F0_dwelling_0,    !- Zone Name
    ,                         !- Space Name
    outdoors,                 !- Outside Boundary Condition
    ,                         !- Outside Boundary Condition Object
    SunExposed,               !- Sun Exposure
    WindExposed,              !- Wind Exposure
    autocalculate,            !- View Factor to Ground
    autocalculate,            !- Number of Vertices
    705644.589,               !- Vertex 1 Xcoordinate
    5711435.252,              !- Vertex 1 Ycoordinate
    9,                        !- Vertex 1 Zcoordinate
    705644.589,               !- Vertex 2 Xcoordinate
    5711435.252,              !- Vertex 2 Ycoordinate
    0,                        !- Vertex 2 Zcoordinate
    705645.513,               !- Vertex 3 Xcoordinate
    5711437.84,               !- Vertex 3 Ycoordinate
    0,                        !- Vertex 3 Zcoordinate
    705645.513,               !- Vertex 4 Xcoordinate
    5711437.84,               !- Vertex 4 Ycoordinate
    9;                        !- Vertex 4 Zcoordinate

BUILDINGSURFACE:DETAILED,
    Block eec801d181940e33_0 Storey 0 Wall 0003,    !- Name
    wall,                     !- Surface Type
    EU_wall_Construction,     !- Construction Name
    eec801d181940e33_F0_dwelling_0,    !- Zone Name
    ,                         !- Space Name
    outdoors,                 !- Outside Boundary Condition
    ,                         !- Outside Boundary Condition Object
    SunExposed,               !- Sun Exposure
    WindExposed,              !- Wind Exposure
    autocalculate,            !- View Factor to Ground
    autocalculate,            !- Number of Vertices
    705645.513,               !- Vertex 1 Xcoordinate
    5711437.84,               !- Vertex 1 Ycoordinate
    9,                        !- Vertex 1 Zcoordinate
    705645.513,               !- Vertex 2 Xcoordinate
    5711437.84,               !- Vertex 2 Ycoordinate
    0,                        !- Vertex 2 Zcoordinate
    705646.631,               !- Vertex 3 Xcoordinate
    5711440.257,              !- Vertex 3 Ycoordinate
    0,                        !- Vertex 3 Zcoordinate
    705646.631,               !- Vertex 4 Xcoordinate
    5711440.257,              !- Vertex 4 Ycoordinate
    9;                        !- Vertex 4 Zcoordinate

BUILDINGSURFACE:DETAILED,
    Block eec801d181940e33_0 Storey 0 Wall 0004,    !- Name
    wall,                     !- Surface Type
    EU_wall_Construction,     !- Construction Name
    eec801d181940e33_F0_dwelling_0,    !- Zone Name
    ,                         !- Space Name
    Adiabatic,                !- Outside Boundary Condition
    ,                         !- Outside Boundary Condition Object
    NoSun,                    !- Sun Exposure
    NoWind,                   !- Wind Exposure
    autocalculate,            !- View Factor to Ground
    autocalculate,            !- Number of Vertices
    705646.631,               !- Vertex 1 Xcoordinate
    5711440.257,              !- Vertex 1 Ycoordinate
    9,                        !- Vertex 1 Zcoordinate
    705646.631,               !- Vertex 2 Xcoordinate
    5711440.257,              !- Vertex 2 Ycoordinate
    0,                        !- Vertex 2 Zcoordinate
    705653.302,               !- Vertex 3 Xcoordinate
    5711436.619,              !- Vertex 3 Ycoordinate
    0,                        !- Vertex 3 Zcoordinate
    705653.302,               !- Vertex 4 Xcoordinate
    5711436.619,              !- Vertex 4 Ycoordinate
    9;                        !- Vertex 4 Zcoordinate

BUILDINGSURFACE:DETAILED,
    Block eec801d181940e33_0 Storey 0 Wall 0005,    !- Name
    wall,                     !- Surface Type
    EU_wall_Construction,     !- Construction Name
    eec801d181940e33_F0_dwelling_0,    !- Zone Name
    ,                         !- Space Name
    outdoors,                 !- Outside Boundary Condition
    ,                         !- Outside Boundary Condition Object
    SunExposed,               !- Sun Exposure
    WindExposed,              !- Wind Exposure
    autocalculate,            !- View Factor to Ground
    autocalculate,            !- Number of Vertices
    705653.302,               !- Vertex 1 Xcoordinate
    5711436.619,              !- Vertex 1 Ycoordinate
    9,                        !- Vertex 1 Zcoordinate
    705653.302,               !- Vertex 2 Xcoordinate
    5711436.619,              !- Vertex 2 Ycoordinate
    0,                        !- Vertex 2 Zcoordinate
    705651.463,               !- Vertex 3 Xcoordinate
    5711432.112,              !- Vertex 3 Ycoordinate
    0,                        !- Vertex 3 Zcoordinate
    705651.463,               !- Vertex 4 Xcoordinate
    5711432.112,              !- Vertex 4 Ycoordinate
    9;                        !- Vertex 4 Zcoordinate

BUILDINGSURFACE:DETAILED,
    Block eec801d181940e33_0 Storey 0 Floor 0001,    !- Name
    floor,                    !- Surface Type
    EU_floor_Construction,    !- Construction Name
    eec801d181940e33_F0_dwelling_0,    !- Zone Name
    ,                         !- Space Name
    ground,                   !- Outside Boundary Condition
    ,                         !- Outside Boundary Condition Object
    NoSun,                    !- Sun Exposure
    NoWind,                   !- Wind Exposure
    autocalculate,            !- View Factor to Ground
    autocalculate,            !- Number of Vertices
    705651.463,               !- Vertex 1 Xcoordinate
    5711432.112,              !- Vertex 1 Ycoordinate
    0,                        !- Vertex 1 Zcoordinate
    705653.302,               !- Vertex 2 Xcoordinate
    5711436.619,              !- Vertex 2 Ycoordinate
    0,                        !- Vertex 2 Zcoordinate
    705646.631,               !- Vertex 3 Xcoordinate
    5711440.257,              !- Vertex 3 Ycoordinate
    0,                        !- Vertex 3 Zcoordinate
    705645.513,               !- Vertex 4 Xcoordinate
    5711437.84,               !- Vertex 4 Ycoordinate
    0,                        !- Vertex 4 Zcoordinate
    705644.589,               !- Vertex 5 Xcoordinate
    5711435.252,              !- Vertex 5 Ycoordinate
    0;                        !- Vertex 5 Zcoordinate

BUILDINGSURFACE:DETAILED,
    Block eec801d181940e33_0 Storey 0 Roof 0001,    !- Name
    roof,                     !- Surface Type
    EU_roof_Construction,     !- Construction Name
    eec801d181940e33_F0_dwelling_0,    !- Zone Name
    ,                         !- Space Name
    outdoors,                 !- Outside Boundary Condition
    ,                         !- Outside Boundary Condition Object
    NoSun,                    !- Sun Exposure
    WindExposed,              !- Wind Exposure
    autocalculate,            !- View Factor to Ground
    autocalculate,            !- Number of Vertices
    705653.302,               !- Vertex 1 Xcoordinate
    5711436.619,              !- Vertex 1 Ycoordinate
    9,                        !- Vertex 1 Zcoordinate
    705651.463,               !- Vertex 2 Xcoordinate
    5711432.112,              !- Vertex 2 Ycoordinate
    9,                        !- Vertex 2 Zcoordinate
    705644.589,               !- Vertex 3 Xcoordinate
    5711435.252,              !- Vertex 3 Ycoordinate
    9,                        !- Vertex 3 Zcoordinate
    705645.513,               !- Vertex 4 Xcoordinate
    5711437.84,               !- Vertex 4 Ycoordinate
    9,                        !- Vertex 4 Zcoordinate
    705646.631,               !- Vertex 5 Xcoordinate
    5711440.257,              !- Vertex 5 Ycoordinate
    9;                        !- Vertex 5 Zcoordinate

INTERNALMASS,
    eec801d181940e33_F0_dwelling_0_EU_InternalMass,    !- Name
    EU_InternalMass_Construction,    !- Construction Name
    eec801d181940e33_F0_dwelling_0,    !- Zone or ZoneList Name
    ,                         !- Space or SpaceList Name
    39.116402496562195;       !- Surface Area

SHADING:SITE:DETAILED,
    shade_way/395632424_1,    !- Name
    ,                         !- Transmittance Schedule Name
    autocalculate,            !- Number of Vertices
    705651.7531479097,        !- Vertex 1 Xcoordinate
    5711434.307759883,        !- Vertex 1 Ycoordinate
    9,                        !- Vertex 1 Zcoordinate
    705651.7531479097,        !- Vertex 2 Xcoordinate
    5711434.307759883,        !- Vertex 2 Ycoordinate
    0,                        !- Vertex 2 Zcoordinate
    705650.5888297071,        !- Vertex 3 Xcoordinate
    5711425.477173923,        !- Vertex 3 Ycoordinate
    0,                        !- Vertex 3 Zcoordinate
    705650.5888297071,        !- Vertex 4 Xcoordinate
    5711425.477173923,        !- Vertex 4 Ycoordinate
    9;                        !- Vertex 4 Zcoordinate

SHADING:SITE:DETAILED,
    shade_way/395632424_2,    !- Name
    ,                         !- Transmittance Schedule Name
    autocalculate,            !- Number of Vertices
    705650.5888297071,        !- Vertex 1 Xcoordinate
    5711425.477173923,        !- Vertex 1 Ycoordinate
    9,                        !- Vertex 1 Zcoordinate
    705650.5888297071,        !- Vertex 2 Xcoordinate
    5711425.477173923,        !- Vertex 2 Ycoordinate
    0,                        !- Vertex 2 Zcoordinate
    705638.671113813,         !- Vertex 3 Xcoordinate
    5711427.048532106,        !- Vertex 3 Ycoordinate
    0,                        !- Vertex 3 Zcoordinate
    705638.671113813,         !- Vertex 4 Xcoordinate
    5711427.048532106,        !- Vertex 4 Ycoordinate
    9;                        !- Vertex 4 Zcoordinate

SHADING:SITE:DETAILED,
    shade_way/395632424_3,    !- Name
    ,                         !- Transmittance Schedule Name
    autocalculate,            !- Number of Vertices
    705638.671113813,         !- Vertex 1 Xcoordinate
    5711427.048532106,        !- Vertex 1 Ycoordinate
    9,                        !- Vertex 1 Zcoordinate
    705638.671113813,         !- Vertex 2 Xcoordinate
    5711427.048532106,        !- Vertex 2 Ycoordinate
    0,                        !- Vertex 2 Zcoordinate
    705639.8354320155,        !- Vertex 3 Xcoordinate
    5711435.879118065,        !- Vertex 3 Ycoordinate
    0,                        !- Vertex 3 Zcoordinate
    705639.8354320155,        !- Vertex 4 Xcoordinate
    5711435.879118065,        !- Vertex 4 Ycoordinate
    9;                        !- Vertex 4 Zcoordinate

SHADING:SITE:DETAILED,
    shade_way/395632424_4,    !- Name
    ,                         !- Transmittance Schedule Name
    autocalculate,            !- Number of Vertices
    705639.8354320155,        !- Vertex 1 Xcoordinate
    5711435.879118065,        !- Vertex 1 Ycoordinate
    9,                        !- Vertex 1 Zcoordinate
    705639.8354320155,        !- Vertex 2 Xcoordinate
    5711435.879118065,        !- Vertex 2 Ycoordinate
    0,                        !- Vertex 2 Zcoordinate
    705651.7531479097,        !- Vertex 3 Xcoordinate
    5711434.307759883,        !- Vertex 3 Ycoordinate
    0,                        !- Vertex 3 Zcoordinate
    705651.7531479097,        !- Vertex 4 Xcoordinate
    5711434.307759883,        !- Vertex 4 Ycoordinate
    9;                        !- Vertex 4 Zcoordinate

SHADING:SITE:DETAILED,
    shade_way/395632068_1,    !- Name
    ,                         !- Transmittance Schedule Name
    autocalculate,            !- Number of Vertices
    705639.2931104706,        !- Vertex 1 Xcoordinate
    5711439.592046061,        !- Vertex 1 Ycoordinate
    9,                        !- Vertex 1 Zcoordinate
    705639.2931104706,        !- Vertex 2 Xcoordinate
    5711439.592046061,        !- Vertex 2 Ycoordinate
    0,                        !- Vertex 2 Zcoordinate
    705639.4745607965,        !- Vertex 3 Xcoordinate
    5711427.572221331,        !- Vertex 3 Ycoordinate
    0,                        !- Vertex 3 Zcoordinate
    705639.4745607965,        !- Vertex 4 Xcoordinate
    5711427.572221331,        !- Vertex 4 Ycoordinate
    9;                        !- Vertex 4 Zcoordinate

SHADING:SITE:DETAILED,
    shade_way/395632068_2,    !- Name
    ,                         !- Transmittance Schedule Name
    autocalculate,            !- Number of Vertices
    705639.4745607965,        !- Vertex 1 Xcoordinate
    5711427.572221331,        !- Vertex 1 Ycoordinate
    9,                        !- Vertex 1 Zcoordinate
    705639.4745607965,        !- Vertex 2 Xcoordinate
    5711427.572221331,        !- Vertex 2 Ycoordinate
    0,                        !- Vertex 2 Zcoordinate
    705627.1004201022,        !- Vertex 3 Xcoordinate
    5711427.385508711,        !- Vertex 3 Ycoordinate
    0,                        !- Vertex 3 Zcoordinate
    705627.1004201022,        !- Vertex 4 Xcoordinate
    5711427.385508711,        !- Vertex 4 Ycoordinate
    9;                        !- Vertex 4 Zcoordinate

SHADING:SITE:DETAILED,
    shade_way/395632068_3,    !- Name
    ,                         !- Transmittance Schedule Name
    autocalculate,            !- Number of Vertices
    705627.1004201022,        !- Vertex 1 Xcoordinate
    5711427.385508711,        !- Vertex 1 Ycoordinate
    9,                        !- Vertex 1 Zcoordinate
    705627.1004201022,        !- Vertex 2 Xcoordinate
    5711427.385508711,        !- Vertex 2 Ycoordinate
    0,                        !- Vertex 2 Zcoordinate
    705626.9189697762,        !- Vertex 3 Xcoordinate
    5711439.405333441,        !- Vertex 3 Ycoordinate
    0,                        !- Vertex 3 Zcoordinate
    705626.9189697762,        !- Vertex 4 Xcoordinate
    5711439.405333441,        !- Vertex 4 Ycoordinate
    9;                        !- Vertex 4 Zcoordinate

SHADING:SITE:DETAILED,
    shade_way/395632068_4,    !- Name
    ,                         !- Transmittance Schedule Name
    autocalculate,            !- Number of Vertices
    705626.9189697762,        !- Vertex 1 Xcoordinate
    5711439.405333441,        !- Vertex 1 Ycoordinate
    9,                        !- Vertex 1 Zcoordinate
    705626.9189697762,        !- Vertex 2 Xcoordinate
    5711439.405333441,        !- Vertex 2 Ycoordinate
    0,                        !- Vertex 2 Zcoordinate
    705639.2931104706,        !- Vertex 3 Xcoordinate
    5711439.592046061,        !- Vertex 3 Ycoordinate
    0,                        !- Vertex 3 Zcoordinate
    705639.2931104706,        !- Vertex 4 Xcoordinate
    5711439.592046061,        !- Vertex 4 Ycoordinate
    9;                        !- Vertex 4 Zcoordinate

SHADING:SITE:DETAILED,
    shade_way/1057093128_1,    !- Name
    ,                         !- Transmittance Schedule Name
    autocalculate,            !- Number of Vertices
    705644.3732627123,        !- Vertex 1 Xcoordinate
    5711442.14631141,         !- Vertex 1 Ycoordinate
    9,                        !- Vertex 1 Zcoordinate
    705644.3732627123,        !- Vertex 2 Xcoordinate
    5711442.14631141,         !- Vertex 2 Ycoordinate
    0,                        !- Vertex 2 Zcoordinate
    705648.6158501045,        !- Vertex 3 Xcoordinate
    5711447.216296964,        !- Vertex 3 Ycoordinate
    0,                        !- Vertex 3 Zcoordinate
    705648.6158501045,        !- Vertex 4 Xcoordinate
    5711447.216296964,        !- Vertex 4 Ycoordinate
    9;                        !- Vertex 4 Zcoordinate

SHADING:SITE:DETAILED,
    shade_way/1057093128_2,    !- Name
    ,                         !- Transmittance Schedule Name
    autocalculate,            !- Number of Vertices
    705648.6158501045,        !- Vertex 1 Xcoordinate
    5711447.216296964,        !- Vertex 1 Ycoordinate
    9,                        !- Vertex 1 Zcoordinate
    705648.6158501045,        !- Vertex 2 Xcoordinate
    5711447.216296964,        !- Vertex 2 Ycoordinate
    0,                        !- Vertex 2 Zcoordinate
    705656.5884472494,        !- Vertex 3 Xcoordinate
    5711440.544790751,        !- Vertex 3 Ycoordinate
    0,                        !- Vertex 3 Zcoordinate
    705656.5884472494,        !- Vertex 4 Xcoordinate
    5711440.544790751,        !- Vertex 4 Ycoordinate
    9;                        !- Vertex 4 Zcoordinate

SHADING:SITE:DETAILED,
    shade_way/1057093128_3,    !- Name
    ,                         !- Transmittance Schedule Name
    autocalculate,            !- Number of Vertices
    705656.5884472494,        !- Vertex 1 Xcoordinate
    5711440.544790751,        !- Vertex 1 Ycoordinate
    9,                        !- Vertex 1 Zcoordinate
    705656.5884472494,        !- Vertex 2 Xcoordinate
    5711440.544790751,        !- Vertex 2 Ycoordinate
    0,                        !- Vertex 2 Zcoordinate
    705652.3458598572,        !- Vertex 3 Xcoordinate
    5711435.474805197,        !- Vertex 3 Ycoordinate
    0,                        !- Vertex 3 Zcoordinate
    705652.3458598572,        !- Vertex 4 Xcoordinate
    5711435.474805197,        !- Vertex 4 Ycoordinate
    9;                        !- Vertex 4 Zcoordinate

SHADING:SITE:DETAILED,
    shade_way/1057093128_4,    !- Name
    ,                         !- Transmittance Schedule Name
    autocalculate,            !- Number of Vertices
    705652.3458598572,        !- Vertex 1 Xcoordinate
    5711435.474805197,        !- Vertex 1 Ycoordinate
    9,                        !- Vertex 1 Zcoordinate
    705652.3458598572,        !- Vertex 2 Xcoordinate
    5711435.474805197,        !- Vertex 2 Ycoordinate
    0,                        !- Vertex 2 Zcoordinate
    705644.3732627123,        !- Vertex 3 Xcoordinate
    5711442.14631141,         !- Vertex 3 Ycoordinate
    0,                        !- Vertex 3 Zcoordinate
    705644.3732627123,        !- Vertex 4 Xcoordinate
    5711442.14631141,         !- Vertex 4 Ycoordinate
    9;                        !- Vertex 4 Zcoordinate

SHADING:SITE:DETAILED,
    shade_way/395632065_1,    !- Name
    ,                         !- Transmittance Schedule Name
    autocalculate,            !- Number of Vertices
    705638.3128889396,        !- Vertex 1 Xcoordinate
    5711446.099953948,        !- Vertex 1 Ycoordinate
    6,                        !- Vertex 1 Zcoordinate
    705638.3128889396,        !- Vertex 2 Xcoordinate
    5711446.099953948,        !- Vertex 2 Ycoordinate
    0,                        !- Vertex 2 Zcoordinate
    705626.9150942886,        !- Vertex 3 Xcoordinate
    5711446.541075961,        !- Vertex 3 Ycoordinate
    0,                        !- Vertex 3 Zcoordinate
    705626.9150942886,        !- Vertex 4 Xcoordinate
    5711446.541075961,        !- Vertex 4 Ycoordinate
    6;                        !- Vertex 4 Zcoordinate

SHADING:SITE:DETAILED,
    shade_way/395632065_2,    !- Name
    ,                         !- Transmittance Schedule Name
    autocalculate,            !- Number of Vertices
    705626.9150942886,        !- Vertex 1 Xcoordinate
    5711446.541075961,        !- Vertex 1 Ycoordinate
    6,                        !- Vertex 1 Zcoordinate
    705626.9150942886,        !- Vertex 2 Xcoordinate
    5711446.541075961,        !- Vertex 2 Ycoordinate
    0,                        !- Vertex 2 Zcoordinate
    705627.2588401162,        !- Vertex 3 Xcoordinate
    5711455.422846188,        !- Vertex 3 Ycoordinate
    0,                        !- Vertex 3 Zcoordinate
    705627.2588401162,        !- Vertex 4 Xcoordinate
    5711455.422846188,        !- Vertex 4 Ycoordinate
    6;                        !- Vertex 4 Zcoordinate

SHADING:SITE:DETAILED,
    shade_way/395632065_3,    !- Name
    ,                         !- Transmittance Schedule Name
    autocalculate,            !- Number of Vertices
    705627.2588401162,        !- Vertex 1 Xcoordinate
    5711455.422846188,        !- Vertex 1 Ycoordinate
    6,                        !- Vertex 1 Zcoordinate
    705627.2588401162,        !- Vertex 2 Xcoordinate
    5711455.422846188,        !- Vertex 2 Ycoordinate
    0,                        !- Vertex 2 Zcoordinate
    705638.6566347673,        !- Vertex 3 Xcoordinate
    5711454.981724176,        !- Vertex 3 Ycoordinate
    0,                        !- Vertex 3 Zcoordinate
    705638.6566347673,        !- Vertex 4 Xcoordinate
    5711454.981724176,        !- Vertex 4 Ycoordinate
    6;                        !- Vertex 4 Zcoordinate

SHADING:SITE:DETAILED,
    shade_way/395632065_4,    !- Name
    ,                         !- Transmittance Schedule Name
    autocalculate,            !- Number of Vertices
    705638.6566347673,        !- Vertex 1 Xcoordinate
    5711454.981724176,        !- Vertex 1 Ycoordinate
    6,                        !- Vertex 1 Zcoordinate
    705638.6566347673,        !- Vertex 2 Xcoordinate
    5711454.981724176,        !- Vertex 2 Ycoordinate
    0,                        !- Vertex 2 Zcoordinate
    705638.3128889396,        !- Vertex 3 Xcoordinate
    5711446.099953948,        !- Vertex 3 Ycoordinate
    0,                        !- Vertex 3 Zcoordinate
    705638.3128889396,        !- Vertex 4 Xcoordinate
    5711446.099953948,        !- Vertex 4 Ycoordinate
    6;                        !- Vertex 4 Zcoordinate

SHADING:SITE:DETAILED,
    shade_way/395632066_1,    !- Name
    ,                         !- Transmittance Schedule Name
    autocalculate,            !- Number of Vertices
    705627.3743737119,        !- Vertex 1 Xcoordinate
    5711459.377012536,        !- Vertex 1 Ycoordinate
    6,                        !- Vertex 1 Zcoordinate
    705627.3743737119,        !- Vertex 2 Xcoordinate
    5711459.377012536,        !- Vertex 2 Ycoordinate
    0,                        !- Vertex 2 Zcoordinate
    705637.8296592539,        !- Vertex 3 Xcoordinate
    5711459.065212563,        !- Vertex 3 Ycoordinate
    0,                        !- Vertex 3 Zcoordinate
    705637.8296592539,        !- Vertex 4 Xcoordinate
    5711459.065212563,        !- Vertex 4 Ycoordinate
    6;                        !- Vertex 4 Zcoordinate

SHADING:SITE:DETAILED,
    shade_way/395632066_2,    !- Name
    ,                         !- Transmittance Schedule Name
    autocalculate,            !- Number of Vertices
    705637.8296592539,        !- Vertex 1 Xcoordinate
    5711459.065212563,        !- Vertex 1 Ycoordinate
    6,                        !- Vertex 1 Zcoordinate
    705637.8296592539,        !- Vertex 2 Xcoordinate
    5711459.065212563,        !- Vertex 2 Ycoordinate
    0,                        !- Vertex 2 Zcoordinate
    705637.7090474248,        !- Vertex 3 Xcoordinate
    5711455.018405035,        !- Vertex 3 Ycoordinate
    0,                        !- Vertex 3 Zcoordinate
    705637.7090474248,        !- Vertex 4 Xcoordinate
    5711455.018405035,        !- Vertex 4 Ycoordinate
    6;                        !- Vertex 4 Zcoordinate

SHADING:SITE:DETAILED,
    shade_way/395632066_3,    !- Name
    ,                         !- Transmittance Schedule Name
    autocalculate,            !- Number of Vertices
    705637.7090474248,        !- Vertex 1 Xcoordinate
    5711455.018405035,        !- Vertex 1 Ycoordinate
    6,                        !- Vertex 1 Zcoordinate
    705637.7090474248,        !- Vertex 2 Xcoordinate
    5711455.018405035,        !- Vertex 2 Ycoordinate
    0,                        !- Vertex 2 Zcoordinate
    705627.2536708112,        !- Vertex 3 Xcoordinate
    5711455.330054126,        !- Vertex 3 Ycoordinate
    0,                        !- Vertex 3 Zcoordinate
    705627.2536708112,        !- Vertex 4 Xcoordinate
    5711455.330054126,        !- Vertex 4 Ycoordinate
    6;                        !- Vertex 4 Zcoordinate

SHADING:SITE:DETAILED,
    shade_way/395632066_4,    !- Name
    ,                         !- Transmittance Schedule Name
    autocalculate,            !- Number of Vertices
    705627.2536708112,        !- Vertex 1 Xcoordinate
    5711455.330054126,        !- Vertex 1 Ycoordinate
    6,                        !- Vertex 1 Zcoordinate
    705627.2536708112,        !- Vertex 2 Xcoordinate
    5711455.330054126,        !- Vertex 2 Ycoordinate
    0,                        !- Vertex 2 Zcoordinate
    705627.3743737119,        !- Vertex 3 Xcoordinate
    5711459.377012536,        !- Vertex 3 Ycoordinate
    0,                        !- Vertex 3 Zcoordinate
    705627.3743737119,        !- Vertex 4 Xcoordinate
    5711459.377012536,        !- Vertex 4 Ycoordinate
    6;                        !- Vertex 4 Zcoordinate

SHADING:SITE:DETAILED,
    shade_way/1057093129_1,    !- Name
    ,                         !- Transmittance Schedule Name
    autocalculate,            !- Number of Vertices
    705648.8624416639,        !- Vertex 1 Xcoordinate
    5711447.867849897,        !- Vertex 1 Ycoordinate
    9,                        !- Vertex 1 Zcoordinate
    705648.8624416639,        !- Vertex 2 Xcoordinate
    5711447.867849897,        !- Vertex 2 Ycoordinate
    0,                        !- Vertex 2 Zcoordinate
    705654.0314323481,        !- Vertex 3 Xcoordinate
    5711451.879760978,        !- Vertex 3 Ycoordinate
    0,                        !- Vertex 3 Zcoordinate
    705654.0314323481,        !- Vertex 4 Xcoordinate
    5711451.879760978,        !- Vertex 4 Ycoordinate
    9;                        !- Vertex 4 Zcoordinate

SHADING:SITE:DETAILED,
    shade_way/1057093129_2,    !- Name
    ,                         !- Transmittance Schedule Name
    autocalculate,            !- Number of Vertices
    705654.0314323481,        !- Vertex 1 Xcoordinate
    5711451.879760978,        !- Vertex 1 Ycoordinate
    9,                        !- Vertex 1 Zcoordinate
    705654.0314323481,        !- Vertex 2 Xcoordinate
    5711451.879760978,        !- Vertex 2 Ycoordinate
    0,                        !- Vertex 2 Zcoordinate
    705660.4055057786,        !- Vertex 3 Xcoordinate
    5711443.667334152,        !- Vertex 3 Ycoordinate
    0,                        !- Vertex 3 Zcoordinate
    705660.4055057786,        !- Vertex 4 Xcoordinate
    5711443.667334152,        !- Vertex 4 Ycoordinate
    9;                        !- Vertex 4 Zcoordinate

SHADING:SITE:DETAILED,
    shade_way/1057093129_3,    !- Name
    ,                         !- Transmittance Schedule Name
    autocalculate,            !- Number of Vertices
    705660.4055057786,        !- Vertex 1 Xcoordinate
    5711443.667334152,        !- Vertex 1 Ycoordinate
    9,                        !- Vertex 1 Zcoordinate
    705660.4055057786,        !- Vertex 2 Xcoordinate
    5711443.667334152,        !- Vertex 2 Ycoordinate
    0,                        !- Vertex 2 Zcoordinate
    705655.2365150944,        !- Vertex 3 Xcoordinate
    5711439.655423071,        !- Vertex 3 Ycoordinate
    0,                        !- Vertex 3 Zcoordinate
    705655.2365150944,        !- Vertex 4 Xcoordinate
    5711439.655423071,        !- Vertex 4 Ycoordinate
    9;                        !- Vertex 4 Zcoordinate

SHADING:SITE:DETAILED,
    shade_way/1057093129_4,    !- Name
    ,                         !- Transmittance Schedule Name
    autocalculate,            !- Number of Vertices
    705655.2365150944,        !- Vertex 1 Xcoordinate
    5711439.655423071,        !- Vertex 1 Ycoordinate
    9,                        !- Vertex 1 Zcoordinate
    705655.2365150944,        !- Vertex 2 Xcoordinate
    5711439.655423071,        !- Vertex 2 Ycoordinate
    0,                        !- Vertex 2 Zcoordinate
    705648.8624416639,        !- Vertex 3 Xcoordinate
    5711447.867849897,        !- Vertex 3 Ycoordinate
    0,                        !- Vertex 3 Zcoordinate
    705648.8624416639,        !- Vertex 4 Xcoordinate
    5711447.867849897,        !- Vertex 4 Ycoordinate
    9;                        !- Vertex 4 Zcoordinate

SHADING:SITE:DETAILED,
    shade_way/1057093130_1,    !- Name
    ,                         !- Transmittance Schedule Name
    autocalculate,            !- Number of Vertices
    705664.2280532378,        !- Vertex 1 Xcoordinate
    5711444.889790758,        !- Vertex 1 Ycoordinate
    9,                        !- Vertex 1 Zcoordinate
    705664.2280532378,        !- Vertex 2 Xcoordinate
    5711444.889790758,        !- Vertex 2 Ycoordinate
    0,                        !- Vertex 2 Zcoordinate
    705658.6507429344,        !- Vertex 3 Xcoordinate
    5711442.636811467,        !- Vertex 3 Ycoordinate
    0,                        !- Vertex 3 Zcoordinate
    705658.6507429344,        !- Vertex 4 Xcoordinate
    5711442.636811467,        !- Vertex 4 Ycoordinate
    9;                        !- Vertex 4 Zcoordinate

SHADING:SITE:DETAILED,
    shade_way/1057093130_2,    !- Name
    ,                         !- Transmittance Schedule Name
    autocalculate,            !- Number of Vertices
    705658.6507429344,        !- Vertex 1 Xcoordinate
    5711442.636811467,        !- Vertex 1 Ycoordinate
    9,                        !- Vertex 1 Zcoordinate
    705658.6507429344,        !- Vertex 2 Xcoordinate
    5711442.636811467,        !- Vertex 2 Ycoordinate
    0,                        !- Vertex 2 Zcoordinate
    705655.7843410689,        !- Vertex 3 Xcoordinate
    5711449.732665711,        !- Vertex 3 Ycoordinate
    0,                        !- Vertex 3 Zcoordinate
    705655.7843410689,        !- Vertex 4 Xcoordinate
    5711449.732665711,        !- Vertex 4 Ycoordinate
    9;                        !- Vertex 4 Zcoordinate

SHADING:SITE:DETAILED,
    shade_way/1057093130_3,    !- Name
    ,                         !- Transmittance Schedule Name
    autocalculate,            !- Number of Vertices
    705655.7843410689,        !- Vertex 1 Xcoordinate
    5711449.732665711,        !- Vertex 1 Ycoordinate
    9,                        !- Vertex 1 Zcoordinate
    705655.7843410689,        !- Vertex 2 Xcoordinate
    5711449.732665711,        !- Vertex 2 Ycoordinate
    0,                        !- Vertex 2 Zcoordinate
    705661.3616513722,        !- Vertex 3 Xcoordinate
    5711451.985645002,        !- Vertex 3 Ycoordinate
    0,                        !- Vertex 3 Zcoordinate
    705661.3616513722,        !- Vertex 4 Xcoordinate
    5711451.985645002,        !- Vertex 4 Ycoordinate
    9;                        !- Vertex 4 Zcoordinate

SHADING:SITE:DETAILED,
    shade_way/1057093130_4,    !- Name
    ,                         !- Transmittance Schedule Name
    autocalculate,            !- Number of Vertices
    705661.3616513722,        !- Vertex 1 Xcoordinate
    5711451.985645002,        !- Vertex 1 Ycoordinate
    9,                        !- Vertex 1 Zcoordinate
    705661.3616513722,        !- Vertex 2 Xcoordinate
    5711451.985645002,        !- Vertex 2 Ycoordinate
    0,                        !- Vertex 2 Zcoordinate
    705664.2280532378,        !- Vertex 3 Xcoordinate
    5711444.889790758,        !- Vertex 3 Ycoordinate
    0,                        !- Vertex 3 Zcoordinate
    705664.2280532378,        !- Vertex 4 Xcoordinate
    5711444.889790758,        !- Vertex 4 Ycoordinate
    9;                        !- Vertex 4 Zcoordinate

SHADING:SITE:DETAILED,
    shade_way/1054785382_1,    !- Name
    ,                         !- Transmittance Schedule Name
    autocalculate,            !- Number of Vertices
    705670.0713562916,        !- Vertex 1 Xcoordinate
    5711445.32561515,         !- Vertex 1 Ycoordinate
    9,                        !- Vertex 1 Zcoordinate
    705670.0713562916,        !- Vertex 2 Xcoordinate
    5711445.32561515,         !- Vertex 2 Ycoordinate
    0,                        !- Vertex 2 Zcoordinate
    705662.0903545509,        !- Vertex 3 Xcoordinate
    5711444.600143198,        !- Vertex 3 Ycoordinate
    0,                        !- Vertex 3 Zcoordinate
    705662.0903545509,        !- Vertex 4 Xcoordinate
    5711444.600143198,        !- Vertex 4 Ycoordinate
    9;                        !- Vertex 4 Zcoordinate

SHADING:SITE:DETAILED,
    shade_way/1054785382_2,    !- Name
    ,                         !- Transmittance Schedule Name
    autocalculate,            !- Number of Vertices
    705662.0903545509,        !- Vertex 1 Xcoordinate
    5711444.600143198,        !- Vertex 1 Ycoordinate
    9,                        !- Vertex 1 Zcoordinate
    705662.0903545509,        !- Vertex 2 Xcoordinate
    5711444.600143198,        !- Vertex 2 Ycoordinate
    0,                        !- Vertex 2 Zcoordinate
    705660.9601359763,        !- Vertex 3 Xcoordinate
    5711457.033809901,        !- Vertex 3 Ycoordinate
    0,                        !- Vertex 3 Zcoordinate
    705660.9601359763,        !- Vertex 4 Xcoordinate
    5711457.033809901,        !- Vertex 4 Ycoordinate
    9;                        !- Vertex 4 Zcoordinate

SHADING:SITE:DETAILED,
    shade_way/1054785382_3,    !- Name
    ,                         !- Transmittance Schedule Name
    autocalculate,            !- Number of Vertices
    705660.9601359763,        !- Vertex 1 Xcoordinate
    5711457.033809901,        !- Vertex 1 Ycoordinate
    9,                        !- Vertex 1 Zcoordinate
    705660.9601359763,        !- Vertex 2 Xcoordinate
    5711457.033809901,        !- Vertex 2 Ycoordinate
    0,                        !- Vertex 2 Zcoordinate
    705668.9411377171,        !- Vertex 3 Xcoordinate
    5711457.759281854,        !- Vertex 3 Ycoordinate
    0,                        !- Vertex 3 Zcoordinate
    705668.9411377171,        !- Vertex 4 Xcoordinate
    5711457.759281854,        !- Vertex 4 Ycoordinate
    9;                        !- Vertex 4 Zcoordinate

SHADING:SITE:DETAILED,
    shade_way/1054785382_4,    !- Name
    ,                         !- Transmittance Schedule Name
    autocalculate,            !- Number of Vertices
    705668.9411377171,        !- Vertex 1 Xcoordinate
    5711457.759281854,        !- Vertex 1 Ycoordinate
    9,                        !- Vertex 1 Zcoordinate
    705668.9411377171,        !- Vertex 2 Xcoordinate
    5711457.759281854,        !- Vertex 2 Ycoordinate
    0,                        !- Vertex 2 Zcoordinate
    705670.0713562916,        !- Vertex 3 Xcoordinate
    5711445.32561515,         !- Vertex 3 Ycoordinate
    0,                        !- Vertex 3 Zcoordinate
    705670.0713562916,        !- Vertex 4 Xcoordinate
    5711445.32561515,         !- Vertex 4 Ycoordinate
    9;                        !- Vertex 4 Zcoordinate

OTHEREQUIPMENT,
    EU_Step8_InternalGain_eec801d181940e33_F0_dwelling_0_f000,    !- Name
    Electricity,              !- Fuel Type
    eec801d181940e33_F0_dwelling_0,    !- Zone or ZoneList or Space or SpaceList Name
    EU_Step8_GainSchedule_eec801d181940e33_F0_dwelling_0_f000,    !- Schedule Name
    Watts/Area,               !- Design Level Calculation Method
    ,                         !- Design Level
    1,                        !- Power per Zone Floor Area
    ,                         !- Power per Person
    0,                        !- Fraction Latent
    0,                        !- Fraction Radiant
    0,                        !- Fraction Lost
    0,                        !- Carbon Dioxide Generation Rate
    EU_Step8_InternalGains;    !- EndUse Subcategory

ZONEVENTILATION:DESIGNFLOWRATE,
    EU_ConstantAir_eec801d181940e33_F0_dwelling_0,    !- Name
    eec801d181940e33_F0_dwelling_0,    !- Zone or ZoneList or Space or SpaceList Name
    EU_AlwaysOn,              !- Schedule Name
    AirChanges/Hour,          !- Design Flow Rate Calculation Method
    ,                         !- Design Flow Rate
    ,                         !- Flow Rate per Floor Area
    ,                         !- Flow Rate per Person
    0.418134938716768,        !- Air Changes per Hour
    Natural,                  !- Ventilation Type
    0,                        !- Fan Pressure Rise
    1,                        !- Fan Total Efficiency
    1,                        !- Constant Term Coefficient
    0,                        !- Temperature Term Coefficient
    0,                        !- Velocity Term Coefficient
    0,                        !- Velocity Squared Term Coefficient
    -100,                     !- Minimum Indoor Temperature
    ,                         !- Minimum Indoor Temperature Schedule Name
    100,                      !- Maximum Indoor Temperature
    ,                         !- Maximum Indoor Temperature Schedule Name
    -100,                     !- Delta Temperature
    ,                         !- Delta Temperature Schedule Name
    -100,                     !- Minimum Outdoor Temperature
    ,                         !- Minimum Outdoor Temperature Schedule Name
    100,                      !- Maximum Outdoor Temperature
    ,                         !- Maximum Outdoor Temperature Schedule Name
    40;                       !- Maximum Wind Speed

HVACTEMPLATE:THERMOSTAT,
    EU_HeatOnly_eec801d181940e33_F0_dwelling_0,    !- Name
    ,                         !- Heating Setpoint Schedule Name
    20,                       !- Constant Heating Setpoint
    ,                         !- Cooling Setpoint Schedule Name
    50;                       !- Constant Cooling Setpoint

HVACTEMPLATE:ZONE:IDEALLOADSAIRSYSTEM,
    eec801d181940e33_F0_dwelling_0,    !- Zone Name
    EU_HeatOnly_eec801d181940e33_F0_dwelling_0,    !- Template Thermostat Name
    EU_AlwaysOn,              !- System Availability Schedule Name
    50,                       !- Maximum Heating Supply Air Temperature
    13,                       !- Minimum Cooling Supply Air Temperature
    0.0156,                   !- Maximum Heating Supply Air Humidity Ratio
    0.0077,                   !- Minimum Cooling Supply Air Humidity Ratio
    NoLimit,                  !- Heating Limit
    ,                         !- Maximum Heating Air Flow Rate
    ,                         !- Maximum Sensible Heating Capacity
    NoLimit,                  !- Cooling Limit
    ,                         !- Maximum Cooling Air Flow Rate
    ,                         !- Maximum Total Cooling Capacity
    EU_AlwaysOn,              !- Heating Availability Schedule Name
    EU_CoolingOff,            !- Cooling Availability Schedule Name
    ConstantSensibleHeatRatio,    !- Dehumidification Control Type
    0.7,                      !- Cooling Sensible Heat Ratio
    60,                       !- Dehumidification Setpoint
    None,                     !- Humidification Control Type
    30,                       !- Humidification Setpoint
    None,                     !- Outdoor Air Method
    0.00944,                  !- Outdoor Air Flow Rate per Person
    0.0,                      !- Outdoor Air Flow Rate per Zone Floor Area
    0,                        !- Outdoor Air Flow Rate per Zone
    ,                         !- Design Specification Outdoor Air Object Name
    None,                     !- Demand Controlled Ventilation Type
    NoEconomizer,             !- Outdoor Air Economizer Type
    None,                     !- Heat Recovery Type
    0.70,                     !- Sensible Heat Recovery Effectiveness
    0.65;                     !- Latent Heat Recovery Effectiveness

SIZING:ZONE,
    eec801d181940e33_F0_dwelling_0,    !- Zone or ZoneList Name
    SupplyAirTemperature,     !- Zone Cooling Design Supply Air Temperature Input Method
    13,                       !- Zone Cooling Design Supply Air Temperature
    ,                         !- Zone Cooling Design Supply Air Temperature Difference
    SupplyAirTemperature,     !- Zone Heating Design Supply Air Temperature Input Method
    50,                       !- Zone Heating Design Supply Air Temperature
    ,                         !- Zone Heating Design Supply Air Temperature Difference
    0.008,                    !- Zone Cooling Design Supply Air Humidity Ratio
    0.008,                    !- Zone Heating Design Supply Air Humidity Ratio
    ,                         !- Design Specification Outdoor Air Object Name
    ,                         !- Zone Heating Sizing Factor
    ,                         !- Zone Cooling Sizing Factor
    DesignDay,                !- Cooling Design Air Flow Method
    0,                        !- Cooling Design Air Flow Rate
    0.000762,                 !- Cooling Minimum Air Flow per Zone Floor Area
    0,                        !- Cooling Minimum Air Flow
    0.2,                      !- Cooling Minimum Air Flow Fraction
    DesignDay,                !- Heating Design Air Flow Method
    0,                        !- Heating Design Air Flow Rate
    0.002032,                 !- Heating Maximum Air Flow per Zone Floor Area
    0.1415762,                !- Heating Maximum Air Flow
    0.3,                      !- Heating Maximum Air Flow Fraction
    ,                         !- Design Specification Zone Air Distribution Object Name
    No,                       !- Account for Dedicated Outdoor Air System
    NeutralSupplyAir,         !- Dedicated Outdoor Air System Control Strategy
    autosize,                 !- Dedicated Outdoor Air Low Setpoint Temperature for Design
    autosize,                 !- Dedicated Outdoor Air High Setpoint Temperature for Design
    Sensible Load Only No Latent Load,    !- Zone Load Sizing Method
    HumidityRatioDifference,    !- Zone Latent Cooling Design Supply Air Humidity Ratio Input Method
    ,                         !- Zone Dehumidification Design Supply Air Humidity Ratio
    0.005,                    !- Zone Cooling Design Supply Air Humidity Ratio Difference
    HumidityRatioDifference,    !- Zone Latent Heating Design Supply Air Humidity Ratio Input Method
    ,                         !- Zone Humidification Design Supply Air Humidity Ratio
    0.005;                    !- Zone Humidification Design Supply Air Humidity Ratio Difference

OUTPUT:VARIABLE,
    *,                        !- Key Value
    Zone Ideal Loads Zone Total Heating Energy,    !- Variable Name
    Hourly;                   !- Reporting Frequency

OUTPUT:SQLITE,
    SimpleAndTabular,         !- Option Type
    UseOutputControlTableStyle;    !- Unit Conversion for Tabular Data