!- Windows Line endings 

Version,
    23.1;                     !- Version Identifier

SimulationControl,
    Yes,                      !- Do Zone Sizing Calculation
    Yes,                      !- Do System Sizing Calculation
    Yes,                      !- Do Plant Sizing Calculation
    No,                       !- Run Simulation for Sizing Periods
    Yes,                      !- Run Simulation for Weather File Run Periods
    No,                       !- Do HVAC Sizing Simulation for Sizing Periods
    1;                        !- Maximum Number of HVAC Sizing Simulation Passes

Building,
    EU S2 Campaign,           !- Name
    0,                        !- North Axis
    City,                     !- Terrain
    ,                         !- Loads Convergence Tolerance Value
    ,                         !- Temperature Convergence Tolerance Value
    FullExterior,             !- Solar Distribution
    ,                         !- Maximum Number of Warmup Days
    ;                         !- Minimum Number of Warmup Days

ShadowCalculation,
    PolygonClipping,          !- Shading Calculation Method
    Periodic,                 !- Shading Calculation Update Frequency Method
    1;                        !- Shading Calculation Update Frequency

HeatBalanceAlgorithm,
    ConductionTransferFunction,    !- Algorithm
    200,                      !- Surface Temperature Upper Limit
    0.1,                      !- Minimum Surface Convection Heat Transfer Coefficient Value
    10000000;                 !- Maximum Surface Convection Heat Transfer Coefficient Value

Timestep,
    12;                       !- Number of Timesteps per Hour

Site:Location,
    London,                   !- Name
    51.5,                     !- Latitude
    -0.5,                     !- Longitude
    0,                        !- Time Zone
    25;                       !- Elevation

SizingPeriod:WeatherFileDays,
    AnnualSizingPeriod,       !- Name
    1,                        !- Begin Month
    1,                        !- Begin Day of Month
    12,                       !- End Month
    31,                       !- End Day of Month
    Monday,                   !- Day of Week for Start Day
    No,                       !- Use Weather File Daylight Saving Period
    No;                       !- Use Weather File Rain and Snow Indicators

RunPeriod,
    RunPeriod1,               !- Name
    1,                        !- Begin Month
    1,                        !- Begin Day of Month
    ,                         !- Begin Year
    12,                       !- End Month
    31,                       !- End Day of Month
    ,                         !- End Year
    Sunday,                   !- Day of Week for Start Day
    No,                       !- Use Weather File Holidays and Special Days
    No,                       !- Use Weather File Daylight Saving Period
    No,                       !- Apply Weekend Holiday Rule
    Yes,                      !- Use Weather File Rain Indicators
    Yes;                      !- Use Weather File Snow Indicators

ScheduleTypeLimits,
    Any Number;               !- Name

SCHEDULETYPELIMITS,
    EU_Step8_AnyNumber_Wm2,    !- Name
    ,                         !- Lower Limit Value
    ,                         !- Upper Limit Value
    Continuous,               !- Numeric Type
    Dimensionless;            !- Unit Type

SCHEDULE:CONSTANT,
    EU_AlwaysOn,              !- Name
    ,                         !- Schedule Type Limits Name
    1;                        !- Hourly Value

SCHEDULE:CONSTANT,
    EU_CoolingOff,            !- Name
    ,                         !- Schedule Type Limits Name
    0;                        !- Hourly Value

SCHEDULE:FILE,
    EU_Step8_GainSchedule_f7381f3c0d15f8db_F0_dwelling_0_f000,    !- Name
    EU_Step8_AnyNumber_Wm2,    !- Schedule Type Limits Name
    ../../schedules/f7381f3c0d15f8db/f7381f3c0d15f8db_F0_dwelling_0_f000_gain.csv,    !- File Name
    1,                        !- Column Number
    0,                        !- Rows to Skip at Top
    8760,                     !- Number of Hours of Data
    Comma,                    !- Column Separator
    No,                       !- Interpolate to Timestep
    60,                       !- Minutes per Item
    Yes;                      !- Adjust Schedule for Daylight Savings

MATERIAL,
    EU_InternalMass_Material,    !- Name
    MediumRough,              !- Roughness
    0.1,                      !- Thickness
    1,                        !- Conductivity
    1800,                     !- Density
    900,                      !- Specific Heat
    0.9,                      !- Thermal Absorptance
    0.7,                      !- Solar Absorptance
    0.7;                      !- Visible Absorptance

MATERIAL:NOMASS,
    EU_wall_NoMass,           !- Name
    MediumRough,              !- Roughness
    0.5555555555555555,       !- Thermal Resistance
    0.9,                      !- Thermal Absorptance
    0.7,                      !- Solar Absorptance
    0.7;                      !- Visible Absorptance

MATERIAL:NOMASS,
    EU_roof_NoMass,           !- Name
    MediumRough,              !- Roughness
    0.5102040816326531,       !- Thermal Resistance
    0.9,                      !- Thermal Absorptance
    0.7,                      !- Solar Absorptance
    0.7;                      !- Visible Absorptance

MATERIAL:NOMASS,
    EU_floor_NoMass,          !- Name
    MediumRough,              !- Roughness
    1.6891891891891893,       !- Thermal Resistance
    0.9,                      !- Thermal Absorptance
    0.7,                      !- Solar Absorptance
    0.7;                      !- Visible Absorptance

CONSTRUCTION,
    EU_wall_Construction,     !- Name
    EU_wall_NoMass;           !- Outside Layer

CONSTRUCTION,
    EU_roof_Construction,     !- Name
    EU_roof_NoMass;           !- Outside Layer

CONSTRUCTION,
    EU_floor_Construction,    !- Name
    EU_floor_NoMass;          !- Outside Layer

CONSTRUCTION,
    EU_InternalMass_Construction,    !- Name
    EU_InternalMass_Material;    !- Outside Layer

GlobalGeometryRules,
    UpperLeftCorner,          !- Starting Vertex Position
    CounterClockWise,         !- Vertex Entry Direction
    World;                    !- Coordinate System

ZONE,
    f7381f3c0d15f8db_F0_dwelling_0,    !- Name
    0,                        !- Direction of Relative North
    0,                        !- X Origin
    0,                        !- Y Origin
    0,                        !- Z Origin
    1,                        !- Type
    1,                        !- Multiplier
    autocalculate,            !- Ceiling Height
    212.49462890625,          !- Volume
    autocalculate,            !- Floor Area
    ,                         !- Zone Inside Convection Algorithm
    ,                         !- Zone Outside Convection Algorithm
    Yes;                      !- Part of Total Floor Area

BUILDINGSURFACE:DETAILED,
    Block f7381f3c0d15f8db_0 Storey 0 Wall 0001,    !- Name
    wall,                     !- Surface Type
    EU_wall_Construction,     !- Construction Name
    f7381f3c0d15f8db_F0_dwelling_0,    !- Zone Name
    ,                         !- Space Name
    outdoors,                 !- Outside Boundary Condition
    ,                         !- Outside Boundary Condition Object
    SunExposed,               !- Sun Exposure
    WindExposed,              !- Wind Exposure
    autocalculate,            !- View Factor to Ground
    autocalculate,            !- Number of Vertices
    705411.761,               !- Vertex 1 Xcoordinate
    5711289.379,              !- Vertex 1 Ycoordinate
    6,                        !- Vertex 1 Zcoordinate
    705411.761,               !- Vertex 2 Xcoordinate
    5711289.379,              !- Vertex 2 Ycoordinate
    0,                        !- Vertex 2 Zcoordinate
    705416.338,               !- Vertex 3 Xcoordinate
    5711289.765,              !- Vertex 3 Ycoordinate
    0,                        !- Vertex 3 Zcoordinate
    705416.338,               !- Vertex 4 Xcoordinate
    5711289.765,              !- Vertex 4 Ycoordinate
    6;                        !- Vertex 4 Zcoordinate

BUILDINGSURFACE:DETAILED,
    Block f7381f3c0d15f8db_0 Storey 0 Wall 0002,    !- Name
    wall,                     !- Surface Type
    EU_wall_Construction,     !- Construction Name
    f7381f3c0d15f8db_F0_dwelling_0,    !- Zone Name
    ,                         !- Space Name
    Adiabatic,                !- Outside Boundary Condition
    ,                         !- Outside Boundary Condition Object
    NoSun,                    !- Sun Exposure
    NoWind,                   !- Wind Exposure
    autocalculate,            !- View Factor to Ground
    autocalculate,            !- Number of Vertices
    705416.338,               !- Vertex 1 Xcoordinate
    5711289.765,              !- Vertex 1 Ycoordinate
    6,                        !- Vertex 1 Zcoordinate
    705416.338,               !- Vertex 2 Xcoordinate
    5711289.765,              !- Vertex 2 Ycoordinate
    0,                        !- Vertex 2 Zcoordinate
    705416.913,               !- Vertex 3 Xcoordinate
    5711282.082,              !- Vertex 3 Ycoordinate
    0,                        !- Vertex 3 Zcoordinate
    705416.913,               !- Vertex 4 Xcoordinate
    5711282.082,              !- Vertex 4 Ycoordinate
    6;                        !- Vertex 4 Zcoordinate

BUILDINGSURFACE:DETAILED,
    Block f7381f3c0d15f8db_0 Storey 0 Wall 0003,    !- Name
    wall,                     !- Surface Type
    EU_wall_Construction,     !- Construction Name
    f7381f3c0d15f8db_F0_dwelling_0,    !- Zone Name
    ,                         !- Space Name
    outdoors,                 !- Outside Boundary Condition
    ,                         !- Outside Boundary Condition Object
    SunExposed,               !- Sun Exposure
    WindExposed,              !- Wind Exposure
    autocalculate,            !- View Factor to Ground
    autocalculate,            !- Number of Vertices
    705416.913,               !- Vertex 1 Xcoordinate
    5711282.082,              !- Vertex 1 Ycoordinate
    6,                        !- Vertex 1 Zcoordinate
    705416.913,               !- Vertex 2 Xcoordinate
    5711282.082,              !- Vertex 2 Ycoordinate
    0,                        !- Vertex 2 Zcoordinate
    705412.321,               !- Vertex 3 Xcoordinate
    5711281.706,              !- Vertex 3 Ycoordinate
    0,                        !- Vertex 3 Zcoordinate
    705412.321,               !- Vertex 4 Xcoordinate
    5711281.706,              !- Vertex 4 Ycoordinate
    6;                        !- Vertex 4 Zcoordinate

BUILDINGSURFACE:DETAILED,
    Block f7381f3c0d15f8db_0 Storey 0 Wall 0004,    !- Name
    wall,                     !- Surface Type
    EU_wall_Construction,     !- Construction Name
    f7381f3c0d15f8db_F0_dwelling_0,    !- Zone Name
    ,                         !- Space Name
    Adiabatic,                !- Outside Boundary Condition
    ,                         !- Outside Boundary Condition Object
    NoSun,                    !- Sun Exposure
    NoWind,                   !- Wind Exposure
    autocalculate,            !- View Factor to Ground
    autocalculate,            !- Number of Vertices
    705412.321,               !- Vertex 1 Xcoordinate
    5711281.706,              !- Vertex 1 Ycoordinate
    6,                        !- Vertex 1 Zcoordinate
    705412.321,               !- Vertex 2 Xcoordinate
    5711281.706,              !- Vertex 2 Ycoordinate
    0,                        !- Vertex 2 Zcoordinate
    705411.761,               !- Vertex 3 Xcoordinate
    5711289.379,              !- Vertex 3 Ycoordinate
    0,                        !- Vertex 3 Zcoordinate
    705411.761,               !- Vertex 4 Xcoordinate
    5711289.379,              !- Vertex 4 Ycoordinate
    6;                        !- Vertex 4 Zcoordinate

BUILDINGSURFACE:DETAILED,
    Block f7381f3c0d15f8db_0 Storey 0 Floor 0001,    !- Name
    floor,                    !- Surface Type
    EU_floor_Construction,    !- Construction Name
    f7381f3c0d15f8db_F0_dwelling_0,    !- Zone Name
    ,                         !- Space Name
    ground,                   !- Outside Boundary Condition
    ,                         !- Outside Boundary Condition Object
    NoSun,                    !- Sun Exposure
    NoWind,                   !- Wind Exposure
    autocalculate,            !- View Factor to Ground
    autocalculate,            !- Number of Vertices
    705416.913,               !- Vertex 1 Xcoordinate
    5711282.082,              !- Vertex 1 Ycoordinate
    0,                        !- Vertex 1 Zcoordinate
    705416.338,               !- Vertex 2 Xcoordinate
    5711289.765,              !- Vertex 2 Ycoordinate
    0,                        !- Vertex 2 Zcoordinate
    705411.761,               !- Vertex 3 Xcoordinate
    5711289.379,              !- Vertex 3 Ycoordinate
    0,                        !- Vertex 3 Zcoordinate
    705412.321,               !- Vertex 4 Xcoordinate
    5711281.706,              !- Vertex 4 Ycoordinate
    0;                        !- Vertex 4 Zcoordinate

BUILDINGSURFACE:DETAILED,
    Block f7381f3c0d15f8db_0 Storey 0 Roof 0001,    !- Name
    roof,                     !- Surface Type
    EU_roof_Construction,     !- Construction Name
    f7381f3c0d15f8db_F0_dwelling_0,    !- Zone Name
    ,                         !- Space Name
    outdoors,                 !- Outside Boundary Condition
    ,                         !- Outside Boundary Condition Object
    NoSun,                    !- Sun Exposure
    WindExposed,              !- Wind Exposure
    autocalculate,            !- View Factor to Ground
    autocalculate,            !- Number of Vertices
    705416.338,               !- Vertex 1 Xcoordinate
    5711289.765,              !- Vertex 1 Ycoordinate
    6,                        !- Vertex 1 Zcoordinate
    705416.913,               !- Vertex 2 Xcoordinate
    5711282.082,              !- Vertex 2 Ycoordinate
    6,                        !- Vertex 2 Zcoordinate
    705412.321,               !- Vertex 3 Xcoordinate
    5711281.706,              !- Vertex 3 Ycoordinate
    6,                        !- Vertex 3 Zcoordinate
    705411.761,               !- Vertex 4 Xcoordinate
    5711289.379,              !- Vertex 4 Ycoordinate
    6;                        !- Vertex 4 Zcoordinate

INTERNALMASS,
    f7381f3c0d15f8db_F0_dwelling_0_EU_InternalMass,    !- Name
    EU_InternalMass_Construction,    !- Construction Name
    f7381f3c0d15f8db_F0_dwelling_0,    !- Zone or ZoneList Name
    ,                         !- Space or SpaceList Name
    35.41600850141037;        !- Surface Area

SHADING:SITE:DETAILED,
    shade_way/1054901284_1,    !- Name
    ,                         !- Transmittance Schedule Name
    autocalculate,            !- Number of Vertices
    705416.8802762874,        !- Vertex 1 Xcoordinate
    5711260.2650739215,       !- Vertex 1 Ycoordinate
    6,                        !- Vertex 1 Zcoordinate
    705416.8802762874,        !- Vertex 2 Xcoordinate
    5711260.2650739215,       !- Vertex 2 Ycoordinate
    0,                        !- Vertex 2 Zcoordinate
    705408.7943082175,        !- Vertex 3 Xcoordinate
    5711259.669721364,        !- Vertex 3 Ycoordinate
    0,                        !- Vertex 3 Zcoordinate
    705408.7943082175,        !- Vertex 4 Xcoordinate
    5711259.669721364,        !- Vertex 4 Ycoordinate
    6;                        !- Vertex 4 Zcoordinate

SHADING:SITE:DETAILED,
    shade_way/1054901284_2,    !- Name
    ,                         !- Transmittance Schedule Name
    autocalculate,            !- Number of Vertices
    705408.7943082175,        !- Vertex 1 Xcoordinate
    5711259.669721364,        !- Vertex 1 Ycoordinate
    6,                        !- Vertex 1 Zcoordinate
    705408.7943082175,        !- Vertex 2 Xcoordinate
    5711259.669721364,        !- Vertex 2 Ycoordinate
    0,                        !- Vertex 2 Zcoordinate
    705408.4346129579,        !- Vertex 3 Xcoordinate
    5711264.555035716,        !- Vertex 3 Ycoordinate
    0,                        !- Vertex 3 Zcoordinate
    705408.4346129579,        !- Vertex 4 Xcoordinate
    5711264.555035716,        !- Vertex 4 Ycoordinate
    6;                        !- Vertex 4 Zcoordinate

SHADING:SITE:DETAILED,
    shade_way/1054901284_3,    !- Name
    ,                         !- Transmittance Schedule Name
    autocalculate,            !- Number of Vertices
    705408.4346129579,        !- Vertex 1 Xcoordinate
    5711264.555035716,        !- Vertex 1 Ycoordinate
    6,                        !- Vertex 1 Zcoordinate
    705408.4346129579,        !- Vertex 2 Xcoordinate
    5711264.555035716,        !- Vertex 2 Ycoordinate
    0,                        !- Vertex 2 Zcoordinate
    705416.5210670903,        !- Vertex 3 Xcoordinate
    5711265.150201483,        !- Vertex 3 Ycoordinate
    0,                        !- Vertex 3 Zcoordinate
    705416.5210670903,        !- Vertex 4 Xcoordinate
    5711265.150201483,        !- Vertex 4 Ycoordinate
    6;                        !- Vertex 4 Zcoordinate

SHADING:SITE:DETAILED,
    shade_way/1054901284_4,    !- Name
    ,                         !- Transmittance Schedule Name
    autocalculate,            !- Number of Vertices
    705416.5210670903,        !- Vertex 1 Xcoordinate
    5711265.150201483,        !- Vertex 1 Ycoordinate
    6,                        !- Vertex 1 Zcoordinate
    705416.5210670903,        !- Vertex 2 Xcoordinate
    5711265.150201483,        !- Vertex 2 Ycoordinate
    0,                        !- Vertex 2 Zcoordinate
    705416.8802762874,        !- Vertex 3 Xcoordinate
    5711260.2650739215,       !- Vertex 3 Ycoordinate
    0,                        !- Vertex 3 Zcoordinate
    705416.8802762874,        !- Vertex 4 Xcoordinate
    5711260.2650739215,       !- Vertex 4 Ycoordinate
    6;                        !- Vertex 4 Zcoordinate

SHADING:SITE:DETAILED,
    shade_way/1055004677_1,    !- Name
    ,                         !- Transmittance Schedule Name
    autocalculate,            !- Number of Vertices
    705425.1335181366,        !- Vertex 1 Xcoordinate
    5711302.304157049,        !- Vertex 1 Ycoordinate
    6,                        !- Vertex 1 Zcoordinate
    705425.1335181366,        !- Vertex 2 Xcoordinate
    5711302.304157049,        !- Vertex 2 Ycoordinate
    0,                        !- Vertex 2 Zcoordinate
    705424.1748811374,        !- Vertex 3 Xcoordinate
    5711314.827027508,        !- Vertex 3 Ycoordinate
    0,                        !- Vertex 3 Zcoordinate
    705424.1748811374,        !- Vertex 4 Xcoordinate
    5711314.827027508,        !- Vertex 4 Ycoordinate
    6;                        !- Vertex 4 Zcoordinate

SHADING:SITE:DETAILED,
    shade_way/1055004677_2,    !- Name
    ,                         !- Transmittance Schedule Name
    autocalculate,            !- Number of Vertices
    705424.1748811374,        !- Vertex 1 Xcoordinate
    5711314.827027508,        !- Vertex 1 Ycoordinate
    6,                        !- Vertex 1 Zcoordinate
    705424.1748811374,        !- Vertex 2 Xcoordinate
    5711314.827027508,        !- Vertex 2 Ycoordinate
    0,                        !- Vertex 2 Zcoordinate
    705429.087874971,         !- Vertex 3 Xcoordinate
    5711315.203410245,        !- Vertex 3 Ycoordinate
    0,                        !- Vertex 3 Zcoordinate
    705429.087874971,         !- Vertex 4 Xcoordinate
    5711315.203410245,        !- Vertex 4 Ycoordinate
    6;                        !- Vertex 4 Zcoordinate

SHADING:SITE:DETAILED,
    shade_way/1055004677_3,    !- Name
    ,                         !- Transmittance Schedule Name
    autocalculate,            !- Number of Vertices
    705429.087874971,         !- Vertex 1 Xcoordinate
    5711315.203410245,        !- Vertex 1 Ycoordinate
    6,                        !- Vertex 1 Zcoordinate
    705429.087874971,         !- Vertex 2 Xcoordinate
    5711315.203410245,        !- Vertex 2 Ycoordinate
    0,                        !- Vertex 2 Zcoordinate
    705430.0465119695,        !- Vertex 3 Xcoordinate
    5711302.680539784,        !- Vertex 3 Ycoordinate
    0,                        !- Vertex 3 Zcoordinate
    705430.0465119695,        !- Vertex 4 Xcoordinate
    5711302.680539784,        !- Vertex 4 Ycoordinate
    6;                        !- Vertex 4 Zcoordinate

SHADING:SITE:DETAILED,
    shade_way/1055004677_4,    !- Name
    ,                         !- Transmittance Schedule Name
    autocalculate,            !- Number of Vertices
    705430.0465119695,        !- Vertex 1 Xcoordinate
    5711302.680539784,        !- Vertex 1 Ycoordinate
    6,                        !- Vertex 1 Zcoordinate
    705430.0465119695,        !- Vertex 2 Xcoordinate
    5711302.680539784,        !- Vertex 2 Ycoordinate
    0,                        !- Vertex 2 Zcoordinate
    705425.1335181366,        !- Vertex 3 Xcoordinate
    5711302.304157049,        !- Vertex 3 Ycoordinate
    0,                        !- Vertex 3 Zcoordinate
    705425.1335181366,        !- Vertex 4 Xcoordinate
    5711302.304157049,        !- Vertex 4 Ycoordinate
    6;                        !- Vertex 4 Zcoordinate

SHADING:SITE:DETAILED,
    shade_way/1055004676_1,    !- Name
    ,                         !- Transmittance Schedule Name
    autocalculate,            !- Number of Vertices
    705433.8705357384,        !- Vertex 1 Xcoordinate
    5711315.583325146,        !- Vertex 1 Ycoordinate
    6,                        !- Vertex 1 Zcoordinate
    705433.8705357384,        !- Vertex 2 Xcoordinate
    5711315.583325146,        !- Vertex 2 Ycoordinate
    0,                        !- Vertex 2 Zcoordinate
    705434.8857376649,        !- Vertex 3 Xcoordinate
    5711303.066493143,        !- Vertex 3 Ycoordinate
    0,                        !- Vertex 3 Zcoordinate
    705434.8857376649,        !- Vertex 4 Xcoordinate
    5711303.066493143,        !- Vertex 4 Ycoordinate
    6;                        !- Vertex 4 Zcoordinate

SHADING:SITE:DETAILED,
    shade_way/1055004676_2,    !- Name
    ,                         !- Transmittance Schedule Name
    autocalculate,            !- Number of Vertices
    705434.8857376649,        !- Vertex 1 Xcoordinate
    5711303.066493143,        !- Vertex 1 Ycoordinate
    6,                        !- Vertex 1 Zcoordinate
    705434.8857376649,        !- Vertex 2 Xcoordinate
    5711303.066493143,        !- Vertex 2 Ycoordinate
    0,                        !- Vertex 2 Zcoordinate
    705430.0469573532,        !- Vertex 3 Xcoordinate
    5711302.673802759,        !- Vertex 3 Ycoordinate
    0,                        !- Vertex 3 Zcoordinate
    705430.0469573532,        !- Vertex 4 Xcoordinate
    5711302.673802759,        !- Vertex 4 Ycoordinate
    6;                        !- Vertex 4 Zcoordinate

SHADING:SITE:DETAILED,
    shade_way/1055004676_3,    !- Name
    ,                         !- Transmittance Schedule Name
    autocalculate,            !- Number of Vertices
    705430.0469573532,        !- Vertex 1 Xcoordinate
    5711302.673802759,        !- Vertex 1 Ycoordinate
    6,                        !- Vertex 1 Zcoordinate
    705430.0469573532,        !- Vertex 2 Xcoordinate
    5711302.673802759,        !- Vertex 2 Ycoordinate
    0,                        !- Vertex 2 Zcoordinate
    705429.0308437676,        !- Vertex 3 Xcoordinate
    5711315.190673008,        !- Vertex 3 Ycoordinate
    0,                        !- Vertex 3 Zcoordinate
    705429.0308437676,        !- Vertex 4 Xcoordinate
    5711315.190673008,        !- Vertex 4 Ycoordinate
    6;                        !- Vertex 4 Zcoordinate

SHADING:SITE:DETAILED,
    shade_way/1055004676_4,    !- Name
    ,                         !- Transmittance Schedule Name
    autocalculate,            !- Number of Vertices
    705429.0308437676,        !- Vertex 1 Xcoordinate
    5711315.190673008,        !- Vertex 1 Ycoordinate
    6,                        !- Vertex 1 Zcoordinate
    705429.0308437676,        !- Vertex 2 Xcoordinate
    5711315.190673008,        !- Vertex 2 Ycoordinate
    0,                        !- Vertex 2 Zcoordinate
    705433.8705357384,        !- Vertex 3 Xcoordinate
    5711315.583325146,        !- Vertex 3 Ycoordinate
    0,                        !- Vertex 3 Zcoordinate
    705433.8705357384,        !- Vertex 4 Xcoordinate
    5711315.583325146,        !- Vertex 4 Ycoordinate
    6;                        !- Vertex 4 Zcoordinate

SHADING:SITE:DETAILED,
    shade_way/1054901285_1,    !- Name
    ,                         !- Transmittance Schedule Name
    autocalculate,            !- Number of Vertices
    705408.0774251096,        !- Vertex 1 Xcoordinate
    5711269.406357574,        !- Vertex 1 Ycoordinate
    6,                        !- Vertex 1 Zcoordinate
    705408.0774251096,        !- Vertex 2 Xcoordinate
    5711269.406357574,        !- Vertex 2 Ycoordinate
    0,                        !- Vertex 2 Zcoordinate
    705416.171760745,         !- Vertex 3 Xcoordinate
    5711270.002597382,        !- Vertex 3 Ycoordinate
    0,                        !- Vertex 3 Zcoordinate
    705416.171760745,         !- Vertex 4 Xcoordinate
    5711270.002597382,        !- Vertex 4 Ycoordinate
    6;                        !- Vertex 4 Zcoordinate

SHADING:SITE:DETAILED,
    shade_way/1054901285_2,    !- Name
    ,                         !- Transmittance Schedule Name
    autocalculate,            !- Number of Vertices
    705416.171760745,         !- Vertex 1 Xcoordinate
    5711270.002597382,        !- Vertex 1 Ycoordinate
    6,                        !- Vertex 1 Zcoordinate
    705416.171760745,         !- Vertex 2 Xcoordinate
    5711270.002597382,        !- Vertex 2 Ycoordinate
    0,                        !- Vertex 2 Zcoordinate
    705416.531760411,         !- Vertex 3 Xcoordinate
    5711265.106803422,        !- Vertex 3 Ycoordinate
    0,                        !- Vertex 3 Zcoordinate
    705416.531760411,         !- Vertex 4 Xcoordinate
    5711265.106803422,        !- Vertex 4 Ycoordinate
    6;                        !- Vertex 4 Zcoordinate

SHADING:SITE:DETAILED,
    shade_way/1054901285_3,    !- Name
    ,                         !- Transmittance Schedule Name
    autocalculate,            !- Number of Vertices
    705416.531760411,         !- Vertex 1 Xcoordinate
    5711265.106803422,        !- Vertex 1 Ycoordinate
    6,                        !- Vertex 1 Zcoordinate
    705416.531760411,         !- Vertex 2 Xcoordinate
    5711265.106803422,        !- Vertex 2 Ycoordinate
    0,                        !- Vertex 2 Zcoordinate
    705408.4383149582,        !- Vertex 3 Xcoordinate
    5711264.511170653,        !- Vertex 3 Ycoordinate
    0,                        !- Vertex 3 Zcoordinate
    705408.4383149582,        !- Vertex 4 Xcoordinate
    5711264.511170653,        !- Vertex 4 Ycoordinate
    6;                        !- Vertex 4 Zcoordinate

SHADING:SITE:DETAILED,
    shade_way/1054901285_4,    !- Name
    ,                         !- Transmittance Schedule Name
    autocalculate,            !- Number of Vertices
    705408.4383149582,        !- Vertex 1 Xcoordinate
    5711264.511170653,        !- Vertex 1 Ycoordinate
    6,                        !- Vertex 1 Zcoordinate
    705408.4383149582,        !- Vertex 2 Xcoordinate
    5711264.511170653,        !- Vertex 2 Ycoordinate
    0,                        !- Vertex 2 Zcoordinate
    705408.0774251096,        !- Vertex 3 Xcoordinate
    5711269.406357574,        !- Vertex 3 Ycoordinate
    0,                        !- Vertex 3 Zcoordinate
    705408.0774251096,        !- Vertex 4 Xcoordinate
    5711269.406357574,        !- Vertex 4 Ycoordinate
    6;                        !- Vertex 4 Zcoordinate

SHADING:SITE:DETAILED,
    shade_way/394358285_1,    !- Name
    ,                         !- Transmittance Schedule Name
    autocalculate,            !- Number of Vertices
    705394.5943747516,        !- Vertex 1 Xcoordinate
    5711287.92941685,         !- Vertex 1 Ycoordinate
    6,                        !- Vertex 1 Zcoordinate
    705394.5943747516,        !- Vertex 2 Xcoordinate
    5711287.92941685,         !- Vertex 2 Ycoordinate
    0,                        !- Vertex 2 Zcoordinate
    705395.2219811304,        !- Vertex 3 Xcoordinate
    5711279.815267642,        !- Vertex 3 Ycoordinate
    0,                        !- Vertex 3 Zcoordinate
    705395.2219811304,        !- Vertex 4 Xcoordinate
    5711279.815267642,        !- Vertex 4 Ycoordinate
    6;                        !- Vertex 4 Zcoordinate

SHADING:SITE:DETAILED,
    shade_way/394358285_2,    !- Name
    ,                         !- Transmittance Schedule Name
    autocalculate,            !- Number of Vertices
    705395.2219811304,        !- Vertex 1 Xcoordinate
    5711279.815267642,        !- Vertex 1 Ycoordinate
    6,                        !- Vertex 1 Zcoordinate
    705395.2219811304,        !- Vertex 2 Xcoordinate
    5711279.815267642,        !- Vertex 2 Ycoordinate
    0,                        !- Vertex 2 Zcoordinate
    705390.5891099297,        !- Vertex 3 Xcoordinate
    5711279.456928223,        !- Vertex 3 Ycoordinate
    0,                        !- Vertex 3 Zcoordinate
    705390.5891099297,        !- Vertex 4 Xcoordinate
    5711279.456928223,        !- Vertex 4 Ycoordinate
    6;                        !- Vertex 4 Zcoordinate

SHADING:SITE:DETAILED,
    shade_way/394358285_3,    !- Name
    ,                         !- Transmittance Schedule Name
    autocalculate,            !- Number of Vertices
    705390.5891099297,        !- Vertex 1 Xcoordinate
    5711279.456928223,        !- Vertex 1 Ycoordinate
    6,                        !- Vertex 1 Zcoordinate
    705390.5891099297,        !- Vertex 2 Xcoordinate
    5711279.456928223,        !- Vertex 2 Ycoordinate
    0,                        !- Vertex 2 Zcoordinate
    705389.9615035509,        !- Vertex 3 Xcoordinate
    5711287.571077432,        !- Vertex 3 Ycoordinate
    0,                        !- Vertex 3 Zcoordinate
    705389.9615035509,        !- Vertex 4 Xcoordinate
    5711287.571077432,        !- Vertex 4 Ycoordinate
    6;                        !- Vertex 4 Zcoordinate

SHADING:SITE:DETAILED,
    shade_way/394358285_4,    !- Name
    ,                         !- Transmittance Schedule Name
    autocalculate,            !- Number of Vertices
    705389.9615035509,        !- Vertex 1 Xcoordinate
    5711287.571077432,        !- Vertex 1 Ycoordinate
    6,                        !- Vertex 1 Zcoordinate
    705389.9615035509,        !- Vertex 2 Xcoordinate
    5711287.571077432,        !- Vertex 2 Ycoordinate
    0,                        !- Vertex 2 Zcoordinate
    705394.5943747516,        !- Vertex 3 Xcoordinate
    5711287.92941685,         !- Vertex 3 Ycoordinate
    0,                        !- Vertex 3 Zcoordinate
    705394.5943747516,        !- Vertex 4 Xcoordinate
    5711287.92941685,         !- Vertex 4 Ycoordinate
    6;                        !- Vertex 4 Zcoordinate

SHADING:SITE:DETAILED,
    shade_way/397131449_1,    !- Name
    ,                         !- Transmittance Schedule Name
    autocalculate,            !- Number of Vertices
    705406.7239931283,        !- Vertex 1 Xcoordinate
    5711289.008315624,        !- Vertex 1 Ycoordinate
    6,                        !- Vertex 1 Zcoordinate
    705406.7239931283,        !- Vertex 2 Xcoordinate
    5711289.008315624,        !- Vertex 2 Ycoordinate
    0,                        !- Vertex 2 Zcoordinate
    705411.7603390702,        !- Vertex 3 Xcoordinate
    5711289.379245288,        !- Vertex 3 Ycoordinate
    0,                        !- Vertex 3 Zcoordinate
    705411.7603390702,        !- Vertex 4 Xcoordinate
    5711289.379245288,        !- Vertex 4 Ycoordinate
    6;                        !- Vertex 4 Zcoordinate

SHADING:SITE:DETAILED,
    shade_way/397131449_2,    !- Name
    ,                         !- Transmittance Schedule Name
    autocalculate,            !- Number of Vertices
    705411.7603390702,        !- Vertex 1 Xcoordinate
    5711289.379245288,        !- Vertex 1 Ycoordinate
    6,                        !- Vertex 1 Zcoordinate
    705411.7603390702,        !- Vertex 2 Xcoordinate
    5711289.379245288,        !- Vertex 2 Ycoordinate
    0,                        !- Vertex 2 Zcoordinate
    705412.3250287194,        !- Vertex 3 Xcoordinate
    5711281.706749035,        !- Vertex 3 Ycoordinate
    0,                        !- Vertex 3 Zcoordinate
    705412.3250287194,        !- Vertex 4 Xcoordinate
    5711281.706749035,        !- Vertex 4 Ycoordinate
    6;                        !- Vertex 4 Zcoordinate

SHADING:SITE:DETAILED,
    shade_way/397131449_3,    !- Name
    ,                         !- Transmittance Schedule Name
    autocalculate,            !- Number of Vertices
    705412.3250287194,        !- Vertex 1 Xcoordinate
    5711281.706749035,        !- Vertex 1 Ycoordinate
    6,                        !- Vertex 1 Zcoordinate
    705412.3250287194,        !- Vertex 2 Xcoordinate
    5711281.706749035,        !- Vertex 2 Ycoordinate
    0,                        !- Vertex 2 Zcoordinate
    705407.2886827776,        !- Vertex 3 Xcoordinate
    5711281.335819372,        !- Vertex 3 Ycoordinate
    0,                        !- Vertex 3 Zcoordinate
    705407.2886827776,        !- Vertex 4 Xcoordinate
    5711281.335819372,        !- Vertex 4 Ycoordinate
    6;                        !- Vertex 4 Zcoordinate

SHADING:SITE:DETAILED,
    shade_way/397131449_4,    !- Name
    ,                         !- Transmittance Schedule Name
    autocalculate,            !- Number of Vertices
    705407.2886827776,        !- Vertex 1 Xcoordinate
    5711281.335819372,        !- Vertex 1 Ycoordinate
    6,                        !- Vertex 1 Zcoordinate
    705407.2886827776,        !- Vertex 2 Xcoordinate
    5711281.335819372,        !- Vertex 2 Ycoordinate
    0,                        !- Vertex 2 Zcoordinate
    705406.7239931283,        !- Vertex 3 Xcoordinate
    5711289.008315624,        !- Vertex 3 Ycoordinate
    0,                        !- Vertex 3 Zcoordinate
    705406.7239931283,        !- Vertex 4 Xcoordinate
    5711289.008315624,        !- Vertex 4 Ycoordinate
    6;                        !- Vertex 4 Zcoordinate

SHADING:SITE:DETAILED,
    shade_way/394358287_1,    !- Name
    ,                         !- Transmittance Schedule Name
    autocalculate,            !- Number of Vertices
    705416.9125755744,        !- Vertex 1 Xcoordinate
    5711282.082001478,        !- Vertex 1 Ycoordinate
    6,                        !- Vertex 1 Zcoordinate
    705416.9125755744,        !- Vertex 2 Xcoordinate
    5711282.082001478,        !- Vertex 2 Ycoordinate
    0,                        !- Vertex 2 Zcoordinate
    705416.3375015543,        !- Vertex 3 Xcoordinate
    5711289.7649989445,       !- Vertex 3 Ycoordinate
    0,                        !- Vertex 3 Zcoordinate
    705416.3375015543,        !- Vertex 4 Xcoordinate
    5711289.7649989445,       !- Vertex 4 Ycoordinate
    6;                        !- Vertex 4 Zcoordinate

SHADING:SITE:DETAILED,
    shade_way/394358287_2,    !- Name
    ,                         !- Transmittance Schedule Name
    autocalculate,            !- Number of Vertices
    705416.3375015543,        !- Vertex 1 Xcoordinate
    5711289.7649989445,       !- Vertex 1 Ycoordinate
    6,                        !- Vertex 1 Zcoordinate
    705416.3375015543,        !- Vertex 2 Xcoordinate
    5711289.7649989445,       !- Vertex 2 Ycoordinate
    0,                        !- Vertex 2 Zcoordinate
    705421.2910763079,        !- Vertex 3 Xcoordinate
    5711290.135456913,        !- Vertex 3 Ycoordinate
    0,                        !- Vertex 3 Zcoordinate
    705421.2910763079,        !- Vertex 4 Xcoordinate
    5711290.135456913,        !- Vertex 4 Ycoordinate
    6;                        !- Vertex 4 Zcoordinate

SHADING:SITE:DETAILED,
    shade_way/394358287_3,    !- Name
    ,                         !- Transmittance Schedule Name
    autocalculate,            !- Number of Vertices
    705421.2910763079,        !- Vertex 1 Xcoordinate
    5711290.135456913,        !- Vertex 1 Ycoordinate
    6,                        !- Vertex 1 Zcoordinate
    705421.2910763079,        !- Vertex 2 Xcoordinate
    5711290.135456913,        !- Vertex 2 Ycoordinate
    0,                        !- Vertex 2 Zcoordinate
    705421.8661503281,        !- Vertex 3 Xcoordinate
    5711282.452459447,        !- Vertex 3 Ycoordinate
    0,                        !- Vertex 3 Zcoordinate
    705421.8661503281,        !- Vertex 4 Xcoordinate
    5711282.452459447,        !- Vertex 4 Ycoordinate
    6;                        !- Vertex 4 Zcoordinate

SHADING:SITE:DETAILED,
    shade_way/394358287_4,    !- Name
    ,                         !- Transmittance Schedule Name
    autocalculate,            !- Number of Vertices
    705421.8661503281,        !- Vertex 1 Xcoordinate
    5711282.452459447,        !- Vertex 1 Ycoordinate
    6,                        !- Vertex 1 Zcoordinate
    705421.8661503281,        !- Vertex 2 Xcoordinate
    5711282.452459447,        !- Vertex 2 Ycoordinate
    0,                        !- Vertex 2 Zcoordinate
    705416.9125755744,        !- Vertex 3 Xcoordinate
    5711282.082001478,        !- Vertex 3 Ycoordinate
    0,                        !- Vertex 3 Zcoordinate
    705416.9125755744,        !- Vertex 4 Xcoordinate
    5711282.082001478,        !- Vertex 4 Ycoordinate
    6;                        !- Vertex 4 Zcoordinate

SHADING:SITE:DETAILED,
    shade_way/394358288_1,    !- Name
    ,                         !- Transmittance Schedule Name
    autocalculate,            !- Number of Vertices
    705421.2364598357,        !- Vertex 1 Xcoordinate
    5711290.096967303,        !- Vertex 1 Ycoordinate
    6,                        !- Vertex 1 Zcoordinate
    705421.2364598357,        !- Vertex 2 Xcoordinate
    5711290.096967303,        !- Vertex 2 Ycoordinate
    0,                        !- Vertex 2 Zcoordinate
    705426.1063199708,        !- Vertex 3 Xcoordinate
    5711290.46117107,         !- Vertex 3 Ycoordinate
    0,                        !- Vertex 3 Zcoordinate
    705426.1063199708,        !- Vertex 4 Xcoordinate
    5711290.46117107,         !- Vertex 4 Ycoordinate
    6;                        !- Vertex 4 Zcoordinate

SHADING:SITE:DETAILED,
    shade_way/394358288_2,    !- Name
    ,                         !- Transmittance Schedule Name
    autocalculate,            !- Number of Vertices
    705426.1063199708,        !- Vertex 1 Xcoordinate
    5711290.46117107,         !- Vertex 1 Ycoordinate
    6,                        !- Vertex 1 Zcoordinate
    705426.1063199708,        !- Vertex 2 Xcoordinate
    5711290.46117107,         !- Vertex 2 Ycoordinate
    0,                        !- Vertex 2 Zcoordinate
    705426.6765160816,        !- Vertex 3 Xcoordinate
    5711282.831874422,        !- Vertex 3 Ycoordinate
    0,                        !- Vertex 3 Zcoordinate
    705426.6765160816,        !- Vertex 4 Xcoordinate
    5711282.831874422,        !- Vertex 4 Ycoordinate
    6;                        !- Vertex 4 Zcoordinate

SHADING:SITE:DETAILED,
    shade_way/394358288_3,    !- Name
    ,                         !- Transmittance Schedule Name
    autocalculate,            !- Number of Vertices
    705426.6765160816,        !- Vertex 1 Xcoordinate
    5711282.831874422,        !- Vertex 1 Ycoordinate
    6,                        !- Vertex 1 Zcoordinate
    705426.6765160816,        !- Vertex 2 Xcoordinate
    5711282.831874422,        !- Vertex 2 Ycoordinate
    0,                        !- Vertex 2 Zcoordinate
    705421.8066559464,        !- Vertex 3 Xcoordinate
    5711282.467670654,        !- Vertex 3 Ycoordinate
    0,                        !- Vertex 3 Zcoordinate
    705421.8066559464,        !- Vertex 4 Xcoordinate
    5711282.467670654,        !- Vertex 4 Ycoordinate
    6;                        !- Vertex 4 Zcoordinate

SHADING:SITE:DETAILED,
    shade_way/394358288_4,    !- Name
    ,                         !- Transmittance Schedule Name
    autocalculate,            !- Number of Vertices
    705421.8066559464,        !- Vertex 1 Xcoordinate
    5711282.467670654,        !- Vertex 1 Ycoordinate
    6,                        !- Vertex 1 Zcoordinate
    705421.8066559464,        !- Vertex 2 Xcoordinate
    5711282.467670654,        !- Vertex 2 Ycoordinate
    0,                        !- Vertex 2 Zcoordinate
    705421.2364598357,        !- Vertex 3 Xcoordinate
    5711290.096967303,        !- Vertex 3 Ycoordinate
    0,                        !- Vertex 3 Zcoordinate
    705421.2364598357,        !- Vertex 4 Xcoordinate
    5711290.096967303,        !- Vertex 4 Ycoordinate
    6;                        !- Vertex 4 Zcoordinate

SHADING:SITE:DETAILED,
    shade_way/394358289_1,    !- Name
    ,                         !- Transmittance Schedule Name
    autocalculate,            !- Number of Vertices
    705426.6643842013,        !- Vertex 1 Xcoordinate
    5711282.855438767,        !- Vertex 1 Ycoordinate
    6,                        !- Vertex 1 Zcoordinate
    705426.6643842013,        !- Vertex 2 Xcoordinate
    5711282.855438767,        !- Vertex 2 Ycoordinate
    0,                        !- Vertex 2 Zcoordinate
    705426.1063199708,        !- Vertex 3 Xcoordinate
    5711290.46117107,         !- Vertex 3 Ycoordinate
    0,                        !- Vertex 3 Zcoordinate
    705426.1063199708,        !- Vertex 4 Xcoordinate
    5711290.46117107,         !- Vertex 4 Ycoordinate
    6;                        !- Vertex 4 Zcoordinate

SHADING:SITE:DETAILED,
    shade_way/394358289_2,    !- Name
    ,                         !- Transmittance Schedule Name
    autocalculate,            !- Number of Vertices
    705426.1063199708,        !- Vertex 1 Xcoordinate
    5711290.46117107,         !- Vertex 1 Ycoordinate
    6,                        !- Vertex 1 Zcoordinate
    705426.1063199708,        !- Vertex 2 Xcoordinate
    5711290.46117107,         !- Vertex 2 Ycoordinate
    0,                        !- Vertex 2 Zcoordinate
    705430.929471145,         !- Vertex 3 Xcoordinate
    5711290.815049496,        !- Vertex 3 Ycoordinate
    0,                        !- Vertex 3 Zcoordinate
    705430.929471145,         !- Vertex 4 Xcoordinate
    5711290.815049496,        !- Vertex 4 Ycoordinate
    6;                        !- Vertex 4 Zcoordinate

SHADING:SITE:DETAILED,
    shade_way/394358289_3,    !- Name
    ,                         !- Transmittance Schedule Name
    autocalculate,            !- Number of Vertices
    705430.929471145,         !- Vertex 1 Xcoordinate
    5711290.815049496,        !- Vertex 1 Ycoordinate
    6,                        !- Vertex 1 Zcoordinate
    705430.929471145,         !- Vertex 2 Xcoordinate
    5711290.815049496,        !- Vertex 2 Ycoordinate
    0,                        !- Vertex 2 Zcoordinate
    705431.4875353753,        !- Vertex 3 Xcoordinate
    5711283.209317193,        !- Vertex 3 Ycoordinate
    0,                        !- Vertex 3 Zcoordinate
    705431.4875353753,        !- Vertex 4 Xcoordinate
    5711283.209317193,        !- Vertex 4 Ycoordinate
    6;                        !- Vertex 4 Zcoordinate

SHADING:SITE:DETAILED,
    shade_way/394358289_4,    !- Name
    ,                         !- Transmittance Schedule Name
    autocalculate,            !- Number of Vertices
    705431.4875353753,        !- Vertex 1 Xcoordinate
    5711283.209317193,        !- Vertex 1 Ycoordinate
    6,                        !- Vertex 1 Zcoordinate
    705431.4875353753,        !- Vertex 2 Xcoordinate
    5711283.209317193,        !- Vertex 2 Ycoordinate
    0,                        !- Vertex 2 Zcoordinate
    705426.6643842013,        !- Vertex 3 Xcoordinate
    5711282.855438767,        !- Vertex 3 Ycoordinate
    0,                        !- Vertex 3 Zcoordinate
    705426.6643842013,        !- Vertex 4 Xcoordinate
    5711282.855438767,        !- Vertex 4 Ycoordinate
    6;                        !- Vertex 4 Zcoordinate

SHADING:SITE:DETAILED,
    shade_way/394358290_1,    !- Name
    ,                         !- Transmittance Schedule Name
    autocalculate,            !- Number of Vertices
    705431.4843427727,        !- Vertex 1 Xcoordinate
    5711283.251035643,        !- Vertex 1 Ycoordinate
    6,                        !- Vertex 1 Zcoordinate
    705431.4843427727,        !- Vertex 2 Xcoordinate
    5711283.251035643,        !- Vertex 2 Ycoordinate
    0,                        !- Vertex 2 Zcoordinate
    705430.9081615414,        !- Vertex 3 Xcoordinate
    5711290.789216929,        !- Vertex 3 Ycoordinate
    0,                        !- Vertex 3 Zcoordinate
    705430.9081615414,        !- Vertex 4 Xcoordinate
    5711290.789216929,        !- Vertex 4 Ycoordinate
    6;                        !- Vertex 4 Zcoordinate

SHADING:SITE:DETAILED,
    shade_way/394358290_2,    !- Name
    ,                         !- Transmittance Schedule Name
    autocalculate,            !- Number of Vertices
    705430.9081615414,        !- Vertex 1 Xcoordinate
    5711290.789216929,        !- Vertex 1 Ycoordinate
    6,                        !- Vertex 1 Zcoordinate
    705430.9081615414,        !- Vertex 2 Xcoordinate
    5711290.789216929,        !- Vertex 2 Ycoordinate
    0,                        !- Vertex 2 Zcoordinate
    705435.8139581184,        !- Vertex 3 Xcoordinate
    5711291.163919784,        !- Vertex 3 Ycoordinate
    0,                        !- Vertex 3 Zcoordinate
    705435.8139581184,        !- Vertex 4 Xcoordinate
    5711291.163919784,        !- Vertex 4 Ycoordinate
    6;                        !- Vertex 4 Zcoordinate

SHADING:SITE:DETAILED,
    shade_way/394358290_3,    !- Name
    ,                         !- Transmittance Schedule Name
    autocalculate,            !- Number of Vertices
    705435.8139581184,        !- Vertex 1 Xcoordinate
    5711291.163919784,        !- Vertex 1 Ycoordinate
    6,                        !- Vertex 1 Zcoordinate
    705435.8139581184,        !- Vertex 2 Xcoordinate
    5711291.163919784,        !- Vertex 2 Ycoordinate
    0,                        !- Vertex 2 Zcoordinate
    705436.3901393504,        !- Vertex 3 Xcoordinate
    5711283.625738497,        !- Vertex 3 Ycoordinate
    0,                        !- Vertex 3 Zcoordinate
    705436.3901393504,        !- Vertex 4 Xcoordinate
    5711283.625738497,        !- Vertex 4 Ycoordinate
    6;                        !- Vertex 4 Zcoordinate

SHADING:SITE:DETAILED,
    shade_way/394358290_4,    !- Name
    ,                         !- Transmittance Schedule Name
    autocalculate,            !- Number of Vertices
    705436.3901393504,        !- Vertex 1 Xcoordinate
    5711283.625738497,        !- Vertex 1 Ycoordinate
    6,                        !- Vertex 1 Zcoordinate
    705436.3901393504,        !- Vertex 2 Xcoordinate
    5711283.625738497,        !- Vertex 2 Ycoordinate
    0,                        !- Vertex 2 Zcoordinate
    705431.4843427727,        !- Vertex 3 Xcoordinate
    5711283.251035643,        !- Vertex 3 Ycoordinate
    0,                        !- Vertex 3 Zcoordinate
    705431.4843427727,        !- Vertex 4 Xcoordinate
    5711283.251035643,        !- Vertex 4 Ycoordinate
    6;                        !- Vertex 4 Zcoordinate

SHADING:SITE:DETAILED,
    shade_way/394358291_1,    !- Name
    ,                         !- Transmittance Schedule Name
    autocalculate,            !- Number of Vertices
    705436.386192872,         !- Vertex 1 Xcoordinate
    5711283.683361506,        !- Vertex 1 Ycoordinate
    6,                        !- Vertex 1 Zcoordinate
    705436.386192872,         !- Vertex 2 Xcoordinate
    5711283.683361506,        !- Vertex 2 Ycoordinate
    0,                        !- Vertex 2 Zcoordinate
    705435.7918946467,        !- Vertex 3 Xcoordinate
    5711291.153991732,        !- Vertex 3 Ycoordinate
    0,                        !- Vertex 3 Zcoordinate
    705435.7918946467,        !- Vertex 4 Xcoordinate
    5711291.153991732,        !- Vertex 4 Ycoordinate
    6;                        !- Vertex 4 Zcoordinate

SHADING:SITE:DETAILED,
    shade_way/394358291_2,    !- Name
    ,                         !- Transmittance Schedule Name
    autocalculate,            !- Number of Vertices
    705435.7918946467,        !- Vertex 1 Xcoordinate
    5711291.153991732,        !- Vertex 1 Ycoordinate
    6,                        !- Vertex 1 Zcoordinate
    705435.7918946467,        !- Vertex 2 Xcoordinate
    5711291.153991732,        !- Vertex 2 Ycoordinate
    0,                        !- Vertex 2 Zcoordinate
    705441.0215948925,        !- Vertex 3 Xcoordinate
    5711291.5703048725,       !- Vertex 3 Ycoordinate
    0,                        !- Vertex 3 Zcoordinate
    705441.0215948925,        !- Vertex 4 Xcoordinate
    5711291.5703048725,       !- Vertex 4 Ycoordinate
    6;                        !- Vertex 4 Zcoordinate

SHADING:SITE:DETAILED,
    shade_way/394358291_3,    !- Name
    ,                         !- Transmittance Schedule Name
    autocalculate,            !- Number of Vertices
    705441.0215948925,        !- Vertex 1 Xcoordinate
    5711291.5703048725,       !- Vertex 1 Ycoordinate
    6,                        !- Vertex 1 Zcoordinate
    705441.0215948925,        !- Vertex 2 Xcoordinate
    5711291.5703048725,       !- Vertex 2 Ycoordinate
    0,                        !- Vertex 2 Zcoordinate
    705441.6158931173,        !- Vertex 3 Xcoordinate
    5711284.099674646,        !- Vertex 3 Ycoordinate
    0,                        !- Vertex 3 Zcoordinate
    705441.6158931173,        !- Vertex 4 Xcoordinate
    5711284.099674646,        !- Vertex 4 Ycoordinate
    6;                        !- Vertex 4 Zcoordinate

SHADING:SITE:DETAILED,
    shade_way/394358291_4,    !- Name
    ,                         !- Transmittance Schedule Name
    autocalculate,            !- Number of Vertices
    705441.6158931173,        !- Vertex 1 Xcoordinate
    5711284.099674646,        !- Vertex 1 Ycoordinate
    6,                        !- Vertex 1 Zcoordinate
    705441.6158931173,        !- Vertex 2 Xcoordinate
    5711284.099674646,        !- Vertex 2 Ycoordinate
    0,                        !- Vertex 2 Zcoordinate
    705436.386192872,         !- Vertex 3 Xcoordinate
    5711283.683361506,        !- Vertex 3 Ycoordinate
    0,                        !- Vertex 3 Zcoordinate
    705436.386192872,         !- Vertex 4 Xcoordinate
    5711283.683361506,        !- Vertex 4 Ycoordinate
    6;                        !- Vertex 4 Zcoordinate

SHADING:SITE:DETAILED,
    shade_way/1055004687_1,    !- Name
    ,                         !- Transmittance Schedule Name
    autocalculate,            !- Number of Vertices
    705405.2163427803,        !- Vertex 1 Xcoordinate
    5711308.057070192,        !- Vertex 1 Ycoordinate
    6,                        !- Vertex 1 Zcoordinate
    705405.2163427803,        !- Vertex 2 Xcoordinate
    5711308.057070192,        !- Vertex 2 Ycoordinate
    0,                        !- Vertex 2 Zcoordinate
    705405.7550817485,        !- Vertex 3 Xcoordinate
    5711300.764161657,        !- Vertex 3 Ycoordinate
    0,                        !- Vertex 3 Zcoordinate
    705405.7550817485,        !- Vertex 4 Xcoordinate
    5711300.764161657,        !- Vertex 4 Ycoordinate
    6;                        !- Vertex 4 Zcoordinate

SHADING:SITE:DETAILED,
    shade_way/1055004687_2,    !- Name
    ,                         !- Transmittance Schedule Name
    autocalculate,            !- Number of Vertices
    705405.7550817485,        !- Vertex 1 Xcoordinate
    5711300.764161657,        !- Vertex 1 Ycoordinate
    6,                        !- Vertex 1 Zcoordinate
    705405.7550817485,        !- Vertex 2 Xcoordinate
    5711300.764161657,        !- Vertex 2 Ycoordinate
    0,                        !- Vertex 2 Zcoordinate
    705400.6976921788,        !- Vertex 3 Xcoordinate
    5711300.390593574,        !- Vertex 3 Ycoordinate
    0,                        !- Vertex 3 Zcoordinate
    705400.6976921788,        !- Vertex 4 Xcoordinate
    5711300.390593574,        !- Vertex 4 Ycoordinate
    6;                        !- Vertex 4 Zcoordinate

SHADING:SITE:DETAILED,
    shade_way/1055004687_3,    !- Name
    ,                         !- Transmittance Schedule Name
    autocalculate,            !- Number of Vertices
    705400.6976921788,        !- Vertex 1 Xcoordinate
    5711300.390593574,        !- Vertex 1 Ycoordinate
    6,                        !- Vertex 1 Zcoordinate
    705400.6976921788,        !- Vertex 2 Xcoordinate
    5711300.390593574,        !- Vertex 2 Ycoordinate
    0,                        !- Vertex 2 Zcoordinate
    705400.1582668702,        !- Vertex 3 Xcoordinate
    5711307.682884822,        !- Vertex 3 Ycoordinate
    0,                        !- Vertex 3 Zcoordinate
    705400.1582668702,        !- Vertex 4 Xcoordinate
    5711307.682884822,        !- Vertex 4 Ycoordinate
    6;                        !- Vertex 4 Zcoordinate

SHADING:SITE:DETAILED,
    shade_way/1055004687_4,    !- Name
    ,                         !- Transmittance Schedule Name
    autocalculate,            !- Number of Vertices
    705400.1582668702,        !- Vertex 1 Xcoordinate
    5711307.682884822,        !- Vertex 1 Ycoordinate
    6,                        !- Vertex 1 Zcoordinate
    705400.1582668702,        !- Vertex 2 Xcoordinate
    5711307.682884822,        !- Vertex 2 Ycoordinate
    0,                        !- Vertex 2 Zcoordinate
    705405.2163427803,        !- Vertex 3 Xcoordinate
    5711308.057070192,        !- Vertex 3 Ycoordinate
    0,                        !- Vertex 3 Zcoordinate
    705405.2163427803,        !- Vertex 4 Xcoordinate
    5711308.057070192,        !- Vertex 4 Ycoordinate
    6;                        !- Vertex 4 Zcoordinate

SHADING:SITE:DETAILED,
    shade_way/1055004688_1,    !- Name
    ,                         !- Transmittance Schedule Name
    autocalculate,            !- Number of Vertices
    705405.7539371877,        !- Vertex 1 Xcoordinate
    5711300.784596038,        !- Vertex 1 Ycoordinate
    6,                        !- Vertex 1 Zcoordinate
    705405.7539371877,        !- Vertex 2 Xcoordinate
    5711300.784596038,        !- Vertex 2 Ycoordinate
    0,                        !- Vertex 2 Zcoordinate
    705405.2111822322,        !- Vertex 3 Xcoordinate
    5711308.121930108,        !- Vertex 3 Ycoordinate
    0,                        !- Vertex 3 Zcoordinate
    705405.2111822322,        !- Vertex 4 Xcoordinate
    5711308.121930108,        !- Vertex 4 Ycoordinate
    6;                        !- Vertex 4 Zcoordinate

SHADING:SITE:DETAILED,
    shade_way/1055004688_2,    !- Name
    ,                         !- Transmittance Schedule Name
    autocalculate,            !- Number of Vertices
    705405.2111822322,        !- Vertex 1 Xcoordinate
    5711308.121930108,        !- Vertex 1 Ycoordinate
    6,                        !- Vertex 1 Zcoordinate
    705405.2111822322,        !- Vertex 2 Xcoordinate
    5711308.121930108,        !- Vertex 2 Ycoordinate
    0,                        !- Vertex 2 Zcoordinate
    705409.9174512568,        !- Vertex 3 Xcoordinate
    5711308.47010928,         !- Vertex 3 Ycoordinate
    0,                        !- Vertex 3 Zcoordinate
    705409.9174512568,        !- Vertex 4 Xcoordinate
    5711308.47010928,         !- Vertex 4 Ycoordinate
    6;                        !- Vertex 4 Zcoordinate

SHADING:SITE:DETAILED,
    shade_way/1055004688_3,    !- Name
    ,                         !- Transmittance Schedule Name
    autocalculate,            !- Number of Vertices
    705409.9174512568,        !- Vertex 1 Xcoordinate
    5711308.47010928,         !- Vertex 1 Ycoordinate
    6,                        !- Vertex 1 Zcoordinate
    705409.9174512568,        !- Vertex 2 Xcoordinate
    5711308.47010928,         !- Vertex 2 Ycoordinate
    0,                        !- Vertex 2 Zcoordinate
    705410.459519872,         !- Vertex 3 Xcoordinate
    5711301.132157919,        !- Vertex 3 Ycoordinate
    0,                        !- Vertex 3 Zcoordinate
    705410.459519872,         !- Vertex 4 Xcoordinate
    5711301.132157919,        !- Vertex 4 Ycoordinate
    6;                        !- Vertex 4 Zcoordinate

SHADING:SITE:DETAILED,
    shade_way/1055004688_4,    !- Name
    ,                         !- Transmittance Schedule Name
    autocalculate,            !- Number of Vertices
    705410.459519872,         !- Vertex 1 Xcoordinate
    5711301.132157919,        !- Vertex 1 Ycoordinate
    6,                        !- Vertex 1 Zcoordinate
    705410.459519872,         !- Vertex 2 Xcoordinate
    5711301.132157919,        !- Vertex 2 Ycoordinate
    0,                        !- Vertex 2 Zcoordinate
    705405.7539371877,        !- Vertex 3 Xcoordinate
    5711300.784596038,        !- Vertex 3 Ycoordinate
    0,                        !- Vertex 3 Zcoordinate
    705405.7539371877,        !- Vertex 4 Xcoordinate
    5711300.784596038,        !- Vertex 4 Ycoordinate
    6;                        !- Vertex 4 Zcoordinate

SHADING:SITE:DETAILED,
    shade_way/1055004689_1,    !- Name
    ,                         !- Transmittance Schedule Name
    autocalculate,            !- Number of Vertices
    705410.4152317431,        !- Vertex 1 Xcoordinate
    5711301.151478415,        !- Vertex 1 Ycoordinate
    6,                        !- Vertex 1 Zcoordinate
    705410.4152317431,        !- Vertex 2 Xcoordinate
    5711301.151478415,        !- Vertex 2 Ycoordinate
    0,                        !- Vertex 2 Zcoordinate
    705409.9141925088,        !- Vertex 3 Xcoordinate
    5711308.526393163,        !- Vertex 3 Ycoordinate
    0,                        !- Vertex 3 Zcoordinate
    705409.9141925088,        !- Vertex 4 Xcoordinate
    5711308.526393163,        !- Vertex 4 Ycoordinate
    6;                        !- Vertex 4 Zcoordinate

SHADING:SITE:DETAILED,
    shade_way/1055004689_2,    !- Name
    ,                         !- Transmittance Schedule Name
    autocalculate,            !- Number of Vertices
    705409.9141925088,        !- Vertex 1 Xcoordinate
    5711308.526393163,        !- Vertex 1 Ycoordinate
    6,                        !- Vertex 1 Zcoordinate
    705409.9141925088,        !- Vertex 2 Xcoordinate
    5711308.526393163,        !- Vertex 2 Ycoordinate
    0,                        !- Vertex 2 Zcoordinate
    705414.7447725699,        !- Vertex 3 Xcoordinate
    5711308.854853668,        !- Vertex 3 Ycoordinate
    0,                        !- Vertex 3 Zcoordinate
    705414.7447725699,        !- Vertex 4 Xcoordinate
    5711308.854853668,        !- Vertex 4 Ycoordinate
    6;                        !- Vertex 4 Zcoordinate

SHADING:SITE:DETAILED,
    shade_way/1055004689_3,    !- Name
    ,                         !- Transmittance Schedule Name
    autocalculate,            !- Number of Vertices
    705414.7447725699,        !- Vertex 1 Xcoordinate
    5711308.854853668,        !- Vertex 1 Ycoordinate
    6,                        !- Vertex 1 Zcoordinate
    705414.7447725699,        !- Vertex 2 Xcoordinate
    5711308.854853668,        !- Vertex 2 Ycoordinate
    0,                        !- Vertex 2 Zcoordinate
    705415.2469327025,        !- Vertex 3 Xcoordinate
    5711301.48020298,         !- Vertex 3 Ycoordinate
    0,                        !- Vertex 3 Zcoordinate
    705415.2469327025,        !- Vertex 4 Xcoordinate
    5711301.48020298,         !- Vertex 4 Ycoordinate
    6;                        !- Vertex 4 Zcoordinate

SHADING:SITE:DETAILED,
    shade_way/1055004689_4,    !- Name
    ,                         !- Transmittance Schedule Name
    autocalculate,            !- Number of Vertices
    705415.2469327025,        !- Vertex 1 Xcoordinate
    5711301.48020298,         !- Vertex 1 Ycoordinate
    6,                        !- Vertex 1 Zcoordinate
    705415.2469327025,        !- Vertex 2 Xcoordinate
    5711301.48020298,         !- Vertex 2 Ycoordinate
    0,                        !- Vertex 2 Zcoordinate
    705410.4152317431,        !- Vertex 3 Xcoordinate
    5711301.151478415,        !- Vertex 3 Ycoordinate
    0,                        !- Vertex 3 Zcoordinate
    705410.4152317431,        !- Vertex 4 Xcoordinate
    5711301.151478415,        !- Vertex 4 Ycoordinate
    6;                        !- Vertex 4 Zcoordinate

SHADING:SITE:DETAILED,
    shade_way/1055004685_1,    !- Name
    ,                         !- Transmittance Schedule Name
    autocalculate,            !- Number of Vertices
    705395.7454993894,        !- Vertex 1 Xcoordinate
    5711300.0008082595,       !- Vertex 1 Ycoordinate
    6,                        !- Vertex 1 Zcoordinate
    705395.7454993894,        !- Vertex 2 Xcoordinate
    5711300.0008082595,       !- Vertex 2 Ycoordinate
    0,                        !- Vertex 2 Zcoordinate
    705391.0282587908,        !- Vertex 3 Xcoordinate
    5711299.6428110255,       !- Vertex 3 Ycoordinate
    0,                        !- Vertex 3 Zcoordinate
    705391.0282587908,        !- Vertex 4 Xcoordinate
    5711299.6428110255,       !- Vertex 4 Ycoordinate
    6;                        !- Vertex 4 Zcoordinate

SHADING:SITE:DETAILED,
    shade_way/1055004685_2,    !- Name
    ,                         !- Transmittance Schedule Name
    autocalculate,            !- Number of Vertices
    705391.0282587908,        !- Vertex 1 Xcoordinate
    5711299.6428110255,       !- Vertex 1 Ycoordinate
    6,                        !- Vertex 1 Zcoordinate
    705391.0282587908,        !- Vertex 2 Xcoordinate
    5711299.6428110255,       !- Vertex 2 Ycoordinate
    0,                        !- Vertex 2 Zcoordinate
    705390.0800441481,        !- Vertex 3 Xcoordinate
    5711312.13418768,         !- Vertex 3 Ycoordinate
    0,                        !- Vertex 3 Zcoordinate
    705390.0800441481,        !- Vertex 4 Xcoordinate
    5711312.13418768,         !- Vertex 4 Ycoordinate
    6;                        !- Vertex 4 Zcoordinate

SHADING:SITE:DETAILED,
    shade_way/1055004685_3,    !- Name
    ,                         !- Transmittance Schedule Name
    autocalculate,            !- Number of Vertices
    705390.0800441481,        !- Vertex 1 Xcoordinate
    5711312.13418768,         !- Vertex 1 Ycoordinate
    6,                        !- Vertex 1 Zcoordinate
    705390.0800441481,        !- Vertex 2 Xcoordinate
    5711312.13418768,         !- Vertex 2 Ycoordinate
    0,                        !- Vertex 2 Zcoordinate
    705394.7972847468,        !- Vertex 3 Xcoordinate
    5711312.492184912,        !- Vertex 3 Ycoordinate
    0,                        !- Vertex 3 Zcoordinate
    705394.7972847468,        !- Vertex 4 Xcoordinate
    5711312.492184912,        !- Vertex 4 Ycoordinate
    6;                        !- Vertex 4 Zcoordinate

SHADING:SITE:DETAILED,
    shade_way/1055004685_4,    !- Name
    ,                         !- Transmittance Schedule Name
    autocalculate,            !- Number of Vertices
    705394.7972847468,        !- Vertex 1 Xcoordinate
    5711312.492184912,        !- Vertex 1 Ycoordinate
    6,                        !- Vertex 1 Zcoordinate
    705394.7972847468,        !- Vertex 2 Xcoordinate
    5711312.492184912,        !- Vertex 2 Ycoordinate
    0,                        !- Vertex 2 Zcoordinate
    705395.7454993894,        !- Vertex 3 Xcoordinate
    5711300.0008082595,       !- Vertex 3 Ycoordinate
    0,                        !- Vertex 3 Zcoordinate
    705395.7454993894,        !- Vertex 4 Xcoordinate
    5711300.0008082595,       !- Vertex 4 Ycoordinate
    6;                        !- Vertex 4 Zcoordinate

SHADING:SITE:DETAILED,
    shade_way/1055004686_1,    !- Name
    ,                         !- Transmittance Schedule Name
    autocalculate,            !- Number of Vertices
    705399.8396461292,        !- Vertex 1 Xcoordinate
    5711312.661403202,        !- Vertex 1 Ycoordinate
    6,                        !- Vertex 1 Zcoordinate
    705399.8396461292,        !- Vertex 2 Xcoordinate
    5711312.661403202,        !- Vertex 2 Ycoordinate
    0,                        !- Vertex 2 Zcoordinate
    705400.7148697956,        !- Vertex 3 Xcoordinate
    5711300.353767492,        !- Vertex 3 Ycoordinate
    0,                        !- Vertex 3 Zcoordinate
    705400.7148697956,        !- Vertex 4 Xcoordinate
    5711300.353767492,        !- Vertex 4 Ycoordinate
    6;                        !- Vertex 4 Zcoordinate

SHADING:SITE:DETAILED,
    shade_way/1055004686_2,    !- Name
    ,                         !- Transmittance Schedule Name
    autocalculate,            !- Number of Vertices
    705400.7148697956,        !- Vertex 1 Xcoordinate
    5711300.353767492,        !- Vertex 1 Ycoordinate
    6,                        !- Vertex 1 Zcoordinate
    705400.7148697956,        !- Vertex 2 Xcoordinate
    5711300.353767492,        !- Vertex 2 Ycoordinate
    0,                        !- Vertex 2 Zcoordinate
    705395.6561821146,        !- Vertex 3 Xcoordinate
    5711299.994235225,        !- Vertex 3 Ycoordinate
    0,                        !- Vertex 3 Zcoordinate
    705395.6561821146,        !- Vertex 4 Xcoordinate
    5711299.994235225,        !- Vertex 4 Ycoordinate
    6;                        !- Vertex 4 Zcoordinate

SHADING:SITE:DETAILED,
    shade_way/1055004686_3,    !- Name
    ,                         !- Transmittance Schedule Name
    autocalculate,            !- Number of Vertices
    705395.6561821146,        !- Vertex 1 Xcoordinate
    5711299.994235225,        !- Vertex 1 Ycoordinate
    6,                        !- Vertex 1 Zcoordinate
    705395.6561821146,        !- Vertex 2 Xcoordinate
    5711299.994235225,        !- Vertex 2 Ycoordinate
    0,                        !- Vertex 2 Zcoordinate
    705394.7814643084,        !- Vertex 3 Xcoordinate
    5711312.3016818315,       !- Vertex 3 Ycoordinate
    0,                        !- Vertex 3 Zcoordinate
    705394.7814643084,        !- Vertex 4 Xcoordinate
    5711312.3016818315,       !- Vertex 4 Ycoordinate
    6;                        !- Vertex 4 Zcoordinate

SHADING:SITE:DETAILED,
    shade_way/1055004686_4,    !- Name
    ,                         !- Transmittance Schedule Name
    autocalculate,            !- Number of Vertices
    705394.7814643084,        !- Vertex 1 Xcoordinate
    5711312.3016818315,       !- Vertex 1 Ycoordinate
    6,                        !- Vertex 1 Zcoordinate
    705394.7814643084,        !- Vertex 2 Xcoordinate
    5711312.3016818315,       !- Vertex 2 Ycoordinate
    0,                        !- Vertex 2 Zcoordinate
    705399.8396461292,        !- Vertex 3 Xcoordinate
    5711312.661403202,        !- Vertex 3 Ycoordinate
    0,                        !- Vertex 3 Zcoordinate
    705399.8396461292,        !- Vertex 4 Xcoordinate
    5711312.661403202,        !- Vertex 4 Ycoordinate
    6;                        !- Vertex 4 Zcoordinate

SHADING:SITE:DETAILED,
    shade_way/1055004679_1,    !- Name
    ,                         !- Transmittance Schedule Name
    autocalculate,            !- Number of Vertices
    705419.4299073322,        !- Vertex 1 Xcoordinate
    5711314.467880099,        !- Vertex 1 Ycoordinate
    6,                        !- Vertex 1 Zcoordinate
    705419.4299073322,        !- Vertex 2 Xcoordinate
    5711314.467880099,        !- Vertex 2 Ycoordinate
    0,                        !- Vertex 2 Zcoordinate
    705420.2663701017,        !- Vertex 3 Xcoordinate
    5711301.873245807,        !- Vertex 3 Ycoordinate
    0,                        !- Vertex 3 Zcoordinate
    705420.2663701017,        !- Vertex 4 Xcoordinate
    5711301.873245807,        !- Vertex 4 Ycoordinate
    6;                        !- Vertex 4 Zcoordinate

SHADING:SITE:DETAILED,
    shade_way/1055004679_2,    !- Name
    ,                         !- Transmittance Schedule Name
    autocalculate,            !- Number of Vertices
    705420.2663701017,        !- Vertex 1 Xcoordinate
    5711301.873245807,        !- Vertex 1 Ycoordinate
    6,                        !- Vertex 1 Zcoordinate
    705420.2663701017,        !- Vertex 2 Xcoordinate
    5711301.873245807,        !- Vertex 2 Ycoordinate
    0,                        !- Vertex 2 Zcoordinate
    705415.2290170053,        !- Vertex 3 Xcoordinate
    5711301.538664085,        !- Vertex 3 Ycoordinate
    0,                        !- Vertex 3 Zcoordinate
    705415.2290170053,        !- Vertex 4 Xcoordinate
    5711301.538664085,        !- Vertex 4 Ycoordinate
    6;                        !- Vertex 4 Zcoordinate

SHADING:SITE:DETAILED,
    shade_way/1055004679_3,    !- Name
    ,                         !- Transmittance Schedule Name
    autocalculate,            !- Number of Vertices
    705415.2290170053,        !- Vertex 1 Xcoordinate
    5711301.538664085,        !- Vertex 1 Ycoordinate
    6,                        !- Vertex 1 Zcoordinate
    705415.2290170053,        !- Vertex 2 Xcoordinate
    5711301.538664085,        !- Vertex 2 Ycoordinate
    0,                        !- Vertex 2 Zcoordinate
    705414.3925542362,        !- Vertex 3 Xcoordinate
    5711314.133298378,        !- Vertex 3 Ycoordinate
    0,                        !- Vertex 3 Zcoordinate
    705414.3925542362,        !- Vertex 4 Xcoordinate
    5711314.133298378,        !- Vertex 4 Ycoordinate
    6;                        !- Vertex 4 Zcoordinate

SHADING:SITE:DETAILED,
    shade_way/1055004679_4,    !- Name
    ,                         !- Transmittance Schedule Name
    autocalculate,            !- Number of Vertices
    705414.3925542362,        !- Vertex 1 Xcoordinate
    5711314.133298378,        !- Vertex 1 Ycoordinate
    6,                        !- Vertex 1 Zcoordinate
    705414.3925542362,        !- Vertex 2 Xcoordinate
    5711314.133298378,        !- Vertex 2 Ycoordinate
    0,                        !- Vertex 2 Zcoordinate
    705419.4299073322,        !- Vertex 3 Xcoordinate
    5711314.467880099,        !- Vertex 3 Ycoordinate
    0,                        !- Vertex 3 Zcoordinate
    705419.4299073322,        !- Vertex 4 Xcoordinate
    5711314.467880099,        !- Vertex 4 Ycoordinate
    6;                        !- Vertex 4 Zcoordinate

SHADING:SITE:DETAILED,
    shade_way/1055004678_1,    !- Name
    ,                         !- Transmittance Schedule Name
    autocalculate,            !- Number of Vertices
    705419.3135979982,        !- Vertex 1 Xcoordinate
    5711314.459094951,        !- Vertex 1 Ycoordinate
    6,                        !- Vertex 1 Zcoordinate
    705419.3135979982,        !- Vertex 2 Xcoordinate
    5711314.459094951,        !- Vertex 2 Ycoordinate
    0,                        !- Vertex 2 Zcoordinate
    705424.1854509535,        !- Vertex 3 Xcoordinate
    5711314.827845852,        !- Vertex 3 Ycoordinate
    0,                        !- Vertex 3 Zcoordinate
    705424.1854509535,        !- Vertex 4 Xcoordinate
    5711314.827845852,        !- Vertex 4 Ycoordinate
    6;                        !- Vertex 4 Zcoordinate

SHADING:SITE:DETAILED,
    shade_way/1055004678_2,    !- Name
    ,                         !- Transmittance Schedule Name
    autocalculate,            !- Number of Vertices
    705424.1854509535,        !- Vertex 1 Xcoordinate
    5711314.827845852,        !- Vertex 1 Ycoordinate
    6,                        !- Vertex 1 Zcoordinate
    705424.1854509535,        !- Vertex 2 Xcoordinate
    5711314.827845852,        !- Vertex 2 Ycoordinate
    0,                        !- Vertex 2 Zcoordinate
    705425.1380742481,        !- Vertex 3 Xcoordinate
    5711302.242003759,        !- Vertex 3 Ycoordinate
    0,                        !- Vertex 3 Zcoordinate
    705425.1380742481,        !- Vertex 4 Xcoordinate
    5711302.242003759,        !- Vertex 4 Ycoordinate
    6;                        !- Vertex 4 Zcoordinate

SHADING:SITE:DETAILED,
    shade_way/1055004678_3,    !- Name
    ,                         !- Transmittance Schedule Name
    autocalculate,            !- Number of Vertices
    705425.1380742481,        !- Vertex 1 Xcoordinate
    5711302.242003759,        !- Vertex 1 Ycoordinate
    6,                        !- Vertex 1 Zcoordinate
    705425.1380742481,        !- Vertex 2 Xcoordinate
    5711302.242003759,        !- Vertex 2 Ycoordinate
    0,                        !- Vertex 2 Zcoordinate
    705420.2663701017,        !- Vertex 3 Xcoordinate
    5711301.873245807,        !- Vertex 3 Ycoordinate
    0,                        !- Vertex 3 Zcoordinate
    705420.2663701017,        !- Vertex 4 Xcoordinate
    5711301.873245807,        !- Vertex 4 Ycoordinate
    6;                        !- Vertex 4 Zcoordinate

SHADING:SITE:DETAILED,
    shade_way/1055004678_4,    !- Name
    ,                         !- Transmittance Schedule Name
    autocalculate,            !- Number of Vertices
    705420.2663701017,        !- Vertex 1 Xcoordinate
    5711301.873245807,        !- Vertex 1 Ycoordinate
    6,                        !- Vertex 1 Zcoordinate
    705420.2663701017,        !- Vertex 2 Xcoordinate
    5711301.873245807,        !- Vertex 2 Ycoordinate
    0,                        !- Vertex 2 Zcoordinate
    705419.3135979982,        !- Vertex 3 Xcoordinate
    5711314.459094951,        !- Vertex 3 Ycoordinate
    0,                        !- Vertex 3 Zcoordinate
    705419.3135979982,        !- Vertex 4 Xcoordinate
    5711314.459094951,        !- Vertex 4 Ycoordinate
    6;                        !- Vertex 4 Zcoordinate

OTHEREQUIPMENT,
    EU_Step8_InternalGain_f7381f3c0d15f8db_F0_dwelling_0_f000,    !- Name
    Electricity,              !- Fuel Type
    f7381f3c0d15f8db_F0_dwelling_0,    !- Zone or ZoneList or Space or SpaceList Name
    EU_Step8_GainSchedule_f7381f3c0d15f8db_F0_dwelling_0_f000,    !- Schedule Name
    Watts/Area,               !- Design Level Calculation Method
    ,                         !- Design Level
    1,                        !- Power per Zone Floor Area
    ,                         !- Power per Person
    0,                        !- Fraction Latent
    0,                        !- Fraction Radiant
    0,                        !- Fraction Lost
    0,                        !- Carbon Dioxide Generation Rate
    EU_Step8_InternalGains;    !- EndUse Subcategory

ZONEVENTILATION:DESIGNFLOWRATE,
    EU_ConstantAir_f7381f3c0d15f8db_F0_dwelling_0,    !- Name
    f7381f3c0d15f8db_F0_dwelling_0,    !- Zone or ZoneList or Space or SpaceList Name
    EU_AlwaysOn,              !- Schedule Name
    AirChanges/Hour,          !- Design Flow Rate Calculation Method
    ,                         !- Design Flow Rate
    ,                         !- Flow Rate per Floor Area
    ,                         !- Flow Rate per Person
    0.4800000000000001,       !- Air Changes per Hour
    Natural,                  !- Ventilation Type
    0,                        !- Fan Pressure Rise
    1,                        !- Fan Total Efficiency
    1,                        !- Constant Term Coefficient
    0,                        !- Temperature Term Coefficient
    0,                        !- Velocity Term Coefficient
    0,                        !- Velocity Squared Term Coefficient
    -100,                     !- Minimum Indoor Temperature
    ,                         !- Minimum Indoor Temperature Schedule Name
    100,                      !- Maximum Indoor Temperature
    ,                         !- Maximum Indoor Temperature Schedule Name
    -100,                     !- Delta Temperature
    ,                         !- Delta Temperature Schedule Name
    -100,                     !- Minimum Outdoor Temperature
    ,                         !- Minimum Outdoor Temperature Schedule Name
    100,                      !- Maximum Outdoor Temperature
    ,                         !- Maximum Outdoor Temperature Schedule Name
    40;                       !- Maximum Wind Speed

HVACTEMPLATE:THERMOSTAT,
    EU_HeatOnly_f7381f3c0d15f8db_F0_dwelling_0,    !- Name
    ,                         !- Heating Setpoint Schedule Name
    20,                       !- Constant Heating Setpoint
    ,                         !- Cooling Setpoint Schedule Name
    50;                       !- Constant Cooling Setpoint

HVACTEMPLATE:ZONE:IDEALLOADSAIRSYSTEM,
    f7381f3c0d15f8db_F0_dwelling_0,    !- Zone Name
    EU_HeatOnly_f7381f3c0d15f8db_F0_dwelling_0,    !- Template Thermostat Name
    EU_AlwaysOn,              !- System Availability Schedule Name
    50,                       !- Maximum Heating Supply Air Temperature
    13,                       !- Minimum Cooling Supply Air Temperature
    0.0156,                   !- Maximum Heating Supply Air Humidity Ratio
    0.0077,                   !- Minimum Cooling Supply Air Humidity Ratio
    NoLimit,                  !- Heating Limit
    ,                         !- Maximum Heating Air Flow Rate
    ,                         !- Maximum Sensible Heating Capacity
    NoLimit,                  !- Cooling Limit
    ,                         !- Maximum Cooling Air Flow Rate
    ,                         !- Maximum Total Cooling Capacity
    EU_AlwaysOn,              !- Heating Availability Schedule Name
    EU_CoolingOff,            !- Cooling Availability Schedule Name
    ConstantSensibleHeatRatio,    !- Dehumidification Control Type
    0.7,                      !- Cooling Sensible Heat Ratio
    60,                       !- Dehumidification Setpoint
    None,                     !- Humidification Control Type
    30,                       !- Humidification Setpoint
    None,                     !- Outdoor Air Method
    0.00944,                  !- Outdoor Air Flow Rate per Person
    0.0,                      !- Outdoor Air Flow Rate per Zone Floor Area
    0,                        !- Outdoor Air Flow Rate per Zone
    ,                         !- Design Specification Outdoor Air Object Name
    None,                     !- Demand Controlled Ventilation Type
    NoEconomizer,             !- Outdoor Air Economizer Type
    None,                     !- Heat Recovery Type
    0.70,                     !- Sensible Heat Recovery Effectiveness
    0.65;                     !- Latent Heat Recovery Effectiveness

SIZING:ZONE,
    f7381f3c0d15f8db_F0_dwelling_0,    !- Zone or ZoneList Name
    SupplyAirTemperature,     !- Zone Cooling Design Supply Air Temperature Input Method
    13,                       !- Zone Cooling Design Supply Air Temperature
    ,                         !- Zone Cooling Design Supply Air Temperature Difference
    SupplyAirTemperature,     !- Zone Heating Design Supply Air Temperature Input Method
    50,                       !- Zone Heating Design Supply Air Temperature
    ,                         !- Zone Heating Design Supply Air Temperature Difference
    0.008,                    !- Zone Cooling Design Supply Air Humidity Ratio
    0.008,                    !- Zone Heating Design Supply Air Humidity Ratio
    ,                         !- Design Specification Outdoor Air Object Name
    ,                         !- Zone Heating Sizing Factor
    ,                         !- Zone Cooling Sizing Factor
    DesignDay,                !- Cooling Design Air Flow Method
    0,                        !- Cooling Design Air Flow Rate
    0.000762,                 !- Cooling Minimum Air Flow per Zone Floor Area
    0,                        !- Cooling Minimum Air Flow
    0.2,                      !- Cooling Minimum Air Flow Fraction
    DesignDay,                !- Heating Design Air Flow Method
    0,                        !- Heating Design Air Flow Rate
    0.002032,                 !- Heating Maximum Air Flow per Zone Floor Area
    0.1415762,                !- Heating Maximum Air Flow
    0.3,                      !- Heating Maximum Air Flow Fraction
    ,                         !- Design Specification Zone Air Distribution Object Name
    No,                       !- Account for Dedicated Outdoor Air System
    NeutralSupplyAir,         !- Dedicated Outdoor Air System Control Strategy
    autosize,                 !- Dedicated Outdoor Air Low Setpoint Temperature for Design
    autosize,                 !- Dedicated Outdoor Air High Setpoint Temperature for Design
    Sensible Load Only No Latent Load,    !- Zone Load Sizing Method
    HumidityRatioDifference,    !- Zone Latent Cooling Design Supply Air Humidity Ratio Input Method
    ,                         !- Zone Dehumidification Design Supply Air Humidity Ratio
    0.005,                    !- Zone Cooling Design Supply Air Humidity Ratio Difference
    HumidityRatioDifference,    !- Zone Latent Heating Design Supply Air Humidity Ratio Input Method
    ,                         !- Zone Humidification Design Supply Air Humidity Ratio
    0.005;                    !- Zone Humidification Design Supply Air Humidity Ratio Difference

OUTPUT:VARIABLE,
    *,                        !- Key Value
    Zone Ideal Loads Zone Total Heating Energy,    !- Variable Name
    Hourly;                   !- Reporting Frequency

OUTPUT:SQLITE,
    SimpleAndTabular,         !- Option Type
    UseOutputControlTableStyle;    !- Unit Conversion for Tabular Data