!- Windows Line endings 

Version,
    23.1;                     !- Version Identifier

SimulationControl,
    Yes,                      !- Do Zone Sizing Calculation
    Yes,                      !- Do System Sizing Calculation
    Yes,                      !- Do Plant Sizing Calculation
    No,                       !- Run Simulation for Sizing Periods
    Yes,                      !- Run Simulation for Weather File Run Periods
    No,                       !- Do HVAC Sizing Simulation for Sizing Periods
    1;                        !- Maximum Number of HVAC Sizing Simulation Passes

Building,
    EU S2 Campaign,           !- Name
    0,                        !- North Axis
    City,                     !- Terrain
    ,                         !- Loads Convergence Tolerance Value
    ,                         !- Temperature Convergence Tolerance Value
    FullExterior,             !- Solar Distribution
    ,                         !- Maximum Number of Warmup Days
    ;                         !- Minimum Number of Warmup Days

ShadowCalculation,
    PolygonClipping,          !- Shading Calculation Method
    Periodic,                 !- Shading Calculation Update Frequency Method
    1;                        !- Shading Calculation Update Frequency

HeatBalanceAlgorithm,
    ConductionTransferFunction,    !- Algorithm
    200,                      !- Surface Temperature Upper Limit
    0.1,                      !- Minimum Surface Convection Heat Transfer Coefficient Value
    10000000;                 !- Maximum Surface Convection Heat Transfer Coefficient Value

Timestep,
    12;                       !- Number of Timesteps per Hour

Site:Location,
    Madrid,                   !- Name
    40.5,                     !- Latitude
    -3.5,                     !- Longitude
    1,                        !- Time Zone
    609;                      !- Elevation

SizingPeriod:WeatherFileDays,
    AnnualSizingPeriod,       !- Name
    1,                        !- Begin Month
    1,                        !- Begin Day of Month
    12,                       !- End Month
    31,                       !- End Day of Month
    Monday,                   !- Day of Week for Start Day
    No,                       !- Use Weather File Daylight Saving Period
    No;                       !- Use Weather File Rain and Snow Indicators

RunPeriod,
    RunPeriod1,               !- Name
    1,                        !- Begin Month
    1,                        !- Begin Day of Month
    ,                         !- Begin Year
    12,                       !- End Month
    31,                       !- End Day of Month
    ,                         !- End Year
    Sunday,                   !- Day of Week for Start Day
    No,                       !- Use Weather File Holidays and Special Days
    No,                       !- Use Weather File Daylight Saving Period
    No,                       !- Apply Weekend Holiday Rule
    Yes,                      !- Use Weather File Rain Indicators
    Yes;                      !- Use Weather File Snow Indicators

ScheduleTypeLimits,
    Any Number;               !- Name

SCHEDULETYPELIMITS,
    EU_Step8_AnyNumber_Wm2,    !- Name
    ,                         !- Lower Limit Value
    ,                         !- Upper Limit Value
    Continuous,               !- Numeric Type
    Dimensionless;            !- Unit Type

SCHEDULE:CONSTANT,
    EU_AlwaysOn,              !- Name
    ,                         !- Schedule Type Limits Name
    1;                        !- Hourly Value

SCHEDULE:CONSTANT,
    EU_CoolingOff,            !- Name
    ,                         !- Schedule Type Limits Name
    0;                        !- Hourly Value

SCHEDULE:FILE,
    EU_Step8_GainSchedule_fd062c908350af6c_F0_whole_f000,    !- Name
    EU_Step8_AnyNumber_Wm2,    !- Schedule Type Limits Name
    ../../schedules/fd062c908350af6c/fd062c908350af6c_F0_whole_f000_gain.csv,    !- File Name
    1,                        !- Column Number
    0,                        !- Rows to Skip at Top
    8760,                     !- Number of Hours of Data
    Comma,                    !- Column Separator
    No,                       !- Interpolate to Timestep
    60,                       !- Minutes per Item
    Yes;                      !- Adjust Schedule for Daylight Savings

SCHEDULE:FILE,
    EU_Step8_GainSchedule_fd062c908350af6c_F1_whole_f000,    !- Name
    EU_Step8_AnyNumber_Wm2,    !- Schedule Type Limits Name
    ../../schedules/fd062c908350af6c/fd062c908350af6c_F1_whole_f000_gain.csv,    !- File Name
    1,                        !- Column Number
    0,                        !- Rows to Skip at Top
    8760,                     !- Number of Hours of Data
    Comma,                    !- Column Separator
    No,                       !- Interpolate to Timestep
    60,                       !- Minutes per Item
    Yes;                      !- Adjust Schedule for Daylight Savings

SCHEDULE:FILE,
    EU_Step8_GainSchedule_fd062c908350af6c_F2_whole_f000,    !- Name
    EU_Step8_AnyNumber_Wm2,    !- Schedule Type Limits Name
    ../../schedules/fd062c908350af6c/fd062c908350af6c_F2_whole_f000_gain.csv,    !- File Name
    1,                        !- Column Number
    0,                        !- Rows to Skip at Top
    8760,                     !- Number of Hours of Data
    Comma,                    !- Column Separator
    No,                       !- Interpolate to Timestep
    60,                       !- Minutes per Item
    Yes;                      !- Adjust Schedule for Daylight Savings

SCHEDULE:FILE,
    EU_Step8_GainSchedule_fd062c908350af6c_F3_whole_f000,    !- Name
    EU_Step8_AnyNumber_Wm2,    !- Schedule Type Limits Name
    ../../schedules/fd062c908350af6c/fd062c908350af6c_F3_whole_f000_gain.csv,    !- File Name
    1,                        !- Column Number
    0,                        !- Rows to Skip at Top
    8760,                     !- Number of Hours of Data
    Comma,                    !- Column Separator
    No,                       !- Interpolate to Timestep
    60,                       !- Minutes per Item
    Yes;                      !- Adjust Schedule for Daylight Savings

MATERIAL,
    EU_InternalMass_Material,    !- Name
    MediumRough,              !- Roughness
    0.1,                      !- Thickness
    1,                        !- Conductivity
    1800,                     !- Density
    900,                      !- Specific Heat
    0.9,                      !- Thermal Absorptance
    0.7,                      !- Solar Absorptance
    0.7;                      !- Visible Absorptance

MATERIAL:NOMASS,
    EU_wall_NoMass,           !- Name
    MediumRough,              !- Roughness
    1.6002158098852093,       !- Thermal Resistance
    0.9,                      !- Thermal Absorptance
    0.7,                      !- Solar Absorptance
    0.7;                      !- Visible Absorptance

MATERIAL:NOMASS,
    EU_roof_NoMass,           !- Name
    MediumRough,              !- Roughness
    1.5759701157960397,       !- Thermal Resistance
    0.9,                      !- Thermal Absorptance
    0.7,                      !- Solar Absorptance
    0.7;                      !- Visible Absorptance

MATERIAL:NOMASS,
    EU_floor_NoMass,          !- Name
    MediumRough,              !- Roughness
    0.4706517087897675,       !- Thermal Resistance
    0.9,                      !- Thermal Absorptance
    0.7,                      !- Solar Absorptance
    0.7;                      !- Visible Absorptance

CONSTRUCTION,
    EU_wall_Construction,     !- Name
    EU_wall_NoMass;           !- Outside Layer

CONSTRUCTION,
    EU_roof_Construction,     !- Name
    EU_roof_NoMass;           !- Outside Layer

CONSTRUCTION,
    EU_floor_Construction,    !- Name
    EU_floor_NoMass;          !- Outside Layer

CONSTRUCTION,
    EU_InternalMass_Construction,    !- Name
    EU_InternalMass_Material;    !- Outside Layer

GlobalGeometryRules,
    UpperLeftCorner,          !- Starting Vertex Position
    CounterClockWise,         !- Vertex Entry Direction
    World;                    !- Coordinate System

ZONE,
    fd062c908350af6c_F0_whole,    !- Name
    0,                        !- Direction of Relative North
    0,                        !- X Origin
    0,                        !- Y Origin
    0,                        !- Z Origin
    1,                        !- Type
    1,                        !- Multiplier
    autocalculate,            !- Ceiling Height
    1019.700439453125,        !- Volume
    autocalculate,            !- Floor Area
    ,                         !- Zone Inside Convection Algorithm
    ,                         !- Zone Outside Convection Algorithm
    Yes;                      !- Part of Total Floor Area

ZONE,
    fd062c908350af6c_F1_whole,    !- Name
    0,                        !- Direction of Relative North
    0,                        !- X Origin
    0,                        !- Y Origin
    0,                        !- Z Origin
    1,                        !- Type
    1,                        !- Multiplier
    autocalculate,            !- Ceiling Height
    1019.700439453125,        !- Volume
    autocalculate,            !- Floor Area
    ,                         !- Zone Inside Convection Algorithm
    ,                         !- Zone Outside Convection Algorithm
    Yes;                      !- Part of Total Floor Area

ZONE,
    fd062c908350af6c_F2_whole,    !- Name
    0,                        !- Direction of Relative North
    0,                        !- X Origin
    0,                        !- Y Origin
    0,                        !- Z Origin
    1,                        !- Type
    1,                        !- Multiplier
    autocalculate,            !- Ceiling Height
    1019.700439453125,        !- Volume
    autocalculate,            !- Floor Area
    ,                         !- Zone Inside Convection Algorithm
    ,                         !- Zone Outside Convection Algorithm
    Yes;                      !- Part of Total Floor Area

ZONE,
    fd062c908350af6c_F3_whole,    !- Name
    0,                        !- Direction of Relative North
    0,                        !- X Origin
    0,                        !- Y Origin
    0,                        !- Z Origin
    1,                        !- Type
    1,                        !- Multiplier
    autocalculate,            !- Ceiling Height
    1019.700439453125,        !- Volume
    autocalculate,            !- Floor Area
    ,                         !- Zone Inside Convection Algorithm
    ,                         !- Zone Outside Convection Algorithm
    Yes;                      !- Part of Total Floor Area

BUILDINGSURFACE:DETAILED,
    Block fd062c908350af6c_whole Storey 0 Wall 0001,    !- Name
    wall,                     !- Surface Type
    EU_wall_Construction,     !- Construction Name
    fd062c908350af6c_F0_whole,    !- Zone Name
    ,                         !- Space Name
    outdoors,                 !- Outside Boundary Condition
    ,                         !- Outside Boundary Condition Object
    SunExposed,               !- Sun Exposure
    WindExposed,              !- Wind Exposure
    autocalculate,            !- View Factor to Ground
    autocalculate,            !- Number of Vertices
    440162.644,               !- Vertex 1 Xcoordinate
    4479335.578,              !- Vertex 1 Ycoordinate
    3,                        !- Vertex 1 Zcoordinate
    440162.644,               !- Vertex 2 Xcoordinate
    4479335.578,              !- Vertex 2 Ycoordinate
    0,                        !- Vertex 2 Zcoordinate
    440163.632,               !- Vertex 3 Xcoordinate
    4479335.081,              !- Vertex 3 Ycoordinate
    0,                        !- Vertex 3 Zcoordinate
    440163.632,               !- Vertex 4 Xcoordinate
    4479335.081,              !- Vertex 4 Ycoordinate
    3;                        !- Vertex 4 Zcoordinate

BUILDINGSURFACE:DETAILED,
    Block fd062c908350af6c_whole Storey 0 Wall 0002,    !- Name
    wall,                     !- Surface Type
    EU_wall_Construction,     !- Construction Name
    fd062c908350af6c_F0_whole,    !- Zone Name
    ,                         !- Space Name
    outdoors,                 !- Outside Boundary Condition
    ,                         !- Outside Boundary Condition Object
    SunExposed,               !- Sun Exposure
    WindExposed,              !- Wind Exposure
    autocalculate,            !- View Factor to Ground
    autocalculate,            !- Number of Vertices
    440163.632,               !- Vertex 1 Xcoordinate
    4479335.081,              !- Vertex 1 Ycoordinate
    3,                        !- Vertex 1 Zcoordinate
    440163.632,               !- Vertex 2 Xcoordinate
    4479335.081,              !- Vertex 2 Ycoordinate
    0,                        !- Vertex 2 Zcoordinate
    440163.719,               !- Vertex 3 Xcoordinate
    4479335.281,              !- Vertex 3 Ycoordinate
    0,                        !- Vertex 3 Zcoordinate
    440163.719,               !- Vertex 4 Xcoordinate
    4479335.281,              !- Vertex 4 Ycoordinate
    3;                        !- Vertex 4 Zcoordinate

BUILDINGSURFACE:DETAILED,
    Block fd062c908350af6c_whole Storey 0 Wall 0003,    !- Name
    wall,                     !- Surface Type
    EU_wall_Construction,     !- Construction Name
    fd062c908350af6c_F0_whole,    !- Zone Name
    ,                         !- Space Name
    outdoors,                 !- Outside Boundary Condition
    ,                         !- Outside Boundary Condition Object
    SunExposed,               !- Sun Exposure
    WindExposed,              !- Wind Exposure
    autocalculate,            !- View Factor to Ground
    autocalculate,            !- Number of Vertices
    440163.719,               !- Vertex 1 Xcoordinate
    4479335.281,              !- Vertex 1 Ycoordinate
    3,                        !- Vertex 1 Zcoordinate
    440163.719,               !- Vertex 2 Xcoordinate
    4479335.281,              !- Vertex 2 Ycoordinate
    0,                        !- Vertex 2 Zcoordinate
    440163.415,               !- Vertex 3 Xcoordinate
    4479335.427,              !- Vertex 3 Ycoordinate
    0,                        !- Vertex 3 Zcoordinate
    440163.415,               !- Vertex 4 Xcoordinate
    4479335.427,              !- Vertex 4 Ycoordinate
    3;                        !- Vertex 4 Zcoordinate

BUILDINGSURFACE:DETAILED,
    Block fd062c908350af6c_whole Storey 0 Wall 0004,    !- Name
    wall,                     !- Surface Type
    EU_wall_Construction,     !- Construction Name
    fd062c908350af6c_F0_whole,    !- Zone Name
    ,                         !- Space Name
    outdoors,                 !- Outside Boundary Condition
    ,                         !- Outside Boundary Condition Object
    SunExposed,               !- Sun Exposure
    WindExposed,              !- Wind Exposure
    autocalculate,            !- View Factor to Ground
    autocalculate,            !- Number of Vertices
    440163.415,               !- Vertex 1 Xcoordinate
    4479335.427,              !- Vertex 1 Ycoordinate
    3,                        !- Vertex 1 Zcoordinate
    440163.415,               !- Vertex 2 Xcoordinate
    4479335.427,              !- Vertex 2 Ycoordinate
    0,                        !- Vertex 2 Zcoordinate
    440164.129,               !- Vertex 3 Xcoordinate
    4479336.776,              !- Vertex 3 Ycoordinate
    0,                        !- Vertex 3 Zcoordinate
    440164.129,               !- Vertex 4 Xcoordinate
    4479336.776,              !- Vertex 4 Ycoordinate
    3;                        !- Vertex 4 Zcoordinate

BUILDINGSURFACE:DETAILED,
    Block fd062c908350af6c_whole Storey 0 Wall 0005,    !- Name
    wall,                     !- Surface Type
    EU_wall_Construction,     !- Construction Name
    fd062c908350af6c_F0_whole,    !- Zone Name
    ,                         !- Space Name
    outdoors,                 !- Outside Boundary Condition
    ,                         !- Outside Boundary Condition Object
    SunExposed,               !- Sun Exposure
    WindExposed,              !- Wind Exposure
    autocalculate,            !- View Factor to Ground
    autocalculate,            !- Number of Vertices
    440164.129,               !- Vertex 1 Xcoordinate
    4479336.776,              !- Vertex 1 Ycoordinate
    3,                        !- Vertex 1 Zcoordinate
    440164.129,               !- Vertex 2 Xcoordinate
    4479336.776,              !- Vertex 2 Ycoordinate
    0,                        !- Vertex 2 Zcoordinate
    440164.433,               !- Vertex 3 Xcoordinate
    4479336.618,              !- Vertex 3 Ycoordinate
    0,                        !- Vertex 3 Zcoordinate
    440164.433,               !- Vertex 4 Xcoordinate
    4479336.618,              !- Vertex 4 Ycoordinate
    3;                        !- Vertex 4 Zcoordinate

BUILDINGSURFACE:DETAILED,
    Block fd062c908350af6c_whole Storey 0 Wall 0006,    !- Name
    wall,                     !- Surface Type
    EU_wall_Construction,     !- Construction Name
    fd062c908350af6c_F0_whole,    !- Zone Name
    ,                         !- Space Name
    outdoors,                 !- Outside Boundary Condition
    ,                         !- Outside Boundary Condition Object
    SunExposed,               !- Sun Exposure
    WindExposed,              !- Wind Exposure
    autocalculate,            !- View Factor to Ground
    autocalculate,            !- Number of Vertices
    440164.433,               !- Vertex 1 Xcoordinate
    4479336.618,              !- Vertex 1 Ycoordinate
    3,                        !- Vertex 1 Zcoordinate
    440164.433,               !- Vertex 2 Xcoordinate
    4479336.618,              !- Vertex 2 Ycoordinate
    0,                        !- Vertex 2 Zcoordinate
    440165.011,               !- Vertex 3 Xcoordinate
    4479337.779,              !- Vertex 3 Ycoordinate
    0,                        !- Vertex 3 Zcoordinate
    440165.011,               !- Vertex 4 Xcoordinate
    4479337.779,              !- Vertex 4 Ycoordinate
    3;                        !- Vertex 4 Zcoordinate

BUILDINGSURFACE:DETAILED,
    Block fd062c908350af6c_whole Storey 0 Wall 0007,    !- Name
    wall,                     !- Surface Type
    EU_wall_Construction,     !- Construction Name
    fd062c908350af6c_F0_whole,    !- Zone Name
    ,                         !- Space Name
    outdoors,                 !- Outside Boundary Condition
    ,                         !- Outside Boundary Condition Object
    SunExposed,               !- Sun Exposure
    WindExposed,              !- Wind Exposure
    autocalculate,            !- View Factor to Ground
    autocalculate,            !- Number of Vertices
    440165.011,               !- Vertex 1 Xcoordinate
    4479337.779,              !- Vertex 1 Ycoordinate
    3,                        !- Vertex 1 Zcoordinate
    440165.011,               !- Vertex 2 Xcoordinate
    4479337.779,              !- Vertex 2 Ycoordinate
    0,                        !- Vertex 2 Zcoordinate
    440164.065,               !- Vertex 3 Xcoordinate
    4479338.308,              !- Vertex 3 Ycoordinate
    0,                        !- Vertex 3 Zcoordinate
    440164.065,               !- Vertex 4 Xcoordinate
    4479338.308,              !- Vertex 4 Ycoordinate
    3;                        !- Vertex 4 Zcoordinate

BUILDINGSURFACE:DETAILED,
    Block fd062c908350af6c_whole Storey 0 Wall 0008,    !- Name
    wall,                     !- Surface Type
    EU_wall_Construction,     !- Construction Name
    fd062c908350af6c_F0_whole,    !- Zone Name
    ,                         !- Space Name
    outdoors,                 !- Outside Boundary Condition
    ,                         !- Outside Boundary Condition Object
    SunExposed,               !- Sun Exposure
    WindExposed,              !- Wind Exposure
    autocalculate,            !- View Factor to Ground
    autocalculate,            !- Number of Vertices
    440164.065,               !- Vertex 1 Xcoordinate
    4479338.308,              !- Vertex 1 Ycoordinate
    3,                        !- Vertex 1 Zcoordinate
    440164.065,               !- Vertex 2 Xcoordinate
    4479338.308,              !- Vertex 2 Ycoordinate
    0,                        !- Vertex 2 Zcoordinate
    440165.434,               !- Vertex 3 Xcoordinate
    4479340.928,              !- Vertex 3 Ycoordinate
    0,                        !- Vertex 3 Zcoordinate
    440165.434,               !- Vertex 4 Xcoordinate
    4479340.928,              !- Vertex 4 Ycoordinate
    3;                        !- Vertex 4 Zcoordinate

BUILDINGSURFACE:DETAILED,
    Block fd062c908350af6c_whole Storey 0 Wall 0009,    !- Name
    wall,                     !- Surface Type
    EU_wall_Construction,     !- Construction Name
    fd062c908350af6c_F0_whole,    !- Zone Name
    ,                         !- Space Name
    outdoors,                 !- Outside Boundary Condition
    ,                         !- Outside Boundary Condition Object
    SunExposed,               !- Sun Exposure
    WindExposed,              !- Wind Exposure
    autocalculate,            !- View Factor to Ground
    autocalculate,            !- Number of Vertices
    440165.434,               !- Vertex 1 Xcoordinate
    4479340.928,              !- Vertex 1 Ycoordinate
    3,                        !- Vertex 1 Zcoordinate
    440165.434,               !- Vertex 2 Xcoordinate
    4479340.928,              !- Vertex 2 Ycoordinate
    0,                        !- Vertex 2 Zcoordinate
    440166.363,               !- Vertex 3 Xcoordinate
    4479340.443,              !- Vertex 3 Ycoordinate
    0,                        !- Vertex 3 Zcoordinate
    440166.363,               !- Vertex 4 Xcoordinate
    4479340.443,              !- Vertex 4 Ycoordinate
    3;                        !- Vertex 4 Zcoordinate

BUILDINGSURFACE:DETAILED,
    Block fd062c908350af6c_whole Storey 0 Wall 0010,    !- Name
    wall,                     !- Surface Type
    EU_wall_Construction,     !- Construction Name
    fd062c908350af6c_F0_whole,    !- Zone Name
    ,                         !- Space Name
    outdoors,                 !- Outside Boundary Condition
    ,                         !- Outside Boundary Condition Object
    SunExposed,               !- Sun Exposure
    WindExposed,              !- Wind Exposure
    autocalculate,            !- View Factor to Ground
    autocalculate,            !- Number of Vertices
    440166.363,               !- Vertex 1 Xcoordinate
    4479340.443,              !- Vertex 1 Ycoordinate
    3,                        !- Vertex 1 Zcoordinate
    440166.363,               !- Vertex 2 Xcoordinate
    4479340.443,              !- Vertex 2 Ycoordinate
    0,                        !- Vertex 2 Zcoordinate
    440166.992,               !- Vertex 3 Xcoordinate
    4479341.704,              !- Vertex 3 Ycoordinate
    0,                        !- Vertex 3 Zcoordinate
    440166.992,               !- Vertex 4 Xcoordinate
    4479341.704,              !- Vertex 4 Ycoordinate
    3;                        !- Vertex 4 Zcoordinate

BUILDINGSURFACE:DETAILED,
    Block fd062c908350af6c_whole Storey 0 Wall 0011,    !- Name
    wall,                     !- Surface Type
    EU_wall_Construction,     !- Construction Name
    fd062c908350af6c_F0_whole,    !- Zone Name
    ,                         !- Space Name
    outdoors,                 !- Outside Boundary Condition
    ,                         !- Outside Boundary Condition Object
    SunExposed,               !- Sun Exposure
    WindExposed,              !- Wind Exposure
    autocalculate,            !- View Factor to Ground
    autocalculate,            !- Number of Vertices
    440166.992,               !- Vertex 1 Xcoordinate
    4479341.704,              !- Vertex 1 Ycoordinate
    3,                        !- Vertex 1 Zcoordinate
    440166.992,               !- Vertex 2 Xcoordinate
    4479341.704,              !- Vertex 2 Ycoordinate
    0,                        !- Vertex 2 Zcoordinate
    440166.038,               !- Vertex 3 Xcoordinate
    4479342.189,              !- Vertex 3 Ycoordinate
    0,                        !- Vertex 3 Zcoordinate
    440166.038,               !- Vertex 4 Xcoordinate
    4479342.189,              !- Vertex 4 Ycoordinate
    3;                        !- Vertex 4 Zcoordinate

BUILDINGSURFACE:DETAILED,
    Block fd062c908350af6c_whole Storey 0 Wall 0012,    !- Name
    wall,                     !- Surface Type
    EU_wall_Construction,     !- Construction Name
    fd062c908350af6c_F0_whole,    !- Zone Name
    ,                         !- Space Name
    outdoors,                 !- Outside Boundary Condition
    ,                         !- Outside Boundary Condition Object
    SunExposed,               !- Sun Exposure
    WindExposed,              !- Wind Exposure
    autocalculate,            !- View Factor to Ground
    autocalculate,            !- Number of Vertices
    440166.038,               !- Vertex 1 Xcoordinate
    4479342.189,              !- Vertex 1 Ycoordinate
    3,                        !- Vertex 1 Zcoordinate
    440166.038,               !- Vertex 2 Xcoordinate
    4479342.189,              !- Vertex 2 Ycoordinate
    0,                        !- Vertex 2 Zcoordinate
    440167.407,               !- Vertex 3 Xcoordinate
    4479344.831,              !- Vertex 3 Ycoordinate
    0,                        !- Vertex 3 Zcoordinate
    440167.407,               !- Vertex 4 Xcoordinate
    4479344.831,              !- Vertex 4 Ycoordinate
    3;                        !- Vertex 4 Zcoordinate

BUILDINGSURFACE:DETAILED,
    Block fd062c908350af6c_whole Storey 0 Wall 0013,    !- Name
    wall,                     !- Surface Type
    EU_wall_Construction,     !- Construction Name
    fd062c908350af6c_F0_whole,    !- Zone Name
    ,                         !- Space Name
    outdoors,                 !- Outside Boundary Condition
    ,                         !- Outside Boundary Condition Object
    SunExposed,               !- Sun Exposure
    WindExposed,              !- Wind Exposure
    autocalculate,            !- View Factor to Ground
    autocalculate,            !- Number of Vertices
    440167.407,               !- Vertex 1 Xcoordinate
    4479344.831,              !- Vertex 1 Ycoordinate
    3,                        !- Vertex 1 Zcoordinate
    440167.407,               !- Vertex 2 Xcoordinate
    4479344.831,              !- Vertex 2 Ycoordinate
    0,                        !- Vertex 2 Zcoordinate
    440168.412,               !- Vertex 3 Xcoordinate
    4479344.346,              !- Vertex 3 Ycoordinate
    0,                        !- Vertex 3 Zcoordinate
    440168.412,               !- Vertex 4 Xcoordinate
    4479344.346,              !- Vertex 4 Ycoordinate
    3;                        !- Vertex 4 Zcoordinate

BUILDINGSURFACE:DETAILED,
    Block fd062c908350af6c_whole Storey 0 Wall 0014,    !- Name
    wall,                     !- Surface Type
    EU_wall_Construction,     !- Construction Name
    fd062c908350af6c_F0_whole,    !- Zone Name
    ,                         !- Space Name
    outdoors,                 !- Outside Boundary Condition
    ,                         !- Outside Boundary Condition Object
    SunExposed,               !- Sun Exposure
    WindExposed,              !- Wind Exposure
    autocalculate,            !- View Factor to Ground
    autocalculate,            !- Number of Vertices
    440168.412,               !- Vertex 1 Xcoordinate
    4479344.346,              !- Vertex 1 Ycoordinate
    3,                        !- Vertex 1 Zcoordinate
    440168.412,               !- Vertex 2 Xcoordinate
    4479344.346,              !- Vertex 2 Ycoordinate
    0,                        !- Vertex 2 Zcoordinate
    440168.92,                !- Vertex 3 Xcoordinate
    4479345.352,              !- Vertex 3 Ycoordinate
    0,                        !- Vertex 3 Zcoordinate
    440168.92,                !- Vertex 4 Xcoordinate
    4479345.352,              !- Vertex 4 Ycoordinate
    3;                        !- Vertex 4 Zcoordinate

BUILDINGSURFACE:DETAILED,
    Block fd062c908350af6c_whole Storey 0 Wall 0015,    !- Name
    wall,                     !- Surface Type
    EU_wall_Construction,     !- Construction Name
    fd062c908350af6c_F0_whole,    !- Zone Name
    ,                         !- Space Name
    outdoors,                 !- Outside Boundary Condition
    ,                         !- Outside Boundary Condition Object
    SunExposed,               !- Sun Exposure
    WindExposed,              !- Wind Exposure
    autocalculate,            !- View Factor to Ground
    autocalculate,            !- Number of Vertices
    440168.92,                !- Vertex 1 Xcoordinate
    4479345.352,              !- Vertex 1 Ycoordinate
    3,                        !- Vertex 1 Zcoordinate
    440168.92,                !- Vertex 2 Xcoordinate
    4479345.352,              !- Vertex 2 Ycoordinate
    0,                        !- Vertex 2 Zcoordinate
    440168.591,               !- Vertex 3 Xcoordinate
    4479345.532,              !- Vertex 3 Ycoordinate
    0,                        !- Vertex 3 Zcoordinate
    440168.591,               !- Vertex 4 Xcoordinate
    4479345.532,              !- Vertex 4 Ycoordinate
    3;                        !- Vertex 4 Zcoordinate

BUILDINGSURFACE:DETAILED,
    Block fd062c908350af6c_whole Storey 0 Wall 0016,    !- Name
    wall,                     !- Surface Type
    EU_wall_Construction,     !- Construction Name
    fd062c908350af6c_F0_whole,    !- Zone Name
    ,                         !- Space Name
    outdoors,                 !- Outside Boundary Condition
    ,                         !- Outside Boundary Condition Object
    SunExposed,               !- Sun Exposure
    WindExposed,              !- Wind Exposure
    autocalculate,            !- View Factor to Ground
    autocalculate,            !- Number of Vertices
    440168.591,               !- Vertex 1 Xcoordinate
    4479345.532,              !- Vertex 1 Ycoordinate
    3,                        !- Vertex 1 Zcoordinate
    440168.591,               !- Vertex 2 Xcoordinate
    4479345.532,              !- Vertex 2 Ycoordinate
    0,                        !- Vertex 2 Zcoordinate
    440169.479,               !- Vertex 3 Xcoordinate
    4479347.301,              !- Vertex 3 Ycoordinate
    0,                        !- Vertex 3 Zcoordinate
    440169.479,               !- Vertex 4 Xcoordinate
    4479347.301,              !- Vertex 4 Ycoordinate
    3;                        !- Vertex 4 Zcoordinate

BUILDINGSURFACE:DETAILED,
    Block fd062c908350af6c_whole Storey 0 Wall 0017,    !- Name
    wall,                     !- Surface Type
    EU_wall_Construction,     !- Construction Name
    fd062c908350af6c_F0_whole,    !- Zone Name
    ,                         !- Space Name
    outdoors,                 !- Outside Boundary Condition
    ,                         !- Outside Boundary Condition Object
    SunExposed,               !- Sun Exposure
    WindExposed,              !- Wind Exposure
    autocalculate,            !- View Factor to Ground
    autocalculate,            !- Number of Vertices
    440169.479,               !- Vertex 1 Xcoordinate
    4479347.301,              !- Vertex 1 Ycoordinate
    3,                        !- Vertex 1 Zcoordinate
    440169.479,               !- Vertex 2 Xcoordinate
    4479347.301,              !- Vertex 2 Ycoordinate
    0,                        !- Vertex 2 Zcoordinate
    440169.251,               !- Vertex 3 Xcoordinate
    4479347.436,              !- Vertex 3 Ycoordinate
    0,                        !- Vertex 3 Zcoordinate
    440169.251,               !- Vertex 4 Xcoordinate
    4479347.436,              !- Vertex 4 Ycoordinate
    3;                        !- Vertex 4 Zcoordinate

BUILDINGSURFACE:DETAILED,
    Block fd062c908350af6c_whole Storey 0 Wall 0018,    !- Name
    wall,                     !- Surface Type
    EU_wall_Construction,     !- Construction Name
    fd062c908350af6c_F0_whole,    !- Zone Name
    ,                         !- Space Name
    outdoors,                 !- Outside Boundary Condition
    ,                         !- Outside Boundary Condition Object
    SunExposed,               !- Sun Exposure
    WindExposed,              !- Wind Exposure
    autocalculate,            !- View Factor to Ground
    autocalculate,            !- Number of Vertices
    440169.251,               !- Vertex 1 Xcoordinate
    4479347.436,              !- Vertex 1 Ycoordinate
    3,                        !- Vertex 1 Zcoordinate
    440169.251,               !- Vertex 2 Xcoordinate
    4479347.436,              !- Vertex 2 Ycoordinate
    0,                        !- Vertex 2 Zcoordinate
    440167.74,                !- Vertex 3 Xcoordinate
    4479350.39,               !- Vertex 3 Ycoordinate
    0,                        !- Vertex 3 Zcoordinate
    440167.74,                !- Vertex 4 Xcoordinate
    4479350.39,               !- Vertex 4 Ycoordinate
    3;                        !- Vertex 4 Zcoordinate

BUILDINGSURFACE:DETAILED,
    Block fd062c908350af6c_whole Storey 0 Wall 0019,    !- Name
    wall,                     !- Surface Type
    EU_wall_Construction,     !- Construction Name
    fd062c908350af6c_F0_whole,    !- Zone Name
    ,                         !- Space Name
    outdoors,                 !- Outside Boundary Condition
    ,                         !- Outside Boundary Condition Object
    SunExposed,               !- Sun Exposure
    WindExposed,              !- Wind Exposure
    autocalculate,            !- View Factor to Ground
    autocalculate,            !- Number of Vertices
    440167.74,                !- Vertex 1 Xcoordinate
    4479350.39,               !- Vertex 1 Ycoordinate
    3,                        !- Vertex 1 Zcoordinate
    440167.74,                !- Vertex 2 Xcoordinate
    4479350.39,               !- Vertex 2 Ycoordinate
    0,                        !- Vertex 2 Zcoordinate
    440168.813,               !- Vertex 3 Xcoordinate
    4479350.97,               !- Vertex 3 Ycoordinate
    0,                        !- Vertex 3 Zcoordinate
    440168.813,               !- Vertex 4 Xcoordinate
    4479350.97,               !- Vertex 4 Ycoordinate
    3;                        !- Vertex 4 Zcoordinate

BUILDINGSURFACE:DETAILED,
    Block fd062c908350af6c_whole Storey 0 Wall 0020,    !- Name
    wall,                     !- Surface Type
    EU_wall_Construction,     !- Construction Name
    fd062c908350af6c_F0_whole,    !- Zone Name
    ,                         !- Space Name
    outdoors,                 !- Outside Boundary Condition
    ,                         !- Outside Boundary Condition Object
    SunExposed,               !- Sun Exposure
    WindExposed,              !- Wind Exposure
    autocalculate,            !- View Factor to Ground
    autocalculate,            !- Number of Vertices
    440168.813,               !- Vertex 1 Xcoordinate
    4479350.97,               !- Vertex 1 Ycoordinate
    3,                        !- Vertex 1 Zcoordinate
    440168.813,               !- Vertex 2 Xcoordinate
    4479350.97,               !- Vertex 2 Ycoordinate
    0,                        !- Vertex 2 Zcoordinate
    440167.97,                !- Vertex 3 Xcoordinate
    4479352.675,              !- Vertex 3 Ycoordinate
    0,                        !- Vertex 3 Zcoordinate
    440167.97,                !- Vertex 4 Xcoordinate
    4479352.675,              !- Vertex 4 Ycoordinate
    3;                        !- Vertex 4 Zcoordinate

BUILDINGSURFACE:DETAILED,
    Block fd062c908350af6c_whole Storey 0 Wall 0021,    !- Name
    wall,                     !- Surface Type
    EU_wall_Construction,     !- Construction Name
    fd062c908350af6c_F0_whole,    !- Zone Name
    ,                         !- Space Name
    Adiabatic,                !- Outside Boundary Condition
    ,                         !- Outside Boundary Condition Object
    NoSun,                    !- Sun Exposure
    NoWind,                   !- Wind Exposure
    autocalculate,            !- View Factor to Ground
    autocalculate,            !- Number of Vertices
    440167.97,                !- Vertex 1 Xcoordinate
    4479352.675,              !- Vertex 1 Ycoordinate
    3,                        !- Vertex 1 Zcoordinate
    440167.97,                !- Vertex 2 Xcoordinate
    4479352.675,              !- Vertex 2 Ycoordinate
    0,                        !- Vertex 2 Zcoordinate
    440178.017,               !- Vertex 3 Xcoordinate
    4479357.912,              !- Vertex 3 Ycoordinate
    0,                        !- Vertex 3 Zcoordinate
    440178.017,               !- Vertex 4 Xcoordinate
    4479357.912,              !- Vertex 4 Ycoordinate
    3;                        !- Vertex 4 Zcoordinate

BUILDINGSURFACE:DETAILED,
    Block fd062c908350af6c_whole Storey 0 Wall 0022,    !- Name
    wall,                     !- Surface Type
    EU_wall_Construction,     !- Construction Name
    fd062c908350af6c_F0_whole,    !- Zone Name
    ,                         !- Space Name
    outdoors,                 !- Outside Boundary Condition
    ,                         !- Outside Boundary Condition Object
    SunExposed,               !- Sun Exposure
    WindExposed,              !- Wind Exposure
    autocalculate,            !- View Factor to Ground
    autocalculate,            !- Number of Vertices
    440178.017,               !- Vertex 1 Xcoordinate
    4479357.912,              !- Vertex 1 Ycoordinate
    3,                        !- Vertex 1 Zcoordinate
    440178.017,               !- Vertex 2 Xcoordinate
    4479357.912,              !- Vertex 2 Ycoordinate
    0,                        !- Vertex 2 Zcoordinate
    440181.747,               !- Vertex 3 Xcoordinate
    4479350.444,              !- Vertex 3 Ycoordinate
    0,                        !- Vertex 3 Zcoordinate
    440181.747,               !- Vertex 4 Xcoordinate
    4479350.444,              !- Vertex 4 Ycoordinate
    3;                        !- Vertex 4 Zcoordinate

BUILDINGSURFACE:DETAILED,
    Block fd062c908350af6c_whole Storey 0 Wall 0023,    !- Name
    wall,                     !- Surface Type
    EU_wall_Construction,     !- Construction Name
    fd062c908350af6c_F0_whole,    !- Zone Name
    ,                         !- Space Name
    outdoors,                 !- Outside Boundary Condition
    ,                         !- Outside Boundary Condition Object
    SunExposed,               !- Sun Exposure
    WindExposed,              !- Wind Exposure
    autocalculate,            !- View Factor to Ground
    autocalculate,            !- Number of Vertices
    440181.747,               !- Vertex 1 Xcoordinate
    4479350.444,              !- Vertex 1 Ycoordinate
    3,                        !- Vertex 1 Zcoordinate
    440181.747,               !- Vertex 2 Xcoordinate
    4479350.444,              !- Vertex 2 Ycoordinate
    0,                        !- Vertex 2 Zcoordinate
    440181.679,               !- Vertex 3 Xcoordinate
    4479348.258,              !- Vertex 3 Ycoordinate
    0,                        !- Vertex 3 Zcoordinate
    440181.679,               !- Vertex 4 Xcoordinate
    4479348.258,              !- Vertex 4 Ycoordinate
    3;                        !- Vertex 4 Zcoordinate

BUILDINGSURFACE:DETAILED,
    Block fd062c908350af6c_whole Storey 0 Wall 0024,    !- Name
    wall,                     !- Surface Type
    EU_wall_Construction,     !- Construction Name
    fd062c908350af6c_F0_whole,    !- Zone Name
    ,                         !- Space Name
    outdoors,                 !- Outside Boundary Condition
    ,                         !- Outside Boundary Condition Object
    SunExposed,               !- Sun Exposure
    WindExposed,              !- Wind Exposure
    autocalculate,            !- View Factor to Ground
    autocalculate,            !- Number of Vertices
    440181.679,               !- Vertex 1 Xcoordinate
    4479348.258,              !- Vertex 1 Ycoordinate
    3,                        !- Vertex 1 Zcoordinate
    440181.679,               !- Vertex 2 Xcoordinate
    4479348.258,              !- Vertex 2 Ycoordinate
    0,                        !- Vertex 2 Zcoordinate
    440175.6,                 !- Vertex 3 Xcoordinate
    4479336.606,              !- Vertex 3 Ycoordinate
    0,                        !- Vertex 3 Zcoordinate
    440175.6,                 !- Vertex 4 Xcoordinate
    4479336.606,              !- Vertex 4 Ycoordinate
    3;                        !- Vertex 4 Zcoordinate

BUILDINGSURFACE:DETAILED,
    Block fd062c908350af6c_whole Storey 0 Wall 0025,    !- Name
    wall,                     !- Surface Type
    EU_wall_Construction,     !- Construction Name
    fd062c908350af6c_F0_whole,    !- Zone Name
    ,                         !- Space Name
    outdoors,                 !- Outside Boundary Condition
    ,                         !- Outside Boundary Condition Object
    SunExposed,               !- Sun Exposure
    WindExposed,              !- Wind Exposure
    autocalculate,            !- View Factor to Ground
    autocalculate,            !- Number of Vertices
    440175.6,                 !- Vertex 1 Xcoordinate
    4479336.606,              !- Vertex 1 Ycoordinate
    3,                        !- Vertex 1 Zcoordinate
    440175.6,                 !- Vertex 2 Xcoordinate
    4479336.606,              !- Vertex 2 Ycoordinate
    0,                        !- Vertex 2 Zcoordinate
    440168.659,               !- Vertex 3 Xcoordinate
    4479323.319,              !- Vertex 3 Ycoordinate
    0,                        !- Vertex 3 Zcoordinate
    440168.659,               !- Vertex 4 Xcoordinate
    4479323.319,              !- Vertex 4 Ycoordinate
    3;                        !- Vertex 4 Zcoordinate

BUILDINGSURFACE:DETAILED,
    Block fd062c908350af6c_whole Storey 0 Wall 0026,    !- Name
    wall,                     !- Surface Type
    EU_wall_Construction,     !- Construction Name
    fd062c908350af6c_F0_whole,    !- Zone Name
    ,                         !- Space Name
    Adiabatic,                !- Outside Boundary Condition
    ,                         !- Outside Boundary Condition Object
    NoSun,                    !- Sun Exposure
    NoWind,                   !- Wind Exposure
    autocalculate,            !- View Factor to Ground
    autocalculate,            !- Number of Vertices
    440168.659,               !- Vertex 1 Xcoordinate
    4479323.319,              !- Vertex 1 Ycoordinate
    3,                        !- Vertex 1 Zcoordinate
    440168.659,               !- Vertex 2 Xcoordinate
    4479323.319,              !- Vertex 2 Ycoordinate
    0,                        !- Vertex 2 Zcoordinate
    440168.429,               !- Vertex 3 Xcoordinate
    4479323.176,              !- Vertex 3 Ycoordinate
    0,                        !- Vertex 3 Zcoordinate
    440168.429,               !- Vertex 4 Xcoordinate
    4479323.176,              !- Vertex 4 Ycoordinate
    3;                        !- Vertex 4 Zcoordinate

BUILDINGSURFACE:DETAILED,
    Block fd062c908350af6c_whole Storey 0 Wall 0027,    !- Name
    wall,                     !- Surface Type
    EU_wall_Construction,     !- Construction Name
    fd062c908350af6c_F0_whole,    !- Zone Name
    ,                         !- Space Name
    Adiabatic,                !- Outside Boundary Condition
    ,                         !- Outside Boundary Condition Object
    NoSun,                    !- Sun Exposure
    NoWind,                   !- Wind Exposure
    autocalculate,            !- View Factor to Ground
    autocalculate,            !- Number of Vertices
    440168.429,               !- Vertex 1 Xcoordinate
    4479323.176,              !- Vertex 1 Ycoordinate
    3,                        !- Vertex 1 Zcoordinate
    440168.429,               !- Vertex 2 Xcoordinate
    4479323.176,              !- Vertex 2 Ycoordinate
    0,                        !- Vertex 2 Zcoordinate
    440160.948,               !- Vertex 3 Xcoordinate
    4479332.328,              !- Vertex 3 Ycoordinate
    0,                        !- Vertex 3 Zcoordinate
    440160.948,               !- Vertex 4 Xcoordinate
    4479332.328,              !- Vertex 4 Ycoordinate
    3;                        !- Vertex 4 Zcoordinate

BUILDINGSURFACE:DETAILED,
    Block fd062c908350af6c_whole Storey 0 Wall 0028,    !- Name
    wall,                     !- Surface Type
    EU_wall_Construction,     !- Construction Name
    fd062c908350af6c_F0_whole,    !- Zone Name
    ,                         !- Space Name
    outdoors,                 !- Outside Boundary Condition
    ,                         !- Outside Boundary Condition Object
    SunExposed,               !- Sun Exposure
    WindExposed,              !- Wind Exposure
    autocalculate,            !- View Factor to Ground
    autocalculate,            !- Number of Vertices
    440160.948,               !- Vertex 1 Xcoordinate
    4479332.328,              !- Vertex 1 Ycoordinate
    3,                        !- Vertex 1 Zcoordinate
    440160.948,               !- Vertex 2 Xcoordinate
    4479332.328,              !- Vertex 2 Ycoordinate
    0,                        !- Vertex 2 Zcoordinate
    440162.644,               !- Vertex 3 Xcoordinate
    4479335.578,              !- Vertex 3 Ycoordinate
    0,                        !- Vertex 3 Zcoordinate
    440162.644,               !- Vertex 4 Xcoordinate
    4479335.578,              !- Vertex 4 Ycoordinate
    3;                        !- Vertex 4 Zcoordinate

BUILDINGSURFACE:DETAILED,
    Block fd062c908350af6c_whole Storey 0 Floor 0001,    !- Name
    floor,                    !- Surface Type
    EU_floor_Construction,    !- Construction Name
    fd062c908350af6c_F0_whole,    !- Zone Name
    ,                         !- Space Name
    ground,                   !- Outside Boundary Condition
    ,                         !- Outside Boundary Condition Object
    NoSun,                    !- Sun Exposure
    NoWind,                   !- Wind Exposure
    autocalculate,            !- View Factor to Ground
    autocalculate,            !- Number of Vertices
    440168.659,               !- Vertex 1 Xcoordinate
    4479323.319,              !- Vertex 1 Ycoordinate
    0,                        !- Vertex 1 Zcoordinate
    440175.6,                 !- Vertex 2 Xcoordinate
    4479336.606,              !- Vertex 2 Ycoordinate
    0,                        !- Vertex 2 Zcoordinate
    440181.679,               !- Vertex 3 Xcoordinate
    4479348.258,              !- Vertex 3 Ycoordinate
    0,                        !- Vertex 3 Zcoordinate
    440181.747,               !- Vertex 4 Xcoordinate
    4479350.444,              !- Vertex 4 Ycoordinate
    0,                        !- Vertex 4 Zcoordinate
    440178.017,               !- Vertex 5 Xcoordinate
    4479357.912,              !- Vertex 5 Ycoordinate
    0,                        !- Vertex 5 Zcoordinate
    440167.97,                !- Vertex 6 Xcoordinate
    4479352.675,              !- Vertex 6 Ycoordinate
    0,                        !- Vertex 6 Zcoordinate
    440168.813,               !- Vertex 7 Xcoordinate
    4479350.97,               !- Vertex 7 Ycoordinate
    0,                        !- Vertex 7 Zcoordinate
    440167.74,                !- Vertex 8 Xcoordinate
    4479350.39,               !- Vertex 8 Ycoordinate
    0,                        !- Vertex 8 Zcoordinate
    440169.251,               !- Vertex 9 Xcoordinate
    4479347.436,              !- Vertex 9 Ycoordinate
    0,                        !- Vertex 9 Zcoordinate
    440169.479,               !- Vertex 10 Xcoordinate
    4479347.301,              !- Vertex 10 Ycoordinate
    0,                        !- Vertex 10 Zcoordinate
    440168.591,               !- Vertex 11 Xcoordinate
    4479345.532,              !- Vertex 11 Ycoordinate
    0,                        !- Vertex 11 Zcoordinate
    440168.92,                !- Vertex 12 Xcoordinate
    4479345.352,              !- Vertex 12 Ycoordinate
    0,                        !- Vertex 12 Zcoordinate
    440168.412,               !- Vertex 13 Xcoordinate
    4479344.346,              !- Vertex 13 Ycoordinate
    0,                        !- Vertex 13 Zcoordinate
    440167.407,               !- Vertex 14 Xcoordinate
    4479344.831,              !- Vertex 14 Ycoordinate
    0,                        !- Vertex 14 Zcoordinate
    440166.038,               !- Vertex 15 Xcoordinate
    4479342.189,              !- Vertex 15 Ycoordinate
    0,                        !- Vertex 15 Zcoordinate
    440166.992,               !- Vertex 16 Xcoordinate
    4479341.704,              !- Vertex 16 Ycoordinate
    0,                        !- Vertex 16 Zcoordinate
    440166.363,               !- Vertex 17 Xcoordinate
    4479340.443,              !- Vertex 17 Ycoordinate
    0,                        !- Vertex 17 Zcoordinate
    440165.434,               !- Vertex 18 Xcoordinate
    4479340.928,              !- Vertex 18 Ycoordinate
    0,                        !- Vertex 18 Zcoordinate
    440164.065,               !- Vertex 19 Xcoordinate
    4479338.308,              !- Vertex 19 Ycoordinate
    0,                        !- Vertex 19 Zcoordinate
    440165.011,               !- Vertex 20 Xcoordinate
    4479337.779,              !- Vertex 20 Ycoordinate
    0,                        !- Vertex 20 Zcoordinate
    440164.433,               !- Vertex 21 Xcoordinate
    4479336.618,              !- Vertex 21 Ycoordinate
    0,                        !- Vertex 21 Zcoordinate
    440164.129,               !- Vertex 22 Xcoordinate
    4479336.776,              !- Vertex 22 Ycoordinate
    0,                        !- Vertex 22 Zcoordinate
    440163.415,               !- Vertex 23 Xcoordinate
    4479335.427,              !- Vertex 23 Ycoordinate
    0,                        !- Vertex 23 Zcoordinate
    440163.719,               !- Vertex 24 Xcoordinate
    4479335.281,              !- Vertex 24 Ycoordinate
    0,                        !- Vertex 24 Zcoordinate
    440163.632,               !- Vertex 25 Xcoordinate
    4479335.081,              !- Vertex 25 Ycoordinate
    0,                        !- Vertex 25 Zcoordinate
    440162.644,               !- Vertex 26 Xcoordinate
    4479335.578,              !- Vertex 26 Ycoordinate
    0,                        !- Vertex 26 Zcoordinate
    440160.948,               !- Vertex 27 Xcoordinate
    4479332.328,              !- Vertex 27 Ycoordinate
    0,                        !- Vertex 27 Zcoordinate
    440168.429,               !- Vertex 28 Xcoordinate
    4479323.176,              !- Vertex 28 Ycoordinate
    0;                        !- Vertex 28 Zcoordinate

BUILDINGSURFACE:DETAILED,
    Block fd062c908350af6c_whole Storey 1 Wall 0001,    !- Name
    wall,                     !- Surface Type
    EU_wall_Construction,     !- Construction Name
    fd062c908350af6c_F1_whole,    !- Zone Name
    ,                         !- Space Name
    outdoors,                 !- Outside Boundary Condition
    ,                         !- Outside Boundary Condition Object
    SunExposed,               !- Sun Exposure
    WindExposed,              !- Wind Exposure
    autocalculate,            !- View Factor to Ground
    autocalculate,            !- Number of Vertices
    440162.644,               !- Vertex 1 Xcoordinate
    4479335.578,              !- Vertex 1 Ycoordinate
    6,                        !- Vertex 1 Zcoordinate
    440162.644,               !- Vertex 2 Xcoordinate
    4479335.578,              !- Vertex 2 Ycoordinate
    3,                        !- Vertex 2 Zcoordinate
    440163.632,               !- Vertex 3 Xcoordinate
    4479335.081,              !- Vertex 3 Ycoordinate
    3,                        !- Vertex 3 Zcoordinate
    440163.632,               !- Vertex 4 Xcoordinate
    4479335.081,              !- Vertex 4 Ycoordinate
    6;                        !- Vertex 4 Zcoordinate

BUILDINGSURFACE:DETAILED,
    Block fd062c908350af6c_whole Storey 1 Wall 0002,    !- Name
    wall,                     !- Surface Type
    EU_wall_Construction,     !- Construction Name
    fd062c908350af6c_F1_whole,    !- Zone Name
    ,                         !- Space Name
    outdoors,                 !- Outside Boundary Condition
    ,                         !- Outside Boundary Condition Object
    SunExposed,               !- Sun Exposure
    WindExposed,              !- Wind Exposure
    autocalculate,            !- View Factor to Ground
    autocalculate,            !- Number of Vertices
    440163.632,               !- Vertex 1 Xcoordinate
    4479335.081,              !- Vertex 1 Ycoordinate
    6,                        !- Vertex 1 Zcoordinate
    440163.632,               !- Vertex 2 Xcoordinate
    4479335.081,              !- Vertex 2 Ycoordinate
    3,                        !- Vertex 2 Zcoordinate
    440163.719,               !- Vertex 3 Xcoordinate
    4479335.281,              !- Vertex 3 Ycoordinate
    3,                        !- Vertex 3 Zcoordinate
    440163.719,               !- Vertex 4 Xcoordinate
    4479335.281,              !- Vertex 4 Ycoordinate
    6;                        !- Vertex 4 Zcoordinate

BUILDINGSURFACE:DETAILED,
    Block fd062c908350af6c_whole Storey 1 Wall 0003,    !- Name
    wall,                     !- Surface Type
    EU_wall_Construction,     !- Construction Name
    fd062c908350af6c_F1_whole,    !- Zone Name
    ,                         !- Space Name
    outdoors,                 !- Outside Boundary Condition
    ,                         !- Outside Boundary Condition Object
    SunExposed,               !- Sun Exposure
    WindExposed,              !- Wind Exposure
    autocalculate,            !- View Factor to Ground
    autocalculate,            !- Number of Vertices
    440163.719,               !- Vertex 1 Xcoordinate
    4479335.281,              !- Vertex 1 Ycoordinate
    6,                        !- Vertex 1 Zcoordinate
    440163.719,               !- Vertex 2 Xcoordinate
    4479335.281,              !- Vertex 2 Ycoordinate
    3,                        !- Vertex 2 Zcoordinate
    440163.415,               !- Vertex 3 Xcoordinate
    4479335.427,              !- Vertex 3 Ycoordinate
    3,                        !- Vertex 3 Zcoordinate
    440163.415,               !- Vertex 4 Xcoordinate
    4479335.427,              !- Vertex 4 Ycoordinate
    6;                        !- Vertex 4 Zcoordinate

BUILDINGSURFACE:DETAILED,
    Block fd062c908350af6c_whole Storey 1 Wall 0004,    !- Name
    wall,                     !- Surface Type
    EU_wall_Construction,     !- Construction Name
    fd062c908350af6c_F1_whole,    !- Zone Name
    ,                         !- Space Name
    outdoors,                 !- Outside Boundary Condition
    ,                         !- Outside Boundary Condition Object
    SunExposed,               !- Sun Exposure
    WindExposed,              !- Wind Exposure
    autocalculate,            !- View Factor to Ground
    autocalculate,            !- Number of Vertices
    440163.415,               !- Vertex 1 Xcoordinate
    4479335.427,              !- Vertex 1 Ycoordinate
    6,                        !- Vertex 1 Zcoordinate
    440163.415,               !- Vertex 2 Xcoordinate
    4479335.427,              !- Vertex 2 Ycoordinate
    3,                        !- Vertex 2 Zcoordinate
    440164.129,               !- Vertex 3 Xcoordinate
    4479336.776,              !- Vertex 3 Ycoordinate
    3,                        !- Vertex 3 Zcoordinate
    440164.129,               !- Vertex 4 Xcoordinate
    4479336.776,              !- Vertex 4 Ycoordinate
    6;                        !- Vertex 4 Zcoordinate

BUILDINGSURFACE:DETAILED,
    Block fd062c908350af6c_whole Storey 1 Wall 0005,    !- Name
    wall,                     !- Surface Type
    EU_wall_Construction,     !- Construction Name
    fd062c908350af6c_F1_whole,    !- Zone Name
    ,                         !- Space Name
    outdoors,                 !- Outside Boundary Condition
    ,                         !- Outside Boundary Condition Object
    SunExposed,               !- Sun Exposure
    WindExposed,              !- Wind Exposure
    autocalculate,            !- View Factor to Ground
    autocalculate,            !- Number of Vertices
    440164.129,               !- Vertex 1 Xcoordinate
    4479336.776,              !- Vertex 1 Ycoordinate
    6,                        !- Vertex 1 Zcoordinate
    440164.129,               !- Vertex 2 Xcoordinate
    4479336.776,              !- Vertex 2 Ycoordinate
    3,                        !- Vertex 2 Zcoordinate
    440164.433,               !- Vertex 3 Xcoordinate
    4479336.618,              !- Vertex 3 Ycoordinate
    3,                        !- Vertex 3 Zcoordinate
    440164.433,               !- Vertex 4 Xcoordinate
    4479336.618,              !- Vertex 4 Ycoordinate
    6;                        !- Vertex 4 Zcoordinate

BUILDINGSURFACE:DETAILED,
    Block fd062c908350af6c_whole Storey 1 Wall 0006,    !- Name
    wall,                     !- Surface Type
    EU_wall_Construction,     !- Construction Name
    fd062c908350af6c_F1_whole,    !- Zone Name
    ,                         !- Space Name
    outdoors,                 !- Outside Boundary Condition
    ,                         !- Outside Boundary Condition Object
    SunExposed,               !- Sun Exposure
    WindExposed,              !- Wind Exposure
    autocalculate,            !- View Factor to Ground
    autocalculate,            !- Number of Vertices
    440164.433,               !- Vertex 1 Xcoordinate
    4479336.618,              !- Vertex 1 Ycoordinate
    6,                        !- Vertex 1 Zcoordinate
    440164.433,               !- Vertex 2 Xcoordinate
    4479336.618,              !- Vertex 2 Ycoordinate
    3,                        !- Vertex 2 Zcoordinate
    440165.011,               !- Vertex 3 Xcoordinate
    4479337.779,              !- Vertex 3 Ycoordinate
    3,                        !- Vertex 3 Zcoordinate
    440165.011,               !- Vertex 4 Xcoordinate
    4479337.779,              !- Vertex 4 Ycoordinate
    6;                        !- Vertex 4 Zcoordinate

BUILDINGSURFACE:DETAILED,
    Block fd062c908350af6c_whole Storey 1 Wall 0007,    !- Name
    wall,                     !- Surface Type
    EU_wall_Construction,     !- Construction Name
    fd062c908350af6c_F1_whole,    !- Zone Name
    ,                         !- Space Name
    outdoors,                 !- Outside Boundary Condition
    ,                         !- Outside Boundary Condition Object
    SunExposed,               !- Sun Exposure
    WindExposed,              !- Wind Exposure
    autocalculate,            !- View Factor to Ground
    autocalculate,            !- Number of Vertices
    440165.011,               !- Vertex 1 Xcoordinate
    4479337.779,              !- Vertex 1 Ycoordinate
    6,                        !- Vertex 1 Zcoordinate
    440165.011,               !- Vertex 2 Xcoordinate
    4479337.779,              !- Vertex 2 Ycoordinate
    3,                        !- Vertex 2 Zcoordinate
    440164.065,               !- Vertex 3 Xcoordinate
    4479338.308,              !- Vertex 3 Ycoordinate
    3,                        !- Vertex 3 Zcoordinate
    440164.065,               !- Vertex 4 Xcoordinate
    4479338.308,              !- Vertex 4 Ycoordinate
    6;                        !- Vertex 4 Zcoordinate

BUILDINGSURFACE:DETAILED,
    Block fd062c908350af6c_whole Storey 1 Wall 0008,    !- Name
    wall,                     !- Surface Type
    EU_wall_Construction,     !- Construction Name
    fd062c908350af6c_F1_whole,    !- Zone Name
    ,                         !- Space Name
    outdoors,                 !- Outside Boundary Condition
    ,                         !- Outside Boundary Condition Object
    SunExposed,               !- Sun Exposure
    WindExposed,              !- Wind Exposure
    autocalculate,            !- View Factor to Ground
    autocalculate,            !- Number of Vertices
    440164.065,               !- Vertex 1 Xcoordinate
    4479338.308,              !- Vertex 1 Ycoordinate
    6,                        !- Vertex 1 Zcoordinate
    440164.065,               !- Vertex 2 Xcoordinate
    4479338.308,              !- Vertex 2 Ycoordinate
    3,                        !- Vertex 2 Zcoordinate
    440165.434,               !- Vertex 3 Xcoordinate
    4479340.928,              !- Vertex 3 Ycoordinate
    3,                        !- Vertex 3 Zcoordinate
    440165.434,               !- Vertex 4 Xcoordinate
    4479340.928,              !- Vertex 4 Ycoordinate
    6;                        !- Vertex 4 Zcoordinate

BUILDINGSURFACE:DETAILED,
    Block fd062c908350af6c_whole Storey 1 Wall 0009,    !- Name
    wall,                     !- Surface Type
    EU_wall_Construction,     !- Construction Name
    fd062c908350af6c_F1_whole,    !- Zone Name
    ,                         !- Space Name
    outdoors,                 !- Outside Boundary Condition
    ,                         !- Outside Boundary Condition Object
    SunExposed,               !- Sun Exposure
    WindExposed,              !- Wind Exposure
    autocalculate,            !- View Factor to Ground
    autocalculate,            !- Number of Vertices
    440165.434,               !- Vertex 1 Xcoordinate
    4479340.928,              !- Vertex 1 Ycoordinate
    6,                        !- Vertex 1 Zcoordinate
    440165.434,               !- Vertex 2 Xcoordinate
    4479340.928,              !- Vertex 2 Ycoordinate
    3,                        !- Vertex 2 Zcoordinate
    440166.363,               !- Vertex 3 Xcoordinate
    4479340.443,              !- Vertex 3 Ycoordinate
    3,                        !- Vertex 3 Zcoordinate
    440166.363,               !- Vertex 4 Xcoordinate
    4479340.443,              !- Vertex 4 Ycoordinate
    6;                        !- Vertex 4 Zcoordinate

BUILDINGSURFACE:DETAILED,
    Block fd062c908350af6c_whole Storey 1 Wall 0010,    !- Name
    wall,                     !- Surface Type
    EU_wall_Construction,     !- Construction Name
    fd062c908350af6c_F1_whole,    !- Zone Name
    ,                         !- Space Name
    outdoors,                 !- Outside Boundary Condition
    ,                         !- Outside Boundary Condition Object
    SunExposed,               !- Sun Exposure
    WindExposed,              !- Wind Exposure
    autocalculate,            !- View Factor to Ground
    autocalculate,            !- Number of Vertices
    440166.363,               !- Vertex 1 Xcoordinate
    4479340.443,              !- Vertex 1 Ycoordinate
    6,                        !- Vertex 1 Zcoordinate
    440166.363,               !- Vertex 2 Xcoordinate
    4479340.443,              !- Vertex 2 Ycoordinate
    3,                        !- Vertex 2 Zcoordinate
    440166.992,               !- Vertex 3 Xcoordinate
    4479341.704,              !- Vertex 3 Ycoordinate
    3,                        !- Vertex 3 Zcoordinate
    440166.992,               !- Vertex 4 Xcoordinate
    4479341.704,              !- Vertex 4 Ycoordinate
    6;                        !- Vertex 4 Zcoordinate

BUILDINGSURFACE:DETAILED,
    Block fd062c908350af6c_whole Storey 1 Wall 0011,    !- Name
    wall,                     !- Surface Type
    EU_wall_Construction,     !- Construction Name
    fd062c908350af6c_F1_whole,    !- Zone Name
    ,                         !- Space Name
    outdoors,                 !- Outside Boundary Condition
    ,                         !- Outside Boundary Condition Object
    SunExposed,               !- Sun Exposure
    WindExposed,              !- Wind Exposure
    autocalculate,            !- View Factor to Ground
    autocalculate,            !- Number of Vertices
    440166.992,               !- Vertex 1 Xcoordinate
    4479341.704,              !- Vertex 1 Ycoordinate
    6,                        !- Vertex 1 Zcoordinate
    440166.992,               !- Vertex 2 Xcoordinate
    4479341.704,              !- Vertex 2 Ycoordinate
    3,                        !- Vertex 2 Zcoordinate
    440166.038,               !- Vertex 3 Xcoordinate
    4479342.189,              !- Vertex 3 Ycoordinate
    3,                        !- Vertex 3 Zcoordinate
    440166.038,               !- Vertex 4 Xcoordinate
    4479342.189,              !- Vertex 4 Ycoordinate
    6;                        !- Vertex 4 Zcoordinate

BUILDINGSURFACE:DETAILED,
    Block fd062c908350af6c_whole Storey 1 Wall 0012,    !- Name
    wall,                     !- Surface Type
    EU_wall_Construction,     !- Construction Name
    fd062c908350af6c_F1_whole,    !- Zone Name
    ,                         !- Space Name
    outdoors,                 !- Outside Boundary Condition
    ,                         !- Outside Boundary Condition Object
    SunExposed,               !- Sun Exposure
    WindExposed,              !- Wind Exposure
    autocalculate,            !- View Factor to Ground
    autocalculate,            !- Number of Vertices
    440166.038,               !- Vertex 1 Xcoordinate
    4479342.189,              !- Vertex 1 Ycoordinate
    6,                        !- Vertex 1 Zcoordinate
    440166.038,               !- Vertex 2 Xcoordinate
    4479342.189,              !- Vertex 2 Ycoordinate
    3,                        !- Vertex 2 Zcoordinate
    440167.407,               !- Vertex 3 Xcoordinate
    4479344.831,              !- Vertex 3 Ycoordinate
    3,                        !- Vertex 3 Zcoordinate
    440167.407,               !- Vertex 4 Xcoordinate
    4479344.831,              !- Vertex 4 Ycoordinate
    6;                        !- Vertex 4 Zcoordinate

BUILDINGSURFACE:DETAILED,
    Block fd062c908350af6c_whole Storey 1 Wall 0013,    !- Name
    wall,                     !- Surface Type
    EU_wall_Construction,     !- Construction Name
    fd062c908350af6c_F1_whole,    !- Zone Name
    ,                         !- Space Name
    outdoors,                 !- Outside Boundary Condition
    ,                         !- Outside Boundary Condition Object
    SunExposed,               !- Sun Exposure
    WindExposed,              !- Wind Exposure
    autocalculate,            !- View Factor to Ground
    autocalculate,            !- Number of Vertices
    440167.407,               !- Vertex 1 Xcoordinate
    4479344.831,              !- Vertex 1 Ycoordinate
    6,                        !- Vertex 1 Zcoordinate
    440167.407,               !- Vertex 2 Xcoordinate
    4479344.831,              !- Vertex 2 Ycoordinate
    3,                        !- Vertex 2 Zcoordinate
    440168.412,               !- Vertex 3 Xcoordinate
    4479344.346,              !- Vertex 3 Ycoordinate
    3,                        !- Vertex 3 Zcoordinate
    440168.412,               !- Vertex 4 Xcoordinate
    4479344.346,              !- Vertex 4 Ycoordinate
    6;                        !- Vertex 4 Zcoordinate

BUILDINGSURFACE:DETAILED,
    Block fd062c908350af6c_whole Storey 1 Wall 0014,    !- Name
    wall,                     !- Surface Type
    EU_wall_Construction,     !- Construction Name
    fd062c908350af6c_F1_whole,    !- Zone Name
    ,                         !- Space Name
    outdoors,                 !- Outside Boundary Condition
    ,                         !- Outside Boundary Condition Object
    SunExposed,               !- Sun Exposure
    WindExposed,              !- Wind Exposure
    autocalculate,            !- View Factor to Ground
    autocalculate,            !- Number of Vertices
    440168.412,               !- Vertex 1 Xcoordinate
    4479344.346,              !- Vertex 1 Ycoordinate
    6,                        !- Vertex 1 Zcoordinate
    440168.412,               !- Vertex 2 Xcoordinate
    4479344.346,              !- Vertex 2 Ycoordinate
    3,                        !- Vertex 2 Zcoordinate
    440168.92,                !- Vertex 3 Xcoordinate
    4479345.352,              !- Vertex 3 Ycoordinate
    3,                        !- Vertex 3 Zcoordinate
    440168.92,                !- Vertex 4 Xcoordinate
    4479345.352,              !- Vertex 4 Ycoordinate
    6;                        !- Vertex 4 Zcoordinate

BUILDINGSURFACE:DETAILED,
    Block fd062c908350af6c_whole Storey 1 Wall 0015,    !- Name
    wall,                     !- Surface Type
    EU_wall_Construction,     !- Construction Name
    fd062c908350af6c_F1_whole,    !- Zone Name
    ,                         !- Space Name
    outdoors,                 !- Outside Boundary Condition
    ,                         !- Outside Boundary Condition Object
    SunExposed,               !- Sun Exposure
    WindExposed,              !- Wind Exposure
    autocalculate,            !- View Factor to Ground
    autocalculate,            !- Number of Vertices
    440168.92,                !- Vertex 1 Xcoordinate
    4479345.352,              !- Vertex 1 Ycoordinate
    6,                        !- Vertex 1 Zcoordinate
    440168.92,                !- Vertex 2 Xcoordinate
    4479345.352,              !- Vertex 2 Ycoordinate
    3,                        !- Vertex 2 Zcoordinate
    440168.591,               !- Vertex 3 Xcoordinate
    4479345.532,              !- Vertex 3 Ycoordinate
    3,                        !- Vertex 3 Zcoordinate
    440168.591,               !- Vertex 4 Xcoordinate
    4479345.532,              !- Vertex 4 Ycoordinate
    6;                        !- Vertex 4 Zcoordinate

BUILDINGSURFACE:DETAILED,
    Block fd062c908350af6c_whole Storey 1 Wall 0016,    !- Name
    wall,                     !- Surface Type
    EU_wall_Construction,     !- Construction Name
    fd062c908350af6c_F1_whole,    !- Zone Name
    ,                         !- Space Name
    outdoors,                 !- Outside Boundary Condition
    ,                         !- Outside Boundary Condition Object
    SunExposed,               !- Sun Exposure
    WindExposed,              !- Wind Exposure
    autocalculate,            !- View Factor to Ground
    autocalculate,            !- Number of Vertices
    440168.591,               !- Vertex 1 Xcoordinate
    4479345.532,              !- Vertex 1 Ycoordinate
    6,                        !- Vertex 1 Zcoordinate
    440168.591,               !- Vertex 2 Xcoordinate
    4479345.532,              !- Vertex 2 Ycoordinate
    3,                        !- Vertex 2 Zcoordinate
    440169.479,               !- Vertex 3 Xcoordinate
    4479347.301,              !- Vertex 3 Ycoordinate
    3,                        !- Vertex 3 Zcoordinate
    440169.479,               !- Vertex 4 Xcoordinate
    4479347.301,              !- Vertex 4 Ycoordinate
    6;                        !- Vertex 4 Zcoordinate

BUILDINGSURFACE:DETAILED,
    Block fd062c908350af6c_whole Storey 1 Wall 0017,    !- Name
    wall,                     !- Surface Type
    EU_wall_Construction,     !- Construction Name
    fd062c908350af6c_F1_whole,    !- Zone Name
    ,                         !- Space Name
    outdoors,                 !- Outside Boundary Condition
    ,                         !- Outside Boundary Condition Object
    SunExposed,               !- Sun Exposure
    WindExposed,              !- Wind Exposure
    autocalculate,            !- View Factor to Ground
    autocalculate,            !- Number of Vertices
    440169.479,               !- Vertex 1 Xcoordinate
    4479347.301,              !- Vertex 1 Ycoordinate
    6,                        !- Vertex 1 Zcoordinate
    440169.479,               !- Vertex 2 Xcoordinate
    4479347.301,              !- Vertex 2 Ycoordinate
    3,                        !- Vertex 2 Zcoordinate
    440169.251,               !- Vertex 3 Xcoordinate
    4479347.436,              !- Vertex 3 Ycoordinate
    3,                        !- Vertex 3 Zcoordinate
    440169.251,               !- Vertex 4 Xcoordinate
    4479347.436,              !- Vertex 4 Ycoordinate
    6;                        !- Vertex 4 Zcoordinate

BUILDINGSURFACE:DETAILED,
    Block fd062c908350af6c_whole Storey 1 Wall 0018,    !- Name
    wall,                     !- Surface Type
    EU_wall_Construction,     !- Construction Name
    fd062c908350af6c_F1_whole,    !- Zone Name
    ,                         !- Space Name
    outdoors,                 !- Outside Boundary Condition
    ,                         !- Outside Boundary Condition Object
    SunExposed,               !- Sun Exposure
    WindExposed,              !- Wind Exposure
    autocalculate,            !- View Factor to Ground
    autocalculate,            !- Number of Vertices
    440169.251,               !- Vertex 1 Xcoordinate
    4479347.436,              !- Vertex 1 Ycoordinate
    6,                        !- Vertex 1 Zcoordinate
    440169.251,               !- Vertex 2 Xcoordinate
    4479347.436,              !- Vertex 2 Ycoordinate
    3,                        !- Vertex 2 Zcoordinate
    440167.74,                !- Vertex 3 Xcoordinate
    4479350.39,               !- Vertex 3 Ycoordinate
    3,                        !- Vertex 3 Zcoordinate
    440167.74,                !- Vertex 4 Xcoordinate
    4479350.39,               !- Vertex 4 Ycoordinate
    6;                        !- Vertex 4 Zcoordinate

BUILDINGSURFACE:DETAILED,
    Block fd062c908350af6c_whole Storey 1 Wall 0019,    !- Name
    wall,                     !- Surface Type
    EU_wall_Construction,     !- Construction Name
    fd062c908350af6c_F1_whole,    !- Zone Name
    ,                         !- Space Name
    outdoors,                 !- Outside Boundary Condition
    ,                         !- Outside Boundary Condition Object
    SunExposed,               !- Sun Exposure
    WindExposed,              !- Wind Exposure
    autocalculate,            !- View Factor to Ground
    autocalculate,            !- Number of Vertices
    440167.74,                !- Vertex 1 Xcoordinate
    4479350.39,               !- Vertex 1 Ycoordinate
    6,                        !- Vertex 1 Zcoordinate
    440167.74,                !- Vertex 2 Xcoordinate
    4479350.39,               !- Vertex 2 Ycoordinate
    3,                        !- Vertex 2 Zcoordinate
    440168.813,               !- Vertex 3 Xcoordinate
    4479350.97,               !- Vertex 3 Ycoordinate
    3,                        !- Vertex 3 Zcoordinate
    440168.813,               !- Vertex 4 Xcoordinate
    4479350.97,               !- Vertex 4 Ycoordinate
    6;                        !- Vertex 4 Zcoordinate

BUILDINGSURFACE:DETAILED,
    Block fd062c908350af6c_whole Storey 1 Wall 0020,    !- Name
    wall,                     !- Surface Type
    EU_wall_Construction,     !- Construction Name
    fd062c908350af6c_F1_whole,    !- Zone Name
    ,                         !- Space Name
    outdoors,                 !- Outside Boundary Condition
    ,                         !- Outside Boundary Condition Object
    SunExposed,               !- Sun Exposure
    WindExposed,              !- Wind Exposure
    autocalculate,            !- View Factor to Ground
    autocalculate,            !- Number of Vertices
    440168.813,               !- Vertex 1 Xcoordinate
    4479350.97,               !- Vertex 1 Ycoordinate
    6,                        !- Vertex 1 Zcoordinate
    440168.813,               !- Vertex 2 Xcoordinate
    4479350.97,               !- Vertex 2 Ycoordinate
    3,                        !- Vertex 2 Zcoordinate
    440167.97,                !- Vertex 3 Xcoordinate
    4479352.675,              !- Vertex 3 Ycoordinate
    3,                        !- Vertex 3 Zcoordinate
    440167.97,                !- Vertex 4 Xcoordinate
    4479352.675,              !- Vertex 4 Ycoordinate
    6;                        !- Vertex 4 Zcoordinate

BUILDINGSURFACE:DETAILED,
    Block fd062c908350af6c_whole Storey 1 Wall 0021,    !- Name
    wall,                     !- Surface Type
    EU_wall_Construction,     !- Construction Name
    fd062c908350af6c_F1_whole,    !- Zone Name
    ,                         !- Space Name
    Adiabatic,                !- Outside Boundary Condition
    ,                         !- Outside Boundary Condition Object
    NoSun,                    !- Sun Exposure
    NoWind,                   !- Wind Exposure
    autocalculate,            !- View Factor to Ground
    autocalculate,            !- Number of Vertices
    440167.97,                !- Vertex 1 Xcoordinate
    4479352.675,              !- Vertex 1 Ycoordinate
    6,                        !- Vertex 1 Zcoordinate
    440167.97,                !- Vertex 2 Xcoordinate
    4479352.675,              !- Vertex 2 Ycoordinate
    3,                        !- Vertex 2 Zcoordinate
    440178.017,               !- Vertex 3 Xcoordinate
    4479357.912,              !- Vertex 3 Ycoordinate
    3,                        !- Vertex 3 Zcoordinate
    440178.017,               !- Vertex 4 Xcoordinate
    4479357.912,              !- Vertex 4 Ycoordinate
    6;                        !- Vertex 4 Zcoordinate

BUILDINGSURFACE:DETAILED,
    Block fd062c908350af6c_whole Storey 1 Wall 0022,    !- Name
    wall,                     !- Surface Type
    EU_wall_Construction,     !- Construction Name
    fd062c908350af6c_F1_whole,    !- Zone Name
    ,                         !- Space Name
    outdoors,                 !- Outside Boundary Condition
    ,                         !- Outside Boundary Condition Object
    SunExposed,               !- Sun Exposure
    WindExposed,              !- Wind Exposure
    autocalculate,            !- View Factor to Ground
    autocalculate,            !- Number of Vertices
    440178.017,               !- Vertex 1 Xcoordinate
    4479357.912,              !- Vertex 1 Ycoordinate
    6,                        !- Vertex 1 Zcoordinate
    440178.017,               !- Vertex 2 Xcoordinate
    4479357.912,              !- Vertex 2 Ycoordinate
    3,                        !- Vertex 2 Zcoordinate
    440181.747,               !- Vertex 3 Xcoordinate
    4479350.444,              !- Vertex 3 Ycoordinate
    3,                        !- Vertex 3 Zcoordinate
    440181.747,               !- Vertex 4 Xcoordinate
    4479350.444,              !- Vertex 4 Ycoordinate
    6;                        !- Vertex 4 Zcoordinate

BUILDINGSURFACE:DETAILED,
    Block fd062c908350af6c_whole Storey 1 Wall 0023,    !- Name
    wall,                     !- Surface Type
    EU_wall_Construction,     !- Construction Name
    fd062c908350af6c_F1_whole,    !- Zone Name
    ,                         !- Space Name
    outdoors,                 !- Outside Boundary Condition
    ,                         !- Outside Boundary Condition Object
    SunExposed,               !- Sun Exposure
    WindExposed,              !- Wind Exposure
    autocalculate,            !- View Factor to Ground
    autocalculate,            !- Number of Vertices
    440181.747,               !- Vertex 1 Xcoordinate
    4479350.444,              !- Vertex 1 Ycoordinate
    6,                        !- Vertex 1 Zcoordinate
    440181.747,               !- Vertex 2 Xcoordinate
    4479350.444,              !- Vertex 2 Ycoordinate
    3,                        !- Vertex 2 Zcoordinate
    440181.679,               !- Vertex 3 Xcoordinate
    4479348.258,              !- Vertex 3 Ycoordinate
    3,                        !- Vertex 3 Zcoordinate
    440181.679,               !- Vertex 4 Xcoordinate
    4479348.258,              !- Vertex 4 Ycoordinate
    6;                        !- Vertex 4 Zcoordinate

BUILDINGSURFACE:DETAILED,
    Block fd062c908350af6c_whole Storey 1 Wall 0024,    !- Name
    wall,                     !- Surface Type
    EU_wall_Construction,     !- Construction Name
    fd062c908350af6c_F1_whole,    !- Zone Name
    ,                         !- Space Name
    outdoors,                 !- Outside Boundary Condition
    ,                         !- Outside Boundary Condition Object
    SunExposed,               !- Sun Exposure
    WindExposed,              !- Wind Exposure
    autocalculate,            !- View Factor to Ground
    autocalculate,            !- Number of Vertices
    440181.679,               !- Vertex 1 Xcoordinate
    4479348.258,              !- Vertex 1 Ycoordinate
    6,                        !- Vertex 1 Zcoordinate
    440181.679,               !- Vertex 2 Xcoordinate
    4479348.258,              !- Vertex 2 Ycoordinate
    3,                        !- Vertex 2 Zcoordinate
    440175.6,                 !- Vertex 3 Xcoordinate
    4479336.606,              !- Vertex 3 Ycoordinate
    3,                        !- Vertex 3 Zcoordinate
    440175.6,                 !- Vertex 4 Xcoordinate
    4479336.606,              !- Vertex 4 Ycoordinate
    6;                        !- Vertex 4 Zcoordinate

BUILDINGSURFACE:DETAILED,
    Block fd062c908350af6c_whole Storey 1 Wall 0025,    !- Name
    wall,                     !- Surface Type
    EU_wall_Construction,     !- Construction Name
    fd062c908350af6c_F1_whole,    !- Zone Name
    ,                         !- Space Name
    outdoors,                 !- Outside Boundary Condition
    ,                         !- Outside Boundary Condition Object
    SunExposed,               !- Sun Exposure
    WindExposed,              !- Wind Exposure
    autocalculate,            !- View Factor to Ground
    autocalculate,            !- Number of Vertices
    440175.6,                 !- Vertex 1 Xcoordinate
    4479336.606,              !- Vertex 1 Ycoordinate
    6,                        !- Vertex 1 Zcoordinate
    440175.6,                 !- Vertex 2 Xcoordinate
    4479336.606,              !- Vertex 2 Ycoordinate
    3,                        !- Vertex 2 Zcoordinate
    440168.659,               !- Vertex 3 Xcoordinate
    4479323.319,              !- Vertex 3 Ycoordinate
    3,                        !- Vertex 3 Zcoordinate
    440168.659,               !- Vertex 4 Xcoordinate
    4479323.319,              !- Vertex 4 Ycoordinate
    6;                        !- Vertex 4 Zcoordinate

BUILDINGSURFACE:DETAILED,
    Block fd062c908350af6c_whole Storey 1 Wall 0026,    !- Name
    wall,                     !- Surface Type
    EU_wall_Construction,     !- Construction Name
    fd062c908350af6c_F1_whole,    !- Zone Name
    ,                         !- Space Name
    Adiabatic,                !- Outside Boundary Condition
    ,                         !- Outside Boundary Condition Object
    NoSun,                    !- Sun Exposure
    NoWind,                   !- Wind Exposure
    autocalculate,            !- View Factor to Ground
    autocalculate,            !- Number of Vertices
    440168.659,               !- Vertex 1 Xcoordinate
    4479323.319,              !- Vertex 1 Ycoordinate
    6,                        !- Vertex 1 Zcoordinate
    440168.659,               !- Vertex 2 Xcoordinate
    4479323.319,              !- Vertex 2 Ycoordinate
    3,                        !- Vertex 2 Zcoordinate
    440168.429,               !- Vertex 3 Xcoordinate
    4479323.176,              !- Vertex 3 Ycoordinate
    3,                        !- Vertex 3 Zcoordinate
    440168.429,               !- Vertex 4 Xcoordinate
    4479323.176,              !- Vertex 4 Ycoordinate
    6;                        !- Vertex 4 Zcoordinate

BUILDINGSURFACE:DETAILED,
    Block fd062c908350af6c_whole Storey 1 Wall 0027,    !- Name
    wall,                     !- Surface Type
    EU_wall_Construction,     !- Construction Name
    fd062c908350af6c_F1_whole,    !- Zone Name
    ,                         !- Space Name
    Adiabatic,                !- Outside Boundary Condition
    ,                         !- Outside Boundary Condition Object
    NoSun,                    !- Sun Exposure
    NoWind,                   !- Wind Exposure
    autocalculate,            !- View Factor to Ground
    autocalculate,            !- Number of Vertices
    440168.429,               !- Vertex 1 Xcoordinate
    4479323.176,              !- Vertex 1 Ycoordinate
    6,                        !- Vertex 1 Zcoordinate
    440168.429,               !- Vertex 2 Xcoordinate
    4479323.176,              !- Vertex 2 Ycoordinate
    3,                        !- Vertex 2 Zcoordinate
    440160.948,               !- Vertex 3 Xcoordinate
    4479332.328,              !- Vertex 3 Ycoordinate
    3,                        !- Vertex 3 Zcoordinate
    440160.948,               !- Vertex 4 Xcoordinate
    4479332.328,              !- Vertex 4 Ycoordinate
    6;                        !- Vertex 4 Zcoordinate

BUILDINGSURFACE:DETAILED,
    Block fd062c908350af6c_whole Storey 1 Wall 0028,    !- Name
    wall,                     !- Surface Type
    EU_wall_Construction,     !- Construction Name
    fd062c908350af6c_F1_whole,    !- Zone Name
    ,                         !- Space Name
    outdoors,                 !- Outside Boundary Condition
    ,                         !- Outside Boundary Condition Object
    SunExposed,               !- Sun Exposure
    WindExposed,              !- Wind Exposure
    autocalculate,            !- View Factor to Ground
    autocalculate,            !- Number of Vertices
    440160.948,               !- Vertex 1 Xcoordinate
    4479332.328,              !- Vertex 1 Ycoordinate
    6,                        !- Vertex 1 Zcoordinate
    440160.948,               !- Vertex 2 Xcoordinate
    4479332.328,              !- Vertex 2 Ycoordinate
    3,                        !- Vertex 2 Zcoordinate
    440162.644,               !- Vertex 3 Xcoordinate
    4479335.578,              !- Vertex 3 Ycoordinate
    3,                        !- Vertex 3 Zcoordinate
    440162.644,               !- Vertex 4 Xcoordinate
    4479335.578,              !- Vertex 4 Ycoordinate
    6;                        !- Vertex 4 Zcoordinate

BUILDINGSURFACE:DETAILED,
    Block fd062c908350af6c_whole Storey 2 Wall 0001,    !- Name
    wall,                     !- Surface Type
    EU_wall_Construction,     !- Construction Name
    fd062c908350af6c_F2_whole,    !- Zone Name
    ,                         !- Space Name
    outdoors,                 !- Outside Boundary Condition
    ,                         !- Outside Boundary Condition Object
    SunExposed,               !- Sun Exposure
    WindExposed,              !- Wind Exposure
    autocalculate,            !- View Factor to Ground
    autocalculate,            !- Number of Vertices
    440162.644,               !- Vertex 1 Xcoordinate
    4479335.578,              !- Vertex 1 Ycoordinate
    9,                        !- Vertex 1 Zcoordinate
    440162.644,               !- Vertex 2 Xcoordinate
    4479335.578,              !- Vertex 2 Ycoordinate
    6,                        !- Vertex 2 Zcoordinate
    440163.632,               !- Vertex 3 Xcoordinate
    4479335.081,              !- Vertex 3 Ycoordinate
    6,                        !- Vertex 3 Zcoordinate
    440163.632,               !- Vertex 4 Xcoordinate
    4479335.081,              !- Vertex 4 Ycoordinate
    9;                        !- Vertex 4 Zcoordinate

BUILDINGSURFACE:DETAILED,
    Block fd062c908350af6c_whole Storey 2 Wall 0002,    !- Name
    wall,                     !- Surface Type
    EU_wall_Construction,     !- Construction Name
    fd062c908350af6c_F2_whole,    !- Zone Name
    ,                         !- Space Name
    outdoors,                 !- Outside Boundary Condition
    ,                         !- Outside Boundary Condition Object
    SunExposed,               !- Sun Exposure
    WindExposed,              !- Wind Exposure
    autocalculate,            !- View Factor to Ground
    autocalculate,            !- Number of Vertices
    440163.632,               !- Vertex 1 Xcoordinate
    4479335.081,              !- Vertex 1 Ycoordinate
    9,                        !- Vertex 1 Zcoordinate
    440163.632,               !- Vertex 2 Xcoordinate
    4479335.081,              !- Vertex 2 Ycoordinate
    6,                        !- Vertex 2 Zcoordinate
    440163.719,               !- Vertex 3 Xcoordinate
    4479335.281,              !- Vertex 3 Ycoordinate
    6,                        !- Vertex 3 Zcoordinate
    440163.719,               !- Vertex 4 Xcoordinate
    4479335.281,              !- Vertex 4 Ycoordinate
    9;                        !- Vertex 4 Zcoordinate

BUILDINGSURFACE:DETAILED,
    Block fd062c908350af6c_whole Storey 2 Wall 0003,    !- Name
    wall,                     !- Surface Type
    EU_wall_Construction,     !- Construction Name
    fd062c908350af6c_F2_whole,    !- Zone Name
    ,                         !- Space Name
    outdoors,                 !- Outside Boundary Condition
    ,                         !- Outside Boundary Condition Object
    SunExposed,               !- Sun Exposure
    WindExposed,              !- Wind Exposure
    autocalculate,            !- View Factor to Ground
    autocalculate,            !- Number of Vertices
    440163.719,               !- Vertex 1 Xcoordinate
    4479335.281,              !- Vertex 1 Ycoordinate
    9,                        !- Vertex 1 Zcoordinate
    440163.719,               !- Vertex 2 Xcoordinate
    4479335.281,              !- Vertex 2 Ycoordinate
    6,                        !- Vertex 2 Zcoordinate
    440163.415,               !- Vertex 3 Xcoordinate
    4479335.427,              !- Vertex 3 Ycoordinate
    6,                        !- Vertex 3 Zcoordinate
    440163.415,               !- Vertex 4 Xcoordinate
    4479335.427,              !- Vertex 4 Ycoordinate
    9;                        !- Vertex 4 Zcoordinate

BUILDINGSURFACE:DETAILED,
    Block fd062c908350af6c_whole Storey 2 Wall 0004,    !- Name
    wall,                     !- Surface Type
    EU_wall_Construction,     !- Construction Name
    fd062c908350af6c_F2_whole,    !- Zone Name
    ,                         !- Space Name
    outdoors,                 !- Outside Boundary Condition
    ,                         !- Outside Boundary Condition Object
    SunExposed,               !- Sun Exposure
    WindExposed,              !- Wind Exposure
    autocalculate,            !- View Factor to Ground
    autocalculate,            !- Number of Vertices
    440163.415,               !- Vertex 1 Xcoordinate
    4479335.427,              !- Vertex 1 Ycoordinate
    9,                        !- Vertex 1 Zcoordinate
    440163.415,               !- Vertex 2 Xcoordinate
    4479335.427,              !- Vertex 2 Ycoordinate
    6,                        !- Vertex 2 Zcoordinate
    440164.129,               !- Vertex 3 Xcoordinate
    4479336.776,              !- Vertex 3 Ycoordinate
    6,                        !- Vertex 3 Zcoordinate
    440164.129,               !- Vertex 4 Xcoordinate
    4479336.776,              !- Vertex 4 Ycoordinate
    9;                        !- Vertex 4 Zcoordinate

BUILDINGSURFACE:DETAILED,
    Block fd062c908350af6c_whole Storey 2 Wall 0005,    !- Name
    wall,                     !- Surface Type
    EU_wall_Construction,     !- Construction Name
    fd062c908350af6c_F2_whole,    !- Zone Name
    ,                         !- Space Name
    outdoors,                 !- Outside Boundary Condition
    ,                         !- Outside Boundary Condition Object
    SunExposed,               !- Sun Exposure
    WindExposed,              !- Wind Exposure
    autocalculate,            !- View Factor to Ground
    autocalculate,            !- Number of Vertices
    440164.129,               !- Vertex 1 Xcoordinate
    4479336.776,              !- Vertex 1 Ycoordinate
    9,                        !- Vertex 1 Zcoordinate
    440164.129,               !- Vertex 2 Xcoordinate
    4479336.776,              !- Vertex 2 Ycoordinate
    6,                        !- Vertex 2 Zcoordinate
    440164.433,               !- Vertex 3 Xcoordinate
    4479336.618,              !- Vertex 3 Ycoordinate
    6,                        !- Vertex 3 Zcoordinate
    440164.433,               !- Vertex 4 Xcoordinate
    4479336.618,              !- Vertex 4 Ycoordinate
    9;                        !- Vertex 4 Zcoordinate

BUILDINGSURFACE:DETAILED,
    Block fd062c908350af6c_whole Storey 2 Wall 0006,    !- Name
    wall,                     !- Surface Type
    EU_wall_Construction,     !- Construction Name
    fd062c908350af6c_F2_whole,    !- Zone Name
    ,                         !- Space Name
    outdoors,                 !- Outside Boundary Condition
    ,                         !- Outside Boundary Condition Object
    SunExposed,               !- Sun Exposure
    WindExposed,              !- Wind Exposure
    autocalculate,            !- View Factor to Ground
    autocalculate,            !- Number of Vertices
    440164.433,               !- Vertex 1 Xcoordinate
    4479336.618,              !- Vertex 1 Ycoordinate
    9,                        !- Vertex 1 Zcoordinate
    440164.433,               !- Vertex 2 Xcoordinate
    4479336.618,              !- Vertex 2 Ycoordinate
    6,                        !- Vertex 2 Zcoordinate
    440165.011,               !- Vertex 3 Xcoordinate
    4479337.779,              !- Vertex 3 Ycoordinate
    6,                        !- Vertex 3 Zcoordinate
    440165.011,               !- Vertex 4 Xcoordinate
    4479337.779,              !- Vertex 4 Ycoordinate
    9;                        !- Vertex 4 Zcoordinate

BUILDINGSURFACE:DETAILED,
    Block fd062c908350af6c_whole Storey 2 Wall 0007,    !- Name
    wall,                     !- Surface Type
    EU_wall_Construction,     !- Construction Name
    fd062c908350af6c_F2_whole,    !- Zone Name
    ,                         !- Space Name
    outdoors,                 !- Outside Boundary Condition
    ,                         !- Outside Boundary Condition Object
    SunExposed,               !- Sun Exposure
    WindExposed,              !- Wind Exposure
    autocalculate,            !- View Factor to Ground
    autocalculate,            !- Number of Vertices
    440165.011,               !- Vertex 1 Xcoordinate
    4479337.779,              !- Vertex 1 Ycoordinate
    9,                        !- Vertex 1 Zcoordinate
    440165.011,               !- Vertex 2 Xcoordinate
    4479337.779,              !- Vertex 2 Ycoordinate
    6,                        !- Vertex 2 Zcoordinate
    440164.065,               !- Vertex 3 Xcoordinate
    4479338.308,              !- Vertex 3 Ycoordinate
    6,                        !- Vertex 3 Zcoordinate
    440164.065,               !- Vertex 4 Xcoordinate
    4479338.308,              !- Vertex 4 Ycoordinate
    9;                        !- Vertex 4 Zcoordinate

BUILDINGSURFACE:DETAILED,
    Block fd062c908350af6c_whole Storey 2 Wall 0008,    !- Name
    wall,                     !- Surface Type
    EU_wall_Construction,     !- Construction Name
    fd062c908350af6c_F2_whole,    !- Zone Name
    ,                         !- Space Name
    outdoors,                 !- Outside Boundary Condition
    ,                         !- Outside Boundary Condition Object
    SunExposed,               !- Sun Exposure
    WindExposed,              !- Wind Exposure
    autocalculate,            !- View Factor to Ground
    autocalculate,            !- Number of Vertices
    440164.065,               !- Vertex 1 Xcoordinate
    4479338.308,              !- Vertex 1 Ycoordinate
    9,                        !- Vertex 1 Zcoordinate
    440164.065,               !- Vertex 2 Xcoordinate
    4479338.308,              !- Vertex 2 Ycoordinate
    6,                        !- Vertex 2 Zcoordinate
    440165.434,               !- Vertex 3 Xcoordinate
    4479340.928,              !- Vertex 3 Ycoordinate
    6,                        !- Vertex 3 Zcoordinate
    440165.434,               !- Vertex 4 Xcoordinate
    4479340.928,              !- Vertex 4 Ycoordinate
    9;                        !- Vertex 4 Zcoordinate

BUILDINGSURFACE:DETAILED,
    Block fd062c908350af6c_whole Storey 2 Wall 0009,    !- Name
    wall,                     !- Surface Type
    EU_wall_Construction,     !- Construction Name
    fd062c908350af6c_F2_whole,    !- Zone Name
    ,                         !- Space Name
    outdoors,                 !- Outside Boundary Condition
    ,                         !- Outside Boundary Condition Object
    SunExposed,               !- Sun Exposure
    WindExposed,              !- Wind Exposure
    autocalculate,            !- View Factor to Ground
    autocalculate,            !- Number of Vertices
    440165.434,               !- Vertex 1 Xcoordinate
    4479340.928,              !- Vertex 1 Ycoordinate
    9,                        !- Vertex 1 Zcoordinate
    440165.434,               !- Vertex 2 Xcoordinate
    4479340.928,              !- Vertex 2 Ycoordinate
    6,                        !- Vertex 2 Zcoordinate
    440166.363,               !- Vertex 3 Xcoordinate
    4479340.443,              !- Vertex 3 Ycoordinate
    6,                        !- Vertex 3 Zcoordinate
    440166.363,               !- Vertex 4 Xcoordinate
    4479340.443,              !- Vertex 4 Ycoordinate
    9;                        !- Vertex 4 Zcoordinate

BUILDINGSURFACE:DETAILED,
    Block fd062c908350af6c_whole Storey 2 Wall 0010,    !- Name
    wall,                     !- Surface Type
    EU_wall_Construction,     !- Construction Name
    fd062c908350af6c_F2_whole,    !- Zone Name
    ,                         !- Space Name
    outdoors,                 !- Outside Boundary Condition
    ,                         !- Outside Boundary Condition Object
    SunExposed,               !- Sun Exposure
    WindExposed,              !- Wind Exposure
    autocalculate,            !- View Factor to Ground
    autocalculate,            !- Number of Vertices
    440166.363,               !- Vertex 1 Xcoordinate
    4479340.443,              !- Vertex 1 Ycoordinate
    9,                        !- Vertex 1 Zcoordinate
    440166.363,               !- Vertex 2 Xcoordinate
    4479340.443,              !- Vertex 2 Ycoordinate
    6,                        !- Vertex 2 Zcoordinate
    440166.992,               !- Vertex 3 Xcoordinate
    4479341.704,              !- Vertex 3 Ycoordinate
    6,                        !- Vertex 3 Zcoordinate
    440166.992,               !- Vertex 4 Xcoordinate
    4479341.704,              !- Vertex 4 Ycoordinate
    9;                        !- Vertex 4 Zcoordinate

BUILDINGSURFACE:DETAILED,
    Block fd062c908350af6c_whole Storey 2 Wall 0011,    !- Name
    wall,                     !- Surface Type
    EU_wall_Construction,     !- Construction Name
    fd062c908350af6c_F2_whole,    !- Zone Name
    ,                         !- Space Name
    outdoors,                 !- Outside Boundary Condition
    ,                         !- Outside Boundary Condition Object
    SunExposed,               !- Sun Exposure
    WindExposed,              !- Wind Exposure
    autocalculate,            !- View Factor to Ground
    autocalculate,            !- Number of Vertices
    440166.992,               !- Vertex 1 Xcoordinate
    4479341.704,              !- Vertex 1 Ycoordinate
    9,                        !- Vertex 1 Zcoordinate
    440166.992,               !- Vertex 2 Xcoordinate
    4479341.704,              !- Vertex 2 Ycoordinate
    6,                        !- Vertex 2 Zcoordinate
    440166.038,               !- Vertex 3 Xcoordinate
    4479342.189,              !- Vertex 3 Ycoordinate
    6,                        !- Vertex 3 Zcoordinate
    440166.038,               !- Vertex 4 Xcoordinate
    4479342.189,              !- Vertex 4 Ycoordinate
    9;                        !- Vertex 4 Zcoordinate

BUILDINGSURFACE:DETAILED,
    Block fd062c908350af6c_whole Storey 2 Wall 0012,    !- Name
    wall,                     !- Surface Type
    EU_wall_Construction,     !- Construction Name
    fd062c908350af6c_F2_whole,    !- Zone Name
    ,                         !- Space Name
    outdoors,                 !- Outside Boundary Condition
    ,                         !- Outside Boundary Condition Object
    SunExposed,               !- Sun Exposure
    WindExposed,              !- Wind Exposure
    autocalculate,            !- View Factor to Ground
    autocalculate,            !- Number of Vertices
    440166.038,               !- Vertex 1 Xcoordinate
    4479342.189,              !- Vertex 1 Ycoordinate
    9,                        !- Vertex 1 Zcoordinate
    440166.038,               !- Vertex 2 Xcoordinate
    4479342.189,              !- Vertex 2 Ycoordinate
    6,                        !- Vertex 2 Zcoordinate
    440167.407,               !- Vertex 3 Xcoordinate
    4479344.831,              !- Vertex 3 Ycoordinate
    6,                        !- Vertex 3 Zcoordinate
    440167.407,               !- Vertex 4 Xcoordinate
    4479344.831,              !- Vertex 4 Ycoordinate
    9;                        !- Vertex 4 Zcoordinate

BUILDINGSURFACE:DETAILED,
    Block fd062c908350af6c_whole Storey 2 Wall 0013,    !- Name
    wall,                     !- Surface Type
    EU_wall_Construction,     !- Construction Name
    fd062c908350af6c_F2_whole,    !- Zone Name
    ,                         !- Space Name
    outdoors,                 !- Outside Boundary Condition
    ,                         !- Outside Boundary Condition Object
    SunExposed,               !- Sun Exposure
    WindExposed,              !- Wind Exposure
    autocalculate,            !- View Factor to Ground
    autocalculate,            !- Number of Vertices
    440167.407,               !- Vertex 1 Xcoordinate
    4479344.831,              !- Vertex 1 Ycoordinate
    9,                        !- Vertex 1 Zcoordinate
    440167.407,               !- Vertex 2 Xcoordinate
    4479344.831,              !- Vertex 2 Ycoordinate
    6,                        !- Vertex 2 Zcoordinate
    440168.412,               !- Vertex 3 Xcoordinate
    4479344.346,              !- Vertex 3 Ycoordinate
    6,                        !- Vertex 3 Zcoordinate
    440168.412,               !- Vertex 4 Xcoordinate
    4479344.346,              !- Vertex 4 Ycoordinate
    9;                        !- Vertex 4 Zcoordinate

BUILDINGSURFACE:DETAILED,
    Block fd062c908350af6c_whole Storey 2 Wall 0014,    !- Name
    wall,                     !- Surface Type
    EU_wall_Construction,     !- Construction Name
    fd062c908350af6c_F2_whole,    !- Zone Name
    ,                         !- Space Name
    outdoors,                 !- Outside Boundary Condition
    ,                         !- Outside Boundary Condition Object
    SunExposed,               !- Sun Exposure
    WindExposed,              !- Wind Exposure
    autocalculate,            !- View Factor to Ground
    autocalculate,            !- Number of Vertices
    440168.412,               !- Vertex 1 Xcoordinate
    4479344.346,              !- Vertex 1 Ycoordinate
    9,                        !- Vertex 1 Zcoordinate
    440168.412,               !- Vertex 2 Xcoordinate
    4479344.346,              !- Vertex 2 Ycoordinate
    6,                        !- Vertex 2 Zcoordinate
    440168.92,                !- Vertex 3 Xcoordinate
    4479345.352,              !- Vertex 3 Ycoordinate
    6,                        !- Vertex 3 Zcoordinate
    440168.92,                !- Vertex 4 Xcoordinate
    4479345.352,              !- Vertex 4 Ycoordinate
    9;                        !- Vertex 4 Zcoordinate

BUILDINGSURFACE:DETAILED,
    Block fd062c908350af6c_whole Storey 2 Wall 0015,    !- Name
    wall,                     !- Surface Type
    EU_wall_Construction,     !- Construction Name
    fd062c908350af6c_F2_whole,    !- Zone Name
    ,                         !- Space Name
    outdoors,                 !- Outside Boundary Condition
    ,                         !- Outside Boundary Condition Object
    SunExposed,               !- Sun Exposure
    WindExposed,              !- Wind Exposure
    autocalculate,            !- View Factor to Ground
    autocalculate,            !- Number of Vertices
    440168.92,                !- Vertex 1 Xcoordinate
    4479345.352,              !- Vertex 1 Ycoordinate
    9,                        !- Vertex 1 Zcoordinate
    440168.92,                !- Vertex 2 Xcoordinate
    4479345.352,              !- Vertex 2 Ycoordinate
    6,                        !- Vertex 2 Zcoordinate
    440168.591,               !- Vertex 3 Xcoordinate
    4479345.532,              !- Vertex 3 Ycoordinate
    6,                        !- Vertex 3 Zcoordinate
    440168.591,               !- Vertex 4 Xcoordinate
    4479345.532,              !- Vertex 4 Ycoordinate
    9;                        !- Vertex 4 Zcoordinate

BUILDINGSURFACE:DETAILED,
    Block fd062c908350af6c_whole Storey 2 Wall 0016,    !- Name
    wall,                     !- Surface Type
    EU_wall_Construction,     !- Construction Name
    fd062c908350af6c_F2_whole,    !- Zone Name
    ,                         !- Space Name
    outdoors,                 !- Outside Boundary Condition
    ,                         !- Outside Boundary Condition Object
    SunExposed,               !- Sun Exposure
    WindExposed,              !- Wind Exposure
    autocalculate,            !- View Factor to Ground
    autocalculate,            !- Number of Vertices
    440168.591,               !- Vertex 1 Xcoordinate
    4479345.532,              !- Vertex 1 Ycoordinate
    9,                        !- Vertex 1 Zcoordinate
    440168.591,               !- Vertex 2 Xcoordinate
    4479345.532,              !- Vertex 2 Ycoordinate
    6,                        !- Vertex 2 Zcoordinate
    440169.479,               !- Vertex 3 Xcoordinate
    4479347.301,              !- Vertex 3 Ycoordinate
    6,                        !- Vertex 3 Zcoordinate
    440169.479,               !- Vertex 4 Xcoordinate
    4479347.301,              !- Vertex 4 Ycoordinate
    9;                        !- Vertex 4 Zcoordinate

BUILDINGSURFACE:DETAILED,
    Block fd062c908350af6c_whole Storey 2 Wall 0017,    !- Name
    wall,                     !- Surface Type
    EU_wall_Construction,     !- Construction Name
    fd062c908350af6c_F2_whole,    !- Zone Name
    ,                         !- Space Name
    outdoors,                 !- Outside Boundary Condition
    ,                         !- Outside Boundary Condition Object
    SunExposed,               !- Sun Exposure
    WindExposed,              !- Wind Exposure
    autocalculate,            !- View Factor to Ground
    autocalculate,            !- Number of Vertices
    440169.479,               !- Vertex 1 Xcoordinate
    4479347.301,              !- Vertex 1 Ycoordinate
    9,                        !- Vertex 1 Zcoordinate
    440169.479,               !- Vertex 2 Xcoordinate
    4479347.301,              !- Vertex 2 Ycoordinate
    6,                        !- Vertex 2 Zcoordinate
    440169.251,               !- Vertex 3 Xcoordinate
    4479347.436,              !- Vertex 3 Ycoordinate
    6,                        !- Vertex 3 Zcoordinate
    440169.251,               !- Vertex 4 Xcoordinate
    4479347.436,              !- Vertex 4 Ycoordinate
    9;                        !- Vertex 4 Zcoordinate

BUILDINGSURFACE:DETAILED,
    Block fd062c908350af6c_whole Storey 2 Wall 0018,    !- Name
    wall,                     !- Surface Type
    EU_wall_Construction,     !- Construction Name
    fd062c908350af6c_F2_whole,    !- Zone Name
    ,                         !- Space Name
    outdoors,                 !- Outside Boundary Condition
    ,                         !- Outside Boundary Condition Object
    SunExposed,               !- Sun Exposure
    WindExposed,              !- Wind Exposure
    autocalculate,            !- View Factor to Ground
    autocalculate,            !- Number of Vertices
    440169.251,               !- Vertex 1 Xcoordinate
    4479347.436,              !- Vertex 1 Ycoordinate
    9,                        !- Vertex 1 Zcoordinate
    440169.251,               !- Vertex 2 Xcoordinate
    4479347.436,              !- Vertex 2 Ycoordinate
    6,                        !- Vertex 2 Zcoordinate
    440167.74,                !- Vertex 3 Xcoordinate
    4479350.39,               !- Vertex 3 Ycoordinate
    6,                        !- Vertex 3 Zcoordinate
    440167.74,                !- Vertex 4 Xcoordinate
    4479350.39,               !- Vertex 4 Ycoordinate
    9;                        !- Vertex 4 Zcoordinate

BUILDINGSURFACE:DETAILED,
    Block fd062c908350af6c_whole Storey 2 Wall 0019,    !- Name
    wall,                     !- Surface Type
    EU_wall_Construction,     !- Construction Name
    fd062c908350af6c_F2_whole,    !- Zone Name
    ,                         !- Space Name
    outdoors,                 !- Outside Boundary Condition
    ,                         !- Outside Boundary Condition Object
    SunExposed,               !- Sun Exposure
    WindExposed,              !- Wind Exposure
    autocalculate,            !- View Factor to Ground
    autocalculate,            !- Number of Vertices
    440167.74,                !- Vertex 1 Xcoordinate
    4479350.39,               !- Vertex 1 Ycoordinate
    9,                        !- Vertex 1 Zcoordinate
    440167.74,                !- Vertex 2 Xcoordinate
    4479350.39,               !- Vertex 2 Ycoordinate
    6,                        !- Vertex 2 Zcoordinate
    440168.813,               !- Vertex 3 Xcoordinate
    4479350.97,               !- Vertex 3 Ycoordinate
    6,                        !- Vertex 3 Zcoordinate
    440168.813,               !- Vertex 4 Xcoordinate
    4479350.97,               !- Vertex 4 Ycoordinate
    9;                        !- Vertex 4 Zcoordinate

BUILDINGSURFACE:DETAILED,
    Block fd062c908350af6c_whole Storey 2 Wall 0020,    !- Name
    wall,                     !- Surface Type
    EU_wall_Construction,     !- Construction Name
    fd062c908350af6c_F2_whole,    !- Zone Name
    ,                         !- Space Name
    outdoors,                 !- Outside Boundary Condition
    ,                         !- Outside Boundary Condition Object
    SunExposed,               !- Sun Exposure
    WindExposed,              !- Wind Exposure
    autocalculate,            !- View Factor to Ground
    autocalculate,            !- Number of Vertices
    440168.813,               !- Vertex 1 Xcoordinate
    4479350.97,               !- Vertex 1 Ycoordinate
    9,                        !- Vertex 1 Zcoordinate
    440168.813,               !- Vertex 2 Xcoordinate
    4479350.97,               !- Vertex 2 Ycoordinate
    6,                        !- Vertex 2 Zcoordinate
    440167.97,                !- Vertex 3 Xcoordinate
    4479352.675,              !- Vertex 3 Ycoordinate
    6,                        !- Vertex 3 Zcoordinate
    440167.97,                !- Vertex 4 Xcoordinate
    4479352.675,              !- Vertex 4 Ycoordinate
    9;                        !- Vertex 4 Zcoordinate

BUILDINGSURFACE:DETAILED,
    Block fd062c908350af6c_whole Storey 2 Wall 0021,    !- Name
    wall,                     !- Surface Type
    EU_wall_Construction,     !- Construction Name
    fd062c908350af6c_F2_whole,    !- Zone Name
    ,                         !- Space Name
    Adiabatic,                !- Outside Boundary Condition
    ,                         !- Outside Boundary Condition Object
    NoSun,                    !- Sun Exposure
    NoWind,                   !- Wind Exposure
    autocalculate,            !- View Factor to Ground
    autocalculate,            !- Number of Vertices
    440167.97,                !- Vertex 1 Xcoordinate
    4479352.675,              !- Vertex 1 Ycoordinate
    9,                        !- Vertex 1 Zcoordinate
    440167.97,                !- Vertex 2 Xcoordinate
    4479352.675,              !- Vertex 2 Ycoordinate
    6,                        !- Vertex 2 Zcoordinate
    440178.017,               !- Vertex 3 Xcoordinate
    4479357.912,              !- Vertex 3 Ycoordinate
    6,                        !- Vertex 3 Zcoordinate
    440178.017,               !- Vertex 4 Xcoordinate
    4479357.912,              !- Vertex 4 Ycoordinate
    9;                        !- Vertex 4 Zcoordinate

BUILDINGSURFACE:DETAILED,
    Block fd062c908350af6c_whole Storey 2 Wall 0022,    !- Name
    wall,                     !- Surface Type
    EU_wall_Construction,     !- Construction Name
    fd062c908350af6c_F2_whole,    !- Zone Name
    ,                         !- Space Name
    outdoors,                 !- Outside Boundary Condition
    ,                         !- Outside Boundary Condition Object
    SunExposed,               !- Sun Exposure
    WindExposed,              !- Wind Exposure
    autocalculate,            !- View Factor to Ground
    autocalculate,            !- Number of Vertices
    440178.017,               !- Vertex 1 Xcoordinate
    4479357.912,              !- Vertex 1 Ycoordinate
    9,                        !- Vertex 1 Zcoordinate
    440178.017,               !- Vertex 2 Xcoordinate
    4479357.912,              !- Vertex 2 Ycoordinate
    6,                        !- Vertex 2 Zcoordinate
    440181.747,               !- Vertex 3 Xcoordinate
    4479350.444,              !- Vertex 3 Ycoordinate
    6,                        !- Vertex 3 Zcoordinate
    440181.747,               !- Vertex 4 Xcoordinate
    4479350.444,              !- Vertex 4 Ycoordinate
    9;                        !- Vertex 4 Zcoordinate

BUILDINGSURFACE:DETAILED,
    Block fd062c908350af6c_whole Storey 2 Wall 0023,    !- Name
    wall,                     !- Surface Type
    EU_wall_Construction,     !- Construction Name
    fd062c908350af6c_F2_whole,    !- Zone Name
    ,                         !- Space Name
    outdoors,                 !- Outside Boundary Condition
    ,                         !- Outside Boundary Condition Object
    SunExposed,               !- Sun Exposure
    WindExposed,              !- Wind Exposure
    autocalculate,            !- View Factor to Ground
    autocalculate,            !- Number of Vertices
    440181.747,               !- Vertex 1 Xcoordinate
    4479350.444,              !- Vertex 1 Ycoordinate
    9,                        !- Vertex 1 Zcoordinate
    440181.747,               !- Vertex 2 Xcoordinate
    4479350.444,              !- Vertex 2 Ycoordinate
    6,                        !- Vertex 2 Zcoordinate
    440181.679,               !- Vertex 3 Xcoordinate
    4479348.258,              !- Vertex 3 Ycoordinate
    6,                        !- Vertex 3 Zcoordinate
    440181.679,               !- Vertex 4 Xcoordinate
    4479348.258,              !- Vertex 4 Ycoordinate
    9;                        !- Vertex 4 Zcoordinate

BUILDINGSURFACE:DETAILED,
    Block fd062c908350af6c_whole Storey 2 Wall 0024,    !- Name
    wall,                     !- Surface Type
    EU_wall_Construction,     !- Construction Name
    fd062c908350af6c_F2_whole,    !- Zone Name
    ,                         !- Space Name
    outdoors,                 !- Outside Boundary Condition
    ,                         !- Outside Boundary Condition Object
    SunExposed,               !- Sun Exposure
    WindExposed,              !- Wind Exposure
    autocalculate,            !- View Factor to Ground
    autocalculate,            !- Number of Vertices
    440181.679,               !- Vertex 1 Xcoordinate
    4479348.258,              !- Vertex 1 Ycoordinate
    9,                        !- Vertex 1 Zcoordinate
    440181.679,               !- Vertex 2 Xcoordinate
    4479348.258,              !- Vertex 2 Ycoordinate
    6,                        !- Vertex 2 Zcoordinate
    440175.6,                 !- Vertex 3 Xcoordinate
    4479336.606,              !- Vertex 3 Ycoordinate
    6,                        !- Vertex 3 Zcoordinate
    440175.6,                 !- Vertex 4 Xcoordinate
    4479336.606,              !- Vertex 4 Ycoordinate
    9;                        !- Vertex 4 Zcoordinate

BUILDINGSURFACE:DETAILED,
    Block fd062c908350af6c_whole Storey 2 Wall 0025,    !- Name
    wall,                     !- Surface Type
    EU_wall_Construction,     !- Construction Name
    fd062c908350af6c_F2_whole,    !- Zone Name
    ,                         !- Space Name
    outdoors,                 !- Outside Boundary Condition
    ,                         !- Outside Boundary Condition Object
    SunExposed,               !- Sun Exposure
    WindExposed,              !- Wind Exposure
    autocalculate,            !- View Factor to Ground
    autocalculate,            !- Number of Vertices
    440175.6,                 !- Vertex 1 Xcoordinate
    4479336.606,              !- Vertex 1 Ycoordinate
    9,                        !- Vertex 1 Zcoordinate
    440175.6,                 !- Vertex 2 Xcoordinate
    4479336.606,              !- Vertex 2 Ycoordinate
    6,                        !- Vertex 2 Zcoordinate
    440168.659,               !- Vertex 3 Xcoordinate
    4479323.319,              !- Vertex 3 Ycoordinate
    6,                        !- Vertex 3 Zcoordinate
    440168.659,               !- Vertex 4 Xcoordinate
    4479323.319,              !- Vertex 4 Ycoordinate
    9;                        !- Vertex 4 Zcoordinate

BUILDINGSURFACE:DETAILED,
    Block fd062c908350af6c_whole Storey 2 Wall 0026,    !- Name
    wall,                     !- Surface Type
    EU_wall_Construction,     !- Construction Name
    fd062c908350af6c_F2_whole,    !- Zone Name
    ,                         !- Space Name
    Adiabatic,                !- Outside Boundary Condition
    ,                         !- Outside Boundary Condition Object
    NoSun,                    !- Sun Exposure
    NoWind,                   !- Wind Exposure
    autocalculate,            !- View Factor to Ground
    autocalculate,            !- Number of Vertices
    440168.659,               !- Vertex 1 Xcoordinate
    4479323.319,              !- Vertex 1 Ycoordinate
    9,                        !- Vertex 1 Zcoordinate
    440168.659,               !- Vertex 2 Xcoordinate
    4479323.319,              !- Vertex 2 Ycoordinate
    6,                        !- Vertex 2 Zcoordinate
    440168.429,               !- Vertex 3 Xcoordinate
    4479323.176,              !- Vertex 3 Ycoordinate
    6,                        !- Vertex 3 Zcoordinate
    440168.429,               !- Vertex 4 Xcoordinate
    4479323.176,              !- Vertex 4 Ycoordinate
    9;                        !- Vertex 4 Zcoordinate

BUILDINGSURFACE:DETAILED,
    Block fd062c908350af6c_whole Storey 2 Wall 0027,    !- Name
    wall,                     !- Surface Type
    EU_wall_Construction,     !- Construction Name
    fd062c908350af6c_F2_whole,    !- Zone Name
    ,                         !- Space Name
    Adiabatic,                !- Outside Boundary Condition
    ,                         !- Outside Boundary Condition Object
    NoSun,                    !- Sun Exposure
    NoWind,                   !- Wind Exposure
    autocalculate,            !- View Factor to Ground
    autocalculate,            !- Number of Vertices
    440168.429,               !- Vertex 1 Xcoordinate
    4479323.176,              !- Vertex 1 Ycoordinate
    9,                        !- Vertex 1 Zcoordinate
    440168.429,               !- Vertex 2 Xcoordinate
    4479323.176,              !- Vertex 2 Ycoordinate
    6,                        !- Vertex 2 Zcoordinate
    440160.948,               !- Vertex 3 Xcoordinate
    4479332.328,              !- Vertex 3 Ycoordinate
    6,                        !- Vertex 3 Zcoordinate
    440160.948,               !- Vertex 4 Xcoordinate
    4479332.328,              !- Vertex 4 Ycoordinate
    9;                        !- Vertex 4 Zcoordinate

BUILDINGSURFACE:DETAILED,
    Block fd062c908350af6c_whole Storey 2 Wall 0028,    !- Name
    wall,                     !- Surface Type
    EU_wall_Construction,     !- Construction Name
    fd062c908350af6c_F2_whole,    !- Zone Name
    ,                         !- Space Name
    outdoors,                 !- Outside Boundary Condition
    ,                         !- Outside Boundary Condition Object
    SunExposed,               !- Sun Exposure
    WindExposed,              !- Wind Exposure
    autocalculate,            !- View Factor to Ground
    autocalculate,            !- Number of Vertices
    440160.948,               !- Vertex 1 Xcoordinate
    4479332.328,              !- Vertex 1 Ycoordinate
    9,                        !- Vertex 1 Zcoordinate
    440160.948,               !- Vertex 2 Xcoordinate
    4479332.328,              !- Vertex 2 Ycoordinate
    6,                        !- Vertex 2 Zcoordinate
    440162.644,               !- Vertex 3 Xcoordinate
    4479335.578,              !- Vertex 3 Ycoordinate
    6,                        !- Vertex 3 Zcoordinate
    440162.644,               !- Vertex 4 Xcoordinate
    4479335.578,              !- Vertex 4 Ycoordinate
    9;                        !- Vertex 4 Zcoordinate

BUILDINGSURFACE:DETAILED,
    Block fd062c908350af6c_whole Storey 3 Wall 0001,    !- Name
    wall,                     !- Surface Type
    EU_wall_Construction,     !- Construction Name
    fd062c908350af6c_F3_whole,    !- Zone Name
    ,                         !- Space Name
    outdoors,                 !- Outside Boundary Condition
    ,                         !- Outside Boundary Condition Object
    SunExposed,               !- Sun Exposure
    WindExposed,              !- Wind Exposure
    autocalculate,            !- View Factor to Ground
    autocalculate,            !- Number of Vertices
    440162.644,               !- Vertex 1 Xcoordinate
    4479335.578,              !- Vertex 1 Ycoordinate
    12,                       !- Vertex 1 Zcoordinate
    440162.644,               !- Vertex 2 Xcoordinate
    4479335.578,              !- Vertex 2 Ycoordinate
    9,                        !- Vertex 2 Zcoordinate
    440163.632,               !- Vertex 3 Xcoordinate
    4479335.081,              !- Vertex 3 Ycoordinate
    9,                        !- Vertex 3 Zcoordinate
    440163.632,               !- Vertex 4 Xcoordinate
    4479335.081,              !- Vertex 4 Ycoordinate
    12;                       !- Vertex 4 Zcoordinate

BUILDINGSURFACE:DETAILED,
    Block fd062c908350af6c_whole Storey 3 Wall 0002,    !- Name
    wall,                     !- Surface Type
    EU_wall_Construction,     !- Construction Name
    fd062c908350af6c_F3_whole,    !- Zone Name
    ,                         !- Space Name
    outdoors,                 !- Outside Boundary Condition
    ,                         !- Outside Boundary Condition Object
    SunExposed,               !- Sun Exposure
    WindExposed,              !- Wind Exposure
    autocalculate,            !- View Factor to Ground
    autocalculate,            !- Number of Vertices
    440163.632,               !- Vertex 1 Xcoordinate
    4479335.081,              !- Vertex 1 Ycoordinate
    12,                       !- Vertex 1 Zcoordinate
    440163.632,               !- Vertex 2 Xcoordinate
    4479335.081,              !- Vertex 2 Ycoordinate
    9,                        !- Vertex 2 Zcoordinate
    440163.719,               !- Vertex 3 Xcoordinate
    4479335.281,              !- Vertex 3 Ycoordinate
    9,                        !- Vertex 3 Zcoordinate
    440163.719,               !- Vertex 4 Xcoordinate
    4479335.281,              !- Vertex 4 Ycoordinate
    12;                       !- Vertex 4 Zcoordinate

BUILDINGSURFACE:DETAILED,
    Block fd062c908350af6c_whole Storey 3 Wall 0003,    !- Name
    wall,                     !- Surface Type
    EU_wall_Construction,     !- Construction Name
    fd062c908350af6c_F3_whole,    !- Zone Name
    ,                         !- Space Name
    outdoors,                 !- Outside Boundary Condition
    ,                         !- Outside Boundary Condition Object
    SunExposed,               !- Sun Exposure
    WindExposed,              !- Wind Exposure
    autocalculate,            !- View Factor to Ground
    autocalculate,            !- Number of Vertices
    440163.719,               !- Vertex 1 Xcoordinate
    4479335.281,              !- Vertex 1 Ycoordinate
    12,                       !- Vertex 1 Zcoordinate
    440163.719,               !- Vertex 2 Xcoordinate
    4479335.281,              !- Vertex 2 Ycoordinate
    9,                        !- Vertex 2 Zcoordinate
    440163.415,               !- Vertex 3 Xcoordinate
    4479335.427,              !- Vertex 3 Ycoordinate
    9,                        !- Vertex 3 Zcoordinate
    440163.415,               !- Vertex 4 Xcoordinate
    4479335.427,              !- Vertex 4 Ycoordinate
    12;                       !- Vertex 4 Zcoordinate

BUILDINGSURFACE:DETAILED,
    Block fd062c908350af6c_whole Storey 3 Wall 0004,    !- Name
    wall,                     !- Surface Type
    EU_wall_Construction,     !- Construction Name
    fd062c908350af6c_F3_whole,    !- Zone Name
    ,                         !- Space Name
    outdoors,                 !- Outside Boundary Condition
    ,                         !- Outside Boundary Condition Object
    SunExposed,               !- Sun Exposure
    WindExposed,              !- Wind Exposure
    autocalculate,            !- View Factor to Ground
    autocalculate,            !- Number of Vertices
    440163.415,               !- Vertex 1 Xcoordinate
    4479335.427,              !- Vertex 1 Ycoordinate
    12,                       !- Vertex 1 Zcoordinate
    440163.415,               !- Vertex 2 Xcoordinate
    4479335.427,              !- Vertex 2 Ycoordinate
    9,                        !- Vertex 2 Zcoordinate
    440164.129,               !- Vertex 3 Xcoordinate
    4479336.776,              !- Vertex 3 Ycoordinate
    9,                        !- Vertex 3 Zcoordinate
    440164.129,               !- Vertex 4 Xcoordinate
    4479336.776,              !- Vertex 4 Ycoordinate
    12;                       !- Vertex 4 Zcoordinate

BUILDINGSURFACE:DETAILED,
    Block fd062c908350af6c_whole Storey 3 Wall 0005,    !- Name
    wall,                     !- Surface Type
    EU_wall_Construction,     !- Construction Name
    fd062c908350af6c_F3_whole,    !- Zone Name
    ,                         !- Space Name
    outdoors,                 !- Outside Boundary Condition
    ,                         !- Outside Boundary Condition Object
    SunExposed,               !- Sun Exposure
    WindExposed,              !- Wind Exposure
    autocalculate,            !- View Factor to Ground
    autocalculate,            !- Number of Vertices
    440164.129,               !- Vertex 1 Xcoordinate
    4479336.776,              !- Vertex 1 Ycoordinate
    12,                       !- Vertex 1 Zcoordinate
    440164.129,               !- Vertex 2 Xcoordinate
    4479336.776,              !- Vertex 2 Ycoordinate
    9,                        !- Vertex 2 Zcoordinate
    440164.433,               !- Vertex 3 Xcoordinate
    4479336.618,              !- Vertex 3 Ycoordinate
    9,                        !- Vertex 3 Zcoordinate
    440164.433,               !- Vertex 4 Xcoordinate
    4479336.618,              !- Vertex 4 Ycoordinate
    12;                       !- Vertex 4 Zcoordinate

BUILDINGSURFACE:DETAILED,
    Block fd062c908350af6c_whole Storey 3 Wall 0006,    !- Name
    wall,                     !- Surface Type
    EU_wall_Construction,     !- Construction Name
    fd062c908350af6c_F3_whole,    !- Zone Name
    ,                         !- Space Name
    outdoors,                 !- Outside Boundary Condition
    ,                         !- Outside Boundary Condition Object
    SunExposed,               !- Sun Exposure
    WindExposed,              !- Wind Exposure
    autocalculate,            !- View Factor to Ground
    autocalculate,            !- Number of Vertices
    440164.433,               !- Vertex 1 Xcoordinate
    4479336.618,              !- Vertex 1 Ycoordinate
    12,                       !- Vertex 1 Zcoordinate
    440164.433,               !- Vertex 2 Xcoordinate
    4479336.618,              !- Vertex 2 Ycoordinate
    9,                        !- Vertex 2 Zcoordinate
    440165.011,               !- Vertex 3 Xcoordinate
    4479337.779,              !- Vertex 3 Ycoordinate
    9,                        !- Vertex 3 Zcoordinate
    440165.011,               !- Vertex 4 Xcoordinate
    4479337.779,              !- Vertex 4 Ycoordinate
    12;                       !- Vertex 4 Zcoordinate

BUILDINGSURFACE:DETAILED,
    Block fd062c908350af6c_whole Storey 3 Wall 0007,    !- Name
    wall,                     !- Surface Type
    EU_wall_Construction,     !- Construction Name
    fd062c908350af6c_F3_whole,    !- Zone Name
    ,                         !- Space Name
    outdoors,                 !- Outside Boundary Condition
    ,                         !- Outside Boundary Condition Object
    SunExposed,               !- Sun Exposure
    WindExposed,              !- Wind Exposure
    autocalculate,            !- View Factor to Ground
    autocalculate,            !- Number of Vertices
    440165.011,               !- Vertex 1 Xcoordinate
    4479337.779,              !- Vertex 1 Ycoordinate
    12,                       !- Vertex 1 Zcoordinate
    440165.011,               !- Vertex 2 Xcoordinate
    4479337.779,              !- Vertex 2 Ycoordinate
    9,                        !- Vertex 2 Zcoordinate
    440164.065,               !- Vertex 3 Xcoordinate
    4479338.308,              !- Vertex 3 Ycoordinate
    9,                        !- Vertex 3 Zcoordinate
    440164.065,               !- Vertex 4 Xcoordinate
    4479338.308,              !- Vertex 4 Ycoordinate
    12;                       !- Vertex 4 Zcoordinate

BUILDINGSURFACE:DETAILED,
    Block fd062c908350af6c_whole Storey 3 Wall 0008,    !- Name
    wall,                     !- Surface Type
    EU_wall_Construction,     !- Construction Name
    fd062c908350af6c_F3_whole,    !- Zone Name
    ,                         !- Space Name
    outdoors,                 !- Outside Boundary Condition
    ,                         !- Outside Boundary Condition Object
    SunExposed,               !- Sun Exposure
    WindExposed,              !- Wind Exposure
    autocalculate,            !- View Factor to Ground
    autocalculate,            !- Number of Vertices
    440164.065,               !- Vertex 1 Xcoordinate
    4479338.308,              !- Vertex 1 Ycoordinate
    12,                       !- Vertex 1 Zcoordinate
    440164.065,               !- Vertex 2 Xcoordinate
    4479338.308,              !- Vertex 2 Ycoordinate
    9,                        !- Vertex 2 Zcoordinate
    440165.434,               !- Vertex 3 Xcoordinate
    4479340.928,              !- Vertex 3 Ycoordinate
    9,                        !- Vertex 3 Zcoordinate
    440165.434,               !- Vertex 4 Xcoordinate
    4479340.928,              !- Vertex 4 Ycoordinate
    12;                       !- Vertex 4 Zcoordinate

BUILDINGSURFACE:DETAILED,
    Block fd062c908350af6c_whole Storey 3 Wall 0009,    !- Name
    wall,                     !- Surface Type
    EU_wall_Construction,     !- Construction Name
    fd062c908350af6c_F3_whole,    !- Zone Name
    ,                         !- Space Name
    outdoors,                 !- Outside Boundary Condition
    ,                         !- Outside Boundary Condition Object
    SunExposed,               !- Sun Exposure
    WindExposed,              !- Wind Exposure
    autocalculate,            !- View Factor to Ground
    autocalculate,            !- Number of Vertices
    440165.434,               !- Vertex 1 Xcoordinate
    4479340.928,              !- Vertex 1 Ycoordinate
    12,                       !- Vertex 1 Zcoordinate
    440165.434,               !- Vertex 2 Xcoordinate
    4479340.928,              !- Vertex 2 Ycoordinate
    9,                        !- Vertex 2 Zcoordinate
    440166.363,               !- Vertex 3 Xcoordinate
    4479340.443,              !- Vertex 3 Ycoordinate
    9,                        !- Vertex 3 Zcoordinate
    440166.363,               !- Vertex 4 Xcoordinate
    4479340.443,              !- Vertex 4 Ycoordinate
    12;                       !- Vertex 4 Zcoordinate

BUILDINGSURFACE:DETAILED,
    Block fd062c908350af6c_whole Storey 3 Wall 0010,    !- Name
    wall,                     !- Surface Type
    EU_wall_Construction,     !- Construction Name
    fd062c908350af6c_F3_whole,    !- Zone Name
    ,                         !- Space Name
    outdoors,                 !- Outside Boundary Condition
    ,                         !- Outside Boundary Condition Object
    SunExposed,               !- Sun Exposure
    WindExposed,              !- Wind Exposure
    autocalculate,            !- View Factor to Ground
    autocalculate,            !- Number of Vertices
    440166.363,               !- Vertex 1 Xcoordinate
    4479340.443,              !- Vertex 1 Ycoordinate
    12,                       !- Vertex 1 Zcoordinate
    440166.363,               !- Vertex 2 Xcoordinate
    4479340.443,              !- Vertex 2 Ycoordinate
    9,                        !- Vertex 2 Zcoordinate
    440166.992,               !- Vertex 3 Xcoordinate
    4479341.704,              !- Vertex 3 Ycoordinate
    9,                        !- Vertex 3 Zcoordinate
    440166.992,               !- Vertex 4 Xcoordinate
    4479341.704,              !- Vertex 4 Ycoordinate
    12;                       !- Vertex 4 Zcoordinate

BUILDINGSURFACE:DETAILED,
    Block fd062c908350af6c_whole Storey 3 Wall 0011,    !- Name
    wall,                     !- Surface Type
    EU_wall_Construction,     !- Construction Name
    fd062c908350af6c_F3_whole,    !- Zone Name
    ,                         !- Space Name
    outdoors,                 !- Outside Boundary Condition
    ,                         !- Outside Boundary Condition Object
    SunExposed,               !- Sun Exposure
    WindExposed,              !- Wind Exposure
    autocalculate,            !- View Factor to Ground
    autocalculate,            !- Number of Vertices
    440166.992,               !- Vertex 1 Xcoordinate
    4479341.704,              !- Vertex 1 Ycoordinate
    12,                       !- Vertex 1 Zcoordinate
    440166.992,               !- Vertex 2 Xcoordinate
    4479341.704,              !- Vertex 2 Ycoordinate
    9,                        !- Vertex 2 Zcoordinate
    440166.038,               !- Vertex 3 Xcoordinate
    4479342.189,              !- Vertex 3 Ycoordinate
    9,                        !- Vertex 3 Zcoordinate
    440166.038,               !- Vertex 4 Xcoordinate
    4479342.189,              !- Vertex 4 Ycoordinate
    12;                       !- Vertex 4 Zcoordinate

BUILDINGSURFACE:DETAILED,
    Block fd062c908350af6c_whole Storey 3 Wall 0012,    !- Name
    wall,                     !- Surface Type
    EU_wall_Construction,     !- Construction Name
    fd062c908350af6c_F3_whole,    !- Zone Name
    ,                         !- Space Name
    outdoors,                 !- Outside Boundary Condition
    ,                         !- Outside Boundary Condition Object
    SunExposed,               !- Sun Exposure
    WindExposed,              !- Wind Exposure
    autocalculate,            !- View Factor to Ground
    autocalculate,            !- Number of Vertices
    440166.038,               !- Vertex 1 Xcoordinate
    4479342.189,              !- Vertex 1 Ycoordinate
    12,                       !- Vertex 1 Zcoordinate
    440166.038,               !- Vertex 2 Xcoordinate
    4479342.189,              !- Vertex 2 Ycoordinate
    9,                        !- Vertex 2 Zcoordinate
    440167.407,               !- Vertex 3 Xcoordinate
    4479344.831,              !- Vertex 3 Ycoordinate
    9,                        !- Vertex 3 Zcoordinate
    440167.407,               !- Vertex 4 Xcoordinate
    4479344.831,              !- Vertex 4 Ycoordinate
    12;                       !- Vertex 4 Zcoordinate

BUILDINGSURFACE:DETAILED,
    Block fd062c908350af6c_whole Storey 3 Wall 0013,    !- Name
    wall,                     !- Surface Type
    EU_wall_Construction,     !- Construction Name
    fd062c908350af6c_F3_whole,    !- Zone Name
    ,                         !- Space Name
    outdoors,                 !- Outside Boundary Condition
    ,                         !- Outside Boundary Condition Object
    SunExposed,               !- Sun Exposure
    WindExposed,              !- Wind Exposure
    autocalculate,            !- View Factor to Ground
    autocalculate,            !- Number of Vertices
    440167.407,               !- Vertex 1 Xcoordinate
    4479344.831,              !- Vertex 1 Ycoordinate
    12,                       !- Vertex 1 Zcoordinate
    440167.407,               !- Vertex 2 Xcoordinate
    4479344.831,              !- Vertex 2 Ycoordinate
    9,                        !- Vertex 2 Zcoordinate
    440168.412,               !- Vertex 3 Xcoordinate
    4479344.346,              !- Vertex 3 Ycoordinate
    9,                        !- Vertex 3 Zcoordinate
    440168.412,               !- Vertex 4 Xcoordinate
    4479344.346,              !- Vertex 4 Ycoordinate
    12;                       !- Vertex 4 Zcoordinate

BUILDINGSURFACE:DETAILED,
    Block fd062c908350af6c_whole Storey 3 Wall 0014,    !- Name
    wall,                     !- Surface Type
    EU_wall_Construction,     !- Construction Name
    fd062c908350af6c_F3_whole,    !- Zone Name
    ,                         !- Space Name
    outdoors,                 !- Outside Boundary Condition
    ,                         !- Outside Boundary Condition Object
    SunExposed,               !- Sun Exposure
    WindExposed,              !- Wind Exposure
    autocalculate,            !- View Factor to Ground
    autocalculate,            !- Number of Vertices
    440168.412,               !- Vertex 1 Xcoordinate
    4479344.346,              !- Vertex 1 Ycoordinate
    12,                       !- Vertex 1 Zcoordinate
    440168.412,               !- Vertex 2 Xcoordinate
    4479344.346,              !- Vertex 2 Ycoordinate
    9,                        !- Vertex 2 Zcoordinate
    440168.92,                !- Vertex 3 Xcoordinate
    4479345.352,              !- Vertex 3 Ycoordinate
    9,                        !- Vertex 3 Zcoordinate
    440168.92,                !- Vertex 4 Xcoordinate
    4479345.352,              !- Vertex 4 Ycoordinate
    12;                       !- Vertex 4 Zcoordinate

BUILDINGSURFACE:DETAILED,
    Block fd062c908350af6c_whole Storey 3 Wall 0015,    !- Name
    wall,                     !- Surface Type
    EU_wall_Construction,     !- Construction Name
    fd062c908350af6c_F3_whole,    !- Zone Name
    ,                         !- Space Name
    outdoors,                 !- Outside Boundary Condition
    ,                         !- Outside Boundary Condition Object
    SunExposed,               !- Sun Exposure
    WindExposed,              !- Wind Exposure
    autocalculate,            !- View Factor to Ground
    autocalculate,            !- Number of Vertices
    440168.92,                !- Vertex 1 Xcoordinate
    4479345.352,              !- Vertex 1 Ycoordinate
    12,                       !- Vertex 1 Zcoordinate
    440168.92,                !- Vertex 2 Xcoordinate
    4479345.352,              !- Vertex 2 Ycoordinate
    9,                        !- Vertex 2 Zcoordinate
    440168.591,               !- Vertex 3 Xcoordinate
    4479345.532,              !- Vertex 3 Ycoordinate
    9,                        !- Vertex 3 Zcoordinate
    440168.591,               !- Vertex 4 Xcoordinate
    4479345.532,              !- Vertex 4 Ycoordinate
    12;                       !- Vertex 4 Zcoordinate

BUILDINGSURFACE:DETAILED,
    Block fd062c908350af6c_whole Storey 3 Wall 0016,    !- Name
    wall,                     !- Surface Type
    EU_wall_Construction,     !- Construction Name
    fd062c908350af6c_F3_whole,    !- Zone Name
    ,                         !- Space Name
    outdoors,                 !- Outside Boundary Condition
    ,                         !- Outside Boundary Condition Object
    SunExposed,               !- Sun Exposure
    WindExposed,              !- Wind Exposure
    autocalculate,            !- View Factor to Ground
    autocalculate,            !- Number of Vertices
    440168.591,               !- Vertex 1 Xcoordinate
    4479345.532,              !- Vertex 1 Ycoordinate
    12,                       !- Vertex 1 Zcoordinate
    440168.591,               !- Vertex 2 Xcoordinate
    4479345.532,              !- Vertex 2 Ycoordinate
    9,                        !- Vertex 2 Zcoordinate
    440169.479,               !- Vertex 3 Xcoordinate
    4479347.301,              !- Vertex 3 Ycoordinate
    9,                        !- Vertex 3 Zcoordinate
    440169.479,               !- Vertex 4 Xcoordinate
    4479347.301,              !- Vertex 4 Ycoordinate
    12;                       !- Vertex 4 Zcoordinate

BUILDINGSURFACE:DETAILED,
    Block fd062c908350af6c_whole Storey 3 Wall 0017,    !- Name
    wall,                     !- Surface Type
    EU_wall_Construction,     !- Construction Name
    fd062c908350af6c_F3_whole,    !- Zone Name
    ,                         !- Space Name
    outdoors,                 !- Outside Boundary Condition
    ,                         !- Outside Boundary Condition Object
    SunExposed,               !- Sun Exposure
    WindExposed,              !- Wind Exposure
    autocalculate,            !- View Factor to Ground
    autocalculate,            !- Number of Vertices
    440169.479,               !- Vertex 1 Xcoordinate
    4479347.301,              !- Vertex 1 Ycoordinate
    12,                       !- Vertex 1 Zcoordinate
    440169.479,               !- Vertex 2 Xcoordinate
    4479347.301,              !- Vertex 2 Ycoordinate
    9,                        !- Vertex 2 Zcoordinate
    440169.251,               !- Vertex 3 Xcoordinate
    4479347.436,              !- Vertex 3 Ycoordinate
    9,                        !- Vertex 3 Zcoordinate
    440169.251,               !- Vertex 4 Xcoordinate
    4479347.436,              !- Vertex 4 Ycoordinate
    12;                       !- Vertex 4 Zcoordinate

BUILDINGSURFACE:DETAILED,
    Block fd062c908350af6c_whole Storey 3 Wall 0018,    !- Name
    wall,                     !- Surface Type
    EU_wall_Construction,     !- Construction Name
    fd062c908350af6c_F3_whole,    !- Zone Name
    ,                         !- Space Name
    outdoors,                 !- Outside Boundary Condition
    ,                         !- Outside Boundary Condition Object
    SunExposed,               !- Sun Exposure
    WindExposed,              !- Wind Exposure
    autocalculate,            !- View Factor to Ground
    autocalculate,            !- Number of Vertices
    440169.251,               !- Vertex 1 Xcoordinate
    4479347.436,              !- Vertex 1 Ycoordinate
    12,                       !- Vertex 1 Zcoordinate
    440169.251,               !- Vertex 2 Xcoordinate
    4479347.436,              !- Vertex 2 Ycoordinate
    9,                        !- Vertex 2 Zcoordinate
    440167.74,                !- Vertex 3 Xcoordinate
    4479350.39,               !- Vertex 3 Ycoordinate
    9,                        !- Vertex 3 Zcoordinate
    440167.74,                !- Vertex 4 Xcoordinate
    4479350.39,               !- Vertex 4 Ycoordinate
    12;                       !- Vertex 4 Zcoordinate

BUILDINGSURFACE:DETAILED,
    Block fd062c908350af6c_whole Storey 3 Wall 0019,    !- Name
    wall,                     !- Surface Type
    EU_wall_Construction,     !- Construction Name
    fd062c908350af6c_F3_whole,    !- Zone Name
    ,                         !- Space Name
    outdoors,                 !- Outside Boundary Condition
    ,                         !- Outside Boundary Condition Object
    SunExposed,               !- Sun Exposure
    WindExposed,              !- Wind Exposure
    autocalculate,            !- View Factor to Ground
    autocalculate,            !- Number of Vertices
    440167.74,                !- Vertex 1 Xcoordinate
    4479350.39,               !- Vertex 1 Ycoordinate
    12,                       !- Vertex 1 Zcoordinate
    440167.74,                !- Vertex 2 Xcoordinate
    4479350.39,               !- Vertex 2 Ycoordinate
    9,                        !- Vertex 2 Zcoordinate
    440168.813,               !- Vertex 3 Xcoordinate
    4479350.97,               !- Vertex 3 Ycoordinate
    9,                        !- Vertex 3 Zcoordinate
    440168.813,               !- Vertex 4 Xcoordinate
    4479350.97,               !- Vertex 4 Ycoordinate
    12;                       !- Vertex 4 Zcoordinate

BUILDINGSURFACE:DETAILED,
    Block fd062c908350af6c_whole Storey 3 Wall 0020,    !- Name
    wall,                     !- Surface Type
    EU_wall_Construction,     !- Construction Name
    fd062c908350af6c_F3_whole,    !- Zone Name
    ,                         !- Space Name
    outdoors,                 !- Outside Boundary Condition
    ,                         !- Outside Boundary Condition Object
    SunExposed,               !- Sun Exposure
    WindExposed,              !- Wind Exposure
    autocalculate,            !- View Factor to Ground
    autocalculate,            !- Number of Vertices
    440168.813,               !- Vertex 1 Xcoordinate
    4479350.97,               !- Vertex 1 Ycoordinate
    12,                       !- Vertex 1 Zcoordinate
    440168.813,               !- Vertex 2 Xcoordinate
    4479350.97,               !- Vertex 2 Ycoordinate
    9,                        !- Vertex 2 Zcoordinate
    440167.97,                !- Vertex 3 Xcoordinate
    4479352.675,              !- Vertex 3 Ycoordinate
    9,                        !- Vertex 3 Zcoordinate
    440167.97,                !- Vertex 4 Xcoordinate
    4479352.675,              !- Vertex 4 Ycoordinate
    12;                       !- Vertex 4 Zcoordinate

BUILDINGSURFACE:DETAILED,
    Block fd062c908350af6c_whole Storey 3 Wall 0021,    !- Name
    wall,                     !- Surface Type
    EU_wall_Construction,     !- Construction Name
    fd062c908350af6c_F3_whole,    !- Zone Name
    ,                         !- Space Name
    Adiabatic,                !- Outside Boundary Condition
    ,                         !- Outside Boundary Condition Object
    NoSun,                    !- Sun Exposure
    NoWind,                   !- Wind Exposure
    autocalculate,            !- View Factor to Ground
    autocalculate,            !- Number of Vertices
    440167.97,                !- Vertex 1 Xcoordinate
    4479352.675,              !- Vertex 1 Ycoordinate
    12,                       !- Vertex 1 Zcoordinate
    440167.97,                !- Vertex 2 Xcoordinate
    4479352.675,              !- Vertex 2 Ycoordinate
    9,                        !- Vertex 2 Zcoordinate
    440178.017,               !- Vertex 3 Xcoordinate
    4479357.912,              !- Vertex 3 Ycoordinate
    9,                        !- Vertex 3 Zcoordinate
    440178.017,               !- Vertex 4 Xcoordinate
    4479357.912,              !- Vertex 4 Ycoordinate
    12;                       !- Vertex 4 Zcoordinate

BUILDINGSURFACE:DETAILED,
    Block fd062c908350af6c_whole Storey 3 Wall 0022,    !- Name
    wall,                     !- Surface Type
    EU_wall_Construction,     !- Construction Name
    fd062c908350af6c_F3_whole,    !- Zone Name
    ,                         !- Space Name
    outdoors,                 !- Outside Boundary Condition
    ,                         !- Outside Boundary Condition Object
    SunExposed,               !- Sun Exposure
    WindExposed,              !- Wind Exposure
    autocalculate,            !- View Factor to Ground
    autocalculate,            !- Number of Vertices
    440178.017,               !- Vertex 1 Xcoordinate
    4479357.912,              !- Vertex 1 Ycoordinate
    12,                       !- Vertex 1 Zcoordinate
    440178.017,               !- Vertex 2 Xcoordinate
    4479357.912,              !- Vertex 2 Ycoordinate
    9,                        !- Vertex 2 Zcoordinate
    440181.747,               !- Vertex 3 Xcoordinate
    4479350.444,              !- Vertex 3 Ycoordinate
    9,                        !- Vertex 3 Zcoordinate
    440181.747,               !- Vertex 4 Xcoordinate
    4479350.444,              !- Vertex 4 Ycoordinate
    12;                       !- Vertex 4 Zcoordinate

BUILDINGSURFACE:DETAILED,
    Block fd062c908350af6c_whole Storey 3 Wall 0023,    !- Name
    wall,                     !- Surface Type
    EU_wall_Construction,     !- Construction Name
    fd062c908350af6c_F3_whole,    !- Zone Name
    ,                         !- Space Name
    outdoors,                 !- Outside Boundary Condition
    ,                         !- Outside Boundary Condition Object
    SunExposed,               !- Sun Exposure
    WindExposed,              !- Wind Exposure
    autocalculate,            !- View Factor to Ground
    autocalculate,            !- Number of Vertices
    440181.747,               !- Vertex 1 Xcoordinate
    4479350.444,              !- Vertex 1 Ycoordinate
    12,                       !- Vertex 1 Zcoordinate
    440181.747,               !- Vertex 2 Xcoordinate
    4479350.444,              !- Vertex 2 Ycoordinate
    9,                        !- Vertex 2 Zcoordinate
    440181.679,               !- Vertex 3 Xcoordinate
    4479348.258,              !- Vertex 3 Ycoordinate
    9,                        !- Vertex 3 Zcoordinate
    440181.679,               !- Vertex 4 Xcoordinate
    4479348.258,              !- Vertex 4 Ycoordinate
    12;                       !- Vertex 4 Zcoordinate

BUILDINGSURFACE:DETAILED,
    Block fd062c908350af6c_whole Storey 3 Wall 0024,    !- Name
    wall,                     !- Surface Type
    EU_wall_Construction,     !- Construction Name
    fd062c908350af6c_F3_whole,    !- Zone Name
    ,                         !- Space Name
    outdoors,                 !- Outside Boundary Condition
    ,                         !- Outside Boundary Condition Object
    SunExposed,               !- Sun Exposure
    WindExposed,              !- Wind Exposure
    autocalculate,            !- View Factor to Ground
    autocalculate,            !- Number of Vertices
    440181.679,               !- Vertex 1 Xcoordinate
    4479348.258,              !- Vertex 1 Ycoordinate
    12,                       !- Vertex 1 Zcoordinate
    440181.679,               !- Vertex 2 Xcoordinate
    4479348.258,              !- Vertex 2 Ycoordinate
    9,                        !- Vertex 2 Zcoordinate
    440175.6,                 !- Vertex 3 Xcoordinate
    4479336.606,              !- Vertex 3 Ycoordinate
    9,                        !- Vertex 3 Zcoordinate
    440175.6,                 !- Vertex 4 Xcoordinate
    4479336.606,              !- Vertex 4 Ycoordinate
    12;                       !- Vertex 4 Zcoordinate

BUILDINGSURFACE:DETAILED,
    Block fd062c908350af6c_whole Storey 3 Wall 0025,    !- Name
    wall,                     !- Surface Type
    EU_wall_Construction,     !- Construction Name
    fd062c908350af6c_F3_whole,    !- Zone Name
    ,                         !- Space Name
    outdoors,                 !- Outside Boundary Condition
    ,                         !- Outside Boundary Condition Object
    SunExposed,               !- Sun Exposure
    WindExposed,              !- Wind Exposure
    autocalculate,            !- View Factor to Ground
    autocalculate,            !- Number of Vertices
    440175.6,                 !- Vertex 1 Xcoordinate
    4479336.606,              !- Vertex 1 Ycoordinate
    12,                       !- Vertex 1 Zcoordinate
    440175.6,                 !- Vertex 2 Xcoordinate
    4479336.606,              !- Vertex 2 Ycoordinate
    9,                        !- Vertex 2 Zcoordinate
    440168.659,               !- Vertex 3 Xcoordinate
    4479323.319,              !- Vertex 3 Ycoordinate
    9,                        !- Vertex 3 Zcoordinate
    440168.659,               !- Vertex 4 Xcoordinate
    4479323.319,              !- Vertex 4 Ycoordinate
    12;                       !- Vertex 4 Zcoordinate

BUILDINGSURFACE:DETAILED,
    Block fd062c908350af6c_whole Storey 3 Wall 0026,    !- Name
    wall,                     !- Surface Type
    EU_wall_Construction,     !- Construction Name
    fd062c908350af6c_F3_whole,    !- Zone Name
    ,                         !- Space Name
    Adiabatic,                !- Outside Boundary Condition
    ,                         !- Outside Boundary Condition Object
    NoSun,                    !- Sun Exposure
    NoWind,                   !- Wind Exposure
    autocalculate,            !- View Factor to Ground
    autocalculate,            !- Number of Vertices
    440168.659,               !- Vertex 1 Xcoordinate
    4479323.319,              !- Vertex 1 Ycoordinate
    12,                       !- Vertex 1 Zcoordinate
    440168.659,               !- Vertex 2 Xcoordinate
    4479323.319,              !- Vertex 2 Ycoordinate
    9,                        !- Vertex 2 Zcoordinate
    440168.429,               !- Vertex 3 Xcoordinate
    4479323.176,              !- Vertex 3 Ycoordinate
    9,                        !- Vertex 3 Zcoordinate
    440168.429,               !- Vertex 4 Xcoordinate
    4479323.176,              !- Vertex 4 Ycoordinate
    12;                       !- Vertex 4 Zcoordinate

BUILDINGSURFACE:DETAILED,
    Block fd062c908350af6c_whole Storey 3 Wall 0027,    !- Name
    wall,                     !- Surface Type
    EU_wall_Construction,     !- Construction Name
    fd062c908350af6c_F3_whole,    !- Zone Name
    ,                         !- Space Name
    Adiabatic,                !- Outside Boundary Condition
    ,                         !- Outside Boundary Condition Object
    NoSun,                    !- Sun Exposure
    NoWind,                   !- Wind Exposure
    autocalculate,            !- View Factor to Ground
    autocalculate,            !- Number of Vertices
    440168.429,               !- Vertex 1 Xcoordinate
    4479323.176,              !- Vertex 1 Ycoordinate
    12,                       !- Vertex 1 Zcoordinate
    440168.429,               !- Vertex 2 Xcoordinate
    4479323.176,              !- Vertex 2 Ycoordinate
    9,                        !- Vertex 2 Zcoordinate
    440160.948,               !- Vertex 3 Xcoordinate
    4479332.328,              !- Vertex 3 Ycoordinate
    9,                        !- Vertex 3 Zcoordinate
    440160.948,               !- Vertex 4 Xcoordinate
    4479332.328,              !- Vertex 4 Ycoordinate
    12;                       !- Vertex 4 Zcoordinate

BUILDINGSURFACE:DETAILED,
    Block fd062c908350af6c_whole Storey 3 Wall 0028,    !- Name
    wall,                     !- Surface Type
    EU_wall_Construction,     !- Construction Name
    fd062c908350af6c_F3_whole,    !- Zone Name
    ,                         !- Space Name
    outdoors,                 !- Outside Boundary Condition
    ,                         !- Outside Boundary Condition Object
    SunExposed,               !- Sun Exposure
    WindExposed,              !- Wind Exposure
    autocalculate,            !- View Factor to Ground
    autocalculate,            !- Number of Vertices
    440160.948,               !- Vertex 1 Xcoordinate
    4479332.328,              !- Vertex 1 Ycoordinate
    12,                       !- Vertex 1 Zcoordinate
    440160.948,               !- Vertex 2 Xcoordinate
    4479332.328,              !- Vertex 2 Ycoordinate
    9,                        !- Vertex 2 Zcoordinate
    440162.644,               !- Vertex 3 Xcoordinate
    4479335.578,              !- Vertex 3 Ycoordinate
    9,                        !- Vertex 3 Zcoordinate
    440162.644,               !- Vertex 4 Xcoordinate
    4479335.578,              !- Vertex 4 Ycoordinate
    12;                       !- Vertex 4 Zcoordinate

BUILDINGSURFACE:DETAILED,
    Block fd062c908350af6c_whole Storey 3 Roof 0001,    !- Name
    roof,                     !- Surface Type
    EU_roof_Construction,     !- Construction Name
    fd062c908350af6c_F3_whole,    !- Zone Name
    ,                         !- Space Name
    outdoors,                 !- Outside Boundary Condition
    ,                         !- Outside Boundary Condition Object
    NoSun,                    !- Sun Exposure
    WindExposed,              !- Wind Exposure
    autocalculate,            !- View Factor to Ground
    autocalculate,            !- Number of Vertices
    440178.017,               !- Vertex 1 Xcoordinate
    4479357.912,              !- Vertex 1 Ycoordinate
    12,                       !- Vertex 1 Zcoordinate
    440181.747,               !- Vertex 2 Xcoordinate
    4479350.444,              !- Vertex 2 Ycoordinate
    12,                       !- Vertex 2 Zcoordinate
    440181.679,               !- Vertex 3 Xcoordinate
    4479348.258,              !- Vertex 3 Ycoordinate
    12,                       !- Vertex 3 Zcoordinate
    440175.6,                 !- Vertex 4 Xcoordinate
    4479336.606,              !- Vertex 4 Ycoordinate
    12,                       !- Vertex 4 Zcoordinate
    440168.659,               !- Vertex 5 Xcoordinate
    4479323.319,              !- Vertex 5 Ycoordinate
    12,                       !- Vertex 5 Zcoordinate
    440168.429,               !- Vertex 6 Xcoordinate
    4479323.176,              !- Vertex 6 Ycoordinate
    12,                       !- Vertex 6 Zcoordinate
    440160.948,               !- Vertex 7 Xcoordinate
    4479332.328,              !- Vertex 7 Ycoordinate
    12,                       !- Vertex 7 Zcoordinate
    440162.644,               !- Vertex 8 Xcoordinate
    4479335.578,              !- Vertex 8 Ycoordinate
    12,                       !- Vertex 8 Zcoordinate
    440163.632,               !- Vertex 9 Xcoordinate
    4479335.081,              !- Vertex 9 Ycoordinate
    12,                       !- Vertex 9 Zcoordinate
    440163.719,               !- Vertex 10 Xcoordinate
    4479335.281,              !- Vertex 10 Ycoordinate
    12,                       !- Vertex 10 Zcoordinate
    440163.415,               !- Vertex 11 Xcoordinate
    4479335.427,              !- Vertex 11 Ycoordinate
    12,                       !- Vertex 11 Zcoordinate
    440164.129,               !- Vertex 12 Xcoordinate
    4479336.776,              !- Vertex 12 Ycoordinate
    12,                       !- Vertex 12 Zcoordinate
    440164.433,               !- Vertex 13 Xcoordinate
    4479336.618,              !- Vertex 13 Ycoordinate
    12,                       !- Vertex 13 Zcoordinate
    440165.011,               !- Vertex 14 Xcoordinate
    4479337.779,              !- Vertex 14 Ycoordinate
    12,                       !- Vertex 14 Zcoordinate
    440164.065,               !- Vertex 15 Xcoordinate
    4479338.308,              !- Vertex 15 Ycoordinate
    12,                       !- Vertex 15 Zcoordinate
    440165.434,               !- Vertex 16 Xcoordinate
    4479340.928,              !- Vertex 16 Ycoordinate
    12,                       !- Vertex 16 Zcoordinate
    440166.363,               !- Vertex 17 Xcoordinate
    4479340.443,              !- Vertex 17 Ycoordinate
    12,                       !- Vertex 17 Zcoordinate
    440166.992,               !- Vertex 18 Xcoordinate
    4479341.704,              !- Vertex 18 Ycoordinate
    12,                       !- Vertex 18 Zcoordinate
    440166.038,               !- Vertex 19 Xcoordinate
    4479342.189,              !- Vertex 19 Ycoordinate
    12,                       !- Vertex 19 Zcoordinate
    440167.407,               !- Vertex 20 Xcoordinate
    4479344.831,              !- Vertex 20 Ycoordinate
    12,                       !- Vertex 20 Zcoordinate
    440168.412,               !- Vertex 21 Xcoordinate
    4479344.346,              !- Vertex 21 Ycoordinate
    12,                       !- Vertex 21 Zcoordinate
    440168.92,                !- Vertex 22 Xcoordinate
    4479345.352,              !- Vertex 22 Ycoordinate
    12,                       !- Vertex 22 Zcoordinate
    440168.591,               !- Vertex 23 Xcoordinate
    4479345.532,              !- Vertex 23 Ycoordinate
    12,                       !- Vertex 23 Zcoordinate
    440169.479,               !- Vertex 24 Xcoordinate
    4479347.301,              !- Vertex 24 Ycoordinate
    12,                       !- Vertex 24 Zcoordinate
    440169.251,               !- Vertex 25 Xcoordinate
    4479347.436,              !- Vertex 25 Ycoordinate
    12,                       !- Vertex 25 Zcoordinate
    440167.74,                !- Vertex 26 Xcoordinate
    4479350.39,               !- Vertex 26 Ycoordinate
    12,                       !- Vertex 26 Zcoordinate
    440168.813,               !- Vertex 27 Xcoordinate
    4479350.97,               !- Vertex 27 Ycoordinate
    12,                       !- Vertex 27 Zcoordinate
    440167.97,                !- Vertex 28 Xcoordinate
    4479352.675,              !- Vertex 28 Ycoordinate
    12;                       !- Vertex 28 Zcoordinate

BUILDINGSURFACE:DETAILED,
    Block fd062c908350af6c_whole Storey 0 Ceiling 0001_1,    !- Name
    ceiling,                  !- Surface Type
    EU_floor_Construction,    !- Construction Name
    fd062c908350af6c_F0_whole,    !- Zone Name
    ,                         !- Space Name
    Surface,                  !- Outside Boundary Condition
    Block fd062c908350af6c_whole Storey 1 Floor 0001_1,    !- Outside Boundary Condition Object
    NoSun,                    !- Sun Exposure
    NoWind,                   !- Wind Exposure
    autocalculate,            !- View Factor to Ground
    autocalculate,            !- Number of Vertices
    440178.017,               !- Vertex 1 Xcoordinate
    4479357.912,              !- Vertex 1 Ycoordinate
    3,                        !- Vertex 1 Zcoordinate
    440181.747,               !- Vertex 2 Xcoordinate
    4479350.444,              !- Vertex 2 Ycoordinate
    3,                        !- Vertex 2 Zcoordinate
    440181.679,               !- Vertex 3 Xcoordinate
    4479348.258,              !- Vertex 3 Ycoordinate
    3,                        !- Vertex 3 Zcoordinate
    440175.5999999996,        !- Vertex 4 Xcoordinate
    4479336.606,              !- Vertex 4 Ycoordinate
    3,                        !- Vertex 4 Zcoordinate
    440168.659,               !- Vertex 5 Xcoordinate
    4479323.319,              !- Vertex 5 Ycoordinate
    3,                        !- Vertex 5 Zcoordinate
    440168.429,               !- Vertex 6 Xcoordinate
    4479323.176,              !- Vertex 6 Ycoordinate
    3,                        !- Vertex 6 Zcoordinate
    440160.94799999986,       !- Vertex 7 Xcoordinate
    4479332.328,              !- Vertex 7 Ycoordinate
    3,                        !- Vertex 7 Zcoordinate
    440162.64399999985,       !- Vertex 8 Xcoordinate
    4479335.578,              !- Vertex 8 Ycoordinate
    3,                        !- Vertex 8 Zcoordinate
    440163.63199999975,       !- Vertex 9 Xcoordinate
    4479335.081,              !- Vertex 9 Ycoordinate
    3,                        !- Vertex 9 Zcoordinate
    440163.7189999996,        !- Vertex 10 Xcoordinate
    4479335.281,              !- Vertex 10 Ycoordinate
    3,                        !- Vertex 10 Zcoordinate
    440163.4149999996,        !- Vertex 11 Xcoordinate
    4479335.427,              !- Vertex 11 Ycoordinate
    3,                        !- Vertex 11 Zcoordinate
    440164.1289999997,        !- Vertex 12 Xcoordinate
    4479336.776,              !- Vertex 12 Ycoordinate
    3,                        !- Vertex 12 Zcoordinate
    440164.4329999997,        !- Vertex 13 Xcoordinate
    4479336.618,              !- Vertex 13 Ycoordinate
    3,                        !- Vertex 13 Zcoordinate
    440165.01099999994,       !- Vertex 14 Xcoordinate
    4479337.779,              !- Vertex 14 Ycoordinate
    3,                        !- Vertex 14 Zcoordinate
    440164.06499999994,       !- Vertex 15 Xcoordinate
    4479338.308,              !- Vertex 15 Ycoordinate
    3,                        !- Vertex 15 Zcoordinate
    440165.4339999999,        !- Vertex 16 Xcoordinate
    4479340.928,              !- Vertex 16 Ycoordinate
    3,                        !- Vertex 16 Zcoordinate
    440166.3629999999,        !- Vertex 17 Xcoordinate
    4479340.443,              !- Vertex 17 Ycoordinate
    3,                        !- Vertex 17 Zcoordinate
    440166.9919999996,        !- Vertex 18 Xcoordinate
    4479341.704,              !- Vertex 18 Ycoordinate
    3,                        !- Vertex 18 Zcoordinate
    440166.0379999997,        !- Vertex 19 Xcoordinate
    4479342.189,              !- Vertex 19 Ycoordinate
    3,                        !- Vertex 19 Zcoordinate
    440167.40699999966,       !- Vertex 20 Xcoordinate
    4479344.831,              !- Vertex 20 Ycoordinate
    3,                        !- Vertex 20 Zcoordinate
    440168.412,               !- Vertex 21 Xcoordinate
    4479344.346,              !- Vertex 21 Ycoordinate
    3,                        !- Vertex 21 Zcoordinate
    440168.9199999999,        !- Vertex 22 Xcoordinate
    4479345.352,              !- Vertex 22 Ycoordinate
    3,                        !- Vertex 22 Zcoordinate
    440168.591,               !- Vertex 23 Xcoordinate
    4479345.532,              !- Vertex 23 Ycoordinate
    3,                        !- Vertex 23 Zcoordinate
    440169.4789999998,        !- Vertex 24 Xcoordinate
    4479347.301,              !- Vertex 24 Ycoordinate
    3,                        !- Vertex 24 Zcoordinate
    440169.2509999997,        !- Vertex 25 Xcoordinate
    4479347.436,              !- Vertex 25 Ycoordinate
    3,                        !- Vertex 25 Zcoordinate
    440167.73999999976,       !- Vertex 26 Xcoordinate
    4479350.39,               !- Vertex 26 Ycoordinate
    3,                        !- Vertex 26 Zcoordinate
    440168.8129999996,        !- Vertex 27 Xcoordinate
    4479350.97,               !- Vertex 27 Ycoordinate
    3,                        !- Vertex 27 Zcoordinate
    440167.96999999974,       !- Vertex 28 Xcoordinate
    4479352.675,              !- Vertex 28 Ycoordinate
    3;                        !- Vertex 28 Zcoordinate

BUILDINGSURFACE:DETAILED,
    Block fd062c908350af6c_whole Storey 1 Floor 0001_1,    !- Name
    floor,                    !- Surface Type
    EU_floor_Construction,    !- Construction Name
    fd062c908350af6c_F1_whole,    !- Zone Name
    ,                         !- Space Name
    Surface,                  !- Outside Boundary Condition
    Block fd062c908350af6c_whole Storey 0 Ceiling 0001_1,    !- Outside Boundary Condition Object
    NoSun,                    !- Sun Exposure
    NoWind,                   !- Wind Exposure
    autocalculate,            !- View Factor to Ground
    autocalculate,            !- Number of Vertices
    440168.659,               !- Vertex 1 Xcoordinate
    4479323.319,              !- Vertex 1 Ycoordinate
    3,                        !- Vertex 1 Zcoordinate
    440175.5999999996,        !- Vertex 2 Xcoordinate
    4479336.606,              !- Vertex 2 Ycoordinate
    3,                        !- Vertex 2 Zcoordinate
    440181.679,               !- Vertex 3 Xcoordinate
    4479348.258,              !- Vertex 3 Ycoordinate
    3,                        !- Vertex 3 Zcoordinate
    440181.747,               !- Vertex 4 Xcoordinate
    4479350.444,              !- Vertex 4 Ycoordinate
    3,                        !- Vertex 4 Zcoordinate
    440178.017,               !- Vertex 5 Xcoordinate
    4479357.912,              !- Vertex 5 Ycoordinate
    3,                        !- Vertex 5 Zcoordinate
    440167.96999999974,       !- Vertex 6 Xcoordinate
    4479352.675,              !- Vertex 6 Ycoordinate
    3,                        !- Vertex 6 Zcoordinate
    440168.8129999996,        !- Vertex 7 Xcoordinate
    4479350.97,               !- Vertex 7 Ycoordinate
    3,                        !- Vertex 7 Zcoordinate
    440167.73999999976,       !- Vertex 8 Xcoordinate
    4479350.39,               !- Vertex 8 Ycoordinate
    3,                        !- Vertex 8 Zcoordinate
    440169.2509999997,        !- Vertex 9 Xcoordinate
    4479347.436,              !- Vertex 9 Ycoordinate
    3,                        !- Vertex 9 Zcoordinate
    440169.4789999998,        !- Vertex 10 Xcoordinate
    4479347.301,              !- Vertex 10 Ycoordinate
    3,                        !- Vertex 10 Zcoordinate
    440168.591,               !- Vertex 11 Xcoordinate
    4479345.532,              !- Vertex 11 Ycoordinate
    3,                        !- Vertex 11 Zcoordinate
    440168.9199999999,        !- Vertex 12 Xcoordinate
    4479345.352,              !- Vertex 12 Ycoordinate
    3,                        !- Vertex 12 Zcoordinate
    440168.412,               !- Vertex 13 Xcoordinate
    4479344.346,              !- Vertex 13 Ycoordinate
    3,                        !- Vertex 13 Zcoordinate
    440167.40699999966,       !- Vertex 14 Xcoordinate
    4479344.831,              !- Vertex 14 Ycoordinate
    3,                        !- Vertex 14 Zcoordinate
    440166.0379999997,        !- Vertex 15 Xcoordinate
    4479342.189,              !- Vertex 15 Ycoordinate
    3,                        !- Vertex 15 Zcoordinate
    440166.9919999996,        !- Vertex 16 Xcoordinate
    4479341.704,              !- Vertex 16 Ycoordinate
    3,                        !- Vertex 16 Zcoordinate
    440166.3629999999,        !- Vertex 17 Xcoordinate
    4479340.443,              !- Vertex 17 Ycoordinate
    3,                        !- Vertex 17 Zcoordinate
    440165.4339999999,        !- Vertex 18 Xcoordinate
    4479340.928,              !- Vertex 18 Ycoordinate
    3,                        !- Vertex 18 Zcoordinate
    440164.06499999994,       !- Vertex 19 Xcoordinate
    4479338.308,              !- Vertex 19 Ycoordinate
    3,                        !- Vertex 19 Zcoordinate
    440165.01099999994,       !- Vertex 20 Xcoordinate
    4479337.779,              !- Vertex 20 Ycoordinate
    3,                        !- Vertex 20 Zcoordinate
    440164.4329999997,        !- Vertex 21 Xcoordinate
    4479336.618,              !- Vertex 21 Ycoordinate
    3,                        !- Vertex 21 Zcoordinate
    440164.1289999997,        !- Vertex 22 Xcoordinate
    4479336.776,              !- Vertex 22 Ycoordinate
    3,                        !- Vertex 22 Zcoordinate
    440163.4149999996,        !- Vertex 23 Xcoordinate
    4479335.427,              !- Vertex 23 Ycoordinate
    3,                        !- Vertex 23 Zcoordinate
    440163.7189999996,        !- Vertex 24 Xcoordinate
    4479335.281,              !- Vertex 24 Ycoordinate
    3,                        !- Vertex 24 Zcoordinate
    440163.63199999975,       !- Vertex 25 Xcoordinate
    4479335.081,              !- Vertex 25 Ycoordinate
    3,                        !- Vertex 25 Zcoordinate
    440162.64399999985,       !- Vertex 26 Xcoordinate
    4479335.578,              !- Vertex 26 Ycoordinate
    3,                        !- Vertex 26 Zcoordinate
    440160.94799999986,       !- Vertex 27 Xcoordinate
    4479332.328,              !- Vertex 27 Ycoordinate
    3,                        !- Vertex 27 Zcoordinate
    440168.429,               !- Vertex 28 Xcoordinate
    4479323.176,              !- Vertex 28 Ycoordinate
    3;                        !- Vertex 28 Zcoordinate

BUILDINGSURFACE:DETAILED,
    Block fd062c908350af6c_whole Storey 1 Ceiling 0001_1,    !- Name
    ceiling,                  !- Surface Type
    EU_floor_Construction,    !- Construction Name
    fd062c908350af6c_F1_whole,    !- Zone Name
    ,                         !- Space Name
    Surface,                  !- Outside Boundary Condition
    Block fd062c908350af6c_whole Storey 2 Floor 0001_1,    !- Outside Boundary Condition Object
    NoSun,                    !- Sun Exposure
    NoWind,                   !- Wind Exposure
    autocalculate,            !- View Factor to Ground
    autocalculate,            !- Number of Vertices
    440178.017,               !- Vertex 1 Xcoordinate
    4479357.912,              !- Vertex 1 Ycoordinate
    6,                        !- Vertex 1 Zcoordinate
    440181.747,               !- Vertex 2 Xcoordinate
    4479350.444,              !- Vertex 2 Ycoordinate
    6,                        !- Vertex 2 Zcoordinate
    440181.679,               !- Vertex 3 Xcoordinate
    4479348.258,              !- Vertex 3 Ycoordinate
    6,                        !- Vertex 3 Zcoordinate
    440175.5999999996,        !- Vertex 4 Xcoordinate
    4479336.606,              !- Vertex 4 Ycoordinate
    6,                        !- Vertex 4 Zcoordinate
    440168.659,               !- Vertex 5 Xcoordinate
    4479323.319,              !- Vertex 5 Ycoordinate
    6,                        !- Vertex 5 Zcoordinate
    440168.429,               !- Vertex 6 Xcoordinate
    4479323.176,              !- Vertex 6 Ycoordinate
    6,                        !- Vertex 6 Zcoordinate
    440160.94799999986,       !- Vertex 7 Xcoordinate
    4479332.328,              !- Vertex 7 Ycoordinate
    6,                        !- Vertex 7 Zcoordinate
    440162.64399999985,       !- Vertex 8 Xcoordinate
    4479335.578,              !- Vertex 8 Ycoordinate
    6,                        !- Vertex 8 Zcoordinate
    440163.63199999975,       !- Vertex 9 Xcoordinate
    4479335.081,              !- Vertex 9 Ycoordinate
    6,                        !- Vertex 9 Zcoordinate
    440163.7189999996,        !- Vertex 10 Xcoordinate
    4479335.281,              !- Vertex 10 Ycoordinate
    6,                        !- Vertex 10 Zcoordinate
    440163.4149999996,        !- Vertex 11 Xcoordinate
    4479335.427,              !- Vertex 11 Ycoordinate
    6,                        !- Vertex 11 Zcoordinate
    440164.1289999997,        !- Vertex 12 Xcoordinate
    4479336.776,              !- Vertex 12 Ycoordinate
    6,                        !- Vertex 12 Zcoordinate
    440164.4329999997,        !- Vertex 13 Xcoordinate
    4479336.618,              !- Vertex 13 Ycoordinate
    6,                        !- Vertex 13 Zcoordinate
    440165.01099999994,       !- Vertex 14 Xcoordinate
    4479337.779,              !- Vertex 14 Ycoordinate
    6,                        !- Vertex 14 Zcoordinate
    440164.06499999994,       !- Vertex 15 Xcoordinate
    4479338.308,              !- Vertex 15 Ycoordinate
    6,                        !- Vertex 15 Zcoordinate
    440165.4339999999,        !- Vertex 16 Xcoordinate
    4479340.928,              !- Vertex 16 Ycoordinate
    6,                        !- Vertex 16 Zcoordinate
    440166.3629999999,        !- Vertex 17 Xcoordinate
    4479340.443,              !- Vertex 17 Ycoordinate
    6,                        !- Vertex 17 Zcoordinate
    440166.9919999996,        !- Vertex 18 Xcoordinate
    4479341.704,              !- Vertex 18 Ycoordinate
    6,                        !- Vertex 18 Zcoordinate
    440166.0379999997,        !- Vertex 19 Xcoordinate
    4479342.189,              !- Vertex 19 Ycoordinate
    6,                        !- Vertex 19 Zcoordinate
    440167.40699999966,       !- Vertex 20 Xcoordinate
    4479344.831,              !- Vertex 20 Ycoordinate
    6,                        !- Vertex 20 Zcoordinate
    440168.412,               !- Vertex 21 Xcoordinate
    4479344.346,              !- Vertex 21 Ycoordinate
    6,                        !- Vertex 21 Zcoordinate
    440168.9199999999,        !- Vertex 22 Xcoordinate
    4479345.352,              !- Vertex 22 Ycoordinate
    6,                        !- Vertex 22 Zcoordinate
    440168.591,               !- Vertex 23 Xcoordinate
    4479345.532,              !- Vertex 23 Ycoordinate
    6,                        !- Vertex 23 Zcoordinate
    440169.4789999998,        !- Vertex 24 Xcoordinate
    4479347.301,              !- Vertex 24 Ycoordinate
    6,                        !- Vertex 24 Zcoordinate
    440169.2509999997,        !- Vertex 25 Xcoordinate
    4479347.436,              !- Vertex 25 Ycoordinate
    6,                        !- Vertex 25 Zcoordinate
    440167.73999999976,       !- Vertex 26 Xcoordinate
    4479350.39,               !- Vertex 26 Ycoordinate
    6,                        !- Vertex 26 Zcoordinate
    440168.8129999996,        !- Vertex 27 Xcoordinate
    4479350.97,               !- Vertex 27 Ycoordinate
    6,                        !- Vertex 27 Zcoordinate
    440167.96999999974,       !- Vertex 28 Xcoordinate
    4479352.675,              !- Vertex 28 Ycoordinate
    6;                        !- Vertex 28 Zcoordinate

BUILDINGSURFACE:DETAILED,
    Block fd062c908350af6c_whole Storey 2 Floor 0001_1,    !- Name
    floor,                    !- Surface Type
    EU_floor_Construction,    !- Construction Name
    fd062c908350af6c_F2_whole,    !- Zone Name
    ,                         !- Space Name
    Surface,                  !- Outside Boundary Condition
    Block fd062c908350af6c_whole Storey 1 Ceiling 0001_1,    !- Outside Boundary Condition Object
    NoSun,                    !- Sun Exposure
    NoWind,                   !- Wind Exposure
    autocalculate,            !- View Factor to Ground
    autocalculate,            !- Number of Vertices
    440168.659,               !- Vertex 1 Xcoordinate
    4479323.319,              !- Vertex 1 Ycoordinate
    6,                        !- Vertex 1 Zcoordinate
    440175.5999999996,        !- Vertex 2 Xcoordinate
    4479336.606,              !- Vertex 2 Ycoordinate
    6,                        !- Vertex 2 Zcoordinate
    440181.679,               !- Vertex 3 Xcoordinate
    4479348.258,              !- Vertex 3 Ycoordinate
    6,                        !- Vertex 3 Zcoordinate
    440181.747,               !- Vertex 4 Xcoordinate
    4479350.444,              !- Vertex 4 Ycoordinate
    6,                        !- Vertex 4 Zcoordinate
    440178.017,               !- Vertex 5 Xcoordinate
    4479357.912,              !- Vertex 5 Ycoordinate
    6,                        !- Vertex 5 Zcoordinate
    440167.96999999974,       !- Vertex 6 Xcoordinate
    4479352.675,              !- Vertex 6 Ycoordinate
    6,                        !- Vertex 6 Zcoordinate
    440168.8129999996,        !- Vertex 7 Xcoordinate
    4479350.97,               !- Vertex 7 Ycoordinate
    6,                        !- Vertex 7 Zcoordinate
    440167.73999999976,       !- Vertex 8 Xcoordinate
    4479350.39,               !- Vertex 8 Ycoordinate
    6,                        !- Vertex 8 Zcoordinate
    440169.2509999997,        !- Vertex 9 Xcoordinate
    4479347.436,              !- Vertex 9 Ycoordinate
    6,                        !- Vertex 9 Zcoordinate
    440169.4789999998,        !- Vertex 10 Xcoordinate
    4479347.301,              !- Vertex 10 Ycoordinate
    6,                        !- Vertex 10 Zcoordinate
    440168.591,               !- Vertex 11 Xcoordinate
    4479345.532,              !- Vertex 11 Ycoordinate
    6,                        !- Vertex 11 Zcoordinate
    440168.9199999999,        !- Vertex 12 Xcoordinate
    4479345.352,              !- Vertex 12 Ycoordinate
    6,                        !- Vertex 12 Zcoordinate
    440168.412,               !- Vertex 13 Xcoordinate
    4479344.346,              !- Vertex 13 Ycoordinate
    6,                        !- Vertex 13 Zcoordinate
    440167.40699999966,       !- Vertex 14 Xcoordinate
    4479344.831,              !- Vertex 14 Ycoordinate
    6,                        !- Vertex 14 Zcoordinate
    440166.0379999997,        !- Vertex 15 Xcoordinate
    4479342.189,              !- Vertex 15 Ycoordinate
    6,                        !- Vertex 15 Zcoordinate
    440166.9919999996,        !- Vertex 16 Xcoordinate
    4479341.704,              !- Vertex 16 Ycoordinate
    6,                        !- Vertex 16 Zcoordinate
    440166.3629999999,        !- Vertex 17 Xcoordinate
    4479340.443,              !- Vertex 17 Ycoordinate
    6,                        !- Vertex 17 Zcoordinate
    440165.4339999999,        !- Vertex 18 Xcoordinate
    4479340.928,              !- Vertex 18 Ycoordinate
    6,                        !- Vertex 18 Zcoordinate
    440164.06499999994,       !- Vertex 19 Xcoordinate
    4479338.308,              !- Vertex 19 Ycoordinate
    6,                        !- Vertex 19 Zcoordinate
    440165.01099999994,       !- Vertex 20 Xcoordinate
    4479337.779,              !- Vertex 20 Ycoordinate
    6,                        !- Vertex 20 Zcoordinate
    440164.4329999997,        !- Vertex 21 Xcoordinate
    4479336.618,              !- Vertex 21 Ycoordinate
    6,                        !- Vertex 21 Zcoordinate
    440164.1289999997,        !- Vertex 22 Xcoordinate
    4479336.776,              !- Vertex 22 Ycoordinate
    6,                        !- Vertex 22 Zcoordinate
    440163.4149999996,        !- Vertex 23 Xcoordinate
    4479335.427,              !- Vertex 23 Ycoordinate
    6,                        !- Vertex 23 Zcoordinate
    440163.7189999996,        !- Vertex 24 Xcoordinate
    4479335.281,              !- Vertex 24 Ycoordinate
    6,                        !- Vertex 24 Zcoordinate
    440163.63199999975,       !- Vertex 25 Xcoordinate
    4479335.081,              !- Vertex 25 Ycoordinate
    6,                        !- Vertex 25 Zcoordinate
    440162.64399999985,       !- Vertex 26 Xcoordinate
    4479335.578,              !- Vertex 26 Ycoordinate
    6,                        !- Vertex 26 Zcoordinate
    440160.94799999986,       !- Vertex 27 Xcoordinate
    4479332.328,              !- Vertex 27 Ycoordinate
    6,                        !- Vertex 27 Zcoordinate
    440168.429,               !- Vertex 28 Xcoordinate
    4479323.176,              !- Vertex 28 Ycoordinate
    6;                        !- Vertex 28 Zcoordinate

BUILDINGSURFACE:DETAILED,
    Block fd062c908350af6c_whole Storey 2 Ceiling 0001_1,    !- Name
    ceiling,                  !- Surface Type
    EU_floor_Construction,    !- Construction Name
    fd062c908350af6c_F2_whole,    !- Zone Name
    ,                         !- Space Name
    Surface,                  !- Outside Boundary Condition
    Block fd062c908350af6c_whole Storey 3 Floor 0001_1,    !- Outside Boundary Condition Object
    NoSun,                    !- Sun Exposure
    NoWind,                   !- Wind Exposure
    autocalculate,            !- View Factor to Ground
    autocalculate,            !- Number of Vertices
    440178.017,               !- Vertex 1 Xcoordinate
    4479357.912,              !- Vertex 1 Ycoordinate
    9,                        !- Vertex 1 Zcoordinate
    440181.747,               !- Vertex 2 Xcoordinate
    4479350.444,              !- Vertex 2 Ycoordinate
    9,                        !- Vertex 2 Zcoordinate
    440181.679,               !- Vertex 3 Xcoordinate
    4479348.258,              !- Vertex 3 Ycoordinate
    9,                        !- Vertex 3 Zcoordinate
    440175.5999999996,        !- Vertex 4 Xcoordinate
    4479336.606,              !- Vertex 4 Ycoordinate
    9,                        !- Vertex 4 Zcoordinate
    440168.659,               !- Vertex 5 Xcoordinate
    4479323.319,              !- Vertex 5 Ycoordinate
    9,                        !- Vertex 5 Zcoordinate
    440168.429,               !- Vertex 6 Xcoordinate
    4479323.176,              !- Vertex 6 Ycoordinate
    9,                        !- Vertex 6 Zcoordinate
    440160.94799999986,       !- Vertex 7 Xcoordinate
    4479332.328,              !- Vertex 7 Ycoordinate
    9,                        !- Vertex 7 Zcoordinate
    440162.64399999985,       !- Vertex 8 Xcoordinate
    4479335.578,              !- Vertex 8 Ycoordinate
    9,                        !- Vertex 8 Zcoordinate
    440163.63199999975,       !- Vertex 9 Xcoordinate
    4479335.081,              !- Vertex 9 Ycoordinate
    9,                        !- Vertex 9 Zcoordinate
    440163.7189999996,        !- Vertex 10 Xcoordinate
    4479335.281,              !- Vertex 10 Ycoordinate
    9,                        !- Vertex 10 Zcoordinate
    440163.4149999996,        !- Vertex 11 Xcoordinate
    4479335.427,              !- Vertex 11 Ycoordinate
    9,                        !- Vertex 11 Zcoordinate
    440164.1289999997,        !- Vertex 12 Xcoordinate
    4479336.776,              !- Vertex 12 Ycoordinate
    9,                        !- Vertex 12 Zcoordinate
    440164.4329999997,        !- Vertex 13 Xcoordinate
    4479336.618,              !- Vertex 13 Ycoordinate
    9,                        !- Vertex 13 Zcoordinate
    440165.01099999994,       !- Vertex 14 Xcoordinate
    4479337.779,              !- Vertex 14 Ycoordinate
    9,                        !- Vertex 14 Zcoordinate
    440164.06499999994,       !- Vertex 15 Xcoordinate
    4479338.308,              !- Vertex 15 Ycoordinate
    9,                        !- Vertex 15 Zcoordinate
    440165.4339999999,        !- Vertex 16 Xcoordinate
    4479340.928,              !- Vertex 16 Ycoordinate
    9,                        !- Vertex 16 Zcoordinate
    440166.3629999999,        !- Vertex 17 Xcoordinate
    4479340.443,              !- Vertex 17 Ycoordinate
    9,                        !- Vertex 17 Zcoordinate
    440166.9919999996,        !- Vertex 18 Xcoordinate
    4479341.704,              !- Vertex 18 Ycoordinate
    9,                        !- Vertex 18 Zcoordinate
    440166.0379999997,        !- Vertex 19 Xcoordinate
    4479342.189,              !- Vertex 19 Ycoordinate
    9,                        !- Vertex 19 Zcoordinate
    440167.40699999966,       !- Vertex 20 Xcoordinate
    4479344.831,              !- Vertex 20 Ycoordinate
    9,                        !- Vertex 20 Zcoordinate
    440168.412,               !- Vertex 21 Xcoordinate
    4479344.346,              !- Vertex 21 Ycoordinate
    9,                        !- Vertex 21 Zcoordinate
    440168.9199999999,        !- Vertex 22 Xcoordinate
    4479345.352,              !- Vertex 22 Ycoordinate
    9,                        !- Vertex 22 Zcoordinate
    440168.591,               !- Vertex 23 Xcoordinate
    4479345.532,              !- Vertex 23 Ycoordinate
    9,                        !- Vertex 23 Zcoordinate
    440169.4789999998,        !- Vertex 24 Xcoordinate
    4479347.301,              !- Vertex 24 Ycoordinate
    9,                        !- Vertex 24 Zcoordinate
    440169.2509999997,        !- Vertex 25 Xcoordinate
    4479347.436,              !- Vertex 25 Ycoordinate
    9,                        !- Vertex 25 Zcoordinate
    440167.73999999976,       !- Vertex 26 Xcoordinate
    4479350.39,               !- Vertex 26 Ycoordinate
    9,                        !- Vertex 26 Zcoordinate
    440168.8129999996,        !- Vertex 27 Xcoordinate
    4479350.97,               !- Vertex 27 Ycoordinate
    9,                        !- Vertex 27 Zcoordinate
    440167.96999999974,       !- Vertex 28 Xcoordinate
    4479352.675,              !- Vertex 28 Ycoordinate
    9;                        !- Vertex 28 Zcoordinate

BUILDINGSURFACE:DETAILED,
    Block fd062c908350af6c_whole Storey 3 Floor 0001_1,    !- Name
    floor,                    !- Surface Type
    EU_floor_Construction,    !- Construction Name
    fd062c908350af6c_F3_whole,    !- Zone Name
    ,                         !- Space Name
    Surface,                  !- Outside Boundary Condition
    Block fd062c908350af6c_whole Storey 2 Ceiling 0001_1,    !- Outside Boundary Condition Object
    NoSun,                    !- Sun Exposure
    NoWind,                   !- Wind Exposure
    autocalculate,            !- View Factor to Ground
    autocalculate,            !- Number of Vertices
    440168.659,               !- Vertex 1 Xcoordinate
    4479323.319,              !- Vertex 1 Ycoordinate
    9,                        !- Vertex 1 Zcoordinate
    440175.5999999996,        !- Vertex 2 Xcoordinate
    4479336.606,              !- Vertex 2 Ycoordinate
    9,                        !- Vertex 2 Zcoordinate
    440181.679,               !- Vertex 3 Xcoordinate
    4479348.258,              !- Vertex 3 Ycoordinate
    9,                        !- Vertex 3 Zcoordinate
    440181.747,               !- Vertex 4 Xcoordinate
    4479350.444,              !- Vertex 4 Ycoordinate
    9,                        !- Vertex 4 Zcoordinate
    440178.017,               !- Vertex 5 Xcoordinate
    4479357.912,              !- Vertex 5 Ycoordinate
    9,                        !- Vertex 5 Zcoordinate
    440167.96999999974,       !- Vertex 6 Xcoordinate
    4479352.675,              !- Vertex 6 Ycoordinate
    9,                        !- Vertex 6 Zcoordinate
    440168.8129999996,        !- Vertex 7 Xcoordinate
    4479350.97,               !- Vertex 7 Ycoordinate
    9,                        !- Vertex 7 Zcoordinate
    440167.73999999976,       !- Vertex 8 Xcoordinate
    4479350.39,               !- Vertex 8 Ycoordinate
    9,                        !- Vertex 8 Zcoordinate
    440169.2509999997,        !- Vertex 9 Xcoordinate
    4479347.436,              !- Vertex 9 Ycoordinate
    9,                        !- Vertex 9 Zcoordinate
    440169.4789999998,        !- Vertex 10 Xcoordinate
    4479347.301,              !- Vertex 10 Ycoordinate
    9,                        !- Vertex 10 Zcoordinate
    440168.591,               !- Vertex 11 Xcoordinate
    4479345.532,              !- Vertex 11 Ycoordinate
    9,                        !- Vertex 11 Zcoordinate
    440168.9199999999,        !- Vertex 12 Xcoordinate
    4479345.352,              !- Vertex 12 Ycoordinate
    9,                        !- Vertex 12 Zcoordinate
    440168.412,               !- Vertex 13 Xcoordinate
    4479344.346,              !- Vertex 13 Ycoordinate
    9,                        !- Vertex 13 Zcoordinate
    440167.40699999966,       !- Vertex 14 Xcoordinate
    4479344.831,              !- Vertex 14 Ycoordinate
    9,                        !- Vertex 14 Zcoordinate
    440166.0379999997,        !- Vertex 15 Xcoordinate
    4479342.189,              !- Vertex 15 Ycoordinate
    9,                        !- Vertex 15 Zcoordinate
    440166.9919999996,        !- Vertex 16 Xcoordinate
    4479341.704,              !- Vertex 16 Ycoordinate
    9,                        !- Vertex 16 Zcoordinate
    440166.3629999999,        !- Vertex 17 Xcoordinate
    4479340.443,              !- Vertex 17 Ycoordinate
    9,                        !- Vertex 17 Zcoordinate
    440165.4339999999,        !- Vertex 18 Xcoordinate
    4479340.928,              !- Vertex 18 Ycoordinate
    9,                        !- Vertex 18 Zcoordinate
    440164.06499999994,       !- Vertex 19 Xcoordinate
    4479338.308,              !- Vertex 19 Ycoordinate
    9,                        !- Vertex 19 Zcoordinate
    440165.01099999994,       !- Vertex 20 Xcoordinate
    4479337.779,              !- Vertex 20 Ycoordinate
    9,                        !- Vertex 20 Zcoordinate
    440164.4329999997,        !- Vertex 21 Xcoordinate
    4479336.618,              !- Vertex 21 Ycoordinate
    9,                        !- Vertex 21 Zcoordinate
    440164.1289999997,        !- Vertex 22 Xcoordinate
    4479336.776,              !- Vertex 22 Ycoordinate
    9,                        !- Vertex 22 Zcoordinate
    440163.4149999996,        !- Vertex 23 Xcoordinate
    4479335.427,              !- Vertex 23 Ycoordinate
    9,                        !- Vertex 23 Zcoordinate
    440163.7189999996,        !- Vertex 24 Xcoordinate
    4479335.281,              !- Vertex 24 Ycoordinate
    9,                        !- Vertex 24 Zcoordinate
    440163.63199999975,       !- Vertex 25 Xcoordinate
    4479335.081,              !- Vertex 25 Ycoordinate
    9,                        !- Vertex 25 Zcoordinate
    440162.64399999985,       !- Vertex 26 Xcoordinate
    4479335.578,              !- Vertex 26 Ycoordinate
    9,                        !- Vertex 26 Zcoordinate
    440160.94799999986,       !- Vertex 27 Xcoordinate
    4479332.328,              !- Vertex 27 Ycoordinate
    9,                        !- Vertex 27 Zcoordinate
    440168.429,               !- Vertex 28 Xcoordinate
    4479323.176,              !- Vertex 28 Ycoordinate
    9;                        !- Vertex 28 Zcoordinate

INTERNALMASS,
    fd062c908350af6c_F0_whole_EU_InternalMass,    !- Name
    EU_InternalMass_Construction,    !- Construction Name
    fd062c908350af6c_F0_whole,    !- Zone or ZoneList Name
    ,                         !- Space or SpaceList Name
    339.88979658056115;       !- Surface Area

INTERNALMASS,
    fd062c908350af6c_F1_whole_EU_InternalMass,    !- Name
    EU_InternalMass_Construction,    !- Construction Name
    fd062c908350af6c_F1_whole,    !- Zone or ZoneList Name
    ,                         !- Space or SpaceList Name
    339.88979658056115;       !- Surface Area

INTERNALMASS,
    fd062c908350af6c_F2_whole_EU_InternalMass,    !- Name
    EU_InternalMass_Construction,    !- Construction Name
    fd062c908350af6c_F2_whole,    !- Zone or ZoneList Name
    ,                         !- Space or SpaceList Name
    339.88979658056115;       !- Surface Area

INTERNALMASS,
    fd062c908350af6c_F3_whole_EU_InternalMass,    !- Name
    EU_InternalMass_Construction,    !- Construction Name
    fd062c908350af6c_F3_whole,    !- Zone or ZoneList Name
    ,                         !- Space or SpaceList Name
    339.88979658056115;       !- Surface Area

SHADING:SITE:DETAILED,
    shade_way/966274050_1,    !- Name
    ,                         !- Transmittance Schedule Name
    autocalculate,            !- Number of Vertices
    440191.11925190256,       !- Vertex 1 Xcoordinate
    4479354.634784659,        !- Vertex 1 Ycoordinate
    9,                        !- Vertex 1 Zcoordinate
    440191.11925190256,       !- Vertex 2 Xcoordinate
    4479354.634784659,        !- Vertex 2 Ycoordinate
    0,                        !- Vertex 2 Zcoordinate
    440213.50502580917,       !- Vertex 3 Xcoordinate
    4479351.273042726,        !- Vertex 3 Ycoordinate
    0,                        !- Vertex 3 Zcoordinate
    440213.50502580917,       !- Vertex 4 Xcoordinate
    4479351.273042726,        !- Vertex 4 Ycoordinate
    9;                        !- Vertex 4 Zcoordinate

SHADING:SITE:DETAILED,
    shade_way/966274050_2,    !- Name
    ,                         !- Transmittance Schedule Name
    autocalculate,            !- Number of Vertices
    440213.50502580917,       !- Vertex 1 Xcoordinate
    4479351.273042726,        !- Vertex 1 Ycoordinate
    9,                        !- Vertex 1 Zcoordinate
    440213.50502580917,       !- Vertex 2 Xcoordinate
    4479351.273042726,        !- Vertex 2 Ycoordinate
    0,                        !- Vertex 2 Zcoordinate
    440212.3956774058,        !- Vertex 3 Xcoordinate
    4479343.885913361,        !- Vertex 3 Ycoordinate
    0,                        !- Vertex 3 Zcoordinate
    440212.3956774058,        !- Vertex 4 Xcoordinate
    4479343.885913361,        !- Vertex 4 Ycoordinate
    9;                        !- Vertex 4 Zcoordinate

SHADING:SITE:DETAILED,
    shade_way/966274050_3,    !- Name
    ,                         !- Transmittance Schedule Name
    autocalculate,            !- Number of Vertices
    440212.3956774058,        !- Vertex 1 Xcoordinate
    4479343.885913361,        !- Vertex 1 Ycoordinate
    9,                        !- Vertex 1 Zcoordinate
    440212.3956774058,        !- Vertex 2 Xcoordinate
    4479343.885913361,        !- Vertex 2 Ycoordinate
    0,                        !- Vertex 2 Zcoordinate
    440190.0099034992,        !- Vertex 3 Xcoordinate
    4479347.247655294,        !- Vertex 3 Ycoordinate
    0,                        !- Vertex 3 Zcoordinate
    440190.0099034992,        !- Vertex 4 Xcoordinate
    4479347.247655294,        !- Vertex 4 Ycoordinate
    9;                        !- Vertex 4 Zcoordinate

SHADING:SITE:DETAILED,
    shade_way/966274050_4,    !- Name
    ,                         !- Transmittance Schedule Name
    autocalculate,            !- Number of Vertices
    440190.0099034992,        !- Vertex 1 Xcoordinate
    4479347.247655294,        !- Vertex 1 Ycoordinate
    9,                        !- Vertex 1 Zcoordinate
    440190.0099034992,        !- Vertex 2 Xcoordinate
    4479347.247655294,        !- Vertex 2 Ycoordinate
    0,                        !- Vertex 2 Zcoordinate
    440191.11925190256,       !- Vertex 3 Xcoordinate
    4479354.634784659,        !- Vertex 3 Ycoordinate
    0,                        !- Vertex 3 Zcoordinate
    440191.11925190256,       !- Vertex 4 Xcoordinate
    4479354.634784659,        !- Vertex 4 Ycoordinate
    9;                        !- Vertex 4 Zcoordinate

SHADING:SITE:DETAILED,
    shade_way/966274051_1,    !- Name
    ,                         !- Transmittance Schedule Name
    autocalculate,            !- Number of Vertices
    440208.4292489069,        !- Vertex 1 Xcoordinate
    4479351.686679981,        !- Vertex 1 Ycoordinate
    12,                       !- Vertex 1 Zcoordinate
    440208.4292489069,        !- Vertex 2 Xcoordinate
    4479351.686679981,        !- Vertex 2 Ycoordinate
    0,                        !- Vertex 2 Zcoordinate
    440193.40208720486,       !- Vertex 3 Xcoordinate
    4479354.291984049,        !- Vertex 3 Ycoordinate
    0,                        !- Vertex 3 Zcoordinate
    440193.40208720486,       !- Vertex 4 Xcoordinate
    4479354.291984049,        !- Vertex 4 Ycoordinate
    12;                       !- Vertex 4 Zcoordinate

SHADING:SITE:DETAILED,
    shade_way/966274051_2,    !- Name
    ,                         !- Transmittance Schedule Name
    autocalculate,            !- Number of Vertices
    440193.40208720486,       !- Vertex 1 Xcoordinate
    4479354.291984049,        !- Vertex 1 Ycoordinate
    12,                       !- Vertex 1 Zcoordinate
    440193.40208720486,       !- Vertex 2 Xcoordinate
    4479354.291984049,        !- Vertex 2 Ycoordinate
    0,                        !- Vertex 2 Zcoordinate
    440194.8129856336,        !- Vertex 3 Xcoordinate
    4479362.430960419,        !- Vertex 3 Ycoordinate
    0,                        !- Vertex 3 Zcoordinate
    440194.8129856336,        !- Vertex 4 Xcoordinate
    4479362.430960419,        !- Vertex 4 Ycoordinate
    12;                       !- Vertex 4 Zcoordinate

SHADING:SITE:DETAILED,
    shade_way/966274051_3,    !- Name
    ,                         !- Transmittance Schedule Name
    autocalculate,            !- Number of Vertices
    440194.8129856336,        !- Vertex 1 Xcoordinate
    4479362.430960419,        !- Vertex 1 Ycoordinate
    12,                       !- Vertex 1 Zcoordinate
    440194.8129856336,        !- Vertex 2 Xcoordinate
    4479362.430960419,        !- Vertex 2 Ycoordinate
    0,                        !- Vertex 2 Zcoordinate
    440209.84028068767,       !- Vertex 3 Xcoordinate
    4479359.825749833,        !- Vertex 3 Ycoordinate
    0,                        !- Vertex 3 Zcoordinate
    440209.84028068767,       !- Vertex 4 Xcoordinate
    4479359.825749833,        !- Vertex 4 Ycoordinate
    12;                       !- Vertex 4 Zcoordinate

SHADING:SITE:DETAILED,
    shade_way/966274051_4,    !- Name
    ,                         !- Transmittance Schedule Name
    autocalculate,            !- Number of Vertices
    440209.84028068767,       !- Vertex 1 Xcoordinate
    4479359.825749833,        !- Vertex 1 Ycoordinate
    12,                       !- Vertex 1 Zcoordinate
    440209.84028068767,       !- Vertex 2 Xcoordinate
    4479359.825749833,        !- Vertex 2 Ycoordinate
    0,                        !- Vertex 2 Zcoordinate
    440208.4292489069,        !- Vertex 3 Xcoordinate
    4479351.686679981,        !- Vertex 3 Ycoordinate
    0,                        !- Vertex 3 Zcoordinate
    440208.4292489069,        !- Vertex 4 Xcoordinate
    4479351.686679981,        !- Vertex 4 Ycoordinate
    12;                       !- Vertex 4 Zcoordinate

SHADING:SITE:DETAILED,
    shade_way/966274052_1,    !- Name
    ,                         !- Transmittance Schedule Name
    autocalculate,            !- Number of Vertices
    440197.11781983974,       !- Vertex 1 Xcoordinate
    4479361.977320042,        !- Vertex 1 Ycoordinate
    9,                        !- Vertex 1 Zcoordinate
    440197.11781983974,       !- Vertex 2 Xcoordinate
    4479361.977320042,        !- Vertex 2 Ycoordinate
    0,                        !- Vertex 2 Zcoordinate
    440203.4424348012,        !- Vertex 3 Xcoordinate
    4479389.418575391,        !- Vertex 3 Ycoordinate
    0,                        !- Vertex 3 Zcoordinate
    440203.4424348012,        !- Vertex 4 Xcoordinate
    4479389.418575391,        !- Vertex 4 Ycoordinate
    9;                        !- Vertex 4 Zcoordinate

SHADING:SITE:DETAILED,
    shade_way/966274052_2,    !- Name
    ,                         !- Transmittance Schedule Name
    autocalculate,            !- Number of Vertices
    440203.4424348012,        !- Vertex 1 Xcoordinate
    4479389.418575391,        !- Vertex 1 Ycoordinate
    9,                        !- Vertex 1 Zcoordinate
    440203.4424348012,        !- Vertex 2 Xcoordinate
    4479389.418575391,        !- Vertex 2 Ycoordinate
    0,                        !- Vertex 2 Zcoordinate
    440220.5367712183,        !- Vertex 3 Xcoordinate
    4479385.478824799,        !- Vertex 3 Ycoordinate
    0,                        !- Vertex 3 Zcoordinate
    440220.5367712183,        !- Vertex 4 Xcoordinate
    4479385.478824799,        !- Vertex 4 Ycoordinate
    9;                        !- Vertex 4 Zcoordinate

SHADING:SITE:DETAILED,
    shade_way/966274052_3,    !- Name
    ,                         !- Transmittance Schedule Name
    autocalculate,            !- Number of Vertices
    440220.5367712183,        !- Vertex 1 Xcoordinate
    4479385.478824799,        !- Vertex 1 Ycoordinate
    9,                        !- Vertex 1 Zcoordinate
    440220.5367712183,        !- Vertex 2 Xcoordinate
    4479385.478824799,        !- Vertex 2 Ycoordinate
    0,                        !- Vertex 2 Zcoordinate
    440214.21235172084,       !- Vertex 3 Xcoordinate
    4479358.037556137,        !- Vertex 3 Ycoordinate
    0,                        !- Vertex 3 Zcoordinate
    440214.21235172084,       !- Vertex 4 Xcoordinate
    4479358.037556137,        !- Vertex 4 Ycoordinate
    9;                        !- Vertex 4 Zcoordinate

SHADING:SITE:DETAILED,
    shade_way/966274052_4,    !- Name
    ,                         !- Transmittance Schedule Name
    autocalculate,            !- Number of Vertices
    440214.21235172084,       !- Vertex 1 Xcoordinate
    4479358.037556137,        !- Vertex 1 Ycoordinate
    9,                        !- Vertex 1 Zcoordinate
    440214.21235172084,       !- Vertex 2 Xcoordinate
    4479358.037556137,        !- Vertex 2 Ycoordinate
    0,                        !- Vertex 2 Zcoordinate
    440197.11781983974,       !- Vertex 3 Xcoordinate
    4479361.977320042,        !- Vertex 3 Ycoordinate
    0,                        !- Vertex 3 Zcoordinate
    440197.11781983974,       !- Vertex 4 Xcoordinate
    4479361.977320042,        !- Vertex 4 Ycoordinate
    9;                        !- Vertex 4 Zcoordinate

SHADING:SITE:DETAILED,
    shade_way/965718572_1,    !- Name
    ,                         !- Transmittance Schedule Name
    autocalculate,            !- Number of Vertices
    440148.5970213945,        !- Vertex 1 Xcoordinate
    4479307.042172205,        !- Vertex 1 Ycoordinate
    12,                       !- Vertex 1 Zcoordinate
    440148.5970213945,        !- Vertex 2 Xcoordinate
    4479307.042172205,        !- Vertex 2 Ycoordinate
    0,                        !- Vertex 2 Zcoordinate
    440131.29611111287,       !- Vertex 3 Xcoordinate
    4479328.808498497,        !- Vertex 3 Ycoordinate
    0,                        !- Vertex 3 Zcoordinate
    440131.29611111287,       !- Vertex 4 Xcoordinate
    4479328.808498497,        !- Vertex 4 Ycoordinate
    12;                       !- Vertex 4 Zcoordinate

SHADING:SITE:DETAILED,
    shade_way/965718572_2,    !- Name
    ,                         !- Transmittance Schedule Name
    autocalculate,            !- Number of Vertices
    440131.29611111287,       !- Vertex 1 Xcoordinate
    4479328.808498497,        !- Vertex 1 Ycoordinate
    12,                       !- Vertex 1 Zcoordinate
    440131.29611111287,       !- Vertex 2 Xcoordinate
    4479328.808498497,        !- Vertex 2 Ycoordinate
    0,                        !- Vertex 2 Zcoordinate
    440151.31389661407,       !- Vertex 3 Xcoordinate
    4479344.719585483,        !- Vertex 3 Ycoordinate
    0,                        !- Vertex 3 Zcoordinate
    440151.31389661407,       !- Vertex 4 Xcoordinate
    4479344.719585483,        !- Vertex 4 Ycoordinate
    12;                       !- Vertex 4 Zcoordinate

SHADING:SITE:DETAILED,
    shade_way/965718572_3,    !- Name
    ,                         !- Transmittance Schedule Name
    autocalculate,            !- Number of Vertices
    440151.31389661407,       !- Vertex 1 Xcoordinate
    4479344.719585483,        !- Vertex 1 Ycoordinate
    12,                       !- Vertex 1 Zcoordinate
    440151.31389661407,       !- Vertex 2 Xcoordinate
    4479344.719585483,        !- Vertex 2 Ycoordinate
    0,                        !- Vertex 2 Zcoordinate
    440168.61415977275,       !- Vertex 3 Xcoordinate
    4479322.952841075,        !- Vertex 3 Ycoordinate
    0,                        !- Vertex 3 Zcoordinate
    440168.61415977275,       !- Vertex 4 Xcoordinate
    4479322.952841075,        !- Vertex 4 Ycoordinate
    12;                       !- Vertex 4 Zcoordinate

SHADING:SITE:DETAILED,
    shade_way/965718572_4,    !- Name
    ,                         !- Transmittance Schedule Name
    autocalculate,            !- Number of Vertices
    440168.61415977275,       !- Vertex 1 Xcoordinate
    4479322.952841075,        !- Vertex 1 Ycoordinate
    12,                       !- Vertex 1 Zcoordinate
    440168.61415977275,       !- Vertex 2 Xcoordinate
    4479322.952841075,        !- Vertex 2 Ycoordinate
    0,                        !- Vertex 2 Zcoordinate
    440148.5970213945,        !- Vertex 3 Xcoordinate
    4479307.042172205,        !- Vertex 3 Ycoordinate
    0,                        !- Vertex 3 Zcoordinate
    440148.5970213945,        !- Vertex 4 Xcoordinate
    4479307.042172205,        !- Vertex 4 Ycoordinate
    12;                       !- Vertex 4 Zcoordinate

SHADING:SITE:DETAILED,
    shade_way/435938302_1,    !- Name
    ,                         !- Transmittance Schedule Name
    autocalculate,            !- Number of Vertices
    440182.4880333203,        !- Vertex 1 Xcoordinate
    4479307.367500496,        !- Vertex 1 Ycoordinate
    9,                        !- Vertex 1 Zcoordinate
    440182.4880333203,        !- Vertex 2 Xcoordinate
    4479307.367500496,        !- Vertex 2 Ycoordinate
    0,                        !- Vertex 2 Zcoordinate
    440151.5783103287,        !- Vertex 3 Xcoordinate
    4479293.85665198,         !- Vertex 3 Ycoordinate
    0,                        !- Vertex 3 Zcoordinate
    440151.5783103287,        !- Vertex 4 Xcoordinate
    4479293.85665198,         !- Vertex 4 Ycoordinate
    9;                        !- Vertex 4 Zcoordinate

SHADING:SITE:DETAILED,
    shade_way/435938302_2,    !- Name
    ,                         !- Transmittance Schedule Name
    autocalculate,            !- Number of Vertices
    440151.5783103287,        !- Vertex 1 Xcoordinate
    4479293.85665198,         !- Vertex 1 Ycoordinate
    9,                        !- Vertex 1 Zcoordinate
    440151.5783103287,        !- Vertex 2 Xcoordinate
    4479293.85665198,         !- Vertex 2 Ycoordinate
    0,                        !- Vertex 2 Zcoordinate
    440146.8206706199,        !- Vertex 3 Xcoordinate
    4479304.740939046,        !- Vertex 3 Ycoordinate
    0,                        !- Vertex 3 Zcoordinate
    440146.8206706199,        !- Vertex 4 Xcoordinate
    4479304.740939046,        !- Vertex 4 Ycoordinate
    9;                        !- Vertex 4 Zcoordinate

SHADING:SITE:DETAILED,
    shade_way/435938302_3,    !- Name
    ,                         !- Transmittance Schedule Name
    autocalculate,            !- Number of Vertices
    440146.8206706199,        !- Vertex 1 Xcoordinate
    4479304.740939046,        !- Vertex 1 Ycoordinate
    9,                        !- Vertex 1 Zcoordinate
    440146.8206706199,        !- Vertex 2 Xcoordinate
    4479304.740939046,        !- Vertex 2 Ycoordinate
    0,                        !- Vertex 2 Zcoordinate
    440177.73102172266,       !- Vertex 3 Xcoordinate
    4479318.25218816,         !- Vertex 3 Ycoordinate
    0,                        !- Vertex 3 Zcoordinate
    440177.73102172266,       !- Vertex 4 Xcoordinate
    4479318.25218816,         !- Vertex 4 Ycoordinate
    9;                        !- Vertex 4 Zcoordinate

SHADING:SITE:DETAILED,
    shade_way/435938302_4,    !- Name
    ,                         !- Transmittance Schedule Name
    autocalculate,            !- Number of Vertices
    440177.73102172266,       !- Vertex 1 Xcoordinate
    4479318.25218816,         !- Vertex 1 Ycoordinate
    9,                        !- Vertex 1 Zcoordinate
    440177.73102172266,       !- Vertex 2 Xcoordinate
    4479318.25218816,         !- Vertex 2 Ycoordinate
    0,                        !- Vertex 2 Zcoordinate
    440182.4880333203,        !- Vertex 3 Xcoordinate
    4479307.367500496,        !- Vertex 3 Ycoordinate
    0,                        !- Vertex 3 Zcoordinate
    440182.4880333203,        !- Vertex 4 Xcoordinate
    4479307.367500496,        !- Vertex 4 Ycoordinate
    9;                        !- Vertex 4 Zcoordinate

SHADING:SITE:DETAILED,
    shade_way/966274062_1,    !- Name
    ,                         !- Transmittance Schedule Name
    autocalculate,            !- Number of Vertices
    440180.3419829219,        !- Vertex 1 Xcoordinate
    4479330.17234794,         !- Vertex 1 Ycoordinate
    6,                        !- Vertex 1 Zcoordinate
    440180.3419829219,        !- Vertex 2 Xcoordinate
    4479330.17234794,         !- Vertex 2 Ycoordinate
    0,                        !- Vertex 2 Zcoordinate
    440192.0385996422,        !- Vertex 3 Xcoordinate
    4479325.840542939,        !- Vertex 3 Ycoordinate
    0,                        !- Vertex 3 Zcoordinate
    440192.0385996422,        !- Vertex 4 Xcoordinate
    4479325.840542939,        !- Vertex 4 Ycoordinate
    6;                        !- Vertex 4 Zcoordinate

SHADING:SITE:DETAILED,
    shade_way/966274062_2,    !- Name
    ,                         !- Transmittance Schedule Name
    autocalculate,            !- Number of Vertices
    440192.0385996422,        !- Vertex 1 Xcoordinate
    4479325.840542939,        !- Vertex 1 Ycoordinate
    6,                        !- Vertex 1 Zcoordinate
    440192.0385996422,        !- Vertex 2 Xcoordinate
    4479325.840542939,        !- Vertex 2 Ycoordinate
    0,                        !- Vertex 2 Zcoordinate
    440189.5389160238,        !- Vertex 3 Xcoordinate
    4479319.091667549,        !- Vertex 3 Ycoordinate
    0,                        !- Vertex 3 Zcoordinate
    440189.5389160238,        !- Vertex 4 Xcoordinate
    4479319.091667549,        !- Vertex 4 Ycoordinate
    6;                        !- Vertex 4 Zcoordinate

SHADING:SITE:DETAILED,
    shade_way/966274062_3,    !- Name
    ,                         !- Transmittance Schedule Name
    autocalculate,            !- Number of Vertices
    440189.5389160238,        !- Vertex 1 Xcoordinate
    4479319.091667549,        !- Vertex 1 Ycoordinate
    6,                        !- Vertex 1 Zcoordinate
    440189.5389160238,        !- Vertex 2 Xcoordinate
    4479319.091667549,        !- Vertex 2 Ycoordinate
    0,                        !- Vertex 2 Zcoordinate
    440177.8428040679,        !- Vertex 3 Xcoordinate
    4479323.423014361,        !- Vertex 3 Ycoordinate
    0,                        !- Vertex 3 Zcoordinate
    440177.8428040679,        !- Vertex 4 Xcoordinate
    4479323.423014361,        !- Vertex 4 Ycoordinate
    6;                        !- Vertex 4 Zcoordinate

SHADING:SITE:DETAILED,
    shade_way/966274062_4,    !- Name
    ,                         !- Transmittance Schedule Name
    autocalculate,            !- Number of Vertices
    440177.8428040679,        !- Vertex 1 Xcoordinate
    4479323.423014361,        !- Vertex 1 Ycoordinate
    6,                        !- Vertex 1 Zcoordinate
    440177.8428040679,        !- Vertex 2 Xcoordinate
    4479323.423014361,        !- Vertex 2 Ycoordinate
    0,                        !- Vertex 2 Zcoordinate
    440180.3419829219,        !- Vertex 3 Xcoordinate
    4479330.17234794,         !- Vertex 3 Ycoordinate
    0,                        !- Vertex 3 Zcoordinate
    440180.3419829219,        !- Vertex 4 Xcoordinate
    4479330.17234794,         !- Vertex 4 Ycoordinate
    6;                        !- Vertex 4 Zcoordinate

SHADING:SITE:DETAILED,
    shade_relation/13005466_1,    !- Name
    ,                         !- Transmittance Schedule Name
    autocalculate,            !- Number of Vertices
    440207.4073854423,        !- Vertex 1 Xcoordinate
    4479320.134076506,        !- Vertex 1 Ycoordinate
    3,                        !- Vertex 1 Zcoordinate
    440207.4073854423,        !- Vertex 2 Xcoordinate
    4479320.134076506,        !- Vertex 2 Ycoordinate
    0,                        !- Vertex 2 Zcoordinate
    440181.04029427335,       !- Vertex 3 Xcoordinate
    4479329.91360301,         !- Vertex 3 Ycoordinate
    0,                        !- Vertex 3 Zcoordinate
    440181.04029427335,       !- Vertex 4 Xcoordinate
    4479329.91360301,         !- Vertex 4 Ycoordinate
    3;                        !- Vertex 4 Zcoordinate

SHADING:SITE:DETAILED,
    shade_relation/13005466_2,    !- Name
    ,                         !- Transmittance Schedule Name
    autocalculate,            !- Number of Vertices
    440181.04029427335,       !- Vertex 1 Xcoordinate
    4479329.91360301,         !- Vertex 1 Ycoordinate
    3,                        !- Vertex 1 Zcoordinate
    440181.04029427335,       !- Vertex 2 Xcoordinate
    4479329.91360301,         !- Vertex 2 Ycoordinate
    0,                        !- Vertex 2 Zcoordinate
    440189.1653124848,        !- Vertex 3 Xcoordinate
    4479351.818564619,        !- Vertex 3 Ycoordinate
    0,                        !- Vertex 3 Zcoordinate
    440189.1653124848,        !- Vertex 4 Xcoordinate
    4479351.818564619,        !- Vertex 4 Ycoordinate
    3;                        !- Vertex 4 Zcoordinate

SHADING:SITE:DETAILED,
    shade_relation/13005466_3,    !- Name
    ,                         !- Transmittance Schedule Name
    autocalculate,            !- Number of Vertices
    440189.1653124848,        !- Vertex 1 Xcoordinate
    4479351.818564619,        !- Vertex 1 Ycoordinate
    3,                        !- Vertex 1 Zcoordinate
    440189.1653124848,        !- Vertex 2 Xcoordinate
    4479351.818564619,        !- Vertex 2 Ycoordinate
    0,                        !- Vertex 2 Zcoordinate
    440215.5324036537,        !- Vertex 3 Xcoordinate
    4479342.039038118,        !- Vertex 3 Ycoordinate
    0,                        !- Vertex 3 Zcoordinate
    440215.5324036537,        !- Vertex 4 Xcoordinate
    4479342.039038118,        !- Vertex 4 Ycoordinate
    3;                        !- Vertex 4 Zcoordinate

SHADING:SITE:DETAILED,
    shade_relation/13005466_4,    !- Name
    ,                         !- Transmittance Schedule Name
    autocalculate,            !- Number of Vertices
    440215.5324036537,        !- Vertex 1 Xcoordinate
    4479342.039038118,        !- Vertex 1 Ycoordinate
    3,                        !- Vertex 1 Zcoordinate
    440215.5324036537,        !- Vertex 2 Xcoordinate
    4479342.039038118,        !- Vertex 2 Ycoordinate
    0,                        !- Vertex 2 Zcoordinate
    440207.4073854423,        !- Vertex 3 Xcoordinate
    4479320.134076506,        !- Vertex 3 Ycoordinate
    0,                        !- Vertex 3 Zcoordinate
    440207.4073854423,        !- Vertex 4 Xcoordinate
    4479320.134076506,        !- Vertex 4 Ycoordinate
    3;                        !- Vertex 4 Zcoordinate

SHADING:SITE:DETAILED,
    shade_way/391270217_1,    !- Name
    ,                         !- Transmittance Schedule Name
    autocalculate,            !- Number of Vertices
    440144.46435546206,       !- Vertex 1 Xcoordinate
    4479352.35201201,         !- Vertex 1 Ycoordinate
    6,                        !- Vertex 1 Zcoordinate
    440144.46435546206,       !- Vertex 2 Xcoordinate
    4479352.35201201,         !- Vertex 2 Ycoordinate
    0,                        !- Vertex 2 Zcoordinate
    440173.3757686889,        !- Vertex 3 Xcoordinate
    4479367.073586489,        !- Vertex 3 Ycoordinate
    0,                        !- Vertex 3 Zcoordinate
    440173.3757686889,        !- Vertex 4 Xcoordinate
    4479367.073586489,        !- Vertex 4 Ycoordinate
    6;                        !- Vertex 4 Zcoordinate

SHADING:SITE:DETAILED,
    shade_way/391270217_2,    !- Name
    ,                         !- Transmittance Schedule Name
    autocalculate,            !- Number of Vertices
    440173.3757686889,        !- Vertex 1 Xcoordinate
    4479367.073586489,        !- Vertex 1 Ycoordinate
    6,                        !- Vertex 1 Zcoordinate
    440173.3757686889,        !- Vertex 2 Xcoordinate
    4479367.073586489,        !- Vertex 2 Ycoordinate
    0,                        !- Vertex 2 Zcoordinate
    440178.1543862973,        !- Vertex 3 Xcoordinate
    4479357.688551578,        !- Vertex 3 Ycoordinate
    0,                        !- Vertex 3 Zcoordinate
    440178.1543862973,        !- Vertex 4 Xcoordinate
    4479357.688551578,        !- Vertex 4 Ycoordinate
    6;                        !- Vertex 4 Zcoordinate

SHADING:SITE:DETAILED,
    shade_way/391270217_3,    !- Name
    ,                         !- Transmittance Schedule Name
    autocalculate,            !- Number of Vertices
    440178.1543862973,        !- Vertex 1 Xcoordinate
    4479357.688551578,        !- Vertex 1 Ycoordinate
    6,                        !- Vertex 1 Zcoordinate
    440178.1543862973,        !- Vertex 2 Xcoordinate
    4479357.688551578,        !- Vertex 2 Ycoordinate
    0,                        !- Vertex 2 Zcoordinate
    440149.2429730657,        !- Vertex 3 Xcoordinate
    4479342.966977108,        !- Vertex 3 Ycoordinate
    0,                        !- Vertex 3 Zcoordinate
    440149.2429730657,        !- Vertex 4 Xcoordinate
    4479342.966977108,        !- Vertex 4 Ycoordinate
    6;                        !- Vertex 4 Zcoordinate

SHADING:SITE:DETAILED,
    shade_way/391270217_4,    !- Name
    ,                         !- Transmittance Schedule Name
    autocalculate,            !- Number of Vertices
    440149.2429730657,        !- Vertex 1 Xcoordinate
    4479342.966977108,        !- Vertex 1 Ycoordinate
    6,                        !- Vertex 1 Zcoordinate
    440149.2429730657,        !- Vertex 2 Xcoordinate
    4479342.966977108,        !- Vertex 2 Ycoordinate
    0,                        !- Vertex 2 Zcoordinate
    440144.46435546206,       !- Vertex 3 Xcoordinate
    4479352.35201201,         !- Vertex 3 Ycoordinate
    0,                        !- Vertex 3 Zcoordinate
    440144.46435546206,       !- Vertex 4 Xcoordinate
    4479352.35201201,         !- Vertex 4 Ycoordinate
    6;                        !- Vertex 4 Zcoordinate

SHADING:SITE:DETAILED,
    shade_way/391270218_1,    !- Name
    ,                         !- Transmittance Schedule Name
    autocalculate,            !- Number of Vertices
    440134.1438385261,        !- Vertex 1 Xcoordinate
    4479364.834096061,        !- Vertex 1 Ycoordinate
    9,                        !- Vertex 1 Zcoordinate
    440134.1438385261,        !- Vertex 2 Xcoordinate
    4479364.834096061,        !- Vertex 2 Ycoordinate
    0,                        !- Vertex 2 Zcoordinate
    440165.599863823,         !- Vertex 3 Xcoordinate
    4479381.6331458865,       !- Vertex 3 Ycoordinate
    0,                        !- Vertex 3 Zcoordinate
    440165.599863823,         !- Vertex 4 Xcoordinate
    4479381.6331458865,       !- Vertex 4 Ycoordinate
    9;                        !- Vertex 4 Zcoordinate

SHADING:SITE:DETAILED,
    shade_way/391270218_2,    !- Name
    ,                         !- Transmittance Schedule Name
    autocalculate,            !- Number of Vertices
    440165.599863823,         !- Vertex 1 Xcoordinate
    4479381.6331458865,       !- Vertex 1 Ycoordinate
    9,                        !- Vertex 1 Zcoordinate
    440165.599863823,         !- Vertex 2 Xcoordinate
    4479381.6331458865,       !- Vertex 2 Ycoordinate
    0,                        !- Vertex 2 Zcoordinate
    440173.3757686889,        !- Vertex 3 Xcoordinate
    4479367.073586489,        !- Vertex 3 Ycoordinate
    0,                        !- Vertex 3 Zcoordinate
    440173.3757686889,        !- Vertex 4 Xcoordinate
    4479367.073586489,        !- Vertex 4 Ycoordinate
    9;                        !- Vertex 4 Zcoordinate

SHADING:SITE:DETAILED,
    shade_way/391270218_3,    !- Name
    ,                         !- Transmittance Schedule Name
    autocalculate,            !- Number of Vertices
    440173.3757686889,        !- Vertex 1 Xcoordinate
    4479367.073586489,        !- Vertex 1 Ycoordinate
    9,                        !- Vertex 1 Zcoordinate
    440173.3757686889,        !- Vertex 2 Xcoordinate
    4479367.073586489,        !- Vertex 2 Ycoordinate
    0,                        !- Vertex 2 Zcoordinate
    440141.9194057722,        !- Vertex 3 Xcoordinate
    4479350.274007382,        !- Vertex 3 Ycoordinate
    0,                        !- Vertex 3 Zcoordinate
    440141.9194057722,        !- Vertex 4 Xcoordinate
    4479350.274007382,        !- Vertex 4 Ycoordinate
    9;                        !- Vertex 4 Zcoordinate

SHADING:SITE:DETAILED,
    shade_way/391270218_4,    !- Name
    ,                         !- Transmittance Schedule Name
    autocalculate,            !- Number of Vertices
    440141.9194057722,        !- Vertex 1 Xcoordinate
    4479350.274007382,        !- Vertex 1 Ycoordinate
    9,                        !- Vertex 1 Zcoordinate
    440141.9194057722,        !- Vertex 2 Xcoordinate
    4479350.274007382,        !- Vertex 2 Ycoordinate
    0,                        !- Vertex 2 Zcoordinate
    440134.1438385261,        !- Vertex 3 Xcoordinate
    4479364.834096061,        !- Vertex 3 Ycoordinate
    0,                        !- Vertex 3 Zcoordinate
    440134.1438385261,        !- Vertex 4 Xcoordinate
    4479364.834096061,        !- Vertex 4 Ycoordinate
    9;                        !- Vertex 4 Zcoordinate

OTHEREQUIPMENT,
    EU_Step8_InternalGain_fd062c908350af6c_F0_whole_f000,    !- Name
    Electricity,              !- Fuel Type
    fd062c908350af6c_F0_whole,    !- Zone or ZoneList or Space or SpaceList Name
    EU_Step8_GainSchedule_fd062c908350af6c_F0_whole_f000,    !- Schedule Name
    Watts/Area,               !- Design Level Calculation Method
    ,                         !- Design Level
    1,                        !- Power per Zone Floor Area
    ,                         !- Power per Person
    0,                        !- Fraction Latent
    0,                        !- Fraction Radiant
    0,                        !- Fraction Lost
    0,                        !- Carbon Dioxide Generation Rate
    EU_Step8_InternalGains;    !- EndUse Subcategory

OTHEREQUIPMENT,
    EU_Step8_InternalGain_fd062c908350af6c_F1_whole_f000,    !- Name
    Electricity,              !- Fuel Type
    fd062c908350af6c_F1_whole,    !- Zone or ZoneList or Space or SpaceList Name
    EU_Step8_GainSchedule_fd062c908350af6c_F1_whole_f000,    !- Schedule Name
    Watts/Area,               !- Design Level Calculation Method
    ,                         !- Design Level
    1,                        !- Power per Zone Floor Area
    ,                         !- Power per Person
    0,                        !- Fraction Latent
    0,                        !- Fraction Radiant
    0,                        !- Fraction Lost
    0,                        !- Carbon Dioxide Generation Rate
    EU_Step8_InternalGains;    !- EndUse Subcategory

OTHEREQUIPMENT,
    EU_Step8_InternalGain_fd062c908350af6c_F2_whole_f000,    !- Name
    Electricity,              !- Fuel Type
    fd062c908350af6c_F2_whole,    !- Zone or ZoneList or Space or SpaceList Name
    EU_Step8_GainSchedule_fd062c908350af6c_F2_whole_f000,    !- Schedule Name
    Watts/Area,               !- Design Level Calculation Method
    ,                         !- Design Level
    1,                        !- Power per Zone Floor Area
    ,                         !- Power per Person
    0,                        !- Fraction Latent
    0,                        !- Fraction Radiant
    0,                        !- Fraction Lost
    0,                        !- Carbon Dioxide Generation Rate
    EU_Step8_InternalGains;    !- EndUse Subcategory

OTHEREQUIPMENT,
    EU_Step8_InternalGain_fd062c908350af6c_F3_whole_f000,    !- Name
    Electricity,              !- Fuel Type
    fd062c908350af6c_F3_whole,    !- Zone or ZoneList or Space or SpaceList Name
    EU_Step8_GainSchedule_fd062c908350af6c_F3_whole_f000,    !- Schedule Name
    Watts/Area,               !- Design Level Calculation Method
    ,                         !- Design Level
    1,                        !- Power per Zone Floor Area
    ,                         !- Power per Person
    0,                        !- Fraction Latent
    0,                        !- Fraction Radiant
    0,                        !- Fraction Lost
    0,                        !- Carbon Dioxide Generation Rate
    EU_Step8_InternalGains;    !- EndUse Subcategory

ZONEVENTILATION:DESIGNFLOWRATE,
    EU_ConstantAir_fd062c908350af6c_F0_whole,    !- Name
    fd062c908350af6c_F0_whole,    !- Zone or ZoneList or Space or SpaceList Name
    EU_AlwaysOn,              !- Schedule Name
    AirChanges/Hour,          !- Design Flow Rate Calculation Method
    ,                         !- Design Flow Rate
    ,                         !- Flow Rate per Floor Area
    ,                         !- Flow Rate per Person
    0.4807043927943379,       !- Air Changes per Hour
    Natural,                  !- Ventilation Type
    0,                        !- Fan Pressure Rise
    1,                        !- Fan Total Efficiency
    1,                        !- Constant Term Coefficient
    0,                        !- Temperature Term Coefficient
    0,                        !- Velocity Term Coefficient
    0,                        !- Velocity Squared Term Coefficient
    -100,                     !- Minimum Indoor Temperature
    ,                         !- Minimum Indoor Temperature Schedule Name
    100,                      !- Maximum Indoor Temperature
    ,                         !- Maximum Indoor Temperature Schedule Name
    -100,                     !- Delta Temperature
    ,                         !- Delta Temperature Schedule Name
    -100,                     !- Minimum Outdoor Temperature
    ,                         !- Minimum Outdoor Temperature Schedule Name
    100,                      !- Maximum Outdoor Temperature
    ,                         !- Maximum Outdoor Temperature Schedule Name
    40;                       !- Maximum Wind Speed

ZONEVENTILATION:DESIGNFLOWRATE,
    EU_ConstantAir_fd062c908350af6c_F1_whole,    !- Name
    fd062c908350af6c_F1_whole,    !- Zone or ZoneList or Space or SpaceList Name
    EU_AlwaysOn,              !- Schedule Name
    AirChanges/Hour,          !- Design Flow Rate Calculation Method
    ,                         !- Design Flow Rate
    ,                         !- Flow Rate per Floor Area
    ,                         !- Flow Rate per Person
    0.4807043927943379,       !- Air Changes per Hour
    Natural,                  !- Ventilation Type
    0,                        !- Fan Pressure Rise
    1,                        !- Fan Total Efficiency
    1,                        !- Constant Term Coefficient
    0,                        !- Temperature Term Coefficient
    0,                        !- Velocity Term Coefficient
    0,                        !- Velocity Squared Term Coefficient
    -100,                     !- Minimum Indoor Temperature
    ,                         !- Minimum Indoor Temperature Schedule Name
    100,                      !- Maximum Indoor Temperature
    ,                         !- Maximum Indoor Temperature Schedule Name
    -100,                     !- Delta Temperature
    ,                         !- Delta Temperature Schedule Name
    -100,                     !- Minimum Outdoor Temperature
    ,                         !- Minimum Outdoor Temperature Schedule Name
    100,                      !- Maximum Outdoor Temperature
    ,                         !- Maximum Outdoor Temperature Schedule Name
    40;                       !- Maximum Wind Speed

ZONEVENTILATION:DESIGNFLOWRATE,
    EU_ConstantAir_fd062c908350af6c_F2_whole,    !- Name
    fd062c908350af6c_F2_whole,    !- Zone or ZoneList or Space or SpaceList Name
    EU_AlwaysOn,              !- Schedule Name
    AirChanges/Hour,          !- Design Flow Rate Calculation Method
    ,                         !- Design Flow Rate
    ,                         !- Flow Rate per Floor Area
    ,                         !- Flow Rate per Person
    0.4807043927943379,       !- Air Changes per Hour
    Natural,                  !- Ventilation Type
    0,                        !- Fan Pressure Rise
    1,                        !- Fan Total Efficiency
    1,                        !- Constant Term Coefficient
    0,                        !- Temperature Term Coefficient
    0,                        !- Velocity Term Coefficient
    0,                        !- Velocity Squared Term Coefficient
    -100,                     !- Minimum Indoor Temperature
    ,                         !- Minimum Indoor Temperature Schedule Name
    100,                      !- Maximum Indoor Temperature
    ,                         !- Maximum Indoor Temperature Schedule Name
    -100,                     !- Delta Temperature
    ,                         !- Delta Temperature Schedule Name
    -100,                     !- Minimum Outdoor Temperature
    ,                         !- Minimum Outdoor Temperature Schedule Name
    100,                      !- Maximum Outdoor Temperature
    ,                         !- Maximum Outdoor Temperature Schedule Name
    40;                       !- Maximum Wind Speed

ZONEVENTILATION:DESIGNFLOWRATE,
    EU_ConstantAir_fd062c908350af6c_F3_whole,    !- Name
    fd062c908350af6c_F3_whole,    !- Zone or ZoneList or Space or SpaceList Name
    EU_AlwaysOn,              !- Schedule Name
    AirChanges/Hour,          !- Design Flow Rate Calculation Method
    ,                         !- Design Flow Rate
    ,                         !- Flow Rate per Floor Area
    ,                         !- Flow Rate per Person
    0.4807043927943379,       !- Air Changes per Hour
    Natural,                  !- Ventilation Type
    0,                        !- Fan Pressure Rise
    1,                        !- Fan Total Efficiency
    1,                        !- Constant Term Coefficient
    0,                        !- Temperature Term Coefficient
    0,                        !- Velocity Term Coefficient
    0,                        !- Velocity Squared Term Coefficient
    -100,                     !- Minimum Indoor Temperature
    ,                         !- Minimum Indoor Temperature Schedule Name
    100,                      !- Maximum Indoor Temperature
    ,                         !- Maximum Indoor Temperature Schedule Name
    -100,                     !- Delta Temperature
    ,                         !- Delta Temperature Schedule Name
    -100,                     !- Minimum Outdoor Temperature
    ,                         !- Minimum Outdoor Temperature Schedule Name
    100,                      !- Maximum Outdoor Temperature
    ,                         !- Maximum Outdoor Temperature Schedule Name
    40;                       !- Maximum Wind Speed

HVACTEMPLATE:THERMOSTAT,
    EU_HeatOnly_fd062c908350af6c_F0_whole,    !- Name
    ,                         !- Heating Setpoint Schedule Name
    20,                       !- Constant Heating Setpoint
    ,                         !- Cooling Setpoint Schedule Name
    50;                       !- Constant Cooling Setpoint

HVACTEMPLATE:THERMOSTAT,
    EU_HeatOnly_fd062c908350af6c_F1_whole,    !- Name
    ,                         !- Heating Setpoint Schedule Name
    20,                       !- Constant Heating Setpoint
    ,                         !- Cooling Setpoint Schedule Name
    50;                       !- Constant Cooling Setpoint

HVACTEMPLATE:THERMOSTAT,
    EU_HeatOnly_fd062c908350af6c_F2_whole,    !- Name
    ,                         !- Heating Setpoint Schedule Name
    20,                       !- Constant Heating Setpoint
    ,                         !- Cooling Setpoint Schedule Name
    50;                       !- Constant Cooling Setpoint

HVACTEMPLATE:THERMOSTAT,
    EU_HeatOnly_fd062c908350af6c_F3_whole,    !- Name
    ,                         !- Heating Setpoint Schedule Name
    20,                       !- Constant Heating Setpoint
    ,                         !- Cooling Setpoint Schedule Name
    50;                       !- Constant Cooling Setpoint

HVACTEMPLATE:ZONE:IDEALLOADSAIRSYSTEM,
    fd062c908350af6c_F0_whole,    !- Zone Name
    EU_HeatOnly_fd062c908350af6c_F0_whole,    !- Template Thermostat Name
    EU_AlwaysOn,              !- System Availability Schedule Name
    50,                       !- Maximum Heating Supply Air Temperature
    13,                       !- Minimum Cooling Supply Air Temperature
    0.0156,                   !- Maximum Heating Supply Air Humidity Ratio
    0.0077,                   !- Minimum Cooling Supply Air Humidity Ratio
    NoLimit,                  !- Heating Limit
    ,                         !- Maximum Heating Air Flow Rate
    ,                         !- Maximum Sensible Heating Capacity
    NoLimit,                  !- Cooling Limit
    ,                         !- Maximum Cooling Air Flow Rate
    ,                         !- Maximum Total Cooling Capacity
    EU_AlwaysOn,              !- Heating Availability Schedule Name
    EU_CoolingOff,            !- Cooling Availability Schedule Name
    ConstantSensibleHeatRatio,    !- Dehumidification Control Type
    0.7,                      !- Cooling Sensible Heat Ratio
    60,                       !- Dehumidification Setpoint
    None,                     !- Humidification Control Type
    30,                       !- Humidification Setpoint
    None,                     !- Outdoor Air Method
    0.00944,                  !- Outdoor Air Flow Rate per Person
    0.0,                      !- Outdoor Air Flow Rate per Zone Floor Area
    0,                        !- Outdoor Air Flow Rate per Zone
    ,                         !- Design Specification Outdoor Air Object Name
    None,                     !- Demand Controlled Ventilation Type
    NoEconomizer,             !- Outdoor Air Economizer Type
    None,                     !- Heat Recovery Type
    0.70,                     !- Sensible Heat Recovery Effectiveness
    0.65;                     !- Latent Heat Recovery Effectiveness

HVACTEMPLATE:ZONE:IDEALLOADSAIRSYSTEM,
    fd062c908350af6c_F1_whole,    !- Zone Name
    EU_HeatOnly_fd062c908350af6c_F1_whole,    !- Template Thermostat Name
    EU_AlwaysOn,              !- System Availability Schedule Name
    50,                       !- Maximum Heating Supply Air Temperature
    13,                       !- Minimum Cooling Supply Air Temperature
    0.0156,                   !- Maximum Heating Supply Air Humidity Ratio
    0.0077,                   !- Minimum Cooling Supply Air Humidity Ratio
    NoLimit,                  !- Heating Limit
    ,                         !- Maximum Heating Air Flow Rate
    ,                         !- Maximum Sensible Heating Capacity
    NoLimit,                  !- Cooling Limit
    ,                         !- Maximum Cooling Air Flow Rate
    ,                         !- Maximum Total Cooling Capacity
    EU_AlwaysOn,              !- Heating Availability Schedule Name
    EU_CoolingOff,            !- Cooling Availability Schedule Name
    ConstantSensibleHeatRatio,    !- Dehumidification Control Type
    0.7,                      !- Cooling Sensible Heat Ratio
    60,                       !- Dehumidification Setpoint
    None,                     !- Humidification Control Type
    30,                       !- Humidification Setpoint
    None,                     !- Outdoor Air Method
    0.00944,                  !- Outdoor Air Flow Rate per Person
    0.0,                      !- Outdoor Air Flow Rate per Zone Floor Area
    0,                        !- Outdoor Air Flow Rate per Zone
    ,                         !- Design Specification Outdoor Air Object Name
    None,                     !- Demand Controlled Ventilation Type
    NoEconomizer,             !- Outdoor Air Economizer Type
    None,                     !- Heat Recovery Type
    0.70,                     !- Sensible Heat Recovery Effectiveness
    0.65;                     !- Latent Heat Recovery Effectiveness

HVACTEMPLATE:ZONE:IDEALLOADSAIRSYSTEM,
    fd062c908350af6c_F2_whole,    !- Zone Name
    EU_HeatOnly_fd062c908350af6c_F2_whole,    !- Template Thermostat Name
    EU_AlwaysOn,              !- System Availability Schedule Name
    50,                       !- Maximum Heating Supply Air Temperature
    13,                       !- Minimum Cooling Supply Air Temperature
    0.0156,                   !- Maximum Heating Supply Air Humidity Ratio
    0.0077,                   !- Minimum Cooling Supply Air Humidity Ratio
    NoLimit,                  !- Heating Limit
    ,                         !- Maximum Heating Air Flow Rate
    ,                         !- Maximum Sensible Heating Capacity
    NoLimit,                  !- Cooling Limit
    ,                         !- Maximum Cooling Air Flow Rate
    ,                         !- Maximum Total Cooling Capacity
    EU_AlwaysOn,              !- Heating Availability Schedule Name
    EU_CoolingOff,            !- Cooling Availability Schedule Name
    ConstantSensibleHeatRatio,    !- Dehumidification Control Type
    0.7,                      !- Cooling Sensible Heat Ratio
    60,                       !- Dehumidification Setpoint
    None,                     !- Humidification Control Type
    30,                       !- Humidification Setpoint
    None,                     !- Outdoor Air Method
    0.00944,                  !- Outdoor Air Flow Rate per Person
    0.0,                      !- Outdoor Air Flow Rate per Zone Floor Area
    0,                        !- Outdoor Air Flow Rate per Zone
    ,                         !- Design Specification Outdoor Air Object Name
    None,                     !- Demand Controlled Ventilation Type
    NoEconomizer,             !- Outdoor Air Economizer Type
    None,                     !- Heat Recovery Type
    0.70,                     !- Sensible Heat Recovery Effectiveness
    0.65;                     !- Latent Heat Recovery Effectiveness

HVACTEMPLATE:ZONE:IDEALLOADSAIRSYSTEM,
    fd062c908350af6c_F3_whole,    !- Zone Name
    EU_HeatOnly_fd062c908350af6c_F3_whole,    !- Template Thermostat Name
    EU_AlwaysOn,              !- System Availability Schedule Name
    50,                       !- Maximum Heating Supply Air Temperature
    13,                       !- Minimum Cooling Supply Air Temperature
    0.0156,                   !- Maximum Heating Supply Air Humidity Ratio
    0.0077,                   !- Minimum Cooling Supply Air Humidity Ratio
    NoLimit,                  !- Heating Limit
    ,                         !- Maximum Heating Air Flow Rate
    ,                         !- Maximum Sensible Heating Capacity
    NoLimit,                  !- Cooling Limit
    ,                         !- Maximum Cooling Air Flow Rate
    ,                         !- Maximum Total Cooling Capacity
    EU_AlwaysOn,              !- Heating Availability Schedule Name
    EU_CoolingOff,            !- Cooling Availability Schedule Name
    ConstantSensibleHeatRatio,    !- Dehumidification Control Type
    0.7,                      !- Cooling Sensible Heat Ratio
    60,                       !- Dehumidification Setpoint
    None,                     !- Humidification Control Type
    30,                       !- Humidification Setpoint
    None,                     !- Outdoor Air Method
    0.00944,                  !- Outdoor Air Flow Rate per Person
    0.0,                      !- Outdoor Air Flow Rate per Zone Floor Area
    0,                        !- Outdoor Air Flow Rate per Zone
    ,                         !- Design Specification Outdoor Air Object Name
    None,                     !- Demand Controlled Ventilation Type
    NoEconomizer,             !- Outdoor Air Economizer Type
    None,                     !- Heat Recovery Type
    0.70,                     !- Sensible Heat Recovery Effectiveness
    0.65;                     !- Latent Heat Recovery Effectiveness

SIZING:ZONE,
    fd062c908350af6c_F0_whole,    !- Zone or ZoneList Name
    SupplyAirTemperature,     !- Zone Cooling Design Supply Air Temperature Input Method
    13,                       !- Zone Cooling Design Supply Air Temperature
    ,                         !- Zone Cooling Design Supply Air Temperature Difference
    SupplyAirTemperature,     !- Zone Heating Design Supply Air Temperature Input Method
    50,                       !- Zone Heating Design Supply Air Temperature
    ,                         !- Zone Heating Design Supply Air Temperature Difference
    0.008,                    !- Zone Cooling Design Supply Air Humidity Ratio
    0.008,                    !- Zone Heating Design Supply Air Humidity Ratio
    ,                         !- Design Specification Outdoor Air Object Name
    ,                         !- Zone Heating Sizing Factor
    ,                         !- Zone Cooling Sizing Factor
    DesignDay,                !- Cooling Design Air Flow Method
    0,                        !- Cooling Design Air Flow Rate
    0.000762,                 !- Cooling Minimum Air Flow per Zone Floor Area
    0,                        !- Cooling Minimum Air Flow
    0.2,                      !- Cooling Minimum Air Flow Fraction
    DesignDay,                !- Heating Design Air Flow Method
    0,                        !- Heating Design Air Flow Rate
    0.002032,                 !- Heating Maximum Air Flow per Zone Floor Area
    0.1415762,                !- Heating Maximum Air Flow
    0.3,                      !- Heating Maximum Air Flow Fraction
    ,                         !- Design Specification Zone Air Distribution Object Name
    No,                       !- Account for Dedicated Outdoor Air System
    NeutralSupplyAir,         !- Dedicated Outdoor Air System Control Strategy
    autosize,                 !- Dedicated Outdoor Air Low Setpoint Temperature for Design
    autosize,                 !- Dedicated Outdoor Air High Setpoint Temperature for Design
    Sensible Load Only No Latent Load,    !- Zone Load Sizing Method
    HumidityRatioDifference,    !- Zone Latent Cooling Design Supply Air Humidity Ratio Input Method
    ,                         !- Zone Dehumidification Design Supply Air Humidity Ratio
    0.005,                    !- Zone Cooling Design Supply Air Humidity Ratio Difference
    HumidityRatioDifference,    !- Zone Latent Heating Design Supply Air Humidity Ratio Input Method
    ,                         !- Zone Humidification Design Supply Air Humidity Ratio
    0.005;                    !- Zone Humidification Design Supply Air Humidity Ratio Difference

SIZING:ZONE,
    fd062c908350af6c_F1_whole,    !- Zone or ZoneList Name
    SupplyAirTemperature,     !- Zone Cooling Design Supply Air Temperature Input Method
    13,                       !- Zone Cooling Design Supply Air Temperature
    ,                         !- Zone Cooling Design Supply Air Temperature Difference
    SupplyAirTemperature,     !- Zone Heating Design Supply Air Temperature Input Method
    50,                       !- Zone Heating Design Supply Air Temperature
    ,                         !- Zone Heating Design Supply Air Temperature Difference
    0.008,                    !- Zone Cooling Design Supply Air Humidity Ratio
    0.008,                    !- Zone Heating Design Supply Air Humidity Ratio
    ,                         !- Design Specification Outdoor Air Object Name
    ,                         !- Zone Heating Sizing Factor
    ,                         !- Zone Cooling Sizing Factor
    DesignDay,                !- Cooling Design Air Flow Method
    0,                        !- Cooling Design Air Flow Rate
    0.000762,                 !- Cooling Minimum Air Flow per Zone Floor Area
    0,                        !- Cooling Minimum Air Flow
    0.2,                      !- Cooling Minimum Air Flow Fraction
    DesignDay,                !- Heating Design Air Flow Method
    0,                        !- Heating Design Air Flow Rate
    0.002032,                 !- Heating Maximum Air Flow per Zone Floor Area
    0.1415762,                !- Heating Maximum Air Flow
    0.3,                      !- Heating Maximum Air Flow Fraction
    ,                         !- Design Specification Zone Air Distribution Object Name
    No,                       !- Account for Dedicated Outdoor Air System
    NeutralSupplyAir,         !- Dedicated Outdoor Air System Control Strategy
    autosize,                 !- Dedicated Outdoor Air Low Setpoint Temperature for Design
    autosize,                 !- Dedicated Outdoor Air High Setpoint Temperature for Design
    Sensible Load Only No Latent Load,    !- Zone Load Sizing Method
    HumidityRatioDifference,    !- Zone Latent Cooling Design Supply Air Humidity Ratio Input Method
    ,                         !- Zone Dehumidification Design Supply Air Humidity Ratio
    0.005,                    !- Zone Cooling Design Supply Air Humidity Ratio Difference
    HumidityRatioDifference,    !- Zone Latent Heating Design Supply Air Humidity Ratio Input Method
    ,                         !- Zone Humidification Design Supply Air Humidity Ratio
    0.005;                    !- Zone Humidification Design Supply Air Humidity Ratio Difference

SIZING:ZONE,
    fd062c908350af6c_F2_whole,    !- Zone or ZoneList Name
    SupplyAirTemperature,     !- Zone Cooling Design Supply Air Temperature Input Method
    13,                       !- Zone Cooling Design Supply Air Temperature
    ,                         !- Zone Cooling Design Supply Air Temperature Difference
    SupplyAirTemperature,     !- Zone Heating Design Supply Air Temperature Input Method
    50,                       !- Zone Heating Design Supply Air Temperature
    ,                         !- Zone Heating Design Supply Air Temperature Difference
    0.008,                    !- Zone Cooling Design Supply Air Humidity Ratio
    0.008,                    !- Zone Heating Design Supply Air Humidity Ratio
    ,                         !- Design Specification Outdoor Air Object Name
    ,                         !- Zone Heating Sizing Factor
    ,                         !- Zone Cooling Sizing Factor
    DesignDay,                !- Cooling Design Air Flow Method
    0,                        !- Cooling Design Air Flow Rate
    0.000762,                 !- Cooling Minimum Air Flow per Zone Floor Area
    0,                        !- Cooling Minimum Air Flow
    0.2,                      !- Cooling Minimum Air Flow Fraction
    DesignDay,                !- Heating Design Air Flow Method
    0,                        !- Heating Design Air Flow Rate
    0.002032,                 !- Heating Maximum Air Flow per Zone Floor Area
    0.1415762,                !- Heating Maximum Air Flow
    0.3,                      !- Heating Maximum Air Flow Fraction
    ,                         !- Design Specification Zone Air Distribution Object Name
    No,                       !- Account for Dedicated Outdoor Air System
    NeutralSupplyAir,         !- Dedicated Outdoor Air System Control Strategy
    autosize,                 !- Dedicated Outdoor Air Low Setpoint Temperature for Design
    autosize,                 !- Dedicated Outdoor Air High Setpoint Temperature for Design
    Sensible Load Only No Latent Load,    !- Zone Load Sizing Method
    HumidityRatioDifference,    !- Zone Latent Cooling Design Supply Air Humidity Ratio Input Method
    ,                         !- Zone Dehumidification Design Supply Air Humidity Ratio
    0.005,                    !- Zone Cooling Design Supply Air Humidity Ratio Difference
    HumidityRatioDifference,    !- Zone Latent Heating Design Supply Air Humidity Ratio Input Method
    ,                         !- Zone Humidification Design Supply Air Humidity Ratio
    0.005;                    !- Zone Humidification Design Supply Air Humidity Ratio Difference

SIZING:ZONE,
    fd062c908350af6c_F3_whole,    !- Zone or ZoneList Name
    SupplyAirTemperature,     !- Zone Cooling Design Supply Air Temperature Input Method
    13,                       !- Zone Cooling Design Supply Air Temperature
    ,                         !- Zone Cooling Design Supply Air Temperature Difference
    SupplyAirTemperature,     !- Zone Heating Design Supply Air Temperature Input Method
    50,                       !- Zone Heating Design Supply Air Temperature
    ,                         !- Zone Heating Design Supply Air Temperature Difference
    0.008,                    !- Zone Cooling Design Supply Air Humidity Ratio
    0.008,                    !- Zone Heating Design Supply Air Humidity Ratio
    ,                         !- Design Specification Outdoor Air Object Name
    ,                         !- Zone Heating Sizing Factor
    ,                         !- Zone Cooling Sizing Factor
    DesignDay,                !- Cooling Design Air Flow Method
    0,                        !- Cooling Design Air Flow Rate
    0.000762,                 !- Cooling Minimum Air Flow per Zone Floor Area
    0,                        !- Cooling Minimum Air Flow
    0.2,                      !- Cooling Minimum Air Flow Fraction
    DesignDay,                !- Heating Design Air Flow Method
    0,                        !- Heating Design Air Flow Rate
    0.002032,                 !- Heating Maximum Air Flow per Zone Floor Area
    0.1415762,                !- Heating Maximum Air Flow
    0.3,                      !- Heating Maximum Air Flow Fraction
    ,                         !- Design Specification Zone Air Distribution Object Name
    No,                       !- Account for Dedicated Outdoor Air System
    NeutralSupplyAir,         !- Dedicated Outdoor Air System Control Strategy
    autosize,                 !- Dedicated Outdoor Air Low Setpoint Temperature for Design
    autosize,                 !- Dedicated Outdoor Air High Setpoint Temperature for Design
    Sensible Load Only No Latent Load,    !- Zone Load Sizing Method
    HumidityRatioDifference,    !- Zone Latent Cooling Design Supply Air Humidity Ratio Input Method
    ,                         !- Zone Dehumidification Design Supply Air Humidity Ratio
    0.005,                    !- Zone Cooling Design Supply Air Humidity Ratio Difference
    HumidityRatioDifference,    !- Zone Latent Heating Design Supply Air Humidity Ratio Input Method
    ,                         !- Zone Humidification Design Supply Air Humidity Ratio
    0.005;                    !- Zone Humidification Design Supply Air Humidity Ratio Difference

OUTPUT:VARIABLE,
    *,                        !- Key Value
    Zone Ideal Loads Zone Total Heating Energy,    !- Variable Name
    Hourly;                   !- Reporting Frequency

OUTPUT:SQLITE,
    SimpleAndTabular,         !- Option Type
    UseOutputControlTableStyle;    !- Unit Conversion for Tabular Data