!- Windows Line endings 

Version,
    23.1;                     !- Version Identifier

SimulationControl,
    Yes,                      !- Do Zone Sizing Calculation
    Yes,                      !- Do System Sizing Calculation
    Yes,                      !- Do Plant Sizing Calculation
    No,                       !- Run Simulation for Sizing Periods
    Yes,                      !- Run Simulation for Weather File Run Periods
    No,                       !- Do HVAC Sizing Simulation for Sizing Periods
    1;                        !- Maximum Number of HVAC Sizing Simulation Passes

Building,
    OpenUBEM_Building,        !- Name
    0,                        !- North Axis
    City,                     !- Terrain
    ,                         !- Loads Convergence Tolerance Value
    ,                         !- Temperature Convergence Tolerance Value
    FullExterior,             !- Solar Distribution
    ,                         !- Maximum Number of Warmup Days
    ;                         !- Minimum Number of Warmup Days

Timestep,
    6;                        !- Number of Timesteps per Hour

Site:Location,
    New.York-Central.Park.Obs-Belvedere.Castle,    !- Name
    40.77889,                 !- Latitude
    -73.96917,                !- Longitude
    -5,                       !- Time Zone
    48;                       !- Elevation

SizingPeriod:WeatherFileDays,
    AnnualSizingPeriod,       !- Name
    1,                        !- Begin Month
    1,                        !- Begin Day of Month
    12,                       !- End Month
    31,                       !- End Day of Month
    Monday,                   !- Day of Week for Start Day
    No,                       !- Use Weather File Daylight Saving Period
    No;                       !- Use Weather File Rain and Snow Indicators

RunPeriod,
    RunPeriod1,               !- Name
    1,                        !- Begin Month
    1,                        !- Begin Day of Month
    ,                         !- Begin Year
    12,                       !- End Month
    31,                       !- End Day of Month
    ,                         !- End Year
    Sunday,                   !- Day of Week for Start Day
    No,                       !- Use Weather File Holidays and Special Days
    No,                       !- Use Weather File Daylight Saving Period
    No,                       !- Apply Weekend Holiday Rule
    Yes,                      !- Use Weather File Rain Indicators
    Yes;                      !- Use Weather File Snow Indicators

SITE:WATERMAINSTEMPERATURE,
    CorrelationFromWeatherFile;    !- Calculation Method

SCHEDULE:COMPACT,
    Occupancy_Schedule_SmallOffice,    !- Name
    Fraction,                 !- Schedule Type Limits Name
    Through: 12/31,           !- Field 1
    For: Weekdays,            !- Field 2
    Until: 06:00, 0.0,        !- Field 3
    Until: 07:00, 0.1,        !- Field 4
    Until: 08:00, 0.2,        !- Field 5
    Until: 12:00, 0.95,       !- Field 6
    Until: 13:00, 0.5,        !- Field 7
    Until: 17:00, 0.95,       !- Field 8
    Until: 18:00, 0.3,        !- Field 9
    Until: 22:00, 0.1,        !- Field 10
    Until: 24:00, 0.05,       !- Field 11
    For: Saturday,            !- Field 12
    Until: 06:00, 0.0,        !- Field 13
    Until: 08:00, 0.1,        !- Field 14
    Until: 12:00, 0.3,        !- Field 15
    Until: 17:00, 0.1,        !- Field 16
    Until: 19:00, 0.05,       !- Field 17
    Until: 24:00, 0.0,        !- Field 18
    For: AllOtherDays,        !- Field 19
    Until: 06:00, 0.0,        !- Field 20
    Until: 18:00, 0.05,       !- Field 21
    Until: 24:00, 0.0;        !- Field 22

SCHEDULE:COMPACT,
    Lighting_Schedule_SmallOffice,    !- Name
    Fraction,                 !- Schedule Type Limits Name
    Through: 12/31,           !- Field 1
    For: Weekdays,            !- Field 2
    Until: 05:00, 0.04184,    !- Field 3
    Until: 07:00, 0.08368,    !- Field 4
    Until: 08:00, 0.25105,    !- Field 5
    Until: 17:00, 0.75314,    !- Field 6
    Until: 18:00, 0.41841,    !- Field 7
    Until: 20:00, 0.25105,    !- Field 8
    Until: 22:00, 0.16736,    !- Field 9
    Until: 23:00, 0.08368,    !- Field 10
    Until: 24:00, 0.04184,    !- Field 11
    For: Saturday,            !- Field 12
    Until: 06:00, 0.04184,    !- Field 13
    Until: 08:00, 0.08368,    !- Field 14
    Until: 12:00, 0.25105,    !- Field 15
    Until: 17:00, 0.12552,    !- Field 16
    Until: 24:00, 0.04184,    !- Field 17
    For: AllOtherDays,        !- Field 18
    Until: 24:00, 0.04184;    !- Field 19

SCHEDULE:COMPACT,
    Equipment_Schedule_SmallOffice,    !- Name
    Fraction,                 !- Schedule Type Limits Name
    Through: 12/31,           !- Field 1
    For: Weekdays,            !- Field 2
    Until: 06:00, 0.3076738408,    !- Field 3
    Until: 08:00, 0.381234796,    !- Field 4
    Until: 12:00, 0.857778291,    !- Field 5
    Until: 13:00, 0.762469592,    !- Field 6
    Until: 17:00, 0.857778291,    !- Field 7
    Until: 18:00, 0.476543495,    !- Field 8
    Until: 24:00, 0.381234796,    !- Field 9
    For: Saturday,            !- Field 10
    Until: 06:00, 0.2307553806,    !- Field 11
    Until: 08:00, 0.381234796,    !- Field 12
    Until: 12:00, 0.476543495,    !- Field 13
    Until: 17:00, 0.3335804465,    !- Field 14
    Until: 19:00, 0.285926097,    !- Field 15
    Until: 24:00, 0.2307553806,    !- Field 16
    For: AllOtherDays,        !- Field 17
    Until: 06:00, 0.2307553806,    !- Field 18
    Until: 18:00, 0.285926097,    !- Field 19
    Until: 24:00, 0.2307553806;    !- Field 20

SCHEDULE:COMPACT,
    Heating_Setpoint_SmallOffice,    !- Name
    Temperature,              !- Schedule Type Limits Name
    Through: 12/31,           !- Field 1
    For: Weekdays,            !- Field 2
    Until: 06:00, 15.6,       !- Field 3
    Until: 07:00, 21.1,       !- Field 4
    Until: 08:00, 21.1,       !- Field 5
    Until: 12:00, 21.1,       !- Field 6
    Until: 13:00, 21.1,       !- Field 7
    Until: 17:00, 21.1,       !- Field 8
    Until: 19:00, 21.1,       !- Field 9
    Until: 24:00, 15.6,       !- Field 10
    For: Saturday,            !- Field 11
    Until: 06:00, 15.6,       !- Field 12
    Until: 08:00, 21.1,       !- Field 13
    Until: 12:00, 21.1,       !- Field 14
    Until: 17:00, 21.1,       !- Field 15
    Until: 19:00, 21.1,       !- Field 16
    Until: 24:00, 15.6,       !- Field 17
    For: AllOtherDays,        !- Field 18
    Until: 06:00, 15.6,       !- Field 19
    Until: 18:00, 21.1,       !- Field 20
    Until: 24:00, 15.6;       !- Field 21

SCHEDULE:COMPACT,
    Cooling_Setpoint_SmallOffice,    !- Name
    Temperature,              !- Schedule Type Limits Name
    Through: 12/31,           !- Field 1
    For: Weekdays,            !- Field 2
    Until: 06:00, 29.4,       !- Field 3
    Until: 07:00, 23.9,       !- Field 4
    Until: 08:00, 23.9,       !- Field 5
    Until: 12:00, 23.9,       !- Field 6
    Until: 13:00, 23.9,       !- Field 7
    Until: 17:00, 23.9,       !- Field 8
    Until: 18:00, 23.9,       !- Field 9
    Until: 22:00, 23.9,       !- Field 10
    Until: 24:00, 23.9,       !- Field 11
    For: Saturday,            !- Field 12
    Until: 06:00, 29.4,       !- Field 13
    Until: 08:00, 23.9,       !- Field 14
    Until: 12:00, 23.9,       !- Field 15
    Until: 17:00, 23.9,       !- Field 16
    Until: 19:00, 23.9,       !- Field 17
    Until: 24:00, 29.4,       !- Field 18
    For: AllOtherDays,        !- Field 19
    Until: 06:00, 29.4,       !- Field 20
    Until: 18:00, 23.9,       !- Field 21
    Until: 24:00, 29.4;       !- Field 22

SCHEDULE:COMPACT,
    Infiltration_Schedule_SmallOffice,    !- Name
    Fraction,                 !- Schedule Type Limits Name
    Through: 12/31,           !- Field 1
    For: Weekdays,            !- Field 2
    Until: 06:00, 1.0,        !- Field 3
    Until: 07:00, 0.25,       !- Field 4
    Until: 08:00, 0.25,       !- Field 5
    Until: 12:00, 0.25,       !- Field 6
    Until: 13:00, 0.25,       !- Field 7
    Until: 17:00, 0.25,       !- Field 8
    Until: 18:00, 0.25,       !- Field 9
    Until: 22:00, 0.25,       !- Field 10
    Until: 24:00, 0.25,       !- Field 11
    For: Saturday,            !- Field 12
    Until: 06:00, 1.0,        !- Field 13
    Until: 08:00, 0.25,       !- Field 14
    Until: 12:00, 0.25,       !- Field 15
    Until: 17:00, 0.25,       !- Field 16
    Until: 19:00, 0.25,       !- Field 17
    Until: 24:00, 1.0,        !- Field 18
    For: AllOtherDays,        !- Field 19
    Until: 06:00, 1.0,        !- Field 20
    Until: 18:00, 0.25,       !- Field 21
    Until: 24:00, 1.0;        !- Field 22

Schedule:Constant,
    Activity_Level,           !- Name
    ,                         !- Schedule Type Limits Name
    120;                      !- Hourly Value

SCHEDULE:CONSTANT,
    OpenUBEM_DHW_Setpoint,    !- Name
    ,                         !- Schedule Type Limits Name
    60;                       !- Hourly Value

SCHEDULE:CONSTANT,
    OpenUBEM_DHW_FlowFrac_SmallOffice,    !- Name
    ,                         !- Schedule Type Limits Name
    0.236274;                 !- Hourly Value

SCHEDULE:CONSTANT,
    OpenUBEM_DHW_SensibleFrac,    !- Name
    ,                         !- Schedule Type Limits Name
    0.2;                      !- Hourly Value

SCHEDULE:CONSTANT,
    OpenUBEM_DHW_LatentFrac,    !- Name
    ,                         !- Schedule Type Limits Name
    0.05;                     !- Hourly Value

MATERIAL,
    DefaultMaterial,          !- Name
    Rough,                    !- Roughness
    0.1,                      !- Thickness
    0.1,                      !- Conductivity
    1000,                     !- Density
    1000,                     !- Specific Heat
    0.9,                      !- Thermal Absorptance
    0.7,                      !- Solar Absorptance
    0.7;                      !- Visible Absorptance

MATERIAL:NOMASS,
    Roof_Assembly,            !- Name
    MediumRough,              !- Roughness
    5.319148936170213,        !- Thermal Resistance
    0.9,                      !- Thermal Absorptance
    0.7,                      !- Solar Absorptance
    0.7;                      !- Visible Absorptance

MATERIAL:NOMASS,
    Wall_Assembly,            !- Name
    MediumRough,              !- Roughness
    1.7391304347826089,       !- Thermal Resistance
    0.9,                      !- Thermal Absorptance
    0.7,                      !- Solar Absorptance
    0.7;                      !- Visible Absorptance

MATERIAL:NOMASS,
    Floor_Assembly,           !- Name
    MediumRough,              !- Roughness
    1.949317738791423,        !- Thermal Resistance
    0.9,                      !- Thermal Absorptance
    0.7,                      !- Solar Absorptance
    0.7;                      !- Visible Absorptance

WINDOWMATERIAL:SIMPLEGLAZINGSYSTEM,
    Window_Material,          !- Name
    3.236,                    !- UFactor
    0.36,                     !- Solar Heat Gain Coefficient
    0.6;                      !- Visible Transmittance

WINDOWMATERIAL:SIMPLEGLAZINGSYSTEM,
    DefaultGlazing,           !- Name
    2.7,                      !- UFactor
    0.763,                    !- Solar Heat Gain Coefficient
    0.8;                      !- Visible Transmittance

CONSTRUCTION,
    Roof_Construction,        !- Name
    Roof_Assembly;            !- Outside Layer

CONSTRUCTION,
    Wall_Construction,        !- Name
    Wall_Assembly;            !- Outside Layer

CONSTRUCTION,
    Floor_Construction,       !- Name
    Floor_Assembly;           !- Outside Layer

CONSTRUCTION,
    Window_Construction,      !- Name
    Window_Material;          !- Outside Layer

CONSTRUCTION,
    Project Wall,             !- Name
    DefaultMaterial;          !- Outside Layer

CONSTRUCTION,
    Project Partition,        !- Name
    DefaultMaterial;          !- Outside Layer

CONSTRUCTION,
    Project Floor,            !- Name
    DefaultMaterial;          !- Outside Layer

CONSTRUCTION,
    Project Flat Roof,        !- Name
    DefaultMaterial;          !- Outside Layer

CONSTRUCTION,
    Project Ceiling,          !- Name
    DefaultMaterial;          !- Outside Layer

CONSTRUCTION,
    Project Door,             !- Name
    DefaultMaterial;          !- Outside Layer

CONSTRUCTION,
    Project External Window,    !- Name
    DefaultGlazing;           !- Outside Layer

GlobalGeometryRules,
    UpperLeftCorner,          !- Starting Vertex Position
    Counterclockwise,         !- Vertex Entry Direction
    Relative;                 !- Coordinate System

ZONE,
    way/265301958_F0_whole,    !- Name
    0,                        !- Direction of Relative North
    0,                        !- X Origin
    0,                        !- Y Origin
    0,                        !- Z Origin
    1,                        !- Type
    1,                        !- Multiplier
    autocalculate,            !- Ceiling Height
    autocalculate,            !- Volume
    autocalculate,            !- Floor Area
    ,                         !- Zone Inside Convection Algorithm
    ,                         !- Zone Outside Convection Algorithm
    Yes;                      !- Part of Total Floor Area

BUILDINGSURFACE:DETAILED,
    Block way/265301958_whole Storey 0 Wall 0001,    !- Name
    wall,                     !- Surface Type
    Wall_Construction,        !- Construction Name
    way/265301958_F0_whole,    !- Zone Name
    ,                         !- Space Name
    outdoors,                 !- Outside Boundary Condition
    ,                         !- Outside Boundary Condition Object
    SunExposed,               !- Sun Exposure
    WindExposed,              !- Wind Exposure
    autocalculate,            !- View Factor to Ground
    autocalculate,            !- Number of Vertices
    -3.694366e+00,            !- Vertex 1 Xcoordinate
    -1.390414e+01,            !- Vertex 1 Ycoordinate
    3.5,                      !- Vertex 1 Zcoordinate
    -3.694366e+00,            !- Vertex 2 Xcoordinate
    -1.390414e+01,            !- Vertex 2 Ycoordinate
    0,                        !- Vertex 2 Zcoordinate
    -9.539511996437795,       !- Vertex 3 Xcoordinate
    -1.075212e+01,            !- Vertex 3 Ycoordinate
    0,                        !- Vertex 3 Zcoordinate
    -9.539511996437795,       !- Vertex 4 Xcoordinate
    -1.075212e+01,            !- Vertex 4 Ycoordinate
    3.5;                      !- Vertex 4 Zcoordinate

BUILDINGSURFACE:DETAILED,
    Block way/265301958_whole Storey 0 Wall 0002,    !- Name
    wall,                     !- Surface Type
    Wall_Construction,        !- Construction Name
    way/265301958_F0_whole,    !- Zone Name
    ,                         !- Space Name
    outdoors,                 !- Outside Boundary Condition
    ,                         !- Outside Boundary Condition Object
    SunExposed,               !- Sun Exposure
    WindExposed,              !- Wind Exposure
    autocalculate,            !- View Factor to Ground
    autocalculate,            !- Number of Vertices
    -9.539511996437795,       !- Vertex 1 Xcoordinate
    -1.075212e+01,            !- Vertex 1 Ycoordinate
    3.5,                      !- Vertex 1 Zcoordinate
    -9.539511996437795,       !- Vertex 2 Xcoordinate
    -1.075212e+01,            !- Vertex 2 Ycoordinate
    0,                        !- Vertex 2 Zcoordinate
    3.7087988617131487,       !- Vertex 3 Xcoordinate
    13.925969725474715,       !- Vertex 3 Ycoordinate
    0,                        !- Vertex 3 Zcoordinate
    3.7087988617131487,       !- Vertex 4 Xcoordinate
    13.925969725474715,       !- Vertex 4 Ycoordinate
    3.5;                      !- Vertex 4 Zcoordinate

BUILDINGSURFACE:DETAILED,
    Block way/265301958_whole Storey 0 Wall 0003,    !- Name
    wall,                     !- Surface Type
    Wall_Construction,        !- Construction Name
    way/265301958_F0_whole,    !- Zone Name
    ,                         !- Space Name
    outdoors,                 !- Outside Boundary Condition
    ,                         !- Outside Boundary Condition Object
    SunExposed,               !- Sun Exposure
    WindExposed,              !- Wind Exposure
    autocalculate,            !- View Factor to Ground
    autocalculate,            !- Number of Vertices
    3.7087988617131487,       !- Vertex 1 Xcoordinate
    13.925969725474715,       !- Vertex 1 Ycoordinate
    3.5,                      !- Vertex 1 Zcoordinate
    3.7087988617131487,       !- Vertex 2 Xcoordinate
    13.925969725474715,       !- Vertex 2 Ycoordinate
    0,                        !- Vertex 2 Zcoordinate
    9.529120228602551,        !- Vertex 3 Xcoordinate
    10.729270093142986,       !- Vertex 3 Ycoordinate
    0,                        !- Vertex 3 Zcoordinate
    9.529120228602551,        !- Vertex 4 Xcoordinate
    10.729270093142986,       !- Vertex 4 Ycoordinate
    3.5;                      !- Vertex 4 Zcoordinate

BUILDINGSURFACE:DETAILED,
    Block way/265301958_whole Storey 0 Wall 0004,    !- Name
    wall,                     !- Surface Type
    Wall_Construction,        !- Construction Name
    way/265301958_F0_whole,    !- Zone Name
    ,                         !- Space Name
    outdoors,                 !- Outside Boundary Condition
    ,                         !- Outside Boundary Condition Object
    SunExposed,               !- Sun Exposure
    WindExposed,              !- Wind Exposure
    autocalculate,            !- View Factor to Ground
    autocalculate,            !- Number of Vertices
    9.529120228602551,        !- Vertex 1 Xcoordinate
    10.729270093142986,       !- Vertex 1 Ycoordinate
    3.5,                      !- Vertex 1 Zcoordinate
    9.529120228602551,        !- Vertex 2 Xcoordinate
    10.729270093142986,       !- Vertex 2 Ycoordinate
    0,                        !- Vertex 2 Zcoordinate
    -3.694366e+00,            !- Vertex 3 Xcoordinate
    -1.390414e+01,            !- Vertex 3 Ycoordinate
    0,                        !- Vertex 3 Zcoordinate
    -3.694366e+00,            !- Vertex 4 Xcoordinate
    -1.390414e+01,            !- Vertex 4 Ycoordinate
    3.5;                      !- Vertex 4 Zcoordinate

BUILDINGSURFACE:DETAILED,
    Block way/265301958_whole Storey 0 Floor 0001,    !- Name
    floor,                    !- Surface Type
    Floor_Construction,       !- Construction Name
    way/265301958_F0_whole,    !- Zone Name
    ,                         !- Space Name
    ground,                   !- Outside Boundary Condition
    ,                         !- Outside Boundary Condition Object
    NoSun,                    !- Sun Exposure
    NoWind,                   !- Wind Exposure
    autocalculate,            !- View Factor to Ground
    autocalculate,            !- Number of Vertices
    -3.694366e+00,            !- Vertex 1 Xcoordinate
    -1.390414e+01,            !- Vertex 1 Ycoordinate
    0,                        !- Vertex 1 Zcoordinate
    9.529120228602551,        !- Vertex 2 Xcoordinate
    10.729270093142986,       !- Vertex 2 Ycoordinate
    0,                        !- Vertex 2 Zcoordinate
    3.7087988617131487,       !- Vertex 3 Xcoordinate
    13.925969725474715,       !- Vertex 3 Ycoordinate
    0,                        !- Vertex 3 Zcoordinate
    -9.539511996437795,       !- Vertex 4 Xcoordinate
    -1.075212e+01,            !- Vertex 4 Ycoordinate
    0;                        !- Vertex 4 Zcoordinate

BUILDINGSURFACE:DETAILED,
    Block way/265301958_whole Storey 0 Roof 0001,    !- Name
    roof,                     !- Surface Type
    Roof_Construction,        !- Construction Name
    way/265301958_F0_whole,    !- Zone Name
    ,                         !- Space Name
    outdoors,                 !- Outside Boundary Condition
    ,                         !- Outside Boundary Condition Object
    NoSun,                    !- Sun Exposure
    WindExposed,              !- Wind Exposure
    autocalculate,            !- View Factor to Ground
    autocalculate,            !- Number of Vertices
    9.529120228602551,        !- Vertex 1 Xcoordinate
    10.729270093142986,       !- Vertex 1 Ycoordinate
    3.5,                      !- Vertex 1 Zcoordinate
    -3.694366e+00,            !- Vertex 2 Xcoordinate
    -1.390414e+01,            !- Vertex 2 Ycoordinate
    3.5,                      !- Vertex 2 Zcoordinate
    -9.539511996437795,       !- Vertex 3 Xcoordinate
    -1.075212e+01,            !- Vertex 3 Ycoordinate
    3.5,                      !- Vertex 3 Zcoordinate
    3.7087988617131487,       !- Vertex 4 Xcoordinate
    13.925969725474715,       !- Vertex 4 Ycoordinate
    3.5;                      !- Vertex 4 Zcoordinate

FENESTRATIONSURFACE:DETAILED,
    Block way/265301958_whole Storey 0 Wall 0001 window,    !- Name
    Window,                   !- Surface Type
    Window_Construction,      !- Construction Name
    Block way/265301958_whole Storey 0 Wall 0001,    !- Building Surface Name
    ,                         !- Outside Boundary Condition Object
    autocalculate,            !- View Factor to Ground
    ,                         !- Frame and Divider Name
    1.0,                      !- Multiplier
    autocalculate,            !- Number of Vertices
    -3.697288852731348,       !- Vertex 1 Xcoordinate
    -1.390256e+01,            !- Vertex 1 Ycoordinate
    2.45,                     !- Vertex 1 Zcoordinate
    -3.697288852731348,       !- Vertex 2 Xcoordinate
    -1.390256e+01,            !- Vertex 2 Ycoordinate
    1.0499999999999998,       !- Vertex 2 Zcoordinate
    -9.536589423579514,       !- Vertex 3 Xcoordinate
    -1.075370e+01,            !- Vertex 3 Ycoordinate
    1.0499999999999998,       !- Vertex 3 Zcoordinate
    -9.536589423579514,       !- Vertex 4 Xcoordinate
    -1.075370e+01,            !- Vertex 4 Ycoordinate
    2.45;                     !- Vertex 4 Zcoordinate

FENESTRATIONSURFACE:DETAILED,
    Block way/265301958_whole Storey 0 Wall 0002 window,    !- Name
    Window,                   !- Surface Type
    Window_Construction,      !- Construction Name
    Block way/265301958_whole Storey 0 Wall 0002,    !- Building Surface Name
    ,                         !- Outside Boundary Condition Object
    autocalculate,            !- View Factor to Ground
    ,                         !- Frame and Divider Name
    1.0,                      !- Multiplier
    autocalculate,            !- Number of Vertices
    -9.53288784100872,        !- Vertex 1 Xcoordinate
    -10.7397844024105,        !- Vertex 1 Ycoordinate
    2.45,                     !- Vertex 1 Zcoordinate
    -9.53288784100872,        !- Vertex 2 Xcoordinate
    -10.7397844024105,        !- Vertex 2 Ycoordinate
    1.0499999999999998,       !- Vertex 2 Zcoordinate
    3.7021747062840733,       !- Vertex 3 Xcoordinate
    13.913630678887479,       !- Vertex 3 Ycoordinate
    1.0499999999999998,       !- Vertex 3 Zcoordinate
    3.7021747062840733,       !- Vertex 4 Xcoordinate
    13.913630678887479,       !- Vertex 4 Ycoordinate
    2.45;                     !- Vertex 4 Zcoordinate

FENESTRATIONSURFACE:DETAILED,
    Block way/265301958_whole Storey 0 Wall 0003 window,    !- Name
    Window,                   !- Surface Type
    Window_Construction,      !- Construction Name
    Block way/265301958_whole Storey 0 Wall 0003,    !- Building Surface Name
    ,                         !- Outside Boundary Condition Object
    autocalculate,            !- View Factor to Ground
    ,                         !- Frame and Divider Name
    1.0,                      !- Multiplier
    autocalculate,            !- Number of Vertices
    3.7117090223965934,       !- Vertex 1 Xcoordinate
    13.924371375658549,       !- Vertex 1 Ycoordinate
    2.45,                     !- Vertex 1 Zcoordinate
    3.7117090223965934,       !- Vertex 2 Xcoordinate
    13.924371375658549,       !- Vertex 2 Ycoordinate
    1.0499999999999998,       !- Vertex 2 Zcoordinate
    9.526210067919106,        !- Vertex 3 Xcoordinate
    10.730868442959153,       !- Vertex 3 Ycoordinate
    1.0499999999999998,       !- Vertex 3 Zcoordinate
    9.526210067919106,        !- Vertex 4 Xcoordinate
    10.730868442959153,       !- Vertex 4 Ycoordinate
    2.45;                     !- Vertex 4 Zcoordinate

FENESTRATIONSURFACE:DETAILED,
    Block way/265301958_whole Storey 0 Wall 0004 window,    !- Name
    Window,                   !- Surface Type
    Window_Construction,      !- Construction Name
    Block way/265301958_whole Storey 0 Wall 0004,    !- Building Surface Name
    ,                         !- Outside Boundary Condition Object
    autocalculate,            !- View Factor to Ground
    ,                         !- Frame and Divider Name
    1.0,                      !- Multiplier
    autocalculate,            !- Number of Vertices
    9.522508485348313,        !- Vertex 1 Xcoordinate
    10.716953389283736,       !- Vertex 1 Ycoordinate
    2.45,                     !- Vertex 1 Zcoordinate
    9.522508485348313,        !- Vertex 2 Xcoordinate
    10.716953389283736,       !- Vertex 2 Ycoordinate
    1.0499999999999998,       !- Vertex 2 Zcoordinate
    -3.687755e+00,            !- Vertex 3 Xcoordinate
    -1.389182e+01,            !- Vertex 3 Ycoordinate
    1.0499999999999998,       !- Vertex 3 Zcoordinate
    -3.687755e+00,            !- Vertex 4 Xcoordinate
    -1.389182e+01,            !- Vertex 4 Ycoordinate
    2.45;                     !- Vertex 4 Zcoordinate

SHADING:SITE:DETAILED,
    shade_way/265302103_1,    !- Name
    ,                         !- Transmittance Schedule Name
    autocalculate,            !- Number of Vertices
    19.93253155471757,        !- Vertex 1 Xcoordinate
    -2.661663e+01,            !- Vertex 1 Ycoordinate
    43.4,                     !- Vertex 1 Zcoordinate
    19.93253155471757,        !- Vertex 2 Xcoordinate
    -2.661663e+01,            !- Vertex 2 Ycoordinate
    0,                        !- Vertex 2 Zcoordinate
    32.94106555345934,        !- Vertex 3 Xcoordinate
    -2.400140e+00,            !- Vertex 3 Ycoordinate
    0,                        !- Vertex 3 Zcoordinate
    32.94106555345934,        !- Vertex 4 Xcoordinate
    -2.400140e+00,            !- Vertex 4 Ycoordinate
    43.4;                     !- Vertex 4 Zcoordinate

SHADING:SITE:DETAILED,
    shade_way/265302103_2,    !- Name
    ,                         !- Transmittance Schedule Name
    autocalculate,            !- Number of Vertices
    32.94106555345934,        !- Vertex 1 Xcoordinate
    -2.400140e+00,            !- Vertex 1 Ycoordinate
    43.4,                     !- Vertex 1 Zcoordinate
    32.94106555345934,        !- Vertex 2 Xcoordinate
    -2.400140e+00,            !- Vertex 2 Ycoordinate
    0,                        !- Vertex 2 Zcoordinate
    43.656789422850125,       !- Vertex 3 Xcoordinate
    -8.156058605760336,       !- Vertex 3 Ycoordinate
    0,                        !- Vertex 3 Zcoordinate
    43.656789422850125,       !- Vertex 4 Xcoordinate
    -8.156058605760336,       !- Vertex 4 Ycoordinate
    43.4;                     !- Vertex 4 Zcoordinate

SHADING:SITE:DETAILED,
    shade_way/265302103_3,    !- Name
    ,                         !- Transmittance Schedule Name
    autocalculate,            !- Number of Vertices
    43.656789422850125,       !- Vertex 1 Xcoordinate
    -8.156058605760336,       !- Vertex 1 Ycoordinate
    43.4,                     !- Vertex 1 Zcoordinate
    43.656789422850125,       !- Vertex 2 Xcoordinate
    -8.156058605760336,       !- Vertex 2 Ycoordinate
    0,                        !- Vertex 2 Zcoordinate
    30.648429809254594,       !- Vertex 3 Xcoordinate
    -3.237282e+01,            !- Vertex 3 Ycoordinate
    0,                        !- Vertex 3 Zcoordinate
    30.648429809254594,       !- Vertex 4 Xcoordinate
    -3.237282e+01,            !- Vertex 4 Ycoordinate
    43.4;                     !- Vertex 4 Zcoordinate

SHADING:SITE:DETAILED,
    shade_way/265302103_4,    !- Name
    ,                         !- Transmittance Schedule Name
    autocalculate,            !- Number of Vertices
    30.648429809254594,       !- Vertex 1 Xcoordinate
    -3.237282e+01,            !- Vertex 1 Ycoordinate
    43.4,                     !- Vertex 1 Zcoordinate
    30.648429809254594,       !- Vertex 2 Xcoordinate
    -3.237282e+01,            !- Vertex 2 Ycoordinate
    0,                        !- Vertex 2 Zcoordinate
    19.93253155471757,        !- Vertex 3 Xcoordinate
    -2.661663e+01,            !- Vertex 3 Ycoordinate
    0,                        !- Vertex 3 Zcoordinate
    19.93253155471757,        !- Vertex 4 Xcoordinate
    -2.661663e+01,            !- Vertex 4 Ycoordinate
    43.4;                     !- Vertex 4 Zcoordinate

SHADING:SITE:DETAILED,
    shade_way/265302098_1,    !- Name
    ,                         !- Transmittance Schedule Name
    autocalculate,            !- Number of Vertices
    32.94106555345934,        !- Vertex 1 Xcoordinate
    -2.400140e+00,            !- Vertex 1 Ycoordinate
    26.6,                     !- Vertex 1 Zcoordinate
    32.94106555345934,        !- Vertex 2 Xcoordinate
    -2.400140e+00,            !- Vertex 2 Ycoordinate
    0,                        !- Vertex 2 Zcoordinate
    19.92528330371715,        !- Vertex 3 Xcoordinate
    -26.63012005481869,       !- Vertex 3 Ycoordinate
    0,                        !- Vertex 3 Zcoordinate
    19.92528330371715,        !- Vertex 4 Xcoordinate
    -26.63012005481869,       !- Vertex 4 Ycoordinate
    26.6;                     !- Vertex 4 Zcoordinate

SHADING:SITE:DETAILED,
    shade_way/265302098_2,    !- Name
    ,                         !- Transmittance Schedule Name
    autocalculate,            !- Number of Vertices
    19.92528330371715,        !- Vertex 1 Xcoordinate
    -26.63012005481869,       !- Vertex 1 Ycoordinate
    26.6,                     !- Vertex 1 Zcoordinate
    19.92528330371715,        !- Vertex 2 Xcoordinate
    -26.63012005481869,       !- Vertex 2 Ycoordinate
    0,                        !- Vertex 2 Zcoordinate
    8.132035528542474,        !- Vertex 3 Xcoordinate
    -2.029540e+01,            !- Vertex 3 Ycoordinate
    0,                        !- Vertex 3 Zcoordinate
    8.132035528542474,        !- Vertex 4 Xcoordinate
    -2.029540e+01,            !- Vertex 4 Ycoordinate
    26.6;                     !- Vertex 4 Zcoordinate

SHADING:SITE:DETAILED,
    shade_way/265302098_3,    !- Name
    ,                         !- Transmittance Schedule Name
    autocalculate,            !- Number of Vertices
    8.132035528542474,        !- Vertex 1 Xcoordinate
    -2.029540e+01,            !- Vertex 1 Ycoordinate
    26.6,                     !- Vertex 1 Zcoordinate
    8.132035528542474,        !- Vertex 2 Xcoordinate
    -2.029540e+01,            !- Vertex 2 Ycoordinate
    0,                        !- Vertex 2 Zcoordinate
    21.14746900612954,        !- Vertex 3 Xcoordinate
    3.9351278580725193,       !- Vertex 3 Ycoordinate
    0,                        !- Vertex 3 Zcoordinate
    21.14746900612954,        !- Vertex 4 Xcoordinate
    3.9351278580725193,       !- Vertex 4 Ycoordinate
    26.6;                     !- Vertex 4 Zcoordinate

SHADING:SITE:DETAILED,
    shade_way/265302098_4,    !- Name
    ,                         !- Transmittance Schedule Name
    autocalculate,            !- Number of Vertices
    21.14746900612954,        !- Vertex 1 Xcoordinate
    3.9351278580725193,       !- Vertex 1 Ycoordinate
    26.6,                     !- Vertex 1 Zcoordinate
    21.14746900612954,        !- Vertex 2 Xcoordinate
    3.9351278580725193,       !- Vertex 2 Ycoordinate
    0,                        !- Vertex 2 Zcoordinate
    32.94106555345934,        !- Vertex 3 Xcoordinate
    -2.400140e+00,            !- Vertex 3 Ycoordinate
    0,                        !- Vertex 3 Zcoordinate
    32.94106555345934,        !- Vertex 4 Xcoordinate
    -2.400140e+00,            !- Vertex 4 Ycoordinate
    26.6;                     !- Vertex 4 Zcoordinate

SHADING:SITE:DETAILED,
    shade_way/265301969_1,    !- Name
    ,                         !- Transmittance Schedule Name
    autocalculate,            !- Number of Vertices
    -22.74900214234367,       !- Vertex 1 Xcoordinate
    -58.50014749262482,       !- Vertex 1 Ycoordinate
    18.1,                     !- Vertex 1 Zcoordinate
    -22.74900214234367,       !- Vertex 2 Xcoordinate
    -58.50014749262482,       !- Vertex 2 Ycoordinate
    0,                        !- Vertex 2 Zcoordinate
    -8.507326560094953,       !- Vertex 3 Xcoordinate
    -32.10084880981594,       !- Vertex 3 Ycoordinate
    0,                        !- Vertex 3 Zcoordinate
    -8.507326560094953,       !- Vertex 4 Xcoordinate
    -32.10084880981594,       !- Vertex 4 Ycoordinate
    18.1;                     !- Vertex 4 Zcoordinate

SHADING:SITE:DETAILED,
    shade_way/265301969_2,    !- Name
    ,                         !- Transmittance Schedule Name
    autocalculate,            !- Number of Vertices
    -8.507326560094953,       !- Vertex 1 Xcoordinate
    -32.10084880981594,       !- Vertex 1 Ycoordinate
    18.1,                     !- Vertex 1 Zcoordinate
    -8.507326560094953,       !- Vertex 2 Xcoordinate
    -32.10084880981594,       !- Vertex 2 Ycoordinate
    0,                        !- Vertex 2 Zcoordinate
    -2.830913504352793,       !- Vertex 3 Xcoordinate
    -35.16334370430559,       !- Vertex 3 Ycoordinate
    0,                        !- Vertex 3 Zcoordinate
    -2.830913504352793,       !- Vertex 4 Xcoordinate
    -35.16334370430559,       !- Vertex 4 Ycoordinate
    18.1;                     !- Vertex 4 Zcoordinate

SHADING:SITE:DETAILED,
    shade_way/265301969_3,    !- Name
    ,                         !- Transmittance Schedule Name
    autocalculate,            !- Number of Vertices
    -2.830913504352793,       !- Vertex 1 Xcoordinate
    -35.16334370430559,       !- Vertex 1 Ycoordinate
    18.1,                     !- Vertex 1 Zcoordinate
    -2.830913504352793,       !- Vertex 2 Xcoordinate
    -35.16334370430559,       !- Vertex 2 Ycoordinate
    0,                        !- Vertex 2 Zcoordinate
    -1.707259e+01,            !- Vertex 3 Xcoordinate
    -6.156264e+01,            !- Vertex 3 Ycoordinate
    0,                        !- Vertex 3 Zcoordinate
    -1.707259e+01,            !- Vertex 4 Xcoordinate
    -6.156264e+01,            !- Vertex 4 Ycoordinate
    18.1;                     !- Vertex 4 Zcoordinate

SHADING:SITE:DETAILED,
    shade_way/265301969_4,    !- Name
    ,                         !- Transmittance Schedule Name
    autocalculate,            !- Number of Vertices
    -1.707259e+01,            !- Vertex 1 Xcoordinate
    -6.156264e+01,            !- Vertex 1 Ycoordinate
    18.1,                     !- Vertex 1 Zcoordinate
    -1.707259e+01,            !- Vertex 2 Xcoordinate
    -6.156264e+01,            !- Vertex 2 Ycoordinate
    0,                        !- Vertex 2 Zcoordinate
    -22.74900214234367,       !- Vertex 3 Xcoordinate
    -58.50014749262482,       !- Vertex 3 Ycoordinate
    0,                        !- Vertex 3 Zcoordinate
    -22.74900214234367,       !- Vertex 4 Xcoordinate
    -58.50014749262482,       !- Vertex 4 Ycoordinate
    18.1;                     !- Vertex 4 Zcoordinate

SHADING:SITE:DETAILED,
    shade_way/265301973_1,    !- Name
    ,                         !- Transmittance Schedule Name
    autocalculate,            !- Number of Vertices
    -8.507326560094953,       !- Vertex 1 Xcoordinate
    -32.10084880981594,       !- Vertex 1 Ycoordinate
    62.2,                     !- Vertex 1 Zcoordinate
    -8.507326560094953,       !- Vertex 2 Xcoordinate
    -32.10084880981594,       !- Vertex 2 Ycoordinate
    0,                        !- Vertex 2 Zcoordinate
    -23.28616002178751,       !- Vertex 3 Xcoordinate
    -59.50556071288884,       !- Vertex 3 Ycoordinate
    0,                        !- Vertex 3 Zcoordinate
    -23.28616002178751,       !- Vertex 4 Xcoordinate
    -59.50556071288884,       !- Vertex 4 Ycoordinate
    62.2;                     !- Vertex 4 Zcoordinate

SHADING:SITE:DETAILED,
    shade_way/265301973_2,    !- Name
    ,                         !- Transmittance Schedule Name
    autocalculate,            !- Number of Vertices
    -23.28616002178751,       !- Vertex 1 Xcoordinate
    -59.50556071288884,       !- Vertex 1 Ycoordinate
    62.2,                     !- Vertex 1 Zcoordinate
    -23.28616002178751,       !- Vertex 2 Xcoordinate
    -59.50556071288884,       !- Vertex 2 Ycoordinate
    0,                        !- Vertex 2 Zcoordinate
    -33.24764117982704,       !- Vertex 3 Xcoordinate
    -5.413343e+01,            !- Vertex 3 Ycoordinate
    0,                        !- Vertex 3 Zcoordinate
    -33.24764117982704,       !- Vertex 4 Xcoordinate
    -5.413343e+01,            !- Vertex 4 Ycoordinate
    62.2;                     !- Vertex 4 Zcoordinate

SHADING:SITE:DETAILED,
    shade_way/265301973_3,    !- Name
    ,                         !- Transmittance Schedule Name
    autocalculate,            !- Number of Vertices
    -33.24764117982704,       !- Vertex 1 Xcoordinate
    -5.413343e+01,            !- Vertex 1 Ycoordinate
    62.2,                     !- Vertex 1 Zcoordinate
    -33.24764117982704,       !- Vertex 2 Xcoordinate
    -5.413343e+01,            !- Vertex 2 Ycoordinate
    0,                        !- Vertex 2 Zcoordinate
    -1.846881e+01,            !- Vertex 3 Xcoordinate
    -26.72871573176235,       !- Vertex 3 Ycoordinate
    0,                        !- Vertex 3 Zcoordinate
    -1.846881e+01,            !- Vertex 4 Xcoordinate
    -26.72871573176235,       !- Vertex 4 Ycoordinate
    62.2;                     !- Vertex 4 Zcoordinate

SHADING:SITE:DETAILED,
    shade_way/265301973_4,    !- Name
    ,                         !- Transmittance Schedule Name
    autocalculate,            !- Number of Vertices
    -1.846881e+01,            !- Vertex 1 Xcoordinate
    -26.72871573176235,       !- Vertex 1 Ycoordinate
    62.2,                     !- Vertex 1 Zcoordinate
    -1.846881e+01,            !- Vertex 2 Xcoordinate
    -26.72871573176235,       !- Vertex 2 Ycoordinate
    0,                        !- Vertex 2 Zcoordinate
    -8.507326560094953,       !- Vertex 3 Xcoordinate
    -32.10084880981594,       !- Vertex 3 Ycoordinate
    0,                        !- Vertex 3 Zcoordinate
    -8.507326560094953,       !- Vertex 4 Xcoordinate
    -32.10084880981594,       !- Vertex 4 Ycoordinate
    62.2;                     !- Vertex 4 Zcoordinate

SHADING:SITE:DETAILED,
    shade_way/265301979_1,    !- Name
    ,                         !- Transmittance Schedule Name
    autocalculate,            !- Number of Vertices
    -38.21348025044426,       !- Vertex 1 Xcoordinate
    -5.145148e+01,            !- Vertex 1 Ycoordinate
    18.8,                     !- Vertex 1 Zcoordinate
    -38.21348025044426,       !- Vertex 2 Xcoordinate
    -5.145148e+01,            !- Vertex 2 Ycoordinate
    0,                        !- Vertex 2 Zcoordinate
    -23.43460962176323,       !- Vertex 3 Xcoordinate
    -2.404680e+01,            !- Vertex 3 Ycoordinate
    0,                        !- Vertex 3 Zcoordinate
    -23.43460962176323,       !- Vertex 4 Xcoordinate
    -2.404680e+01,            !- Vertex 4 Ycoordinate
    18.8;                     !- Vertex 4 Zcoordinate

SHADING:SITE:DETAILED,
    shade_way/265301979_2,    !- Name
    ,                         !- Transmittance Schedule Name
    autocalculate,            !- Number of Vertices
    -23.43460962176323,       !- Vertex 1 Xcoordinate
    -2.404680e+01,            !- Vertex 1 Ycoordinate
    18.8,                     !- Vertex 1 Zcoordinate
    -23.43460962176323,       !- Vertex 2 Xcoordinate
    -2.404680e+01,            !- Vertex 2 Ycoordinate
    0,                        !- Vertex 2 Zcoordinate
    -1.846225e+01,            !- Vertex 3 Xcoordinate
    -2.672823e+01,            !- Vertex 3 Ycoordinate
    0,                        !- Vertex 3 Zcoordinate
    -1.846225e+01,            !- Vertex 4 Xcoordinate
    -2.672823e+01,            !- Vertex 4 Ycoordinate
    18.8;                     !- Vertex 4 Zcoordinate

SHADING:SITE:DETAILED,
    shade_way/265301979_3,    !- Name
    ,                         !- Transmittance Schedule Name
    autocalculate,            !- Number of Vertices
    -1.846225e+01,            !- Vertex 1 Xcoordinate
    -2.672823e+01,            !- Vertex 1 Ycoordinate
    18.8,                     !- Vertex 1 Zcoordinate
    -1.846225e+01,            !- Vertex 2 Xcoordinate
    -2.672823e+01,            !- Vertex 2 Ycoordinate
    0,                        !- Vertex 2 Zcoordinate
    -33.24111940956209,       !- Vertex 3 Xcoordinate
    -54.13290713727474,       !- Vertex 3 Ycoordinate
    0,                        !- Vertex 3 Zcoordinate
    -33.24111940956209,       !- Vertex 4 Xcoordinate
    -54.13290713727474,       !- Vertex 4 Ycoordinate
    18.8;                     !- Vertex 4 Zcoordinate

SHADING:SITE:DETAILED,
    shade_way/265301979_4,    !- Name
    ,                         !- Transmittance Schedule Name
    autocalculate,            !- Number of Vertices
    -33.24111940956209,       !- Vertex 1 Xcoordinate
    -54.13290713727474,       !- Vertex 1 Ycoordinate
    18.8,                     !- Vertex 1 Zcoordinate
    -33.24111940956209,       !- Vertex 2 Xcoordinate
    -54.13290713727474,       !- Vertex 2 Ycoordinate
    0,                        !- Vertex 2 Zcoordinate
    -38.21348025044426,       !- Vertex 3 Xcoordinate
    -5.145148e+01,            !- Vertex 3 Ycoordinate
    0,                        !- Vertex 3 Zcoordinate
    -38.21348025044426,       !- Vertex 4 Xcoordinate
    -5.145148e+01,            !- Vertex 4 Ycoordinate
    18.8;                     !- Vertex 4 Zcoordinate

SHADING:SITE:DETAILED,
    shade_way/265301986_1,    !- Name
    ,                         !- Transmittance Schedule Name
    autocalculate,            !- Number of Vertices
    -46.7284749437822,        !- Vertex 1 Xcoordinate
    -41.68189811427146,       !- Vertex 1 Ycoordinate
    18,                       !- Vertex 1 Zcoordinate
    -46.7284749437822,        !- Vertex 2 Xcoordinate
    -41.68189811427146,       !- Vertex 2 Ycoordinate
    0,                        !- Vertex 2 Zcoordinate
    -34.11390966037288,       !- Vertex 3 Xcoordinate
    -1.828615e+01,            !- Vertex 3 Ycoordinate
    0,                        !- Vertex 3 Zcoordinate
    -34.11390966037288,       !- Vertex 4 Xcoordinate
    -1.828615e+01,            !- Vertex 4 Ycoordinate
    18;                       !- Vertex 4 Zcoordinate

SHADING:SITE:DETAILED,
    shade_way/265301986_2,    !- Name
    ,                         !- Transmittance Schedule Name
    autocalculate,            !- Number of Vertices
    -34.11390966037288,       !- Vertex 1 Xcoordinate
    -1.828615e+01,            !- Vertex 1 Ycoordinate
    18,                       !- Vertex 1 Zcoordinate
    -34.11390966037288,       !- Vertex 2 Xcoordinate
    -1.828615e+01,            !- Vertex 2 Ycoordinate
    0,                        !- Vertex 2 Zcoordinate
    -2.343363e+01,            !- Vertex 3 Xcoordinate
    -24.04442903958261,       !- Vertex 3 Ycoordinate
    0,                        !- Vertex 3 Zcoordinate
    -2.343363e+01,            !- Vertex 4 Xcoordinate
    -24.04442903958261,       !- Vertex 4 Ycoordinate
    18;                       !- Vertex 4 Zcoordinate

SHADING:SITE:DETAILED,
    shade_way/265301986_3,    !- Name
    ,                         !- Transmittance Schedule Name
    autocalculate,            !- Number of Vertices
    -2.343363e+01,            !- Vertex 1 Xcoordinate
    -24.04442903958261,       !- Vertex 1 Ycoordinate
    18,                       !- Vertex 1 Zcoordinate
    -2.343363e+01,            !- Vertex 2 Xcoordinate
    -24.04442903958261,       !- Vertex 2 Ycoordinate
    0,                        !- Vertex 2 Zcoordinate
    -36.04783225385472,       !- Vertex 3 Xcoordinate
    -47.44073507282883,       !- Vertex 3 Ycoordinate
    0,                        !- Vertex 3 Zcoordinate
    -36.04783225385472,       !- Vertex 4 Xcoordinate
    -47.44073507282883,       !- Vertex 4 Ycoordinate
    18;                       !- Vertex 4 Zcoordinate

SHADING:SITE:DETAILED,
    shade_way/265301986_4,    !- Name
    ,                         !- Transmittance Schedule Name
    autocalculate,            !- Number of Vertices
    -36.04783225385472,       !- Vertex 1 Xcoordinate
    -47.44073507282883,       !- Vertex 1 Ycoordinate
    18,                       !- Vertex 1 Zcoordinate
    -36.04783225385472,       !- Vertex 2 Xcoordinate
    -47.44073507282883,       !- Vertex 2 Ycoordinate
    0,                        !- Vertex 2 Zcoordinate
    -46.7284749437822,        !- Vertex 3 Xcoordinate
    -41.68189811427146,       !- Vertex 3 Ycoordinate
    0,                        !- Vertex 3 Zcoordinate
    -46.7284749437822,        !- Vertex 4 Xcoordinate
    -41.68189811427146,       !- Vertex 4 Ycoordinate
    18;                       !- Vertex 4 Zcoordinate

SHADING:SITE:DETAILED,
    shade_way/265301941_1,    !- Name
    ,                         !- Transmittance Schedule Name
    autocalculate,            !- Number of Vertices
    2.295366491074674,        !- Vertex 1 Xcoordinate
    -17.16306620836258,       !- Vertex 1 Ycoordinate
    17.5,                     !- Vertex 1 Zcoordinate
    2.295366491074674,        !- Vertex 2 Xcoordinate
    -17.16306620836258,       !- Vertex 2 Ycoordinate
    0,                        !- Vertex 2 Zcoordinate
    17.90743878937792,        !- Vertex 3 Xcoordinate
    11.925351839512587,       !- Vertex 3 Ycoordinate
    0,                        !- Vertex 3 Zcoordinate
    17.90743878937792,        !- Vertex 4 Xcoordinate
    11.925351839512587,       !- Vertex 4 Ycoordinate
    17.5;                     !- Vertex 4 Zcoordinate

SHADING:SITE:DETAILED,
    shade_way/265301941_2,    !- Name
    ,                         !- Transmittance Schedule Name
    autocalculate,            !- Number of Vertices
    17.90743878937792,        !- Vertex 1 Xcoordinate
    11.925351839512587,       !- Vertex 1 Ycoordinate
    17.5,                     !- Vertex 1 Zcoordinate
    17.90743878937792,        !- Vertex 2 Xcoordinate
    11.925351839512587,       !- Vertex 2 Ycoordinate
    0,                        !- Vertex 2 Zcoordinate
    24.688859257963486,       !- Vertex 3 Xcoordinate
    8.285428969189525,        !- Vertex 3 Ycoordinate
    0,                        !- Vertex 3 Zcoordinate
    24.688859257963486,       !- Vertex 4 Xcoordinate
    8.285428969189525,        !- Vertex 4 Ycoordinate
    17.5;                     !- Vertex 4 Zcoordinate

SHADING:SITE:DETAILED,
    shade_way/265301941_3,    !- Name
    ,                         !- Transmittance Schedule Name
    autocalculate,            !- Number of Vertices
    24.688859257963486,       !- Vertex 1 Xcoordinate
    8.285428969189525,        !- Vertex 1 Ycoordinate
    17.5,                     !- Vertex 1 Zcoordinate
    24.688859257963486,       !- Vertex 2 Xcoordinate
    8.285428969189525,        !- Vertex 2 Ycoordinate
    0,                        !- Vertex 2 Zcoordinate
    9.07692542404402,         !- Vertex 3 Xcoordinate
    -2.080280e+01,            !- Vertex 3 Ycoordinate
    0,                        !- Vertex 3 Zcoordinate
    9.07692542404402,         !- Vertex 4 Xcoordinate
    -2.080280e+01,            !- Vertex 4 Ycoordinate
    17.5;                     !- Vertex 4 Zcoordinate

SHADING:SITE:DETAILED,
    shade_way/265301941_4,    !- Name
    ,                         !- Transmittance Schedule Name
    autocalculate,            !- Number of Vertices
    9.07692542404402,         !- Vertex 1 Xcoordinate
    -2.080280e+01,            !- Vertex 1 Ycoordinate
    17.5,                     !- Vertex 1 Zcoordinate
    9.07692542404402,         !- Vertex 2 Xcoordinate
    -2.080280e+01,            !- Vertex 2 Ycoordinate
    0,                        !- Vertex 2 Zcoordinate
    2.295366491074674,        !- Vertex 3 Xcoordinate
    -17.16306620836258,       !- Vertex 3 Ycoordinate
    0,                        !- Vertex 3 Zcoordinate
    2.295366491074674,        !- Vertex 4 Xcoordinate
    -17.16306620836258,       !- Vertex 4 Ycoordinate
    17.5;                     !- Vertex 4 Zcoordinate

SHADING:SITE:DETAILED,
    shade_way/265302050_1,    !- Name
    ,                         !- Transmittance Schedule Name
    autocalculate,            !- Number of Vertices
    17.90743878937792,        !- Vertex 1 Xcoordinate
    11.925351839512587,       !- Vertex 1 Ycoordinate
    17.9,                     !- Vertex 1 Zcoordinate
    17.90743878937792,        !- Vertex 2 Xcoordinate
    11.925351839512587,       !- Vertex 2 Ycoordinate
    0,                        !- Vertex 2 Zcoordinate
    2.312076300615445,        !- Vertex 3 Xcoordinate
    -1.713200e+01,            !- Vertex 3 Ycoordinate
    0,                        !- Vertex 3 Zcoordinate
    2.312076300615445,        !- Vertex 4 Xcoordinate
    -1.713200e+01,            !- Vertex 4 Ycoordinate
    17.9;                     !- Vertex 4 Zcoordinate

SHADING:SITE:DETAILED,
    shade_way/265302050_2,    !- Name
    ,                         !- Transmittance Schedule Name
    autocalculate,            !- Number of Vertices
    2.312076300615445,        !- Vertex 1 Xcoordinate
    -1.713200e+01,            !- Vertex 1 Ycoordinate
    17.9,                     !- Vertex 1 Zcoordinate
    2.312076300615445,        !- Vertex 2 Xcoordinate
    -1.713200e+01,            !- Vertex 2 Ycoordinate
    0,                        !- Vertex 2 Zcoordinate
    -3.696230811881833,       !- Vertex 3 Xcoordinate
    -1.390755e+01,            !- Vertex 3 Ycoordinate
    0,                        !- Vertex 3 Zcoordinate
    -3.696230811881833,       !- Vertex 4 Xcoordinate
    -1.390755e+01,            !- Vertex 4 Ycoordinate
    17.9;                     !- Vertex 4 Zcoordinate

SHADING:SITE:DETAILED,
    shade_way/265302050_3,    !- Name
    ,                         !- Transmittance Schedule Name
    autocalculate,            !- Number of Vertices
    -3.696230811881833,       !- Vertex 1 Xcoordinate
    -1.390755e+01,            !- Vertex 1 Ycoordinate
    17.9,                     !- Vertex 1 Zcoordinate
    -3.696230811881833,       !- Vertex 2 Xcoordinate
    -1.390755e+01,            !- Vertex 2 Ycoordinate
    0,                        !- Vertex 2 Zcoordinate
    11.899131673504598,       !- Vertex 3 Xcoordinate
    15.149800631217659,       !- Vertex 3 Ycoordinate
    0,                        !- Vertex 3 Zcoordinate
    11.899131673504598,       !- Vertex 4 Xcoordinate
    15.149800631217659,       !- Vertex 4 Ycoordinate
    17.9;                     !- Vertex 4 Zcoordinate

SHADING:SITE:DETAILED,
    shade_way/265302050_4,    !- Name
    ,                         !- Transmittance Schedule Name
    autocalculate,            !- Number of Vertices
    11.899131673504598,       !- Vertex 1 Xcoordinate
    15.149800631217659,       !- Vertex 1 Ycoordinate
    17.9,                     !- Vertex 1 Zcoordinate
    11.899131673504598,       !- Vertex 2 Xcoordinate
    15.149800631217659,       !- Vertex 2 Ycoordinate
    0,                        !- Vertex 2 Zcoordinate
    17.90743878937792,        !- Vertex 3 Xcoordinate
    11.925351839512587,       !- Vertex 3 Ycoordinate
    0,                        !- Vertex 3 Zcoordinate
    17.90743878937792,        !- Vertex 4 Xcoordinate
    11.925351839512587,       !- Vertex 4 Ycoordinate
    17.9;                     !- Vertex 4 Zcoordinate

SHADING:SITE:DETAILED,
    shade_way/265301975_1,    !- Name
    ,                         !- Transmittance Schedule Name
    autocalculate,            !- Number of Vertices
    10.639581248164177,       !- Vertex 1 Xcoordinate
    15.819636012427509,       !- Vertex 1 Ycoordinate
    47.7,                     !- Vertex 1 Zcoordinate
    10.639581248164177,       !- Vertex 2 Xcoordinate
    15.819636012427509,       !- Vertex 2 Ycoordinate
    0,                        !- Vertex 2 Zcoordinate
    23.56971413968131,        !- Vertex 3 Xcoordinate
    39.89076594170183,        !- Vertex 3 Ycoordinate
    0,                        !- Vertex 3 Zcoordinate
    23.56971413968131,        !- Vertex 4 Xcoordinate
    39.89076594170183,        !- Vertex 4 Ycoordinate
    47.7;                     !- Vertex 4 Zcoordinate

SHADING:SITE:DETAILED,
    shade_way/265301975_2,    !- Name
    ,                         !- Transmittance Schedule Name
    autocalculate,            !- Number of Vertices
    23.56971413968131,        !- Vertex 1 Xcoordinate
    39.89076594170183,        !- Vertex 1 Ycoordinate
    47.7,                     !- Vertex 1 Zcoordinate
    23.56971413968131,        !- Vertex 2 Xcoordinate
    39.89076594170183,        !- Vertex 2 Ycoordinate
    0,                        !- Vertex 2 Zcoordinate
    37.61831891047768,        !- Vertex 3 Xcoordinate
    32.34433831553906,        !- Vertex 3 Ycoordinate
    0,                        !- Vertex 3 Zcoordinate
    37.61831891047768,        !- Vertex 4 Xcoordinate
    32.34433831553906,        !- Vertex 4 Ycoordinate
    47.7;                     !- Vertex 4 Zcoordinate

SHADING:SITE:DETAILED,
    shade_way/265301975_3,    !- Name
    ,                         !- Transmittance Schedule Name
    autocalculate,            !- Number of Vertices
    37.61831891047768,        !- Vertex 1 Xcoordinate
    32.34433831553906,        !- Vertex 1 Ycoordinate
    47.7,                     !- Vertex 1 Zcoordinate
    37.61831891047768,        !- Vertex 2 Xcoordinate
    32.34433831553906,        !- Vertex 2 Ycoordinate
    0,                        !- Vertex 2 Zcoordinate
    24.68835089460481,        !- Vertex 3 Xcoordinate
    8.273236775770783,        !- Vertex 3 Ycoordinate
    0,                        !- Vertex 3 Zcoordinate
    24.68835089460481,        !- Vertex 4 Xcoordinate
    8.273236775770783,        !- Vertex 4 Ycoordinate
    47.7;                     !- Vertex 4 Zcoordinate

SHADING:SITE:DETAILED,
    shade_way/265301975_4,    !- Name
    ,                         !- Transmittance Schedule Name
    autocalculate,            !- Number of Vertices
    24.68835089460481,        !- Vertex 1 Xcoordinate
    8.273236775770783,        !- Vertex 1 Ycoordinate
    47.7,                     !- Vertex 1 Zcoordinate
    24.68835089460481,        !- Vertex 2 Xcoordinate
    8.273236775770783,        !- Vertex 2 Ycoordinate
    0,                        !- Vertex 2 Zcoordinate
    10.639581248164177,       !- Vertex 3 Xcoordinate
    15.819636012427509,       !- Vertex 3 Ycoordinate
    0,                        !- Vertex 3 Zcoordinate
    10.639581248164177,       !- Vertex 4 Xcoordinate
    15.819636012427509,       !- Vertex 4 Ycoordinate
    47.7;                     !- Vertex 4 Zcoordinate

SHADING:SITE:DETAILED,
    shade_way/265302004_1,    !- Name
    ,                         !- Transmittance Schedule Name
    autocalculate,            !- Number of Vertices
    10.638819595333189,       !- Vertex 1 Xcoordinate
    15.816945527680218,       !- Vertex 1 Ycoordinate
    65.4,                     !- Vertex 1 Zcoordinate
    10.638819595333189,       !- Vertex 2 Xcoordinate
    15.816945527680218,       !- Vertex 2 Ycoordinate
    0,                        !- Vertex 2 Zcoordinate
    -8.48695037770085,        !- Vertex 3 Xcoordinate
    26.09016302973032,        !- Vertex 3 Ycoordinate
    0,                        !- Vertex 3 Zcoordinate
    -8.48695037770085,        !- Vertex 4 Xcoordinate
    26.09016302973032,        !- Vertex 4 Ycoordinate
    65.4;                     !- Vertex 4 Zcoordinate

SHADING:SITE:DETAILED,
    shade_way/265302004_2,    !- Name
    ,                         !- Transmittance Schedule Name
    autocalculate,            !- Number of Vertices
    -8.48695037770085,        !- Vertex 1 Xcoordinate
    26.09016302973032,        !- Vertex 1 Ycoordinate
    65.4,                     !- Vertex 1 Zcoordinate
    -8.48695037770085,        !- Vertex 2 Xcoordinate
    26.09016302973032,        !- Vertex 2 Ycoordinate
    0,                        !- Vertex 2 Zcoordinate
    4.454343359451741,        !- Vertex 3 Xcoordinate
    50.183343743905425,       !- Vertex 3 Ycoordinate
    0,                        !- Vertex 3 Zcoordinate
    4.454343359451741,        !- Vertex 4 Xcoordinate
    50.183343743905425,       !- Vertex 4 Ycoordinate
    65.4;                     !- Vertex 4 Zcoordinate

SHADING:SITE:DETAILED,
    shade_way/265302004_3,    !- Name
    ,                         !- Transmittance Schedule Name
    autocalculate,            !- Number of Vertices
    4.454343359451741,        !- Vertex 1 Xcoordinate
    50.183343743905425,       !- Vertex 1 Ycoordinate
    65.4,                     !- Vertex 1 Zcoordinate
    4.454343359451741,        !- Vertex 2 Xcoordinate
    50.183343743905425,       !- Vertex 2 Ycoordinate
    0,                        !- Vertex 2 Zcoordinate
    23.58025620179251,        !- Vertex 3 Xcoordinate
    39.910170409828424,       !- Vertex 3 Ycoordinate
    0,                        !- Vertex 3 Zcoordinate
    23.58025620179251,        !- Vertex 4 Xcoordinate
    39.910170409828424,       !- Vertex 4 Ycoordinate
    65.4;                     !- Vertex 4 Zcoordinate

SHADING:SITE:DETAILED,
    shade_way/265302004_4,    !- Name
    ,                         !- Transmittance Schedule Name
    autocalculate,            !- Number of Vertices
    23.58025620179251,        !- Vertex 1 Xcoordinate
    39.910170409828424,       !- Vertex 1 Ycoordinate
    65.4,                     !- Vertex 1 Zcoordinate
    23.58025620179251,        !- Vertex 2 Xcoordinate
    39.910170409828424,       !- Vertex 2 Ycoordinate
    0,                        !- Vertex 2 Zcoordinate
    10.638819595333189,       !- Vertex 3 Xcoordinate
    15.816945527680218,       !- Vertex 3 Ycoordinate
    0,                        !- Vertex 3 Zcoordinate
    10.638819595333189,       !- Vertex 4 Xcoordinate
    15.816945527680218,       !- Vertex 4 Ycoordinate
    65.4;                     !- Vertex 4 Zcoordinate

SHADING:SITE:DETAILED,
    shade_way/265301962_1,    !- Name
    ,                         !- Transmittance Schedule Name
    autocalculate,            !- Number of Vertices
    -15.84591604815796,       !- Vertex 1 Xcoordinate
    -7.366770e+00,            !- Vertex 1 Ycoordinate
    17.7,                     !- Vertex 1 Zcoordinate
    -15.84591604815796,       !- Vertex 2 Xcoordinate
    -7.366770e+00,            !- Vertex 2 Ycoordinate
    0,                        !- Vertex 2 Zcoordinate
    -2.561044e-01,            !- Vertex 3 Xcoordinate
    21.67384821549058,        !- Vertex 3 Ycoordinate
    0,                        !- Vertex 3 Zcoordinate
    -2.561044e-01,            !- Vertex 4 Xcoordinate
    21.67384821549058,        !- Vertex 4 Ycoordinate
    17.7;                     !- Vertex 4 Zcoordinate

SHADING:SITE:DETAILED,
    shade_way/265301962_2,    !- Name
    ,                         !- Transmittance Schedule Name
    autocalculate,            !- Number of Vertices
    -2.561044e-01,            !- Vertex 1 Xcoordinate
    21.67384821549058,        !- Vertex 1 Ycoordinate
    17.7,                     !- Vertex 1 Zcoordinate
    -2.561044e-01,            !- Vertex 2 Xcoordinate
    21.67384821549058,        !- Vertex 2 Ycoordinate
    0,                        !- Vertex 2 Zcoordinate
    6.050847993697971,        !- Vertex 3 Xcoordinate
    18.28781704697758,        !- Vertex 3 Ycoordinate
    0,                        !- Vertex 3 Zcoordinate
    6.050847993697971,        !- Vertex 4 Xcoordinate
    18.28781704697758,        !- Vertex 4 Ycoordinate
    17.7;                     !- Vertex 4 Zcoordinate

SHADING:SITE:DETAILED,
    shade_way/265301962_3,    !- Name
    ,                         !- Transmittance Schedule Name
    autocalculate,            !- Number of Vertices
    6.050847993697971,        !- Vertex 1 Xcoordinate
    18.28781704697758,        !- Vertex 1 Ycoordinate
    17.7,                     !- Vertex 1 Zcoordinate
    6.050847993697971,        !- Vertex 2 Xcoordinate
    18.28781704697758,        !- Vertex 2 Ycoordinate
    0,                        !- Vertex 2 Zcoordinate
    -9.539213286945596,       !- Vertex 3 Xcoordinate
    -1.075248e+01,            !- Vertex 3 Ycoordinate
    0,                        !- Vertex 3 Zcoordinate
    -9.539213286945596,       !- Vertex 4 Xcoordinate
    -1.075248e+01,            !- Vertex 4 Ycoordinate
    17.7;                     !- Vertex 4 Zcoordinate

SHADING:SITE:DETAILED,
    shade_way/265301962_4,    !- Name
    ,                         !- Transmittance Schedule Name
    autocalculate,            !- Number of Vertices
    -9.539213286945596,       !- Vertex 1 Xcoordinate
    -1.075248e+01,            !- Vertex 1 Ycoordinate
    17.7,                     !- Vertex 1 Zcoordinate
    -9.539213286945596,       !- Vertex 2 Xcoordinate
    -1.075248e+01,            !- Vertex 2 Ycoordinate
    0,                        !- Vertex 2 Zcoordinate
    -15.84591604815796,       !- Vertex 3 Xcoordinate
    -7.366770e+00,            !- Vertex 3 Ycoordinate
    0,                        !- Vertex 3 Zcoordinate
    -15.84591604815796,       !- Vertex 4 Xcoordinate
    -7.366770e+00,            !- Vertex 4 Ycoordinate
    17.7;                     !- Vertex 4 Zcoordinate

SHADING:SITE:DETAILED,
    shade_way/265302028_1,    !- Name
    ,                         !- Transmittance Schedule Name
    autocalculate,            !- Number of Vertices
    -22.9852633230621,        !- Vertex 1 Xcoordinate
    33.87979131098837,        !- Vertex 1 Ycoordinate
    66.2,                     !- Vertex 1 Zcoordinate
    -22.9852633230621,        !- Vertex 2 Xcoordinate
    33.87979131098837,        !- Vertex 2 Ycoordinate
    0,                        !- Vertex 2 Zcoordinate
    -10.03918652003631,       !- Vertex 3 Xcoordinate
    57.97593209706247,        !- Vertex 3 Ycoordinate
    0,                        !- Vertex 3 Zcoordinate
    -10.03918652003631,       !- Vertex 4 Xcoordinate
    57.97593209706247,        !- Vertex 4 Ycoordinate
    66.2;                     !- Vertex 4 Zcoordinate

SHADING:SITE:DETAILED,
    shade_way/265302028_2,    !- Name
    ,                         !- Transmittance Schedule Name
    autocalculate,            !- Number of Vertices
    -10.03918652003631,       !- Vertex 1 Xcoordinate
    57.97593209706247,        !- Vertex 1 Ycoordinate
    66.2,                     !- Vertex 1 Zcoordinate
    -10.03918652003631,       !- Vertex 2 Xcoordinate
    57.97593209706247,        !- Vertex 2 Ycoordinate
    0,                        !- Vertex 2 Zcoordinate
    4.46682010020595,         !- Vertex 3 Xcoordinate
    50.18224741425365,        !- Vertex 3 Ycoordinate
    0,                        !- Vertex 3 Zcoordinate
    4.46682010020595,         !- Vertex 4 Xcoordinate
    50.18224741425365,        !- Vertex 4 Ycoordinate
    66.2;                     !- Vertex 4 Zcoordinate

SHADING:SITE:DETAILED,
    shade_way/265302028_3,    !- Name
    ,                         !- Transmittance Schedule Name
    autocalculate,            !- Number of Vertices
    4.46682010020595,         !- Vertex 1 Xcoordinate
    50.18224741425365,        !- Vertex 1 Ycoordinate
    66.2,                     !- Vertex 1 Zcoordinate
    4.46682010020595,         !- Vertex 2 Xcoordinate
    50.18224741425365,        !- Vertex 2 Ycoordinate
    0,                        !- Vertex 2 Zcoordinate
    -8.479790719575249,       !- Vertex 3 Xcoordinate
    26.086196385324,          !- Vertex 3 Ycoordinate
    0,                        !- Vertex 3 Zcoordinate
    -8.479790719575249,       !- Vertex 4 Xcoordinate
    26.086196385324,          !- Vertex 4 Ycoordinate
    66.2;                     !- Vertex 4 Zcoordinate

SHADING:SITE:DETAILED,
    shade_way/265302028_4,    !- Name
    ,                         !- Transmittance Schedule Name
    autocalculate,            !- Number of Vertices
    -8.479790719575249,       !- Vertex 1 Xcoordinate
    26.086196385324,          !- Vertex 1 Ycoordinate
    66.2,                     !- Vertex 1 Zcoordinate
    -8.479790719575249,       !- Vertex 2 Xcoordinate
    26.086196385324,          !- Vertex 2 Ycoordinate
    0,                        !- Vertex 2 Zcoordinate
    -22.9852633230621,        !- Vertex 3 Xcoordinate
    33.87979131098837,        !- Vertex 3 Ycoordinate
    0,                        !- Vertex 3 Zcoordinate
    -22.9852633230621,        !- Vertex 4 Xcoordinate
    33.87979131098837,        !- Vertex 4 Ycoordinate
    66.2;                     !- Vertex 4 Zcoordinate

PEOPLE,
    People_way/265301958_F0_whole,    !- Name
    way/265301958_F0_whole,    !- Zone or ZoneList or Space or SpaceList Name
    Occupancy_Schedule_SmallOffice,    !- Number of People Schedule Name
    People,                   !- Number of People Calculation Method
    10.001393379778488,       !- Number of People
    ,                         !- People per Floor Area
    ,                         !- Floor Area per Person
    0.3,                      !- Fraction Radiant
    autocalculate,            !- Sensible Heat Fraction
    Activity_Level,           !- Activity Level Schedule Name
    3.82e-08,                 !- Carbon Dioxide Generation Rate
    No,                       !- Enable ASHRAE 55 Comfort Warnings
    ZoneAveraged,             !- Mean Radiant Temperature Calculation Type
    ,                         !- Surface NameAngle Factor List Name
    ,                         !- Work Efficiency Schedule Name
    ClothingInsulationSchedule,    !- Clothing Insulation Calculation Method
    ,                         !- Clothing Insulation Calculation Method Schedule Name
    ,                         !- Clothing Insulation Schedule Name
    ,                         !- Air Velocity Schedule Name
    ,                         !- Thermal Comfort Model 1 Type
    ,                         !- Thermal Comfort Model 2 Type
    ,                         !- Thermal Comfort Model 3 Type
    ,                         !- Thermal Comfort Model 4 Type
    ,                         !- Thermal Comfort Model 5 Type
    ,                         !- Thermal Comfort Model 6 Type
    ,                         !- Thermal Comfort Model 7 Type
    ,                         !- Ankle Level Air Velocity Schedule Name
    15.56,                    !- Cold Stress Temperature Threshold
    30;                       !- Heat Stress Temperature Threshold

LIGHTS,
    Lights_way/265301958_F0_whole,    !- Name
    way/265301958_F0_whole,    !- Zone or ZoneList or Space or SpaceList Name
    Lighting_Schedule_SmallOffice,    !- Schedule Name
    LightingLevel,            !- Design Level Calculation Method
    1999.4865656000188,       !- Lighting Level
    ,                         !- Watts per Zone Floor Area
    ,                         !- Watts per Person
    0,                        !- Return Air Fraction
    0.42,                     !- Fraction Radiant
    0,                        !- Fraction Visible
    1,                        !- Fraction Replaceable
    General,                  !- EndUse Subcategory
    No,                       !- Return Air Fraction Calculated from Plenum Temperature
    0,                        !- Return Air Fraction Function of Plenum Temperature Coefficient 1
    0;                        !- Return Air Fraction Function of Plenum Temperature Coefficient 2

ELECTRICEQUIPMENT,
    Equipment_way/265301958_F0_whole,    !- Name
    way/265301958_F0_whole,    !- Zone or ZoneList or Space or SpaceList Name
    Equipment_Schedule_SmallOffice,    !- Schedule Name
    EquipmentLevel,           !- Design Level Calculation Method
    1259.8995273948074,       !- Design Level
    ,                         !- Watts per Zone Floor Area
    ,                         !- Watts per Person
    0,                        !- Fraction Latent
    0.5,                      !- Fraction Radiant
    0,                        !- Fraction Lost
    General;                  !- EndUse Subcategory

ZONEINFILTRATION:DESIGNFLOWRATE,
    Infiltration_way/265301958_F0_whole,    !- Name
    way/265301958_F0_whole,    !- Zone or ZoneList or Space or SpaceList Name
    Infiltration_Schedule_SmallOffice,    !- Schedule Name
    Flow/ExteriorWallArea,    !- Design Flow Rate Calculation Method
    ,                         !- Design Flow Rate
    ,                         !- Flow Rate per Floor Area
    0.000285,                 !- Flow Rate per Exterior Surface Area
    ,                         !- Air Changes per Hour
    1,                        !- Constant Term Coefficient
    0,                        !- Temperature Term Coefficient
    0,                        !- Velocity Term Coefficient
    0;                        !- Velocity Squared Term Coefficient

HVACTEMPLATE:THERMOSTAT,
    way/265301958_F0_whole_Thermostat,    !- Name
    Heating_Setpoint_SmallOffice,    !- Heating Setpoint Schedule Name
    ,                         !- Constant Heating Setpoint
    Cooling_Setpoint_SmallOffice;    !- Cooling Setpoint Schedule Name

HVACTEMPLATE:ZONE:UNITARY,
    way/265301958_F0_whole,    !- Zone Name
    way/265301958_F0_whole_HP_Sys,    !- Template Unitary System Name
    way/265301958_F0_whole_Thermostat,    !- Template Thermostat Name
    autosize,                 !- Supply Air Maximum Flow Rate
    ,                         !- Zone Heating Sizing Factor
    ,                         !- Zone Cooling Sizing Factor
    Flow/Person,              !- Outdoor Air Method
    0.01,                     !- Outdoor Air Flow Rate per Person
    0.0,                      !- Outdoor Air Flow Rate per Zone Floor Area
    0,                        !- Outdoor Air Flow Rate per Zone
    ,                         !- Supply Plenum Name
    ,                         !- Return Plenum Name
    None,                     !- Baseboard Heating Type
    ,                         !- Baseboard Heating Availability Schedule Name
    autosize,                 !- Baseboard Heating Capacity
    SystemSupplyAirTemperature,    !- Zone Cooling Design Supply Air Temperature Input Method
    12.8,                     !- Zone Cooling Design Supply Air Temperature
    11.11,                    !- Zone Cooling Design Supply Air Temperature Difference
    SystemSupplyAirTemperature,    !- Zone Heating Design Supply Air Temperature Input Method
    50,                       !- Zone Heating Design Supply Air Temperature
    30;                       !- Zone Heating Design Supply Air Temperature Difference

HVACTEMPLATE:SYSTEM:UNITARYHEATPUMP:AIRTOAIR,
    way/265301958_F0_whole_HP_Sys,    !- Name
    ,                         !- System Availability Schedule Name
    way/265301958_F0_whole,    !- Control Zone or Thermostat Location Name
    autosize,                 !- Cooling Supply Air Flow Rate
    autosize,                 !- Heating Supply Air Flow Rate
    autosize,                 !- No Load Supply Air Flow Rate
    ,                         !- Supply Fan Operating Mode Schedule Name
    BlowThrough,              !- Supply Fan Placement
    0.55575,                  !- Supply Fan Total Efficiency
    622.5,                    !- Supply Fan Delta Pressure
    0.9,                      !- Supply Fan Motor Efficiency
    1.0,                      !- Supply Fan Motor in Air Stream Fraction
    SingleSpeedDX,            !- Cooling Coil Type
    ,                         !- Cooling Coil Availability Schedule Name
    12.8,                     !- Cooling Design Supply Air Temperature
    autosize,                 !- Cooling Coil Gross Rated Total Capacity
    autosize,                 !- Cooling Coil Gross Rated Sensible Heat Ratio
    4.52884559038969,         !- Cooling Coil Gross Rated COP
    SingleSpeedDXHeatPump,    !- Heat Pump Heating Coil Type
    ,                         !- Heat Pump Heating Coil Availability Schedule Name
    50.0,                     !- Heating Design Supply Air Temperature
    autosize,                 !- Heat Pump Heating Coil Gross Rated Capacity
    2.75,                     !- Heat Pump Heating Coil Rated COP
    -8,                       !- Heat Pump Heating Minimum Outdoor DryBulb Temperature
    5,                        !- Heat Pump Defrost Maximum Outdoor DryBulb Temperature
    ReverseCycle,             !- Heat Pump Defrost Strategy
    Timed,                    !- Heat Pump Defrost Control
    0.058333,                 !- Heat Pump Defrost Time Period Fraction
    Gas,                      !- Supplemental Heating Coil Type
    ,                         !- Supplemental Heating Coil Availability Schedule Name
    autosize,                 !- Supplemental Heating Coil Capacity
    21,                       !- Supplemental Heating Coil Maximum Outdoor DryBulb Temperature
    0.84,                     !- Supplemental Gas Heating Coil Efficiency
    0.0,                      !- Supplemental Gas Heating Coil Parasitic Electric Load
    autosize,                 !- Maximum Outdoor Air Flow Rate
    autosize,                 !- Minimum Outdoor Air Flow Rate
    ,                         !- Minimum Outdoor Air Schedule Name
    DifferentialDryBulb,      !- Economizer Type
    NoLockout,                !- Economizer Lockout
    ,                         !- Economizer Maximum Limit DryBulb Temperature
    ,                         !- Economizer Maximum Limit Enthalpy
    ,                         !- Economizer Maximum Limit Dewpoint Temperature
    ,                         !- Economizer Minimum Limit DryBulb Temperature
    ,                         !- Supply Plenum Name
    ,                         !- Return Plenum Name
    StayOff,                  !- Night Cycle Control
    ,                         !- Night Cycle Control Zone Name
    None,                     !- Heat Recovery Type
    0.70,                     !- Sensible Heat Recovery Effectiveness
    0.65,                     !- Latent Heat Recovery Effectiveness
    None,                     !- Humidifier Type
    ,                         !- Humidifier Availability Schedule Name
    1e-06,                    !- Humidifier Rated Capacity
    autosize,                 !- Humidifier Rated Electric Power
    ,                         !- Humidifier Control Zone Name
    30,                       !- Humidifier Setpoint
    No,                       !- Return Fan
    0.7,                      !- Return Fan Total Efficiency
    500,                      !- Return Fan Delta Pressure
    0.9,                      !- Return Fan Motor Efficiency
    1.0;                      !- Return Fan Motor in Air Stream Fraction

WATERHEATER:MIXED,
    DHW_Heater_SmallOffice,    !- Name
    0.3785,                   !- Tank Volume
    OpenUBEM_DHW_Setpoint,    !- Setpoint Temperature Schedule Name
    0,                        !- Deadband Temperature Difference
    ,                         !- Maximum Temperature Limit
    Cycle,                    !- Heater Control Type
    1000,                     !- Heater Maximum Capacity
    ,                         !- Heater Minimum Capacity
    0,                        !- Heater Ignition Minimum Flow Rate
    0,                        !- Heater Ignition Delay
    Electricity,              !- Heater Fuel Type
    1,                        !- Heater Thermal Efficiency
    ,                         !- Part Load Factor Curve Name
    0,                        !- Off Cycle Parasitic Fuel Consumption Rate
    Electricity,              !- Off Cycle Parasitic Fuel Type
    0,                        !- Off Cycle Parasitic Heat Fraction to Tank
    0,                        !- On Cycle Parasitic Fuel Consumption Rate
    ,                         !- On Cycle Parasitic Fuel Type
    0,                        !- On Cycle Parasitic Heat Fraction to Tank
    Zone,                     !- Ambient Temperature Indicator
    ,                         !- Ambient Temperature Schedule Name
    way/265301958_F0_whole,    !- Ambient Temperature Zone Name
    ,                         !- Ambient Temperature Outdoor Air Node Name
    2.01,                     !- Off Cycle Loss Coefficient to Ambient Temperature
    1,                        !- Off Cycle Loss Fraction to Zone
    2.01,                     !- On Cycle Loss Coefficient to Ambient Temperature
    1,                        !- On Cycle Loss Fraction to Zone
    6.970536e-07,             !- Peak Use Flow Rate
    OpenUBEM_DHW_FlowFrac_SmallOffice,    !- Use Flow Rate Fraction Schedule Name
    ,                         !- Cold Water Supply Temperature Schedule Name
    ,                         !- Use Side Inlet Node Name
    ,                         !- Use Side Outlet Node Name
    1,                        !- Use Side Effectiveness
    ,                         !- Source Side Inlet Node Name
    ,                         !- Source Side Outlet Node Name
    1,                        !- Source Side Effectiveness
    autosize,                 !- Use Side Design Flow Rate
    autosize,                 !- Source Side Design Flow Rate
    1.5,                      !- Indirect Water Heating Recovery Time
    IndirectHeatPrimarySetpoint,    !- Source Side Flow Control Mode
    ,                         !- Indirect Alternate Setpoint Temperature Schedule Name
    DHW;                      !- EndUse Subcategory

WATERUSE:EQUIPMENT,
    DHW_WaterUse_SmallOffice,    !- Name
    DHW,                      !- EndUse Subcategory
    6.970536e-07,             !- Peak Flow Rate
    OpenUBEM_DHW_FlowFrac_SmallOffice,    !- Flow Rate Fraction Schedule Name
    OpenUBEM_DHW_Setpoint,    !- Target Temperature Schedule Name
    ,                         !- Hot Water Supply Temperature Schedule Name
    ,                         !- Cold Water Supply Temperature Schedule Name
    way/265301958_F0_whole,    !- Zone Name
    OpenUBEM_DHW_SensibleFrac,    !- Sensible Fraction Schedule Name
    OpenUBEM_DHW_LatentFrac;    !- Latent Fraction Schedule Name

WATERUSE:CONNECTIONS,
    DHW_WaterConn_SmallOffice,    !- Name
    ,                         !- Inlet Node Name
    ,                         !- Outlet Node Name
    ,                         !- Supply Water Storage Tank Name
    ,                         !- Reclamation Water Storage Tank Name
    OpenUBEM_DHW_Setpoint,    !- Hot Water Supply Temperature Schedule Name
    ,                         !- Cold Water Supply Temperature Schedule Name
    None,                     !- Drain Water Heat Exchanger Type
    Plant,                    !- Drain Water Heat Exchanger Destination
    ,                         !- Drain Water Heat Exchanger UFactor Times Area
    DHW_WaterUse_SmallOffice;    !- Water Use Equipment 1 Name

OUTPUT:TABLE:SUMMARYREPORTS,
    AllSummary;               !- Report 1 Name

OUTPUTCONTROL:TABLE:STYLE,
    HTML,                     !- Column Separator
    None;                     !- Unit Conversion

OUTPUT:VARIABLE,
    *,                        !- Key Value
    Zone Ideal Loads Zone Total Heating Energy,    !- Variable Name
    Hourly;                   !- Reporting Frequency

OUTPUT:VARIABLE,
    *,                        !- Key Value
    Zone Ideal Loads Zone Total Cooling Energy,    !- Variable Name
    Hourly;                   !- Reporting Frequency

OUTPUT:VARIABLE,
    *,                        !- Key Value
    Zone People Occupant Count,    !- Variable Name
    Hourly;                   !- Reporting Frequency

OUTPUT:VARIABLE,
    *,                        !- Key Value
    Zone Lights Electricity Energy,    !- Variable Name
    Hourly;                   !- Reporting Frequency

OUTPUT:VARIABLE,
    *,                        !- Key Value
    Zone Electric Equipment Electricity Energy,    !- Variable Name
    Hourly;                   !- Reporting Frequency

OUTPUT:VARIABLE,
    *,                        !- Key Value
    Zone Infiltration Sensible Heat Loss Energy,    !- Variable Name
    Hourly;                   !- Reporting Frequency

OUTPUT:VARIABLE,
    *,                        !- Key Value
    Zone Mechanical Ventilation Mass Flow Rate,    !- Variable Name
    Hourly;                   !- Reporting Frequency

OUTPUT:VARIABLE,
    *,                        !- Key Value
    Zone Mean Air Temperature,    !- Variable Name
    Hourly;                   !- Reporting Frequency

OUTPUT:VARIABLE,
    *,                        !- Key Value
    Zone Operative Temperature,    !- Variable Name
    Hourly;                   !- Reporting Frequency

OUTPUT:VARIABLE,
    *,                        !- Key Value
    Site Outdoor Air Drybulb Temperature,    !- Variable Name
    Hourly;                   !- Reporting Frequency

OUTPUT:VARIABLE,
    *,                        !- Key Value
    Site Wind Speed,          !- Variable Name
    Hourly;                   !- Reporting Frequency

OUTPUT:METER,
    Cooling:Electricity,      !- Key Name
    RunPeriod;                !- Reporting Frequency

OUTPUT:METER,
    Heating:Electricity,      !- Key Name
    RunPeriod;                !- Reporting Frequency

OUTPUT:METER,
    Heating:NaturalGas,       !- Key Name
    RunPeriod;                !- Reporting Frequency

OUTPUT:METER,
    Fans:Electricity,         !- Key Name
    RunPeriod;                !- Reporting Frequency

OUTPUT:METER,
    Pumps:Electricity,        !- Key Name
    RunPeriod;                !- Reporting Frequency

OUTPUT:METER,
    WaterSystems:NaturalGas,    !- Key Name
    RunPeriod;                !- Reporting Frequency

OUTPUT:METER,
    WaterSystems:Electricity,    !- Key Name
    RunPeriod;                !- Reporting Frequency

OUTPUT:METER,
    Refrigeration:Electricity,    !- Key Name
    RunPeriod;                !- Reporting Frequency

OUTPUT:METER,
    InteriorEquipment:NaturalGas,    !- Key Name
    RunPeriod;                !- Reporting Frequency

OUTPUT:METER,
    Cooking:InteriorEquipment:Electricity,    !- Key Name
    RunPeriod;                !- Reporting Frequency

OUTPUT:METER,
    Refrigeration:InteriorEquipment:Electricity,    !- Key Name
    RunPeriod;                !- Reporting Frequency

OUTPUT:METER,
    InteriorLights:Electricity,    !- Key Name
    RunPeriod;                !- Reporting Frequency

OUTPUT:METER,
    InteriorEquipment:Electricity,    !- Key Name
    RunPeriod;                !- Reporting Frequency

OUTPUT:METER:METERFILEONLY,
    Electricity:Facility,     !- Key Name
    RunPeriod;                !- Reporting Frequency

OUTPUT:METER:METERFILEONLY,
    NaturalGas:Facility,      !- Key Name
    RunPeriod;                !- Reporting Frequency

OUTPUT:SQLITE,
    SimpleAndTabular,         !- Option Type
    UseOutputControlTableStyle;    !- Unit Conversion for Tabular Data