!- Windows Line endings 

Version,
    23.1;                     !- Version Identifier

SimulationControl,
    Yes,                      !- Do Zone Sizing Calculation
    Yes,                      !- Do System Sizing Calculation
    Yes,                      !- Do Plant Sizing Calculation
    No,                       !- Run Simulation for Sizing Periods
    Yes,                      !- Run Simulation for Weather File Run Periods
    No,                       !- Do HVAC Sizing Simulation for Sizing Periods
    1;                        !- Maximum Number of HVAC Sizing Simulation Passes

Building,
    EU S2 Campaign,           !- Name
    0,                        !- North Axis
    City,                     !- Terrain
    ,                         !- Loads Convergence Tolerance Value
    ,                         !- Temperature Convergence Tolerance Value
    FullExterior,             !- Solar Distribution
    ,                         !- Maximum Number of Warmup Days
    ;                         !- Minimum Number of Warmup Days

ShadowCalculation,
    PolygonClipping,          !- Shading Calculation Method
    Periodic,                 !- Shading Calculation Update Frequency Method
    1;                        !- Shading Calculation Update Frequency

HeatBalanceAlgorithm,
    ConductionTransferFunction,    !- Algorithm
    200,                      !- Surface Temperature Upper Limit
    0.1,                      !- Minimum Surface Convection Heat Transfer Coefficient Value
    10000000;                 !- Maximum Surface Convection Heat Transfer Coefficient Value

Timestep,
    12;                       !- Number of Timesteps per Hour

Site:Location,
    Lyon-Bron,                !- Name
    45.75,                    !- Latitude
    5,                        !- Longitude
    1,                        !- Time Zone
    198;                      !- Elevation

SizingPeriod:WeatherFileDays,
    AnnualSizingPeriod,       !- Name
    1,                        !- Begin Month
    1,                        !- Begin Day of Month
    12,                       !- End Month
    31,                       !- End Day of Month
    Monday,                   !- Day of Week for Start Day
    No,                       !- Use Weather File Daylight Saving Period
    No;                       !- Use Weather File Rain and Snow Indicators

RunPeriod,
    RunPeriod1,               !- Name
    1,                        !- Begin Month
    1,                        !- Begin Day of Month
    ,                         !- Begin Year
    12,                       !- End Month
    31,                       !- End Day of Month
    ,                         !- End Year
    Sunday,                   !- Day of Week for Start Day
    No,                       !- Use Weather File Holidays and Special Days
    No,                       !- Use Weather File Daylight Saving Period
    No,                       !- Apply Weekend Holiday Rule
    Yes,                      !- Use Weather File Rain Indicators
    Yes;                      !- Use Weather File Snow Indicators

ScheduleTypeLimits,
    Any Number;               !- Name

SCHEDULETYPELIMITS,
    EU_Step8_AnyNumber_Wm2,    !- Name
    ,                         !- Lower Limit Value
    ,                         !- Upper Limit Value
    Continuous,               !- Numeric Type
    Dimensionless;            !- Unit Type

SCHEDULE:CONSTANT,
    EU_AlwaysOn,              !- Name
    ,                         !- Schedule Type Limits Name
    1;                        !- Hourly Value

SCHEDULE:CONSTANT,
    EU_CoolingOff,            !- Name
    ,                         !- Schedule Type Limits Name
    0;                        !- Hourly Value

SCHEDULE:FILE,
    EU_Step8_GainSchedule_489894ba3d990787_F0_whole_f000,    !- Name
    EU_Step8_AnyNumber_Wm2,    !- Schedule Type Limits Name
    ../../schedules/489894ba3d990787/489894ba3d990787_F0_whole_f000_gain.csv,    !- File Name
    1,                        !- Column Number
    0,                        !- Rows to Skip at Top
    8760,                     !- Number of Hours of Data
    Comma,                    !- Column Separator
    No,                       !- Interpolate to Timestep
    60,                       !- Minutes per Item
    Yes;                      !- Adjust Schedule for Daylight Savings

SCHEDULE:FILE,
    EU_Step8_GainSchedule_489894ba3d990787_F1_whole_f000,    !- Name
    EU_Step8_AnyNumber_Wm2,    !- Schedule Type Limits Name
    ../../schedules/489894ba3d990787/489894ba3d990787_F1_whole_f000_gain.csv,    !- File Name
    1,                        !- Column Number
    0,                        !- Rows to Skip at Top
    8760,                     !- Number of Hours of Data
    Comma,                    !- Column Separator
    No,                       !- Interpolate to Timestep
    60,                       !- Minutes per Item
    Yes;                      !- Adjust Schedule for Daylight Savings

SCHEDULE:FILE,
    EU_Step8_GainSchedule_489894ba3d990787_F2_whole_f000,    !- Name
    EU_Step8_AnyNumber_Wm2,    !- Schedule Type Limits Name
    ../../schedules/489894ba3d990787/489894ba3d990787_F2_whole_f000_gain.csv,    !- File Name
    1,                        !- Column Number
    0,                        !- Rows to Skip at Top
    8760,                     !- Number of Hours of Data
    Comma,                    !- Column Separator
    No,                       !- Interpolate to Timestep
    60,                       !- Minutes per Item
    Yes;                      !- Adjust Schedule for Daylight Savings

MATERIAL,
    EU_InternalMass_Material,    !- Name
    MediumRough,              !- Roughness
    0.1,                      !- Thickness
    1,                        !- Conductivity
    1800,                     !- Density
    900,                      !- Specific Heat
    0.9,                      !- Thermal Absorptance
    0.7,                      !- Solar Absorptance
    0.7;                      !- Visible Absorptance

MATERIAL:NOMASS,
    EU_wall_NoMass,           !- Name
    MediumRough,              !- Roughness
    2.2042571338684636,       !- Thermal Resistance
    0.9,                      !- Thermal Absorptance
    0.7,                      !- Solar Absorptance
    0.7;                      !- Visible Absorptance

MATERIAL:NOMASS,
    EU_roof_NoMass,           !- Name
    MediumRough,              !- Roughness
    1.8242128004428664,       !- Thermal Resistance
    0.9,                      !- Thermal Absorptance
    0.7,                      !- Solar Absorptance
    0.7;                      !- Visible Absorptance

MATERIAL:NOMASS,
    EU_floor_NoMass,          !- Name
    MediumRough,              !- Roughness
    2.147523357483959,        !- Thermal Resistance
    0.9,                      !- Thermal Absorptance
    0.7,                      !- Solar Absorptance
    0.7;                      !- Visible Absorptance

CONSTRUCTION,
    EU_wall_Construction,     !- Name
    EU_wall_NoMass;           !- Outside Layer

CONSTRUCTION,
    EU_roof_Construction,     !- Name
    EU_roof_NoMass;           !- Outside Layer

CONSTRUCTION,
    EU_floor_Construction,    !- Name
    EU_floor_NoMass;          !- Outside Layer

CONSTRUCTION,
    EU_InternalMass_Construction,    !- Name
    EU_InternalMass_Material;    !- Outside Layer

GlobalGeometryRules,
    UpperLeftCorner,          !- Starting Vertex Position
    CounterClockWise,         !- Vertex Entry Direction
    World;                    !- Coordinate System

ZONE,
    489894ba3d990787_F0_whole,    !- Name
    0,                        !- Direction of Relative North
    0,                        !- X Origin
    0,                        !- Y Origin
    0,                        !- Z Origin
    1,                        !- Type
    1,                        !- Multiplier
    autocalculate,            !- Ceiling Height
    147.145751953125,         !- Volume
    autocalculate,            !- Floor Area
    ,                         !- Zone Inside Convection Algorithm
    ,                         !- Zone Outside Convection Algorithm
    Yes;                      !- Part of Total Floor Area

ZONE,
    489894ba3d990787_F1_whole,    !- Name
    0,                        !- Direction of Relative North
    0,                        !- X Origin
    0,                        !- Y Origin
    0,                        !- Z Origin
    1,                        !- Type
    1,                        !- Multiplier
    autocalculate,            !- Ceiling Height
    147.146484375,            !- Volume
    autocalculate,            !- Floor Area
    ,                         !- Zone Inside Convection Algorithm
    ,                         !- Zone Outside Convection Algorithm
    Yes;                      !- Part of Total Floor Area

ZONE,
    489894ba3d990787_F2_whole,    !- Name
    0,                        !- Direction of Relative North
    0,                        !- X Origin
    0,                        !- Y Origin
    0,                        !- Z Origin
    1,                        !- Type
    1,                        !- Multiplier
    autocalculate,            !- Ceiling Height
    147.146484375,            !- Volume
    autocalculate,            !- Floor Area
    ,                         !- Zone Inside Convection Algorithm
    ,                         !- Zone Outside Convection Algorithm
    Yes;                      !- Part of Total Floor Area

BUILDINGSURFACE:DETAILED,
    Block 489894ba3d990787_whole Storey 0 Wall 0001,    !- Name
    wall,                     !- Surface Type
    EU_wall_Construction,     !- Construction Name
    489894ba3d990787_F0_whole,    !- Zone Name
    ,                         !- Space Name
    outdoors,                 !- Outside Boundary Condition
    ,                         !- Outside Boundary Condition Object
    SunExposed,               !- Sun Exposure
    WindExposed,              !- Wind Exposure
    autocalculate,            !- View Factor to Ground
    autocalculate,            !- Number of Vertices
    642811.4,                 !- Vertex 1 Xcoordinate
    5070609.89,               !- Vertex 1 Ycoordinate
    3,                        !- Vertex 1 Zcoordinate
    642811.4,                 !- Vertex 2 Xcoordinate
    5070609.89,               !- Vertex 2 Ycoordinate
    0,                        !- Vertex 2 Zcoordinate
    642816.705,               !- Vertex 3 Xcoordinate
    5070607.785,              !- Vertex 3 Ycoordinate
    0,                        !- Vertex 3 Zcoordinate
    642816.705,               !- Vertex 4 Xcoordinate
    5070607.785,              !- Vertex 4 Ycoordinate
    3;                        !- Vertex 4 Zcoordinate

BUILDINGSURFACE:DETAILED,
    Block 489894ba3d990787_whole Storey 0 Wall 0002,    !- Name
    wall,                     !- Surface Type
    EU_wall_Construction,     !- Construction Name
    489894ba3d990787_F0_whole,    !- Zone Name
    ,                         !- Space Name
    outdoors,                 !- Outside Boundary Condition
    ,                         !- Outside Boundary Condition Object
    SunExposed,               !- Sun Exposure
    WindExposed,              !- Wind Exposure
    autocalculate,            !- View Factor to Ground
    autocalculate,            !- Number of Vertices
    642816.705,               !- Vertex 1 Xcoordinate
    5070607.785,              !- Vertex 1 Ycoordinate
    3,                        !- Vertex 1 Zcoordinate
    642816.705,               !- Vertex 2 Xcoordinate
    5070607.785,              !- Vertex 2 Ycoordinate
    0,                        !- Vertex 2 Zcoordinate
    642815.9,                 !- Vertex 3 Xcoordinate
    5070601.48,               !- Vertex 3 Ycoordinate
    0,                        !- Vertex 3 Zcoordinate
    642815.9,                 !- Vertex 4 Xcoordinate
    5070601.48,               !- Vertex 4 Ycoordinate
    3;                        !- Vertex 4 Zcoordinate

BUILDINGSURFACE:DETAILED,
    Block 489894ba3d990787_whole Storey 0 Wall 0003,    !- Name
    wall,                     !- Surface Type
    EU_wall_Construction,     !- Construction Name
    489894ba3d990787_F0_whole,    !- Zone Name
    ,                         !- Space Name
    outdoors,                 !- Outside Boundary Condition
    ,                         !- Outside Boundary Condition Object
    SunExposed,               !- Sun Exposure
    WindExposed,              !- Wind Exposure
    autocalculate,            !- View Factor to Ground
    autocalculate,            !- Number of Vertices
    642815.9,                 !- Vertex 1 Xcoordinate
    5070601.48,               !- Vertex 1 Ycoordinate
    3,                        !- Vertex 1 Zcoordinate
    642815.9,                 !- Vertex 2 Xcoordinate
    5070601.48,               !- Vertex 2 Ycoordinate
    0,                        !- Vertex 2 Zcoordinate
    642807.395,               !- Vertex 3 Xcoordinate
    5070603.385,              !- Vertex 3 Ycoordinate
    0,                        !- Vertex 3 Zcoordinate
    642807.395,               !- Vertex 4 Xcoordinate
    5070603.385,              !- Vertex 4 Ycoordinate
    3;                        !- Vertex 4 Zcoordinate

BUILDINGSURFACE:DETAILED,
    Block 489894ba3d990787_whole Storey 0 Wall 0004,    !- Name
    wall,                     !- Surface Type
    EU_wall_Construction,     !- Construction Name
    489894ba3d990787_F0_whole,    !- Zone Name
    ,                         !- Space Name
    outdoors,                 !- Outside Boundary Condition
    ,                         !- Outside Boundary Condition Object
    SunExposed,               !- Sun Exposure
    WindExposed,              !- Wind Exposure
    autocalculate,            !- View Factor to Ground
    autocalculate,            !- Number of Vertices
    642807.395,               !- Vertex 1 Xcoordinate
    5070603.385,              !- Vertex 1 Ycoordinate
    3,                        !- Vertex 1 Zcoordinate
    642807.395,               !- Vertex 2 Xcoordinate
    5070603.385,              !- Vertex 2 Ycoordinate
    0,                        !- Vertex 2 Zcoordinate
    642811.4,                 !- Vertex 3 Xcoordinate
    5070609.89,               !- Vertex 3 Ycoordinate
    0,                        !- Vertex 3 Zcoordinate
    642811.4,                 !- Vertex 4 Xcoordinate
    5070609.89,               !- Vertex 4 Ycoordinate
    3;                        !- Vertex 4 Zcoordinate

BUILDINGSURFACE:DETAILED,
    Block 489894ba3d990787_whole Storey 0 Floor 0001,    !- Name
    floor,                    !- Surface Type
    EU_floor_Construction,    !- Construction Name
    489894ba3d990787_F0_whole,    !- Zone Name
    ,                         !- Space Name
    ground,                   !- Outside Boundary Condition
    ,                         !- Outside Boundary Condition Object
    NoSun,                    !- Sun Exposure
    NoWind,                   !- Wind Exposure
    autocalculate,            !- View Factor to Ground
    autocalculate,            !- Number of Vertices
    642815.9,                 !- Vertex 1 Xcoordinate
    5070601.48,               !- Vertex 1 Ycoordinate
    0,                        !- Vertex 1 Zcoordinate
    642816.705,               !- Vertex 2 Xcoordinate
    5070607.785,              !- Vertex 2 Ycoordinate
    0,                        !- Vertex 2 Zcoordinate
    642811.4,                 !- Vertex 3 Xcoordinate
    5070609.89,               !- Vertex 3 Ycoordinate
    0,                        !- Vertex 3 Zcoordinate
    642807.395,               !- Vertex 4 Xcoordinate
    5070603.385,              !- Vertex 4 Ycoordinate
    0;                        !- Vertex 4 Zcoordinate

BUILDINGSURFACE:DETAILED,
    Block 489894ba3d990787_whole Storey 1 Wall 0001,    !- Name
    wall,                     !- Surface Type
    EU_wall_Construction,     !- Construction Name
    489894ba3d990787_F1_whole,    !- Zone Name
    ,                         !- Space Name
    outdoors,                 !- Outside Boundary Condition
    ,                         !- Outside Boundary Condition Object
    SunExposed,               !- Sun Exposure
    WindExposed,              !- Wind Exposure
    autocalculate,            !- View Factor to Ground
    autocalculate,            !- Number of Vertices
    642811.4,                 !- Vertex 1 Xcoordinate
    5070609.89,               !- Vertex 1 Ycoordinate
    6,                        !- Vertex 1 Zcoordinate
    642811.4,                 !- Vertex 2 Xcoordinate
    5070609.89,               !- Vertex 2 Ycoordinate
    3,                        !- Vertex 2 Zcoordinate
    642816.705,               !- Vertex 3 Xcoordinate
    5070607.785,              !- Vertex 3 Ycoordinate
    3,                        !- Vertex 3 Zcoordinate
    642816.705,               !- Vertex 4 Xcoordinate
    5070607.785,              !- Vertex 4 Ycoordinate
    6;                        !- Vertex 4 Zcoordinate

BUILDINGSURFACE:DETAILED,
    Block 489894ba3d990787_whole Storey 1 Wall 0002,    !- Name
    wall,                     !- Surface Type
    EU_wall_Construction,     !- Construction Name
    489894ba3d990787_F1_whole,    !- Zone Name
    ,                         !- Space Name
    outdoors,                 !- Outside Boundary Condition
    ,                         !- Outside Boundary Condition Object
    SunExposed,               !- Sun Exposure
    WindExposed,              !- Wind Exposure
    autocalculate,            !- View Factor to Ground
    autocalculate,            !- Number of Vertices
    642816.705,               !- Vertex 1 Xcoordinate
    5070607.785,              !- Vertex 1 Ycoordinate
    6,                        !- Vertex 1 Zcoordinate
    642816.705,               !- Vertex 2 Xcoordinate
    5070607.785,              !- Vertex 2 Ycoordinate
    3,                        !- Vertex 2 Zcoordinate
    642815.9,                 !- Vertex 3 Xcoordinate
    5070601.48,               !- Vertex 3 Ycoordinate
    3,                        !- Vertex 3 Zcoordinate
    642815.9,                 !- Vertex 4 Xcoordinate
    5070601.48,               !- Vertex 4 Ycoordinate
    6;                        !- Vertex 4 Zcoordinate

BUILDINGSURFACE:DETAILED,
    Block 489894ba3d990787_whole Storey 1 Wall 0003,    !- Name
    wall,                     !- Surface Type
    EU_wall_Construction,     !- Construction Name
    489894ba3d990787_F1_whole,    !- Zone Name
    ,                         !- Space Name
    outdoors,                 !- Outside Boundary Condition
    ,                         !- Outside Boundary Condition Object
    SunExposed,               !- Sun Exposure
    WindExposed,              !- Wind Exposure
    autocalculate,            !- View Factor to Ground
    autocalculate,            !- Number of Vertices
    642815.9,                 !- Vertex 1 Xcoordinate
    5070601.48,               !- Vertex 1 Ycoordinate
    6,                        !- Vertex 1 Zcoordinate
    642815.9,                 !- Vertex 2 Xcoordinate
    5070601.48,               !- Vertex 2 Ycoordinate
    3,                        !- Vertex 2 Zcoordinate
    642807.395,               !- Vertex 3 Xcoordinate
    5070603.385,              !- Vertex 3 Ycoordinate
    3,                        !- Vertex 3 Zcoordinate
    642807.395,               !- Vertex 4 Xcoordinate
    5070603.385,              !- Vertex 4 Ycoordinate
    6;                        !- Vertex 4 Zcoordinate

BUILDINGSURFACE:DETAILED,
    Block 489894ba3d990787_whole Storey 1 Wall 0004,    !- Name
    wall,                     !- Surface Type
    EU_wall_Construction,     !- Construction Name
    489894ba3d990787_F1_whole,    !- Zone Name
    ,                         !- Space Name
    outdoors,                 !- Outside Boundary Condition
    ,                         !- Outside Boundary Condition Object
    SunExposed,               !- Sun Exposure
    WindExposed,              !- Wind Exposure
    autocalculate,            !- View Factor to Ground
    autocalculate,            !- Number of Vertices
    642807.395,               !- Vertex 1 Xcoordinate
    5070603.385,              !- Vertex 1 Ycoordinate
    6,                        !- Vertex 1 Zcoordinate
    642807.395,               !- Vertex 2 Xcoordinate
    5070603.385,              !- Vertex 2 Ycoordinate
    3,                        !- Vertex 2 Zcoordinate
    642811.4,                 !- Vertex 3 Xcoordinate
    5070609.89,               !- Vertex 3 Ycoordinate
    3,                        !- Vertex 3 Zcoordinate
    642811.4,                 !- Vertex 4 Xcoordinate
    5070609.89,               !- Vertex 4 Ycoordinate
    6;                        !- Vertex 4 Zcoordinate

BUILDINGSURFACE:DETAILED,
    Block 489894ba3d990787_whole Storey 2 Wall 0001,    !- Name
    wall,                     !- Surface Type
    EU_wall_Construction,     !- Construction Name
    489894ba3d990787_F2_whole,    !- Zone Name
    ,                         !- Space Name
    outdoors,                 !- Outside Boundary Condition
    ,                         !- Outside Boundary Condition Object
    SunExposed,               !- Sun Exposure
    WindExposed,              !- Wind Exposure
    autocalculate,            !- View Factor to Ground
    autocalculate,            !- Number of Vertices
    642811.4,                 !- Vertex 1 Xcoordinate
    5070609.89,               !- Vertex 1 Ycoordinate
    9,                        !- Vertex 1 Zcoordinate
    642811.4,                 !- Vertex 2 Xcoordinate
    5070609.89,               !- Vertex 2 Ycoordinate
    6,                        !- Vertex 2 Zcoordinate
    642816.705,               !- Vertex 3 Xcoordinate
    5070607.785,              !- Vertex 3 Ycoordinate
    6,                        !- Vertex 3 Zcoordinate
    642816.705,               !- Vertex 4 Xcoordinate
    5070607.785,              !- Vertex 4 Ycoordinate
    9;                        !- Vertex 4 Zcoordinate

BUILDINGSURFACE:DETAILED,
    Block 489894ba3d990787_whole Storey 2 Wall 0002,    !- Name
    wall,                     !- Surface Type
    EU_wall_Construction,     !- Construction Name
    489894ba3d990787_F2_whole,    !- Zone Name
    ,                         !- Space Name
    outdoors,                 !- Outside Boundary Condition
    ,                         !- Outside Boundary Condition Object
    SunExposed,               !- Sun Exposure
    WindExposed,              !- Wind Exposure
    autocalculate,            !- View Factor to Ground
    autocalculate,            !- Number of Vertices
    642816.705,               !- Vertex 1 Xcoordinate
    5070607.785,              !- Vertex 1 Ycoordinate
    9,                        !- Vertex 1 Zcoordinate
    642816.705,               !- Vertex 2 Xcoordinate
    5070607.785,              !- Vertex 2 Ycoordinate
    6,                        !- Vertex 2 Zcoordinate
    642815.9,                 !- Vertex 3 Xcoordinate
    5070601.48,               !- Vertex 3 Ycoordinate
    6,                        !- Vertex 3 Zcoordinate
    642815.9,                 !- Vertex 4 Xcoordinate
    5070601.48,               !- Vertex 4 Ycoordinate
    9;                        !- Vertex 4 Zcoordinate

BUILDINGSURFACE:DETAILED,
    Block 489894ba3d990787_whole Storey 2 Wall 0003,    !- Name
    wall,                     !- Surface Type
    EU_wall_Construction,     !- Construction Name
    489894ba3d990787_F2_whole,    !- Zone Name
    ,                         !- Space Name
    outdoors,                 !- Outside Boundary Condition
    ,                         !- Outside Boundary Condition Object
    SunExposed,               !- Sun Exposure
    WindExposed,              !- Wind Exposure
    autocalculate,            !- View Factor to Ground
    autocalculate,            !- Number of Vertices
    642815.9,                 !- Vertex 1 Xcoordinate
    5070601.48,               !- Vertex 1 Ycoordinate
    9,                        !- Vertex 1 Zcoordinate
    642815.9,                 !- Vertex 2 Xcoordinate
    5070601.48,               !- Vertex 2 Ycoordinate
    6,                        !- Vertex 2 Zcoordinate
    642807.395,               !- Vertex 3 Xcoordinate
    5070603.385,              !- Vertex 3 Ycoordinate
    6,                        !- Vertex 3 Zcoordinate
    642807.395,               !- Vertex 4 Xcoordinate
    5070603.385,              !- Vertex 4 Ycoordinate
    9;                        !- Vertex 4 Zcoordinate

BUILDINGSURFACE:DETAILED,
    Block 489894ba3d990787_whole Storey 2 Wall 0004,    !- Name
    wall,                     !- Surface Type
    EU_wall_Construction,     !- Construction Name
    489894ba3d990787_F2_whole,    !- Zone Name
    ,                         !- Space Name
    outdoors,                 !- Outside Boundary Condition
    ,                         !- Outside Boundary Condition Object
    SunExposed,               !- Sun Exposure
    WindExposed,              !- Wind Exposure
    autocalculate,            !- View Factor to Ground
    autocalculate,            !- Number of Vertices
    642807.395,               !- Vertex 1 Xcoordinate
    5070603.385,              !- Vertex 1 Ycoordinate
    9,                        !- Vertex 1 Zcoordinate
    642807.395,               !- Vertex 2 Xcoordinate
    5070603.385,              !- Vertex 2 Ycoordinate
    6,                        !- Vertex 2 Zcoordinate
    642811.4,                 !- Vertex 3 Xcoordinate
    5070609.89,               !- Vertex 3 Ycoordinate
    6,                        !- Vertex 3 Zcoordinate
    642811.4,                 !- Vertex 4 Xcoordinate
    5070609.89,               !- Vertex 4 Ycoordinate
    9;                        !- Vertex 4 Zcoordinate

BUILDINGSURFACE:DETAILED,
    Block 489894ba3d990787_whole Storey 2 Roof 0001,    !- Name
    roof,                     !- Surface Type
    EU_roof_Construction,     !- Construction Name
    489894ba3d990787_F2_whole,    !- Zone Name
    ,                         !- Space Name
    outdoors,                 !- Outside Boundary Condition
    ,                         !- Outside Boundary Condition Object
    NoSun,                    !- Sun Exposure
    WindExposed,              !- Wind Exposure
    autocalculate,            !- View Factor to Ground
    autocalculate,            !- Number of Vertices
    642816.705,               !- Vertex 1 Xcoordinate
    5070607.785,              !- Vertex 1 Ycoordinate
    9,                        !- Vertex 1 Zcoordinate
    642815.9,                 !- Vertex 2 Xcoordinate
    5070601.48,               !- Vertex 2 Ycoordinate
    9,                        !- Vertex 2 Zcoordinate
    642807.395,               !- Vertex 3 Xcoordinate
    5070603.385,              !- Vertex 3 Ycoordinate
    9,                        !- Vertex 3 Zcoordinate
    642811.4,                 !- Vertex 4 Xcoordinate
    5070609.89,               !- Vertex 4 Ycoordinate
    9;                        !- Vertex 4 Zcoordinate

BUILDINGSURFACE:DETAILED,
    Block 489894ba3d990787_whole Storey 0 Ceiling 0001_1,    !- Name
    ceiling,                  !- Surface Type
    EU_floor_Construction,    !- Construction Name
    489894ba3d990787_F0_whole,    !- Zone Name
    ,                         !- Space Name
    Surface,                  !- Outside Boundary Condition
    Block 489894ba3d990787_whole Storey 1 Floor 0001_1,    !- Outside Boundary Condition Object
    NoSun,                    !- Sun Exposure
    NoWind,                   !- Wind Exposure
    autocalculate,            !- View Factor to Ground
    autocalculate,            !- Number of Vertices
    642816.7049999996,        !- Vertex 1 Xcoordinate
    5070607.785,              !- Vertex 1 Ycoordinate
    3,                        !- Vertex 1 Zcoordinate
    642815.8999999999,        !- Vertex 2 Xcoordinate
    5070601.48,               !- Vertex 2 Ycoordinate
    3,                        !- Vertex 2 Zcoordinate
    642807.395,               !- Vertex 3 Xcoordinate
    5070603.385,              !- Vertex 3 Ycoordinate
    3,                        !- Vertex 3 Zcoordinate
    642811.3999999999,        !- Vertex 4 Xcoordinate
    5070609.89,               !- Vertex 4 Ycoordinate
    3;                        !- Vertex 4 Zcoordinate

BUILDINGSURFACE:DETAILED,
    Block 489894ba3d990787_whole Storey 1 Floor 0001_1,    !- Name
    floor,                    !- Surface Type
    EU_floor_Construction,    !- Construction Name
    489894ba3d990787_F1_whole,    !- Zone Name
    ,                         !- Space Name
    Surface,                  !- Outside Boundary Condition
    Block 489894ba3d990787_whole Storey 0 Ceiling 0001_1,    !- Outside Boundary Condition Object
    NoSun,                    !- Sun Exposure
    NoWind,                   !- Wind Exposure
    autocalculate,            !- View Factor to Ground
    autocalculate,            !- Number of Vertices
    642815.8999999999,        !- Vertex 1 Xcoordinate
    5070601.48,               !- Vertex 1 Ycoordinate
    3,                        !- Vertex 1 Zcoordinate
    642816.7049999996,        !- Vertex 2 Xcoordinate
    5070607.785,              !- Vertex 2 Ycoordinate
    3,                        !- Vertex 2 Zcoordinate
    642811.3999999999,        !- Vertex 3 Xcoordinate
    5070609.89,               !- Vertex 3 Ycoordinate
    3,                        !- Vertex 3 Zcoordinate
    642807.395,               !- Vertex 4 Xcoordinate
    5070603.385,              !- Vertex 4 Ycoordinate
    3;                        !- Vertex 4 Zcoordinate

BUILDINGSURFACE:DETAILED,
    Block 489894ba3d990787_whole Storey 1 Ceiling 0001_1,    !- Name
    ceiling,                  !- Surface Type
    EU_floor_Construction,    !- Construction Name
    489894ba3d990787_F1_whole,    !- Zone Name
    ,                         !- Space Name
    Surface,                  !- Outside Boundary Condition
    Block 489894ba3d990787_whole Storey 2 Floor 0001_1,    !- Outside Boundary Condition Object
    NoSun,                    !- Sun Exposure
    NoWind,                   !- Wind Exposure
    autocalculate,            !- View Factor to Ground
    autocalculate,            !- Number of Vertices
    642816.7049999996,        !- Vertex 1 Xcoordinate
    5070607.785,              !- Vertex 1 Ycoordinate
    6,                        !- Vertex 1 Zcoordinate
    642815.8999999999,        !- Vertex 2 Xcoordinate
    5070601.48,               !- Vertex 2 Ycoordinate
    6,                        !- Vertex 2 Zcoordinate
    642807.395,               !- Vertex 3 Xcoordinate
    5070603.385,              !- Vertex 3 Ycoordinate
    6,                        !- Vertex 3 Zcoordinate
    642811.3999999999,        !- Vertex 4 Xcoordinate
    5070609.89,               !- Vertex 4 Ycoordinate
    6;                        !- Vertex 4 Zcoordinate

BUILDINGSURFACE:DETAILED,
    Block 489894ba3d990787_whole Storey 2 Floor 0001_1,    !- Name
    floor,                    !- Surface Type
    EU_floor_Construction,    !- Construction Name
    489894ba3d990787_F2_whole,    !- Zone Name
    ,                         !- Space Name
    Surface,                  !- Outside Boundary Condition
    Block 489894ba3d990787_whole Storey 1 Ceiling 0001_1,    !- Outside Boundary Condition Object
    NoSun,                    !- Sun Exposure
    NoWind,                   !- Wind Exposure
    autocalculate,            !- View Factor to Ground
    autocalculate,            !- Number of Vertices
    642815.8999999999,        !- Vertex 1 Xcoordinate
    5070601.48,               !- Vertex 1 Ycoordinate
    6,                        !- Vertex 1 Zcoordinate
    642816.7049999996,        !- Vertex 2 Xcoordinate
    5070607.785,              !- Vertex 2 Ycoordinate
    6,                        !- Vertex 2 Zcoordinate
    642811.3999999999,        !- Vertex 3 Xcoordinate
    5070609.89,               !- Vertex 3 Ycoordinate
    6,                        !- Vertex 3 Zcoordinate
    642807.395,               !- Vertex 4 Xcoordinate
    5070603.385,              !- Vertex 4 Ycoordinate
    6;                        !- Vertex 4 Zcoordinate

INTERNALMASS,
    489894ba3d990787_F0_whole_EU_InternalMass,    !- Name
    EU_InternalMass_Construction,    !- Construction Name
    489894ba3d990787_F0_whole,    !- Zone or ZoneList Name
    ,                         !- Space or SpaceList Name
    49.048549996941986;       !- Surface Area

INTERNALMASS,
    489894ba3d990787_F1_whole_EU_InternalMass,    !- Name
    EU_InternalMass_Construction,    !- Construction Name
    489894ba3d990787_F1_whole,    !- Zone or ZoneList Name
    ,                         !- Space or SpaceList Name
    49.048549996941986;       !- Surface Area

INTERNALMASS,
    489894ba3d990787_F2_whole_EU_InternalMass,    !- Name
    EU_InternalMass_Construction,    !- Construction Name
    489894ba3d990787_F2_whole,    !- Zone or ZoneList Name
    ,                         !- Space or SpaceList Name
    49.048549996941986;       !- Surface Area

SHADING:SITE:DETAILED,
    shade_BATIMENT0000000240882144_part0_1,    !- Name
    ,                         !- Transmittance Schedule Name
    autocalculate,            !- Number of Vertices
    642836.2298253967,        !- Vertex 1 Xcoordinate
    5070565.343727166,        !- Vertex 1 Ycoordinate
    12.4,                     !- Vertex 1 Zcoordinate
    642836.2298253967,        !- Vertex 2 Xcoordinate
    5070565.343727166,        !- Vertex 2 Ycoordinate
    0,                        !- Vertex 2 Zcoordinate
    642792.045146447,         !- Vertex 3 Xcoordinate
    5070580.371318378,        !- Vertex 3 Ycoordinate
    0,                        !- Vertex 3 Zcoordinate
    642792.045146447,         !- Vertex 4 Xcoordinate
    5070580.371318378,        !- Vertex 4 Ycoordinate
    12.4;                     !- Vertex 4 Zcoordinate

SHADING:SITE:DETAILED,
    shade_BATIMENT0000000240882144_part0_2,    !- Name
    ,                         !- Transmittance Schedule Name
    autocalculate,            !- Number of Vertices
    642792.045146447,         !- Vertex 1 Xcoordinate
    5070580.371318378,        !- Vertex 1 Ycoordinate
    12.4,                     !- Vertex 1 Zcoordinate
    642792.045146447,         !- Vertex 2 Xcoordinate
    5070580.371318378,        !- Vertex 2 Ycoordinate
    0,                        !- Vertex 2 Zcoordinate
    642800.3203322074,        !- Vertex 3 Xcoordinate
    5070604.702325335,        !- Vertex 3 Ycoordinate
    0,                        !- Vertex 3 Zcoordinate
    642800.3203322074,        !- Vertex 4 Xcoordinate
    5070604.702325335,        !- Vertex 4 Ycoordinate
    12.4;                     !- Vertex 4 Zcoordinate

SHADING:SITE:DETAILED,
    shade_BATIMENT0000000240882144_part0_3,    !- Name
    ,                         !- Transmittance Schedule Name
    autocalculate,            !- Number of Vertices
    642800.3203322074,        !- Vertex 1 Xcoordinate
    5070604.702325335,        !- Vertex 1 Ycoordinate
    12.4,                     !- Vertex 1 Zcoordinate
    642800.3203322074,        !- Vertex 2 Xcoordinate
    5070604.702325335,        !- Vertex 2 Ycoordinate
    0,                        !- Vertex 2 Zcoordinate
    642844.5050111569,        !- Vertex 3 Xcoordinate
    5070589.674734123,        !- Vertex 3 Ycoordinate
    0,                        !- Vertex 3 Zcoordinate
    642844.5050111569,        !- Vertex 4 Xcoordinate
    5070589.674734123,        !- Vertex 4 Ycoordinate
    12.4;                     !- Vertex 4 Zcoordinate

SHADING:SITE:DETAILED,
    shade_BATIMENT0000000240882144_part0_4,    !- Name
    ,                         !- Transmittance Schedule Name
    autocalculate,            !- Number of Vertices
    642844.5050111569,        !- Vertex 1 Xcoordinate
    5070589.674734123,        !- Vertex 1 Ycoordinate
    12.4,                     !- Vertex 1 Zcoordinate
    642844.5050111569,        !- Vertex 2 Xcoordinate
    5070589.674734123,        !- Vertex 2 Ycoordinate
    0,                        !- Vertex 2 Zcoordinate
    642836.2298253967,        !- Vertex 3 Xcoordinate
    5070565.343727166,        !- Vertex 3 Ycoordinate
    0,                        !- Vertex 3 Zcoordinate
    642836.2298253967,        !- Vertex 4 Xcoordinate
    5070565.343727166,        !- Vertex 4 Ycoordinate
    12.4;                     !- Vertex 4 Zcoordinate

SHADING:SITE:DETAILED,
    shade_BATIMENT0000000240881379_part0_1,    !- Name
    ,                         !- Transmittance Schedule Name
    autocalculate,            !- Number of Vertices
    642827.4088433206,        !- Vertex 1 Xcoordinate
    5070595.072956884,        !- Vertex 1 Ycoordinate
    6.7,                      !- Vertex 1 Zcoordinate
    642827.4088433206,        !- Vertex 2 Xcoordinate
    5070595.072956884,        !- Vertex 2 Ycoordinate
    0,                        !- Vertex 2 Zcoordinate
    642829.5729566419,        !- Vertex 3 Xcoordinate
    5070600.804286336,        !- Vertex 3 Ycoordinate
    0,                        !- Vertex 3 Zcoordinate
    642829.5729566419,        !- Vertex 4 Xcoordinate
    5070600.804286336,        !- Vertex 4 Ycoordinate
    6.7;                      !- Vertex 4 Zcoordinate

SHADING:SITE:DETAILED,
    shade_BATIMENT0000000240881379_part0_2,    !- Name
    ,                         !- Transmittance Schedule Name
    autocalculate,            !- Number of Vertices
    642829.5729566419,        !- Vertex 1 Xcoordinate
    5070600.804286336,        !- Vertex 1 Ycoordinate
    6.7,                      !- Vertex 1 Zcoordinate
    642829.5729566419,        !- Vertex 2 Xcoordinate
    5070600.804286336,        !- Vertex 2 Ycoordinate
    0,                        !- Vertex 2 Zcoordinate
    642837.2645509422,        !- Vertex 3 Xcoordinate
    5070597.899722381,        !- Vertex 3 Ycoordinate
    0,                        !- Vertex 3 Zcoordinate
    642837.2645509422,        !- Vertex 4 Xcoordinate
    5070597.899722381,        !- Vertex 4 Ycoordinate
    6.7;                      !- Vertex 4 Zcoordinate

SHADING:SITE:DETAILED,
    shade_BATIMENT0000000240881379_part0_3,    !- Name
    ,                         !- Transmittance Schedule Name
    autocalculate,            !- Number of Vertices
    642837.2645509422,        !- Vertex 1 Xcoordinate
    5070597.899722381,        !- Vertex 1 Ycoordinate
    6.7,                      !- Vertex 1 Zcoordinate
    642837.2645509422,        !- Vertex 2 Xcoordinate
    5070597.899722381,        !- Vertex 2 Ycoordinate
    0,                        !- Vertex 2 Zcoordinate
    642835.1003211921,        !- Vertex 3 Xcoordinate
    5070592.168611805,        !- Vertex 3 Ycoordinate
    0,                        !- Vertex 3 Zcoordinate
    642835.1003211921,        !- Vertex 4 Xcoordinate
    5070592.168611805,        !- Vertex 4 Ycoordinate
    6.7;                      !- Vertex 4 Zcoordinate

SHADING:SITE:DETAILED,
    shade_BATIMENT0000000240881379_part0_4,    !- Name
    ,                         !- Transmittance Schedule Name
    autocalculate,            !- Number of Vertices
    642835.1003211921,        !- Vertex 1 Xcoordinate
    5070592.168611805,        !- Vertex 1 Ycoordinate
    6.7,                      !- Vertex 1 Zcoordinate
    642835.1003211921,        !- Vertex 2 Xcoordinate
    5070592.168611805,        !- Vertex 2 Ycoordinate
    0,                        !- Vertex 2 Zcoordinate
    642827.4088433206,        !- Vertex 3 Xcoordinate
    5070595.072956884,        !- Vertex 3 Ycoordinate
    0,                        !- Vertex 3 Zcoordinate
    642827.4088433206,        !- Vertex 4 Xcoordinate
    5070595.072956884,        !- Vertex 4 Ycoordinate
    6.7;                      !- Vertex 4 Zcoordinate

SHADING:SITE:DETAILED,
    shade_BATIMENT0000000240881394_part0_1,    !- Name
    ,                         !- Transmittance Schedule Name
    autocalculate,            !- Number of Vertices
    642795.673681531,         !- Vertex 1 Xcoordinate
    5070615.970561255,        !- Vertex 1 Ycoordinate
    6,                        !- Vertex 1 Zcoordinate
    642795.673681531,         !- Vertex 2 Xcoordinate
    5070615.970561255,        !- Vertex 2 Ycoordinate
    0,                        !- Vertex 2 Zcoordinate
    642796.5103401797,        !- Vertex 3 Xcoordinate
    5070621.813178829,        !- Vertex 3 Ycoordinate
    0,                        !- Vertex 3 Zcoordinate
    642796.5103401797,        !- Vertex 4 Xcoordinate
    5070621.813178829,        !- Vertex 4 Ycoordinate
    6;                        !- Vertex 4 Zcoordinate

SHADING:SITE:DETAILED,
    shade_BATIMENT0000000240881394_part0_2,    !- Name
    ,                         !- Transmittance Schedule Name
    autocalculate,            !- Number of Vertices
    642796.5103401797,        !- Vertex 1 Xcoordinate
    5070621.813178829,        !- Vertex 1 Ycoordinate
    6,                        !- Vertex 1 Zcoordinate
    642796.5103401797,        !- Vertex 2 Xcoordinate
    5070621.813178829,        !- Vertex 2 Ycoordinate
    0,                        !- Vertex 2 Zcoordinate
    642803.7534370436,        !- Vertex 3 Xcoordinate
    5070620.775972546,        !- Vertex 3 Ycoordinate
    0,                        !- Vertex 3 Zcoordinate
    642803.7534370436,        !- Vertex 4 Xcoordinate
    5070620.775972546,        !- Vertex 4 Ycoordinate
    6;                        !- Vertex 4 Zcoordinate

SHADING:SITE:DETAILED,
    shade_BATIMENT0000000240881394_part0_3,    !- Name
    ,                         !- Transmittance Schedule Name
    autocalculate,            !- Number of Vertices
    642803.7534370436,        !- Vertex 1 Xcoordinate
    5070620.775972546,        !- Vertex 1 Ycoordinate
    6,                        !- Vertex 1 Zcoordinate
    642803.7534370436,        !- Vertex 2 Xcoordinate
    5070620.775972546,        !- Vertex 2 Ycoordinate
    0,                        !- Vertex 2 Zcoordinate
    642802.9167783948,        !- Vertex 3 Xcoordinate
    5070614.933354973,        !- Vertex 3 Ycoordinate
    0,                        !- Vertex 3 Zcoordinate
    642802.9167783948,        !- Vertex 4 Xcoordinate
    5070614.933354973,        !- Vertex 4 Ycoordinate
    6;                        !- Vertex 4 Zcoordinate

SHADING:SITE:DETAILED,
    shade_BATIMENT0000000240881394_part0_4,    !- Name
    ,                         !- Transmittance Schedule Name
    autocalculate,            !- Number of Vertices
    642802.9167783948,        !- Vertex 1 Xcoordinate
    5070614.933354973,        !- Vertex 1 Ycoordinate
    6,                        !- Vertex 1 Zcoordinate
    642802.9167783948,        !- Vertex 2 Xcoordinate
    5070614.933354973,        !- Vertex 2 Ycoordinate
    0,                        !- Vertex 2 Zcoordinate
    642795.673681531,         !- Vertex 3 Xcoordinate
    5070615.970561255,        !- Vertex 3 Ycoordinate
    0,                        !- Vertex 3 Zcoordinate
    642795.673681531,         !- Vertex 4 Xcoordinate
    5070615.970561255,        !- Vertex 4 Ycoordinate
    6;                        !- Vertex 4 Zcoordinate

SHADING:SITE:DETAILED,
    shade_BATIMENT0000000240882148_part0_1,    !- Name
    ,                         !- Transmittance Schedule Name
    autocalculate,            !- Number of Vertices
    642814.5711290622,        !- Vertex 1 Xcoordinate
    5070610.010408411,        !- Vertex 1 Ycoordinate
    3,                        !- Vertex 1 Zcoordinate
    642814.5711290622,        !- Vertex 2 Xcoordinate
    5070610.010408411,        !- Vertex 2 Ycoordinate
    0,                        !- Vertex 2 Zcoordinate
    642799.2075849134,        !- Vertex 3 Xcoordinate
    5070647.597617435,        !- Vertex 3 Ycoordinate
    0,                        !- Vertex 3 Zcoordinate
    642799.2075849134,        !- Vertex 4 Xcoordinate
    5070647.597617435,        !- Vertex 4 Ycoordinate
    3;                        !- Vertex 4 Zcoordinate

SHADING:SITE:DETAILED,
    shade_BATIMENT0000000240882148_part0_2,    !- Name
    ,                         !- Transmittance Schedule Name
    autocalculate,            !- Number of Vertices
    642799.2075849134,        !- Vertex 1 Xcoordinate
    5070647.597617435,        !- Vertex 1 Ycoordinate
    3,                        !- Vertex 1 Zcoordinate
    642799.2075849134,        !- Vertex 2 Xcoordinate
    5070647.597617435,        !- Vertex 2 Ycoordinate
    0,                        !- Vertex 2 Zcoordinate
    642820.1741230546,        !- Vertex 3 Xcoordinate
    5070656.167562987,        !- Vertex 3 Ycoordinate
    0,                        !- Vertex 3 Zcoordinate
    642820.1741230546,        !- Vertex 4 Xcoordinate
    5070656.167562987,        !- Vertex 4 Ycoordinate
    3;                        !- Vertex 4 Zcoordinate

SHADING:SITE:DETAILED,
    shade_BATIMENT0000000240882148_part0_3,    !- Name
    ,                         !- Transmittance Schedule Name
    autocalculate,            !- Number of Vertices
    642820.1741230546,        !- Vertex 1 Xcoordinate
    5070656.167562987,        !- Vertex 1 Ycoordinate
    3,                        !- Vertex 1 Zcoordinate
    642820.1741230546,        !- Vertex 2 Xcoordinate
    5070656.167562987,        !- Vertex 2 Ycoordinate
    0,                        !- Vertex 2 Zcoordinate
    642835.5376672035,        !- Vertex 3 Xcoordinate
    5070618.580353962,        !- Vertex 3 Ycoordinate
    0,                        !- Vertex 3 Zcoordinate
    642835.5376672035,        !- Vertex 4 Xcoordinate
    5070618.580353962,        !- Vertex 4 Ycoordinate
    3;                        !- Vertex 4 Zcoordinate

SHADING:SITE:DETAILED,
    shade_BATIMENT0000000240882148_part0_4,    !- Name
    ,                         !- Transmittance Schedule Name
    autocalculate,            !- Number of Vertices
    642835.5376672035,        !- Vertex 1 Xcoordinate
    5070618.580353962,        !- Vertex 1 Ycoordinate
    3,                        !- Vertex 1 Zcoordinate
    642835.5376672035,        !- Vertex 2 Xcoordinate
    5070618.580353962,        !- Vertex 2 Ycoordinate
    0,                        !- Vertex 2 Zcoordinate
    642814.5711290622,        !- Vertex 3 Xcoordinate
    5070610.010408411,        !- Vertex 3 Ycoordinate
    0,                        !- Vertex 3 Zcoordinate
    642814.5711290622,        !- Vertex 4 Xcoordinate
    5070610.010408411,        !- Vertex 4 Ycoordinate
    3;                        !- Vertex 4 Zcoordinate

SHADING:SITE:DETAILED,
    shade_BATIMENT0000000013365724_part0_1,    !- Name
    ,                         !- Transmittance Schedule Name
    autocalculate,            !- Number of Vertices
    642805.8066874715,        !- Vertex 1 Xcoordinate
    5070643.8135424545,       !- Vertex 1 Ycoordinate
    8.7,                      !- Vertex 1 Zcoordinate
    642805.8066874715,        !- Vertex 2 Xcoordinate
    5070643.8135424545,       !- Vertex 2 Ycoordinate
    0,                        !- Vertex 2 Zcoordinate
    642823.9535937292,        !- Vertex 3 Xcoordinate
    5070629.06823596,         !- Vertex 3 Ycoordinate
    0,                        !- Vertex 3 Zcoordinate
    642823.9535937292,        !- Vertex 4 Xcoordinate
    5070629.06823596,         !- Vertex 4 Ycoordinate
    8.7;                      !- Vertex 4 Zcoordinate

SHADING:SITE:DETAILED,
    shade_BATIMENT0000000013365724_part0_2,    !- Name
    ,                         !- Transmittance Schedule Name
    autocalculate,            !- Number of Vertices
    642823.9535937292,        !- Vertex 1 Xcoordinate
    5070629.06823596,         !- Vertex 1 Ycoordinate
    8.7,                      !- Vertex 1 Zcoordinate
    642823.9535937292,        !- Vertex 2 Xcoordinate
    5070629.06823596,         !- Vertex 2 Ycoordinate
    0,                        !- Vertex 2 Zcoordinate
    642814.9647049335,        !- Vertex 3 Xcoordinate
    5070618.00581493,         !- Vertex 3 Ycoordinate
    0,                        !- Vertex 3 Zcoordinate
    642814.9647049335,        !- Vertex 4 Xcoordinate
    5070618.00581493,         !- Vertex 4 Ycoordinate
    8.7;                      !- Vertex 4 Zcoordinate

SHADING:SITE:DETAILED,
    shade_BATIMENT0000000013365724_part0_3,    !- Name
    ,                         !- Transmittance Schedule Name
    autocalculate,            !- Number of Vertices
    642814.9647049335,        !- Vertex 1 Xcoordinate
    5070618.00581493,         !- Vertex 1 Ycoordinate
    8.7,                      !- Vertex 1 Zcoordinate
    642814.9647049335,        !- Vertex 2 Xcoordinate
    5070618.00581493,         !- Vertex 2 Ycoordinate
    0,                        !- Vertex 2 Zcoordinate
    642796.8185529944,        !- Vertex 3 Xcoordinate
    5070632.750665205,        !- Vertex 3 Ycoordinate
    0,                        !- Vertex 3 Zcoordinate
    642796.8185529944,        !- Vertex 4 Xcoordinate
    5070632.750665205,        !- Vertex 4 Ycoordinate
    8.7;                      !- Vertex 4 Zcoordinate

SHADING:SITE:DETAILED,
    shade_BATIMENT0000000013365724_part0_4,    !- Name
    ,                         !- Transmittance Schedule Name
    autocalculate,            !- Number of Vertices
    642796.8185529944,        !- Vertex 1 Xcoordinate
    5070632.750665205,        !- Vertex 1 Ycoordinate
    8.7,                      !- Vertex 1 Zcoordinate
    642796.8185529944,        !- Vertex 2 Xcoordinate
    5070632.750665205,        !- Vertex 2 Ycoordinate
    0,                        !- Vertex 2 Zcoordinate
    642805.8066874715,        !- Vertex 3 Xcoordinate
    5070643.8135424545,       !- Vertex 3 Ycoordinate
    0,                        !- Vertex 3 Zcoordinate
    642805.8066874715,        !- Vertex 4 Xcoordinate
    5070643.8135424545,       !- Vertex 4 Ycoordinate
    8.7;                      !- Vertex 4 Zcoordinate

OTHEREQUIPMENT,
    EU_Step8_InternalGain_489894ba3d990787_F0_whole_f000,    !- Name
    Electricity,              !- Fuel Type
    489894ba3d990787_F0_whole,    !- Zone or ZoneList or Space or SpaceList Name
    EU_Step8_GainSchedule_489894ba3d990787_F0_whole_f000,    !- Schedule Name
    Watts/Area,               !- Design Level Calculation Method
    ,                         !- Design Level
    1,                        !- Power per Zone Floor Area
    ,                         !- Power per Person
    0,                        !- Fraction Latent
    0,                        !- Fraction Radiant
    0,                        !- Fraction Lost
    0,                        !- Carbon Dioxide Generation Rate
    EU_Step8_InternalGains;    !- EndUse Subcategory

OTHEREQUIPMENT,
    EU_Step8_InternalGain_489894ba3d990787_F1_whole_f000,    !- Name
    Electricity,              !- Fuel Type
    489894ba3d990787_F1_whole,    !- Zone or ZoneList or Space or SpaceList Name
    EU_Step8_GainSchedule_489894ba3d990787_F1_whole_f000,    !- Schedule Name
    Watts/Area,               !- Design Level Calculation Method
    ,                         !- Design Level
    1,                        !- Power per Zone Floor Area
    ,                         !- Power per Person
    0,                        !- Fraction Latent
    0,                        !- Fraction Radiant
    0,                        !- Fraction Lost
    0,                        !- Carbon Dioxide Generation Rate
    EU_Step8_InternalGains;    !- EndUse Subcategory

OTHEREQUIPMENT,
    EU_Step8_InternalGain_489894ba3d990787_F2_whole_f000,    !- Name
    Electricity,              !- Fuel Type
    489894ba3d990787_F2_whole,    !- Zone or ZoneList or Space or SpaceList Name
    EU_Step8_GainSchedule_489894ba3d990787_F2_whole_f000,    !- Schedule Name
    Watts/Area,               !- Design Level Calculation Method
    ,                         !- Design Level
    1,                        !- Power per Zone Floor Area
    ,                         !- Power per Person
    0,                        !- Fraction Latent
    0,                        !- Fraction Radiant
    0,                        !- Fraction Lost
    0,                        !- Carbon Dioxide Generation Rate
    EU_Step8_InternalGains;    !- EndUse Subcategory

ZONEVENTILATION:DESIGNFLOWRATE,
    EU_ConstantAir_489894ba3d990787_F0_whole,    !- Name
    489894ba3d990787_F0_whole,    !- Zone or ZoneList or Space or SpaceList Name
    EU_AlwaysOn,              !- Schedule Name
    AirChanges/Hour,          !- Design Flow Rate Calculation Method
    ,                         !- Design Flow Rate
    ,                         !- Flow Rate per Floor Area
    ,                         !- Flow Rate per Person
    0.5670844752155818,       !- Air Changes per Hour
    Natural,                  !- Ventilation Type
    0,                        !- Fan Pressure Rise
    1,                        !- Fan Total Efficiency
    1,                        !- Constant Term Coefficient
    0,                        !- Temperature Term Coefficient
    0,                        !- Velocity Term Coefficient
    0,                        !- Velocity Squared Term Coefficient
    -100,                     !- Minimum Indoor Temperature
    ,                         !- Minimum Indoor Temperature Schedule Name
    100,                      !- Maximum Indoor Temperature
    ,                         !- Maximum Indoor Temperature Schedule Name
    -100,                     !- Delta Temperature
    ,                         !- Delta Temperature Schedule Name
    -100,                     !- Minimum Outdoor Temperature
    ,                         !- Minimum Outdoor Temperature Schedule Name
    100,                      !- Maximum Outdoor Temperature
    ,                         !- Maximum Outdoor Temperature Schedule Name
    40;                       !- Maximum Wind Speed

ZONEVENTILATION:DESIGNFLOWRATE,
    EU_ConstantAir_489894ba3d990787_F1_whole,    !- Name
    489894ba3d990787_F1_whole,    !- Zone or ZoneList or Space or SpaceList Name
    EU_AlwaysOn,              !- Schedule Name
    AirChanges/Hour,          !- Design Flow Rate Calculation Method
    ,                         !- Design Flow Rate
    ,                         !- Flow Rate per Floor Area
    ,                         !- Flow Rate per Person
    0.5670844752155818,       !- Air Changes per Hour
    Natural,                  !- Ventilation Type
    0,                        !- Fan Pressure Rise
    1,                        !- Fan Total Efficiency
    1,                        !- Constant Term Coefficient
    0,                        !- Temperature Term Coefficient
    0,                        !- Velocity Term Coefficient
    0,                        !- Velocity Squared Term Coefficient
    -100,                     !- Minimum Indoor Temperature
    ,                         !- Minimum Indoor Temperature Schedule Name
    100,                      !- Maximum Indoor Temperature
    ,                         !- Maximum Indoor Temperature Schedule Name
    -100,                     !- Delta Temperature
    ,                         !- Delta Temperature Schedule Name
    -100,                     !- Minimum Outdoor Temperature
    ,                         !- Minimum Outdoor Temperature Schedule Name
    100,                      !- Maximum Outdoor Temperature
    ,                         !- Maximum Outdoor Temperature Schedule Name
    40;                       !- Maximum Wind Speed

ZONEVENTILATION:DESIGNFLOWRATE,
    EU_ConstantAir_489894ba3d990787_F2_whole,    !- Name
    489894ba3d990787_F2_whole,    !- Zone or ZoneList or Space or SpaceList Name
    EU_AlwaysOn,              !- Schedule Name
    AirChanges/Hour,          !- Design Flow Rate Calculation Method
    ,                         !- Design Flow Rate
    ,                         !- Flow Rate per Floor Area
    ,                         !- Flow Rate per Person
    0.5670844752155818,       !- Air Changes per Hour
    Natural,                  !- Ventilation Type
    0,                        !- Fan Pressure Rise
    1,                        !- Fan Total Efficiency
    1,                        !- Constant Term Coefficient
    0,                        !- Temperature Term Coefficient
    0,                        !- Velocity Term Coefficient
    0,                        !- Velocity Squared Term Coefficient
    -100,                     !- Minimum Indoor Temperature
    ,                         !- Minimum Indoor Temperature Schedule Name
    100,                      !- Maximum Indoor Temperature
    ,                         !- Maximum Indoor Temperature Schedule Name
    -100,                     !- Delta Temperature
    ,                         !- Delta Temperature Schedule Name
    -100,                     !- Minimum Outdoor Temperature
    ,                         !- Minimum Outdoor Temperature Schedule Name
    100,                      !- Maximum Outdoor Temperature
    ,                         !- Maximum Outdoor Temperature Schedule Name
    40;                       !- Maximum Wind Speed

HVACTEMPLATE:THERMOSTAT,
    EU_HeatOnly_489894ba3d990787_F0_whole,    !- Name
    ,                         !- Heating Setpoint Schedule Name
    20,                       !- Constant Heating Setpoint
    ,                         !- Cooling Setpoint Schedule Name
    50;                       !- Constant Cooling Setpoint

HVACTEMPLATE:THERMOSTAT,
    EU_HeatOnly_489894ba3d990787_F1_whole,    !- Name
    ,                         !- Heating Setpoint Schedule Name
    20,                       !- Constant Heating Setpoint
    ,                         !- Cooling Setpoint Schedule Name
    50;                       !- Constant Cooling Setpoint

HVACTEMPLATE:THERMOSTAT,
    EU_HeatOnly_489894ba3d990787_F2_whole,    !- Name
    ,                         !- Heating Setpoint Schedule Name
    20,                       !- Constant Heating Setpoint
    ,                         !- Cooling Setpoint Schedule Name
    50;                       !- Constant Cooling Setpoint

HVACTEMPLATE:ZONE:IDEALLOADSAIRSYSTEM,
    489894ba3d990787_F0_whole,    !- Zone Name
    EU_HeatOnly_489894ba3d990787_F0_whole,    !- Template Thermostat Name
    EU_AlwaysOn,              !- System Availability Schedule Name
    50,                       !- Maximum Heating Supply Air Temperature
    13,                       !- Minimum Cooling Supply Air Temperature
    0.0156,                   !- Maximum Heating Supply Air Humidity Ratio
    0.0077,                   !- Minimum Cooling Supply Air Humidity Ratio
    NoLimit,                  !- Heating Limit
    ,                         !- Maximum Heating Air Flow Rate
    ,                         !- Maximum Sensible Heating Capacity
    NoLimit,                  !- Cooling Limit
    ,                         !- Maximum Cooling Air Flow Rate
    ,                         !- Maximum Total Cooling Capacity
    EU_AlwaysOn,              !- Heating Availability Schedule Name
    EU_CoolingOff,            !- Cooling Availability Schedule Name
    ConstantSensibleHeatRatio,    !- Dehumidification Control Type
    0.7,                      !- Cooling Sensible Heat Ratio
    60,                       !- Dehumidification Setpoint
    None,                     !- Humidification Control Type
    30,                       !- Humidification Setpoint
    None,                     !- Outdoor Air Method
    0.00944,                  !- Outdoor Air Flow Rate per Person
    0.0,                      !- Outdoor Air Flow Rate per Zone Floor Area
    0,                        !- Outdoor Air Flow Rate per Zone
    ,                         !- Design Specification Outdoor Air Object Name
    None,                     !- Demand Controlled Ventilation Type
    NoEconomizer,             !- Outdoor Air Economizer Type
    None,                     !- Heat Recovery Type
    0.70,                     !- Sensible Heat Recovery Effectiveness
    0.65;                     !- Latent Heat Recovery Effectiveness

HVACTEMPLATE:ZONE:IDEALLOADSAIRSYSTEM,
    489894ba3d990787_F1_whole,    !- Zone Name
    EU_HeatOnly_489894ba3d990787_F1_whole,    !- Template Thermostat Name
    EU_AlwaysOn,              !- System Availability Schedule Name
    50,                       !- Maximum Heating Supply Air Temperature
    13,                       !- Minimum Cooling Supply Air Temperature
    0.0156,                   !- Maximum Heating Supply Air Humidity Ratio
    0.0077,                   !- Minimum Cooling Supply Air Humidity Ratio
    NoLimit,                  !- Heating Limit
    ,                         !- Maximum Heating Air Flow Rate
    ,                         !- Maximum Sensible Heating Capacity
    NoLimit,                  !- Cooling Limit
    ,                         !- Maximum Cooling Air Flow Rate
    ,                         !- Maximum Total Cooling Capacity
    EU_AlwaysOn,              !- Heating Availability Schedule Name
    EU_CoolingOff,            !- Cooling Availability Schedule Name
    ConstantSensibleHeatRatio,    !- Dehumidification Control Type
    0.7,                      !- Cooling Sensible Heat Ratio
    60,                       !- Dehumidification Setpoint
    None,                     !- Humidification Control Type
    30,                       !- Humidification Setpoint
    None,                     !- Outdoor Air Method
    0.00944,                  !- Outdoor Air Flow Rate per Person
    0.0,                      !- Outdoor Air Flow Rate per Zone Floor Area
    0,                        !- Outdoor Air Flow Rate per Zone
    ,                         !- Design Specification Outdoor Air Object Name
    None,                     !- Demand Controlled Ventilation Type
    NoEconomizer,             !- Outdoor Air Economizer Type
    None,                     !- Heat Recovery Type
    0.70,                     !- Sensible Heat Recovery Effectiveness
    0.65;                     !- Latent Heat Recovery Effectiveness

HVACTEMPLATE:ZONE:IDEALLOADSAIRSYSTEM,
    489894ba3d990787_F2_whole,    !- Zone Name
    EU_HeatOnly_489894ba3d990787_F2_whole,    !- Template Thermostat Name
    EU_AlwaysOn,              !- System Availability Schedule Name
    50,                       !- Maximum Heating Supply Air Temperature
    13,                       !- Minimum Cooling Supply Air Temperature
    0.0156,                   !- Maximum Heating Supply Air Humidity Ratio
    0.0077,                   !- Minimum Cooling Supply Air Humidity Ratio
    NoLimit,                  !- Heating Limit
    ,                         !- Maximum Heating Air Flow Rate
    ,                         !- Maximum Sensible Heating Capacity
    NoLimit,                  !- Cooling Limit
    ,                         !- Maximum Cooling Air Flow Rate
    ,                         !- Maximum Total Cooling Capacity
    EU_AlwaysOn,              !- Heating Availability Schedule Name
    EU_CoolingOff,            !- Cooling Availability Schedule Name
    ConstantSensibleHeatRatio,    !- Dehumidification Control Type
    0.7,                      !- Cooling Sensible Heat Ratio
    60,                       !- Dehumidification Setpoint
    None,                     !- Humidification Control Type
    30,                       !- Humidification Setpoint
    None,                     !- Outdoor Air Method
    0.00944,                  !- Outdoor Air Flow Rate per Person
    0.0,                      !- Outdoor Air Flow Rate per Zone Floor Area
    0,                        !- Outdoor Air Flow Rate per Zone
    ,                         !- Design Specification Outdoor Air Object Name
    None,                     !- Demand Controlled Ventilation Type
    NoEconomizer,             !- Outdoor Air Economizer Type
    None,                     !- Heat Recovery Type
    0.70,                     !- Sensible Heat Recovery Effectiveness
    0.65;                     !- Latent Heat Recovery Effectiveness

SIZING:ZONE,
    489894ba3d990787_F0_whole,    !- Zone or ZoneList Name
    SupplyAirTemperature,     !- Zone Cooling Design Supply Air Temperature Input Method
    13,                       !- Zone Cooling Design Supply Air Temperature
    ,                         !- Zone Cooling Design Supply Air Temperature Difference
    SupplyAirTemperature,     !- Zone Heating Design Supply Air Temperature Input Method
    50,                       !- Zone Heating Design Supply Air Temperature
    ,                         !- Zone Heating Design Supply Air Temperature Difference
    0.008,                    !- Zone Cooling Design Supply Air Humidity Ratio
    0.008,                    !- Zone Heating Design Supply Air Humidity Ratio
    ,                         !- Design Specification Outdoor Air Object Name
    ,                         !- Zone Heating Sizing Factor
    ,                         !- Zone Cooling Sizing Factor
    DesignDay,                !- Cooling Design Air Flow Method
    0,                        !- Cooling Design Air Flow Rate
    0.000762,                 !- Cooling Minimum Air Flow per Zone Floor Area
    0,                        !- Cooling Minimum Air Flow
    0.2,                      !- Cooling Minimum Air Flow Fraction
    DesignDay,                !- Heating Design Air Flow Method
    0,                        !- Heating Design Air Flow Rate
    0.002032,                 !- Heating Maximum Air Flow per Zone Floor Area
    0.1415762,                !- Heating Maximum Air Flow
    0.3,                      !- Heating Maximum Air Flow Fraction
    ,                         !- Design Specification Zone Air Distribution Object Name
    No,                       !- Account for Dedicated Outdoor Air System
    NeutralSupplyAir,         !- Dedicated Outdoor Air System Control Strategy
    autosize,                 !- Dedicated Outdoor Air Low Setpoint Temperature for Design
    autosize,                 !- Dedicated Outdoor Air High Setpoint Temperature for Design
    Sensible Load Only No Latent Load,    !- Zone Load Sizing Method
    HumidityRatioDifference,    !- Zone Latent Cooling Design Supply Air Humidity Ratio Input Method
    ,                         !- Zone Dehumidification Design Supply Air Humidity Ratio
    0.005,                    !- Zone Cooling Design Supply Air Humidity Ratio Difference
    HumidityRatioDifference,    !- Zone Latent Heating Design Supply Air Humidity Ratio Input Method
    ,                         !- Zone Humidification Design Supply Air Humidity Ratio
    0.005;                    !- Zone Humidification Design Supply Air Humidity Ratio Difference

SIZING:ZONE,
    489894ba3d990787_F1_whole,    !- Zone or ZoneList Name
    SupplyAirTemperature,     !- Zone Cooling Design Supply Air Temperature Input Method
    13,                       !- Zone Cooling Design Supply Air Temperature
    ,                         !- Zone Cooling Design Supply Air Temperature Difference
    SupplyAirTemperature,     !- Zone Heating Design Supply Air Temperature Input Method
    50,                       !- Zone Heating Design Supply Air Temperature
    ,                         !- Zone Heating Design Supply Air Temperature Difference
    0.008,                    !- Zone Cooling Design Supply Air Humidity Ratio
    0.008,                    !- Zone Heating Design Supply Air Humidity Ratio
    ,                         !- Design Specification Outdoor Air Object Name
    ,                         !- Zone Heating Sizing Factor
    ,                         !- Zone Cooling Sizing Factor
    DesignDay,                !- Cooling Design Air Flow Method
    0,                        !- Cooling Design Air Flow Rate
    0.000762,                 !- Cooling Minimum Air Flow per Zone Floor Area
    0,                        !- Cooling Minimum Air Flow
    0.2,                      !- Cooling Minimum Air Flow Fraction
    DesignDay,                !- Heating Design Air Flow Method
    0,                        !- Heating Design Air Flow Rate
    0.002032,                 !- Heating Maximum Air Flow per Zone Floor Area
    0.1415762,                !- Heating Maximum Air Flow
    0.3,                      !- Heating Maximum Air Flow Fraction
    ,                         !- Design Specification Zone Air Distribution Object Name
    No,                       !- Account for Dedicated Outdoor Air System
    NeutralSupplyAir,         !- Dedicated Outdoor Air System Control Strategy
    autosize,                 !- Dedicated Outdoor Air Low Setpoint Temperature for Design
    autosize,                 !- Dedicated Outdoor Air High Setpoint Temperature for Design
    Sensible Load Only No Latent Load,    !- Zone Load Sizing Method
    HumidityRatioDifference,    !- Zone Latent Cooling Design Supply Air Humidity Ratio Input Method
    ,                         !- Zone Dehumidification Design Supply Air Humidity Ratio
    0.005,                    !- Zone Cooling Design Supply Air Humidity Ratio Difference
    HumidityRatioDifference,    !- Zone Latent Heating Design Supply Air Humidity Ratio Input Method
    ,                         !- Zone Humidification Design Supply Air Humidity Ratio
    0.005;                    !- Zone Humidification Design Supply Air Humidity Ratio Difference

SIZING:ZONE,
    489894ba3d990787_F2_whole,    !- Zone or ZoneList Name
    SupplyAirTemperature,     !- Zone Cooling Design Supply Air Temperature Input Method
    13,                       !- Zone Cooling Design Supply Air Temperature
    ,                         !- Zone Cooling Design Supply Air Temperature Difference
    SupplyAirTemperature,     !- Zone Heating Design Supply Air Temperature Input Method
    50,                       !- Zone Heating Design Supply Air Temperature
    ,                         !- Zone Heating Design Supply Air Temperature Difference
    0.008,                    !- Zone Cooling Design Supply Air Humidity Ratio
    0.008,                    !- Zone Heating Design Supply Air Humidity Ratio
    ,                         !- Design Specification Outdoor Air Object Name
    ,                         !- Zone Heating Sizing Factor
    ,                         !- Zone Cooling Sizing Factor
    DesignDay,                !- Cooling Design Air Flow Method
    0,                        !- Cooling Design Air Flow Rate
    0.000762,                 !- Cooling Minimum Air Flow per Zone Floor Area
    0,                        !- Cooling Minimum Air Flow
    0.2,                      !- Cooling Minimum Air Flow Fraction
    DesignDay,                !- Heating Design Air Flow Method
    0,                        !- Heating Design Air Flow Rate
    0.002032,                 !- Heating Maximum Air Flow per Zone Floor Area
    0.1415762,                !- Heating Maximum Air Flow
    0.3,                      !- Heating Maximum Air Flow Fraction
    ,                         !- Design Specification Zone Air Distribution Object Name
    No,                       !- Account for Dedicated Outdoor Air System
    NeutralSupplyAir,         !- Dedicated Outdoor Air System Control Strategy
    autosize,                 !- Dedicated Outdoor Air Low Setpoint Temperature for Design
    autosize,                 !- Dedicated Outdoor Air High Setpoint Temperature for Design
    Sensible Load Only No Latent Load,    !- Zone Load Sizing Method
    HumidityRatioDifference,    !- Zone Latent Cooling Design Supply Air Humidity Ratio Input Method
    ,                         !- Zone Dehumidification Design Supply Air Humidity Ratio
    0.005,                    !- Zone Cooling Design Supply Air Humidity Ratio Difference
    HumidityRatioDifference,    !- Zone Latent Heating Design Supply Air Humidity Ratio Input Method
    ,                         !- Zone Humidification Design Supply Air Humidity Ratio
    0.005;                    !- Zone Humidification Design Supply Air Humidity Ratio Difference

OUTPUT:VARIABLE,
    *,                        !- Key Value
    Zone Ideal Loads Zone Total Heating Energy,    !- Variable Name
    Hourly;                   !- Reporting Frequency

OUTPUT:SQLITE,
    SimpleAndTabular,         !- Option Type
    UseOutputControlTableStyle;    !- Unit Conversion for Tabular Data