!- Windows Line endings 

Version,
    23.1;                     !- Version Identifier

SimulationControl,
    Yes,                      !- Do Zone Sizing Calculation
    Yes,                      !- Do System Sizing Calculation
    Yes,                      !- Do Plant Sizing Calculation
    No,                       !- Run Simulation for Sizing Periods
    Yes,                      !- Run Simulation for Weather File Run Periods
    No,                       !- Do HVAC Sizing Simulation for Sizing Periods
    1;                        !- Maximum Number of HVAC Sizing Simulation Passes

Building,
    EU S2 Campaign,           !- Name
    0,                        !- North Axis
    City,                     !- Terrain
    ,                         !- Loads Convergence Tolerance Value
    ,                         !- Temperature Convergence Tolerance Value
    FullExterior,             !- Solar Distribution
    ,                         !- Maximum Number of Warmup Days
    ;                         !- Minimum Number of Warmup Days

ShadowCalculation,
    PolygonClipping,          !- Shading Calculation Method
    Periodic,                 !- Shading Calculation Update Frequency Method
    1;                        !- Shading Calculation Update Frequency

HeatBalanceAlgorithm,
    ConductionTransferFunction,    !- Algorithm
    200,                      !- Surface Temperature Upper Limit
    0.1,                      !- Minimum Surface Convection Heat Transfer Coefficient Value
    10000000;                 !- Maximum Surface Convection Heat Transfer Coefficient Value

Timestep,
    12;                       !- Number of Timesteps per Hour

Site:Location,
    London,                   !- Name
    51.5,                     !- Latitude
    -0.5,                     !- Longitude
    0,                        !- Time Zone
    25;                       !- Elevation

SizingPeriod:WeatherFileDays,
    AnnualSizingPeriod,       !- Name
    1,                        !- Begin Month
    1,                        !- Begin Day of Month
    12,                       !- End Month
    31,                       !- End Day of Month
    Monday,                   !- Day of Week for Start Day
    No,                       !- Use Weather File Daylight Saving Period
    No;                       !- Use Weather File Rain and Snow Indicators

RunPeriod,
    RunPeriod1,               !- Name
    1,                        !- Begin Month
    1,                        !- Begin Day of Month
    ,                         !- Begin Year
    12,                       !- End Month
    31,                       !- End Day of Month
    ,                         !- End Year
    Sunday,                   !- Day of Week for Start Day
    No,                       !- Use Weather File Holidays and Special Days
    No,                       !- Use Weather File Daylight Saving Period
    No,                       !- Apply Weekend Holiday Rule
    Yes,                      !- Use Weather File Rain Indicators
    Yes;                      !- Use Weather File Snow Indicators

ScheduleTypeLimits,
    Any Number;               !- Name

SCHEDULETYPELIMITS,
    EU_Step8_AnyNumber_Wm2,    !- Name
    ,                         !- Lower Limit Value
    ,                         !- Upper Limit Value
    Continuous,               !- Numeric Type
    Dimensionless;            !- Unit Type

SCHEDULE:CONSTANT,
    EU_AlwaysOn,              !- Name
    ,                         !- Schedule Type Limits Name
    1;                        !- Hourly Value

SCHEDULE:CONSTANT,
    EU_CoolingOff,            !- Name
    ,                         !- Schedule Type Limits Name
    0;                        !- Hourly Value

SCHEDULE:FILE,
    EU_Step8_GainSchedule_8e522a3797cac2b5_F0_dwelling_0_f000,    !- Name
    EU_Step8_AnyNumber_Wm2,    !- Schedule Type Limits Name
    ../../schedules/8e522a3797cac2b5/8e522a3797cac2b5_F0_dwelling_0_f000_gain.csv,    !- File Name
    1,                        !- Column Number
    0,                        !- Rows to Skip at Top
    8760,                     !- Number of Hours of Data
    Comma,                    !- Column Separator
    No,                       !- Interpolate to Timestep
    60,                       !- Minutes per Item
    Yes;                      !- Adjust Schedule for Daylight Savings

MATERIAL,
    EU_InternalMass_Material,    !- Name
    MediumRough,              !- Roughness
    0.1,                      !- Thickness
    1,                        !- Conductivity
    1800,                     !- Density
    900,                      !- Specific Heat
    0.9,                      !- Thermal Absorptance
    0.7,                      !- Solar Absorptance
    0.7;                      !- Visible Absorptance

MATERIAL:NOMASS,
    EU_wall_NoMass,           !- Name
    MediumRough,              !- Roughness
    0.5555555555555555,       !- Thermal Resistance
    0.9,                      !- Thermal Absorptance
    0.7,                      !- Solar Absorptance
    0.7;                      !- Visible Absorptance

MATERIAL:NOMASS,
    EU_roof_NoMass,           !- Name
    MediumRough,              !- Roughness
    0.5102040816326531,       !- Thermal Resistance
    0.9,                      !- Thermal Absorptance
    0.7,                      !- Solar Absorptance
    0.7;                      !- Visible Absorptance

MATERIAL:NOMASS,
    EU_floor_NoMass,          !- Name
    MediumRough,              !- Roughness
    1.6891891891891893,       !- Thermal Resistance
    0.9,                      !- Thermal Absorptance
    0.7,                      !- Solar Absorptance
    0.7;                      !- Visible Absorptance

CONSTRUCTION,
    EU_wall_Construction,     !- Name
    EU_wall_NoMass;           !- Outside Layer

CONSTRUCTION,
    EU_roof_Construction,     !- Name
    EU_roof_NoMass;           !- Outside Layer

CONSTRUCTION,
    EU_floor_Construction,    !- Name
    EU_floor_NoMass;          !- Outside Layer

CONSTRUCTION,
    EU_InternalMass_Construction,    !- Name
    EU_InternalMass_Material;    !- Outside Layer

GlobalGeometryRules,
    UpperLeftCorner,          !- Starting Vertex Position
    CounterClockWise,         !- Vertex Entry Direction
    World;                    !- Coordinate System

ZONE,
    8e522a3797cac2b5_F0_dwelling_0,    !- Name
    0,                        !- Direction of Relative North
    0,                        !- X Origin
    0,                        !- Y Origin
    0,                        !- Z Origin
    1,                        !- Type
    1,                        !- Multiplier
    autocalculate,            !- Ceiling Height
    291.662109375,            !- Volume
    autocalculate,            !- Floor Area
    ,                         !- Zone Inside Convection Algorithm
    ,                         !- Zone Outside Convection Algorithm
    Yes;                      !- Part of Total Floor Area

BUILDINGSURFACE:DETAILED,
    Block 8e522a3797cac2b5_0 Storey 0 Wall 0001,    !- Name
    wall,                     !- Surface Type
    EU_wall_Construction,     !- Construction Name
    8e522a3797cac2b5_F0_dwelling_0,    !- Zone Name
    ,                         !- Space Name
    Adiabatic,                !- Outside Boundary Condition
    ,                         !- Outside Boundary Condition Object
    NoSun,                    !- Sun Exposure
    NoWind,                   !- Wind Exposure
    autocalculate,            !- View Factor to Ground
    autocalculate,            !- Number of Vertices
    705464.823,               !- Vertex 1 Xcoordinate
    5711155.554,              !- Vertex 1 Ycoordinate
    6,                        !- Vertex 1 Zcoordinate
    705464.823,               !- Vertex 2 Xcoordinate
    5711155.554,              !- Vertex 2 Ycoordinate
    0,                        !- Vertex 2 Zcoordinate
    705457.368,               !- Vertex 3 Xcoordinate
    5711155.876,              !- Vertex 3 Ycoordinate
    0,                        !- Vertex 3 Zcoordinate
    705457.368,               !- Vertex 4 Xcoordinate
    5711155.876,              !- Vertex 4 Ycoordinate
    6;                        !- Vertex 4 Zcoordinate

BUILDINGSURFACE:DETAILED,
    Block 8e522a3797cac2b5_0 Storey 0 Wall 0002,    !- Name
    wall,                     !- Surface Type
    EU_wall_Construction,     !- Construction Name
    8e522a3797cac2b5_F0_dwelling_0,    !- Zone Name
    ,                         !- Space Name
    outdoors,                 !- Outside Boundary Condition
    ,                         !- Outside Boundary Condition Object
    SunExposed,               !- Sun Exposure
    WindExposed,              !- Wind Exposure
    autocalculate,            !- View Factor to Ground
    autocalculate,            !- Number of Vertices
    705457.368,               !- Vertex 1 Xcoordinate
    5711155.876,              !- Vertex 1 Ycoordinate
    6,                        !- Vertex 1 Zcoordinate
    705457.368,               !- Vertex 2 Xcoordinate
    5711155.876,              !- Vertex 2 Ycoordinate
    0,                        !- Vertex 2 Zcoordinate
    705457.576,               !- Vertex 3 Xcoordinate
    5711160.862,              !- Vertex 3 Ycoordinate
    0,                        !- Vertex 3 Zcoordinate
    705457.576,               !- Vertex 4 Xcoordinate
    5711160.862,              !- Vertex 4 Ycoordinate
    6;                        !- Vertex 4 Zcoordinate

BUILDINGSURFACE:DETAILED,
    Block 8e522a3797cac2b5_0 Storey 0 Wall 0003,    !- Name
    wall,                     !- Surface Type
    EU_wall_Construction,     !- Construction Name
    8e522a3797cac2b5_F0_dwelling_0,    !- Zone Name
    ,                         !- Space Name
    Adiabatic,                !- Outside Boundary Condition
    ,                         !- Outside Boundary Condition Object
    NoSun,                    !- Sun Exposure
    NoWind,                   !- Wind Exposure
    autocalculate,            !- View Factor to Ground
    autocalculate,            !- Number of Vertices
    705457.576,               !- Vertex 1 Xcoordinate
    5711160.862,              !- Vertex 1 Ycoordinate
    6,                        !- Vertex 1 Zcoordinate
    705457.576,               !- Vertex 2 Xcoordinate
    5711160.862,              !- Vertex 2 Ycoordinate
    0,                        !- Vertex 2 Zcoordinate
    705465.188,               !- Vertex 3 Xcoordinate
    5711160.614,              !- Vertex 3 Ycoordinate
    0,                        !- Vertex 3 Zcoordinate
    705465.188,               !- Vertex 4 Xcoordinate
    5711160.614,              !- Vertex 4 Ycoordinate
    6;                        !- Vertex 4 Zcoordinate

BUILDINGSURFACE:DETAILED,
    Block 8e522a3797cac2b5_0 Storey 0 Wall 0004,    !- Name
    wall,                     !- Surface Type
    EU_wall_Construction,     !- Construction Name
    8e522a3797cac2b5_F0_dwelling_0,    !- Zone Name
    ,                         !- Space Name
    Adiabatic,                !- Outside Boundary Condition
    ,                         !- Outside Boundary Condition Object
    NoSun,                    !- Sun Exposure
    NoWind,                   !- Wind Exposure
    autocalculate,            !- View Factor to Ground
    autocalculate,            !- Number of Vertices
    705465.188,               !- Vertex 1 Xcoordinate
    5711160.614,              !- Vertex 1 Ycoordinate
    6,                        !- Vertex 1 Zcoordinate
    705465.188,               !- Vertex 2 Xcoordinate
    5711160.614,              !- Vertex 2 Ycoordinate
    0,                        !- Vertex 2 Zcoordinate
    705468.378,               !- Vertex 3 Xcoordinate
    5711160.42,               !- Vertex 3 Ycoordinate
    0,                        !- Vertex 3 Zcoordinate
    705468.378,               !- Vertex 4 Xcoordinate
    5711160.42,               !- Vertex 4 Ycoordinate
    6;                        !- Vertex 4 Zcoordinate

BUILDINGSURFACE:DETAILED,
    Block 8e522a3797cac2b5_0 Storey 0 Wall 0005,    !- Name
    wall,                     !- Surface Type
    EU_wall_Construction,     !- Construction Name
    8e522a3797cac2b5_F0_dwelling_0,    !- Zone Name
    ,                         !- Space Name
    outdoors,                 !- Outside Boundary Condition
    ,                         !- Outside Boundary Condition Object
    SunExposed,               !- Sun Exposure
    WindExposed,              !- Wind Exposure
    autocalculate,            !- View Factor to Ground
    autocalculate,            !- Number of Vertices
    705468.378,               !- Vertex 1 Xcoordinate
    5711160.42,               !- Vertex 1 Ycoordinate
    6,                        !- Vertex 1 Zcoordinate
    705468.378,               !- Vertex 2 Xcoordinate
    5711160.42,               !- Vertex 2 Ycoordinate
    0,                        !- Vertex 2 Zcoordinate
    705468.157,               !- Vertex 3 Xcoordinate
    5711157.126,              !- Vertex 3 Ycoordinate
    0,                        !- Vertex 3 Zcoordinate
    705468.157,               !- Vertex 4 Xcoordinate
    5711157.126,              !- Vertex 4 Ycoordinate
    6;                        !- Vertex 4 Zcoordinate

BUILDINGSURFACE:DETAILED,
    Block 8e522a3797cac2b5_0 Storey 0 Wall 0006,    !- Name
    wall,                     !- Surface Type
    EU_wall_Construction,     !- Construction Name
    8e522a3797cac2b5_F0_dwelling_0,    !- Zone Name
    ,                         !- Space Name
    outdoors,                 !- Outside Boundary Condition
    ,                         !- Outside Boundary Condition Object
    SunExposed,               !- Sun Exposure
    WindExposed,              !- Wind Exposure
    autocalculate,            !- View Factor to Ground
    autocalculate,            !- Number of Vertices
    705468.157,               !- Vertex 1 Xcoordinate
    5711157.126,              !- Vertex 1 Ycoordinate
    6,                        !- Vertex 1 Zcoordinate
    705468.157,               !- Vertex 2 Xcoordinate
    5711157.126,              !- Vertex 2 Ycoordinate
    0,                        !- Vertex 2 Zcoordinate
    705464.969,               !- Vertex 3 Xcoordinate
    5711157.264,              !- Vertex 3 Ycoordinate
    0,                        !- Vertex 3 Zcoordinate
    705464.969,               !- Vertex 4 Xcoordinate
    5711157.264,              !- Vertex 4 Ycoordinate
    6;                        !- Vertex 4 Zcoordinate

BUILDINGSURFACE:DETAILED,
    Block 8e522a3797cac2b5_0 Storey 0 Wall 0007,    !- Name
    wall,                     !- Surface Type
    EU_wall_Construction,     !- Construction Name
    8e522a3797cac2b5_F0_dwelling_0,    !- Zone Name
    ,                         !- Space Name
    outdoors,                 !- Outside Boundary Condition
    ,                         !- Outside Boundary Condition Object
    SunExposed,               !- Sun Exposure
    WindExposed,              !- Wind Exposure
    autocalculate,            !- View Factor to Ground
    autocalculate,            !- Number of Vertices
    705464.969,               !- Vertex 1 Xcoordinate
    5711157.264,              !- Vertex 1 Ycoordinate
    6,                        !- Vertex 1 Zcoordinate
    705464.969,               !- Vertex 2 Xcoordinate
    5711157.264,              !- Vertex 2 Ycoordinate
    0,                        !- Vertex 2 Zcoordinate
    705464.823,               !- Vertex 3 Xcoordinate
    5711155.554,              !- Vertex 3 Ycoordinate
    0,                        !- Vertex 3 Zcoordinate
    705464.823,               !- Vertex 4 Xcoordinate
    5711155.554,              !- Vertex 4 Ycoordinate
    6;                        !- Vertex 4 Zcoordinate

BUILDINGSURFACE:DETAILED,
    Block 8e522a3797cac2b5_0 Storey 0 Floor 0001,    !- Name
    floor,                    !- Surface Type
    EU_floor_Construction,    !- Construction Name
    8e522a3797cac2b5_F0_dwelling_0,    !- Zone Name
    ,                         !- Space Name
    ground,                   !- Outside Boundary Condition
    ,                         !- Outside Boundary Condition Object
    NoSun,                    !- Sun Exposure
    NoWind,                   !- Wind Exposure
    autocalculate,            !- View Factor to Ground
    autocalculate,            !- Number of Vertices
    705468.157,               !- Vertex 1 Xcoordinate
    5711157.126,              !- Vertex 1 Ycoordinate
    0,                        !- Vertex 1 Zcoordinate
    705468.378,               !- Vertex 2 Xcoordinate
    5711160.42,               !- Vertex 2 Ycoordinate
    0,                        !- Vertex 2 Zcoordinate
    705465.188,               !- Vertex 3 Xcoordinate
    5711160.614,              !- Vertex 3 Ycoordinate
    0,                        !- Vertex 3 Zcoordinate
    705457.576,               !- Vertex 4 Xcoordinate
    5711160.862,              !- Vertex 4 Ycoordinate
    0,                        !- Vertex 4 Zcoordinate
    705457.368,               !- Vertex 5 Xcoordinate
    5711155.876,              !- Vertex 5 Ycoordinate
    0,                        !- Vertex 5 Zcoordinate
    705464.823,               !- Vertex 6 Xcoordinate
    5711155.554,              !- Vertex 6 Ycoordinate
    0,                        !- Vertex 6 Zcoordinate
    705464.969,               !- Vertex 7 Xcoordinate
    5711157.264,              !- Vertex 7 Ycoordinate
    0;                        !- Vertex 7 Zcoordinate

BUILDINGSURFACE:DETAILED,
    Block 8e522a3797cac2b5_0 Storey 0 Roof 0001,    !- Name
    roof,                     !- Surface Type
    EU_roof_Construction,     !- Construction Name
    8e522a3797cac2b5_F0_dwelling_0,    !- Zone Name
    ,                         !- Space Name
    outdoors,                 !- Outside Boundary Condition
    ,                         !- Outside Boundary Condition Object
    NoSun,                    !- Sun Exposure
    WindExposed,              !- Wind Exposure
    autocalculate,            !- View Factor to Ground
    autocalculate,            !- Number of Vertices
    705468.378,               !- Vertex 1 Xcoordinate
    5711160.42,               !- Vertex 1 Ycoordinate
    6,                        !- Vertex 1 Zcoordinate
    705468.157,               !- Vertex 2 Xcoordinate
    5711157.126,              !- Vertex 2 Ycoordinate
    6,                        !- Vertex 2 Zcoordinate
    705464.969,               !- Vertex 3 Xcoordinate
    5711157.264,              !- Vertex 3 Ycoordinate
    6,                        !- Vertex 3 Zcoordinate
    705464.823,               !- Vertex 4 Xcoordinate
    5711155.554,              !- Vertex 4 Ycoordinate
    6,                        !- Vertex 4 Zcoordinate
    705457.368,               !- Vertex 5 Xcoordinate
    5711155.876,              !- Vertex 5 Ycoordinate
    6,                        !- Vertex 5 Zcoordinate
    705457.576,               !- Vertex 6 Xcoordinate
    5711160.862,              !- Vertex 6 Ycoordinate
    6,                        !- Vertex 6 Zcoordinate
    705465.188,               !- Vertex 7 Xcoordinate
    5711160.614,              !- Vertex 7 Ycoordinate
    6;                        !- Vertex 7 Zcoordinate

INTERNALMASS,
    8e522a3797cac2b5_F0_dwelling_0_EU_InternalMass,    !- Name
    EU_InternalMass_Construction,    !- Construction Name
    8e522a3797cac2b5_F0_dwelling_0,    !- Zone or ZoneList Name
    ,                         !- Space or SpaceList Name
    48.61010599580119;        !- Surface Area

SHADING:SITE:DETAILED,
    shade_way/892496584_1,    !- Name
    ,                         !- Transmittance Schedule Name
    autocalculate,            !- Number of Vertices
    705467.0827824103,        !- Vertex 1 Xcoordinate
    5711130.979866055,        !- Vertex 1 Ycoordinate
    6,                        !- Vertex 1 Zcoordinate
    705467.0827824103,        !- Vertex 2 Xcoordinate
    5711130.979866055,        !- Vertex 2 Ycoordinate
    0,                        !- Vertex 2 Zcoordinate
    705456.0897391695,        !- Vertex 3 Xcoordinate
    5711131.513697458,        !- Vertex 3 Ycoordinate
    0,                        !- Vertex 3 Zcoordinate
    705456.0897391695,        !- Vertex 4 Xcoordinate
    5711131.513697458,        !- Vertex 4 Ycoordinate
    6;                        !- Vertex 4 Zcoordinate

SHADING:SITE:DETAILED,
    shade_way/892496584_2,    !- Name
    ,                         !- Transmittance Schedule Name
    autocalculate,            !- Number of Vertices
    705456.0897391695,        !- Vertex 1 Xcoordinate
    5711131.513697458,        !- Vertex 1 Ycoordinate
    6,                        !- Vertex 1 Zcoordinate
    705456.0897391695,        !- Vertex 2 Xcoordinate
    5711131.513697458,        !- Vertex 2 Ycoordinate
    0,                        !- Vertex 2 Zcoordinate
    705456.3289671295,        !- Vertex 3 Xcoordinate
    5711136.440921175,        !- Vertex 3 Ycoordinate
    0,                        !- Vertex 3 Zcoordinate
    705456.3289671295,        !- Vertex 4 Xcoordinate
    5711136.440921175,        !- Vertex 4 Ycoordinate
    6;                        !- Vertex 4 Zcoordinate

SHADING:SITE:DETAILED,
    shade_way/892496584_3,    !- Name
    ,                         !- Transmittance Schedule Name
    autocalculate,            !- Number of Vertices
    705456.3289671295,        !- Vertex 1 Xcoordinate
    5711136.440921175,        !- Vertex 1 Ycoordinate
    6,                        !- Vertex 1 Zcoordinate
    705456.3289671295,        !- Vertex 2 Xcoordinate
    5711136.440921175,        !- Vertex 2 Ycoordinate
    0,                        !- Vertex 2 Zcoordinate
    705467.321950628,         !- Vertex 3 Xcoordinate
    5711135.907347977,        !- Vertex 3 Ycoordinate
    0,                        !- Vertex 3 Zcoordinate
    705467.321950628,         !- Vertex 4 Xcoordinate
    5711135.907347977,        !- Vertex 4 Ycoordinate
    6;                        !- Vertex 4 Zcoordinate

SHADING:SITE:DETAILED,
    shade_way/892496584_4,    !- Name
    ,                         !- Transmittance Schedule Name
    autocalculate,            !- Number of Vertices
    705467.321950628,         !- Vertex 1 Xcoordinate
    5711135.907347977,        !- Vertex 1 Ycoordinate
    6,                        !- Vertex 1 Zcoordinate
    705467.321950628,         !- Vertex 2 Xcoordinate
    5711135.907347977,        !- Vertex 2 Ycoordinate
    0,                        !- Vertex 2 Zcoordinate
    705467.0827824103,        !- Vertex 3 Xcoordinate
    5711130.979866055,        !- Vertex 3 Ycoordinate
    0,                        !- Vertex 3 Zcoordinate
    705467.0827824103,        !- Vertex 4 Xcoordinate
    5711130.979866055,        !- Vertex 4 Ycoordinate
    6;                        !- Vertex 4 Zcoordinate

SHADING:SITE:DETAILED,
    shade_way/892496585_1,    !- Name
    ,                         !- Transmittance Schedule Name
    autocalculate,            !- Number of Vertices
    705456.5839625658,        !- Vertex 1 Xcoordinate
    5711141.179645795,        !- Vertex 1 Ycoordinate
    6,                        !- Vertex 1 Zcoordinate
    705456.5839625658,        !- Vertex 2 Xcoordinate
    5711141.179645795,        !- Vertex 2 Ycoordinate
    0,                        !- Vertex 2 Zcoordinate
    705467.5422759873,        !- Vertex 3 Xcoordinate
    5711140.6147760395,       !- Vertex 3 Ycoordinate
    0,                        !- Vertex 3 Zcoordinate
    705467.5422759873,        !- Vertex 4 Xcoordinate
    5711140.6147760395,       !- Vertex 4 Ycoordinate
    6;                        !- Vertex 4 Zcoordinate

SHADING:SITE:DETAILED,
    shade_way/892496585_2,    !- Name
    ,                         !- Transmittance Schedule Name
    autocalculate,            !- Number of Vertices
    705467.5422759873,        !- Vertex 1 Xcoordinate
    5711140.6147760395,       !- Vertex 1 Ycoordinate
    6,                        !- Vertex 1 Zcoordinate
    705467.5422759873,        !- Vertex 2 Xcoordinate
    5711140.6147760395,       !- Vertex 2 Ycoordinate
    0,                        !- Vertex 2 Zcoordinate
    705467.2954121883,        !- Vertex 3 Xcoordinate
    5711135.825688233,        !- Vertex 3 Ycoordinate
    0,                        !- Vertex 3 Zcoordinate
    705467.2954121883,        !- Vertex 4 Xcoordinate
    5711135.825688233,        !- Vertex 4 Ycoordinate
    6;                        !- Vertex 4 Zcoordinate

SHADING:SITE:DETAILED,
    shade_way/892496585_3,    !- Name
    ,                         !- Transmittance Schedule Name
    autocalculate,            !- Number of Vertices
    705467.2954121883,        !- Vertex 1 Xcoordinate
    5711135.825688233,        !- Vertex 1 Ycoordinate
    6,                        !- Vertex 1 Zcoordinate
    705467.2954121883,        !- Vertex 2 Xcoordinate
    5711135.825688233,        !- Vertex 2 Ycoordinate
    0,                        !- Vertex 2 Zcoordinate
    705456.3369875014,        !- Vertex 3 Xcoordinate
    5711136.390246984,        !- Vertex 3 Ycoordinate
    0,                        !- Vertex 3 Zcoordinate
    705456.3369875014,        !- Vertex 4 Xcoordinate
    5711136.390246984,        !- Vertex 4 Ycoordinate
    6;                        !- Vertex 4 Zcoordinate

SHADING:SITE:DETAILED,
    shade_way/892496585_4,    !- Name
    ,                         !- Transmittance Schedule Name
    autocalculate,            !- Number of Vertices
    705456.3369875014,        !- Vertex 1 Xcoordinate
    5711136.390246984,        !- Vertex 1 Ycoordinate
    6,                        !- Vertex 1 Zcoordinate
    705456.3369875014,        !- Vertex 2 Xcoordinate
    5711136.390246984,        !- Vertex 2 Ycoordinate
    0,                        !- Vertex 2 Zcoordinate
    705456.5839625658,        !- Vertex 3 Xcoordinate
    5711141.179645795,        !- Vertex 3 Ycoordinate
    0,                        !- Vertex 3 Zcoordinate
    705456.5839625658,        !- Vertex 4 Xcoordinate
    5711141.179645795,        !- Vertex 4 Ycoordinate
    6;                        !- Vertex 4 Zcoordinate

SHADING:SITE:DETAILED,
    shade_way/892496586_1,    !- Name
    ,                         !- Transmittance Schedule Name
    autocalculate,            !- Number of Vertices
    705456.8367091232,        !- Vertex 1 Xcoordinate
    5711146.109708333,        !- Vertex 1 Ycoordinate
    6,                        !- Vertex 1 Zcoordinate
    705456.8367091232,        !- Vertex 2 Xcoordinate
    5711146.109708333,        !- Vertex 2 Ycoordinate
    0,                        !- Vertex 2 Zcoordinate
    705467.7002952254,        !- Vertex 3 Xcoordinate
    5711145.592315108,        !- Vertex 3 Ycoordinate
    0,                        !- Vertex 3 Zcoordinate
    705467.7002952254,        !- Vertex 4 Xcoordinate
    5711145.592315108,        !- Vertex 4 Ycoordinate
    6;                        !- Vertex 4 Zcoordinate

SHADING:SITE:DETAILED,
    shade_way/892496586_2,    !- Name
    ,                         !- Transmittance Schedule Name
    autocalculate,            !- Number of Vertices
    705467.7002952254,        !- Vertex 1 Xcoordinate
    5711145.592315108,        !- Vertex 1 Ycoordinate
    6,                        !- Vertex 1 Zcoordinate
    705467.7002952254,        !- Vertex 2 Xcoordinate
    5711145.592315108,        !- Vertex 2 Ycoordinate
    0,                        !- Vertex 2 Zcoordinate
    705467.463956535,         !- Vertex 3 Xcoordinate
    5711140.6318170335,       !- Vertex 3 Ycoordinate
    0,                        !- Vertex 3 Zcoordinate
    705467.463956535,         !- Vertex 4 Xcoordinate
    5711140.6318170335,       !- Vertex 4 Ycoordinate
    6;                        !- Vertex 4 Zcoordinate

SHADING:SITE:DETAILED,
    shade_way/892496586_3,    !- Name
    ,                         !- Transmittance Schedule Name
    autocalculate,            !- Number of Vertices
    705467.463956535,         !- Vertex 1 Xcoordinate
    5711140.6318170335,       !- Vertex 1 Ycoordinate
    6,                        !- Vertex 1 Zcoordinate
    705467.463956535,         !- Vertex 2 Xcoordinate
    5711140.6318170335,       !- Vertex 2 Ycoordinate
    0,                        !- Vertex 2 Zcoordinate
    705456.6003565486,        !- Vertex 3 Xcoordinate
    5711141.149460492,        !- Vertex 3 Ycoordinate
    0,                        !- Vertex 3 Zcoordinate
    705456.6003565486,        !- Vertex 4 Xcoordinate
    5711141.149460492,        !- Vertex 4 Ycoordinate
    6;                        !- Vertex 4 Zcoordinate

SHADING:SITE:DETAILED,
    shade_way/892496586_4,    !- Name
    ,                         !- Transmittance Schedule Name
    autocalculate,            !- Number of Vertices
    705456.6003565486,        !- Vertex 1 Xcoordinate
    5711141.149460492,        !- Vertex 1 Ycoordinate
    6,                        !- Vertex 1 Zcoordinate
    705456.6003565486,        !- Vertex 2 Xcoordinate
    5711141.149460492,        !- Vertex 2 Ycoordinate
    0,                        !- Vertex 2 Zcoordinate
    705456.8367091232,        !- Vertex 3 Xcoordinate
    5711146.109708333,        !- Vertex 3 Ycoordinate
    0,                        !- Vertex 3 Zcoordinate
    705456.8367091232,        !- Vertex 4 Xcoordinate
    5711146.109708333,        !- Vertex 4 Ycoordinate
    6;                        !- Vertex 4 Zcoordinate

SHADING:SITE:DETAILED,
    shade_way/892496587_1,    !- Name
    ,                         !- Transmittance Schedule Name
    autocalculate,            !- Number of Vertices
    705467.7145362827,        !- Vertex 1 Xcoordinate
    5711145.61704607,         !- Vertex 1 Ycoordinate
    6,                        !- Vertex 1 Zcoordinate
    705467.7145362827,        !- Vertex 2 Xcoordinate
    5711145.61704607,         !- Vertex 2 Ycoordinate
    0,                        !- Vertex 2 Zcoordinate
    705456.8350826355,        !- Vertex 3 Xcoordinate
    5711146.05440207,         !- Vertex 3 Ycoordinate
    0,                        !- Vertex 3 Zcoordinate
    705456.8350826355,        !- Vertex 4 Xcoordinate
    5711146.05440207,         !- Vertex 4 Ycoordinate
    6;                        !- Vertex 4 Zcoordinate

SHADING:SITE:DETAILED,
    shade_way/892496587_2,    !- Name
    ,                         !- Transmittance Schedule Name
    autocalculate,            !- Number of Vertices
    705456.8350826355,        !- Vertex 1 Xcoordinate
    5711146.05440207,         !- Vertex 1 Ycoordinate
    6,                        !- Vertex 1 Zcoordinate
    705456.8350826355,        !- Vertex 2 Xcoordinate
    5711146.05440207,         !- Vertex 2 Ycoordinate
    0,                        !- Vertex 2 Zcoordinate
    705457.0288013099,        !- Vertex 3 Xcoordinate
    5711150.87632645,         !- Vertex 3 Ycoordinate
    0,                        !- Vertex 3 Zcoordinate
    705457.0288013099,        !- Vertex 4 Xcoordinate
    5711150.87632645,         !- Vertex 4 Ycoordinate
    6;                        !- Vertex 4 Zcoordinate

SHADING:SITE:DETAILED,
    shade_way/892496587_3,    !- Name
    ,                         !- Transmittance Schedule Name
    autocalculate,            !- Number of Vertices
    705457.0288013099,        !- Vertex 1 Xcoordinate
    5711150.87632645,         !- Vertex 1 Ycoordinate
    6,                        !- Vertex 1 Zcoordinate
    705457.0288013099,        !- Vertex 2 Xcoordinate
    5711150.87632645,         !- Vertex 2 Ycoordinate
    0,                        !- Vertex 2 Zcoordinate
    705467.9083148902,        !- Vertex 3 Xcoordinate
    5711150.43912566,         !- Vertex 3 Ycoordinate
    0,                        !- Vertex 3 Zcoordinate
    705467.9083148902,        !- Vertex 4 Xcoordinate
    5711150.43912566,         !- Vertex 4 Ycoordinate
    6;                        !- Vertex 4 Zcoordinate

SHADING:SITE:DETAILED,
    shade_way/892496587_4,    !- Name
    ,                         !- Transmittance Schedule Name
    autocalculate,            !- Number of Vertices
    705467.9083148902,        !- Vertex 1 Xcoordinate
    5711150.43912566,         !- Vertex 1 Ycoordinate
    6,                        !- Vertex 1 Zcoordinate
    705467.9083148902,        !- Vertex 2 Xcoordinate
    5711150.43912566,         !- Vertex 2 Ycoordinate
    0,                        !- Vertex 2 Zcoordinate
    705467.7145362827,        !- Vertex 3 Xcoordinate
    5711145.61704607,         !- Vertex 3 Ycoordinate
    0,                        !- Vertex 3 Zcoordinate
    705467.7145362827,        !- Vertex 4 Xcoordinate
    5711145.61704607,         !- Vertex 4 Ycoordinate
    6;                        !- Vertex 4 Zcoordinate

SHADING:SITE:DETAILED,
    shade_way/892496588_1,    !- Name
    ,                         !- Transmittance Schedule Name
    autocalculate,            !- Number of Vertices
    705457.3458942944,        !- Vertex 1 Xcoordinate
    5711155.877056594,        !- Vertex 1 Ycoordinate
    6,                        !- Vertex 1 Zcoordinate
    705457.3458942944,        !- Vertex 2 Xcoordinate
    5711155.877056594,        !- Vertex 2 Ycoordinate
    0,                        !- Vertex 2 Zcoordinate
    705468.1077922554,        !- Vertex 3 Xcoordinate
    5711155.412534892,        !- Vertex 3 Ycoordinate
    0,                        !- Vertex 3 Zcoordinate
    705468.1077922554,        !- Vertex 4 Xcoordinate
    5711155.412534892,        !- Vertex 4 Ycoordinate
    6;                        !- Vertex 4 Zcoordinate

SHADING:SITE:DETAILED,
    shade_way/892496588_2,    !- Name
    ,                         !- Transmittance Schedule Name
    autocalculate,            !- Number of Vertices
    705468.1077922554,        !- Vertex 1 Xcoordinate
    5711155.412534892,        !- Vertex 1 Ycoordinate
    6,                        !- Vertex 1 Zcoordinate
    705468.1077922554,        !- Vertex 2 Xcoordinate
    5711155.412534892,        !- Vertex 2 Ycoordinate
    0,                        !- Vertex 2 Zcoordinate
    705467.8900622613,        !- Vertex 3 Xcoordinate
    5711150.368232427,        !- Vertex 3 Ycoordinate
    0,                        !- Vertex 3 Zcoordinate
    705467.8900622613,        !- Vertex 4 Xcoordinate
    5711150.368232427,        !- Vertex 4 Ycoordinate
    6;                        !- Vertex 4 Zcoordinate

SHADING:SITE:DETAILED,
    shade_way/892496588_3,    !- Name
    ,                         !- Transmittance Schedule Name
    autocalculate,            !- Number of Vertices
    705467.8900622613,        !- Vertex 1 Xcoordinate
    5711150.368232427,        !- Vertex 1 Ycoordinate
    6,                        !- Vertex 1 Zcoordinate
    705467.8900622613,        !- Vertex 2 Xcoordinate
    5711150.368232427,        !- Vertex 2 Ycoordinate
    0,                        !- Vertex 2 Zcoordinate
    705457.1280019382,        !- Vertex 3 Xcoordinate
    5711150.832574922,        !- Vertex 3 Ycoordinate
    0,                        !- Vertex 3 Zcoordinate
    705457.1280019382,        !- Vertex 4 Xcoordinate
    5711150.832574922,        !- Vertex 4 Ycoordinate
    6;                        !- Vertex 4 Zcoordinate

SHADING:SITE:DETAILED,
    shade_way/892496588_4,    !- Name
    ,                         !- Transmittance Schedule Name
    autocalculate,            !- Number of Vertices
    705457.1280019382,        !- Vertex 1 Xcoordinate
    5711150.832574922,        !- Vertex 1 Ycoordinate
    6,                        !- Vertex 1 Zcoordinate
    705457.1280019382,        !- Vertex 2 Xcoordinate
    5711150.832574922,        !- Vertex 2 Ycoordinate
    0,                        !- Vertex 2 Zcoordinate
    705457.3458942944,        !- Vertex 3 Xcoordinate
    5711155.877056594,        !- Vertex 3 Ycoordinate
    0,                        !- Vertex 3 Zcoordinate
    705457.3458942944,        !- Vertex 4 Xcoordinate
    5711155.877056594,        !- Vertex 4 Ycoordinate
    6;                        !- Vertex 4 Zcoordinate

SHADING:SITE:DETAILED,
    shade_way/892496590_1,    !- Name
    ,                         !- Transmittance Schedule Name
    autocalculate,            !- Number of Vertices
    705457.8388010911,        !- Vertex 1 Xcoordinate
    5711165.897198932,        !- Vertex 1 Ycoordinate
    6,                        !- Vertex 1 Zcoordinate
    705457.8388010911,        !- Vertex 2 Xcoordinate
    5711165.897198932,        !- Vertex 2 Ycoordinate
    0,                        !- Vertex 2 Zcoordinate
    705468.6913902856,        !- Vertex 3 Xcoordinate
    5711165.332066415,        !- Vertex 3 Ycoordinate
    0,                        !- Vertex 3 Zcoordinate
    705468.6913902856,        !- Vertex 4 Xcoordinate
    5711165.332066415,        !- Vertex 4 Ycoordinate
    6;                        !- Vertex 4 Zcoordinate

SHADING:SITE:DETAILED,
    shade_way/892496590_2,    !- Name
    ,                         !- Transmittance Schedule Name
    autocalculate,            !- Number of Vertices
    705468.6913902856,        !- Vertex 1 Xcoordinate
    5711165.332066415,        !- Vertex 1 Ycoordinate
    6,                        !- Vertex 1 Zcoordinate
    705468.6913902856,        !- Vertex 2 Xcoordinate
    5711165.332066415,        !- Vertex 2 Ycoordinate
    0,                        !- Vertex 2 Zcoordinate
    705468.429202802,         !- Vertex 3 Xcoordinate
    5711160.29711804,         !- Vertex 3 Ycoordinate
    0,                        !- Vertex 3 Zcoordinate
    705468.429202802,         !- Vertex 4 Xcoordinate
    5711160.29711804,         !- Vertex 4 Ycoordinate
    6;                        !- Vertex 4 Zcoordinate

SHADING:SITE:DETAILED,
    shade_way/892496590_3,    !- Name
    ,                         !- Transmittance Schedule Name
    autocalculate,            !- Number of Vertices
    705468.429202802,         !- Vertex 1 Xcoordinate
    5711160.29711804,         !- Vertex 1 Ycoordinate
    6,                        !- Vertex 1 Zcoordinate
    705468.429202802,         !- Vertex 2 Xcoordinate
    5711160.29711804,         !- Vertex 2 Ycoordinate
    0,                        !- Vertex 2 Zcoordinate
    705457.5765501964,        !- Vertex 3 Xcoordinate
    5711160.862220435,        !- Vertex 3 Ycoordinate
    0,                        !- Vertex 3 Zcoordinate
    705457.5765501964,        !- Vertex 4 Xcoordinate
    5711160.862220435,        !- Vertex 4 Ycoordinate
    6;                        !- Vertex 4 Zcoordinate

SHADING:SITE:DETAILED,
    shade_way/892496590_4,    !- Name
    ,                         !- Transmittance Schedule Name
    autocalculate,            !- Number of Vertices
    705457.5765501964,        !- Vertex 1 Xcoordinate
    5711160.862220435,        !- Vertex 1 Ycoordinate
    6,                        !- Vertex 1 Zcoordinate
    705457.5765501964,        !- Vertex 2 Xcoordinate
    5711160.862220435,        !- Vertex 2 Ycoordinate
    0,                        !- Vertex 2 Zcoordinate
    705457.8388010911,        !- Vertex 3 Xcoordinate
    5711165.897198932,        !- Vertex 3 Ycoordinate
    0,                        !- Vertex 3 Zcoordinate
    705457.8388010911,        !- Vertex 4 Xcoordinate
    5711165.897198932,        !- Vertex 4 Ycoordinate
    6;                        !- Vertex 4 Zcoordinate

SHADING:SITE:DETAILED,
    shade_way/1061147002_1,    !- Name
    ,                         !- Transmittance Schedule Name
    autocalculate,            !- Number of Vertices
    705492.1131997459,        !- Vertex 1 Xcoordinate
    5711175.518482325,        !- Vertex 1 Ycoordinate
    6,                        !- Vertex 1 Zcoordinate
    705492.1131997459,        !- Vertex 2 Xcoordinate
    5711175.518482325,        !- Vertex 2 Ycoordinate
    0,                        !- Vertex 2 Zcoordinate
    705489.2628677358,        !- Vertex 3 Xcoordinate
    5711166.393760302,        !- Vertex 3 Ycoordinate
    0,                        !- Vertex 3 Zcoordinate
    705489.2628677358,        !- Vertex 4 Xcoordinate
    5711166.393760302,        !- Vertex 4 Ycoordinate
    6;                        !- Vertex 4 Zcoordinate

SHADING:SITE:DETAILED,
    shade_way/1061147002_2,    !- Name
    ,                         !- Transmittance Schedule Name
    autocalculate,            !- Number of Vertices
    705489.2628677358,        !- Vertex 1 Xcoordinate
    5711166.393760302,        !- Vertex 1 Ycoordinate
    6,                        !- Vertex 1 Zcoordinate
    705489.2628677358,        !- Vertex 2 Xcoordinate
    5711166.393760302,        !- Vertex 2 Ycoordinate
    0,                        !- Vertex 2 Zcoordinate
    705484.7034968438,        !- Vertex 3 Xcoordinate
    5711167.817992271,        !- Vertex 3 Ycoordinate
    0,                        !- Vertex 3 Zcoordinate
    705484.7034968438,        !- Vertex 4 Xcoordinate
    5711167.817992271,        !- Vertex 4 Ycoordinate
    6;                        !- Vertex 4 Zcoordinate

SHADING:SITE:DETAILED,
    shade_way/1061147002_3,    !- Name
    ,                         !- Transmittance Schedule Name
    autocalculate,            !- Number of Vertices
    705484.7034968438,        !- Vertex 1 Xcoordinate
    5711167.817992271,        !- Vertex 1 Ycoordinate
    6,                        !- Vertex 1 Zcoordinate
    705484.7034968438,        !- Vertex 2 Xcoordinate
    5711167.817992271,        !- Vertex 2 Ycoordinate
    0,                        !- Vertex 2 Zcoordinate
    705487.5539325947,        !- Vertex 3 Xcoordinate
    5711176.943008962,        !- Vertex 3 Ycoordinate
    0,                        !- Vertex 3 Zcoordinate
    705487.5539325947,        !- Vertex 4 Xcoordinate
    5711176.943008962,        !- Vertex 4 Ycoordinate
    6;                        !- Vertex 4 Zcoordinate

SHADING:SITE:DETAILED,
    shade_way/1061147002_4,    !- Name
    ,                         !- Transmittance Schedule Name
    autocalculate,            !- Number of Vertices
    705487.5539325947,        !- Vertex 1 Xcoordinate
    5711176.943008962,        !- Vertex 1 Ycoordinate
    6,                        !- Vertex 1 Zcoordinate
    705487.5539325947,        !- Vertex 2 Xcoordinate
    5711176.943008962,        !- Vertex 2 Ycoordinate
    0,                        !- Vertex 2 Zcoordinate
    705492.1131997459,        !- Vertex 3 Xcoordinate
    5711175.518482325,        !- Vertex 3 Ycoordinate
    0,                        !- Vertex 3 Zcoordinate
    705492.1131997459,        !- Vertex 4 Xcoordinate
    5711175.518482325,        !- Vertex 4 Ycoordinate
    6;                        !- Vertex 4 Zcoordinate

SHADING:SITE:DETAILED,
    shade_way/1061147001_1,    !- Name
    ,                         !- Transmittance Schedule Name
    autocalculate,            !- Number of Vertices
    705480.0926637361,        !- Vertex 1 Xcoordinate
    5711169.156968092,        !- Vertex 1 Ycoordinate
    6,                        !- Vertex 1 Zcoordinate
    705480.0926637361,        !- Vertex 2 Xcoordinate
    5711169.156968092,        !- Vertex 2 Ycoordinate
    0,                        !- Vertex 2 Zcoordinate
    705482.7870981935,        !- Vertex 3 Xcoordinate
    5711178.341594772,        !- Vertex 3 Ycoordinate
    0,                        !- Vertex 3 Zcoordinate
    705482.7870981935,        !- Vertex 4 Xcoordinate
    5711178.341594772,        !- Vertex 4 Ycoordinate
    6;                        !- Vertex 4 Zcoordinate

SHADING:SITE:DETAILED,
    shade_way/1061147001_2,    !- Name
    ,                         !- Transmittance Schedule Name
    autocalculate,            !- Number of Vertices
    705482.7870981935,        !- Vertex 1 Xcoordinate
    5711178.341594772,        !- Vertex 1 Ycoordinate
    6,                        !- Vertex 1 Zcoordinate
    705482.7870981935,        !- Vertex 2 Xcoordinate
    5711178.341594772,        !- Vertex 2 Ycoordinate
    0,                        !- Vertex 2 Zcoordinate
    705487.5676172301,        !- Vertex 3 Xcoordinate
    5711176.939164859,        !- Vertex 3 Ycoordinate
    0,                        !- Vertex 3 Zcoordinate
    705487.5676172301,        !- Vertex 4 Xcoordinate
    5711176.939164859,        !- Vertex 4 Ycoordinate
    6;                        !- Vertex 4 Zcoordinate

SHADING:SITE:DETAILED,
    shade_way/1061147001_3,    !- Name
    ,                         !- Transmittance Schedule Name
    autocalculate,            !- Number of Vertices
    705487.5676172301,        !- Vertex 1 Xcoordinate
    5711176.939164859,        !- Vertex 1 Ycoordinate
    6,                        !- Vertex 1 Zcoordinate
    705487.5676172301,        !- Vertex 2 Xcoordinate
    5711176.939164859,        !- Vertex 2 Ycoordinate
    0,                        !- Vertex 2 Zcoordinate
    705484.8731827727,        !- Vertex 3 Xcoordinate
    5711167.7545381775,       !- Vertex 3 Ycoordinate
    0,                        !- Vertex 3 Zcoordinate
    705484.8731827727,        !- Vertex 4 Xcoordinate
    5711167.7545381775,       !- Vertex 4 Ycoordinate
    6;                        !- Vertex 4 Zcoordinate

SHADING:SITE:DETAILED,
    shade_way/1061147001_4,    !- Name
    ,                         !- Transmittance Schedule Name
    autocalculate,            !- Number of Vertices
    705484.8731827727,        !- Vertex 1 Xcoordinate
    5711167.7545381775,       !- Vertex 1 Ycoordinate
    6,                        !- Vertex 1 Zcoordinate
    705484.8731827727,        !- Vertex 2 Xcoordinate
    5711167.7545381775,       !- Vertex 2 Ycoordinate
    0,                        !- Vertex 2 Zcoordinate
    705480.0926637361,        !- Vertex 3 Xcoordinate
    5711169.156968092,        !- Vertex 3 Ycoordinate
    0,                        !- Vertex 3 Zcoordinate
    705480.0926637361,        !- Vertex 4 Xcoordinate
    5711169.156968092,        !- Vertex 4 Ycoordinate
    6;                        !- Vertex 4 Zcoordinate

SHADING:SITE:DETAILED,
    shade_way/1061147000_1,    !- Name
    ,                         !- Transmittance Schedule Name
    autocalculate,            !- Number of Vertices
    705475.2311444742,        !- Vertex 1 Xcoordinate
    5711170.728123765,        !- Vertex 1 Ycoordinate
    6,                        !- Vertex 1 Zcoordinate
    705475.2311444742,        !- Vertex 2 Xcoordinate
    5711170.728123765,        !- Vertex 2 Ycoordinate
    0,                        !- Vertex 2 Zcoordinate
    705477.9520889352,        !- Vertex 3 Xcoordinate
    5711179.83936627,         !- Vertex 3 Ycoordinate
    0,                        !- Vertex 3 Zcoordinate
    705477.9520889352,        !- Vertex 4 Xcoordinate
    5711179.83936627,         !- Vertex 4 Ycoordinate
    6;                        !- Vertex 4 Zcoordinate

SHADING:SITE:DETAILED,
    shade_way/1061147000_2,    !- Name
    ,                         !- Transmittance Schedule Name
    autocalculate,            !- Number of Vertices
    705477.9520889352,        !- Vertex 1 Xcoordinate
    5711179.83936627,         !- Vertex 1 Ycoordinate
    6,                        !- Vertex 1 Zcoordinate
    705477.9520889352,        !- Vertex 2 Xcoordinate
    5711179.83936627,         !- Vertex 2 Ycoordinate
    0,                        !- Vertex 2 Zcoordinate
    705482.8835768776,        !- Vertex 3 Xcoordinate
    5711178.366464181,        !- Vertex 3 Ycoordinate
    0,                        !- Vertex 3 Zcoordinate
    705482.8835768776,        !- Vertex 4 Xcoordinate
    5711178.366464181,        !- Vertex 4 Ycoordinate
    6;                        !- Vertex 4 Zcoordinate

SHADING:SITE:DETAILED,
    shade_way/1061147000_3,    !- Name
    ,                         !- Transmittance Schedule Name
    autocalculate,            !- Number of Vertices
    705482.8835768776,        !- Vertex 1 Xcoordinate
    5711178.366464181,        !- Vertex 1 Ycoordinate
    6,                        !- Vertex 1 Zcoordinate
    705482.8835768776,        !- Vertex 2 Xcoordinate
    5711178.366464181,        !- Vertex 2 Ycoordinate
    0,                        !- Vertex 2 Zcoordinate
    705480.1626531137,        !- Vertex 3 Xcoordinate
    5711169.2553831525,       !- Vertex 3 Ycoordinate
    0,                        !- Vertex 3 Zcoordinate
    705480.1626531137,        !- Vertex 4 Xcoordinate
    5711169.2553831525,       !- Vertex 4 Ycoordinate
    6;                        !- Vertex 4 Zcoordinate

SHADING:SITE:DETAILED,
    shade_way/1061147000_4,    !- Name
    ,                         !- Transmittance Schedule Name
    autocalculate,            !- Number of Vertices
    705480.1626531137,        !- Vertex 1 Xcoordinate
    5711169.2553831525,       !- Vertex 1 Ycoordinate
    6,                        !- Vertex 1 Zcoordinate
    705480.1626531137,        !- Vertex 2 Xcoordinate
    5711169.2553831525,       !- Vertex 2 Ycoordinate
    0,                        !- Vertex 2 Zcoordinate
    705475.2311444742,        !- Vertex 3 Xcoordinate
    5711170.728123765,        !- Vertex 3 Ycoordinate
    0,                        !- Vertex 3 Zcoordinate
    705475.2311444742,        !- Vertex 4 Xcoordinate
    5711170.728123765,        !- Vertex 4 Ycoordinate
    6;                        !- Vertex 4 Zcoordinate

SHADING:SITE:DETAILED,
    shade_way/1061146999_1,    !- Name
    ,                         !- Transmittance Schedule Name
    autocalculate,            !- Number of Vertices
    705470.7374369422,        !- Vertex 1 Xcoordinate
    5711172.125286368,        !- Vertex 1 Ycoordinate
    6,                        !- Vertex 1 Zcoordinate
    705470.7374369422,        !- Vertex 2 Xcoordinate
    5711172.125286368,        !- Vertex 2 Ycoordinate
    0,                        !- Vertex 2 Zcoordinate
    705473.4768334021,        !- Vertex 3 Xcoordinate
    5711181.191371796,        !- Vertex 3 Ycoordinate
    0,                        !- Vertex 3 Zcoordinate
    705473.4768334021,        !- Vertex 4 Xcoordinate
    5711181.191371796,        !- Vertex 4 Ycoordinate
    6;                        !- Vertex 4 Zcoordinate

SHADING:SITE:DETAILED,
    shade_way/1061146999_2,    !- Name
    ,                         !- Transmittance Schedule Name
    autocalculate,            !- Number of Vertices
    705473.4768334021,        !- Vertex 1 Xcoordinate
    5711181.191371796,        !- Vertex 1 Ycoordinate
    6,                        !- Vertex 1 Zcoordinate
    705473.4768334021,        !- Vertex 2 Xcoordinate
    5711181.191371796,        !- Vertex 2 Ycoordinate
    0,                        !- Vertex 2 Zcoordinate
    705478.0133687378,        !- Vertex 3 Xcoordinate
    5711179.820618238,        !- Vertex 3 Ycoordinate
    0,                        !- Vertex 3 Zcoordinate
    705478.0133687378,        !- Vertex 4 Xcoordinate
    5711179.820618238,        !- Vertex 4 Ycoordinate
    6;                        !- Vertex 4 Zcoordinate

SHADING:SITE:DETAILED,
    shade_way/1061146999_3,    !- Name
    ,                         !- Transmittance Schedule Name
    autocalculate,            !- Number of Vertices
    705478.0133687378,        !- Vertex 1 Xcoordinate
    5711179.820618238,        !- Vertex 1 Ycoordinate
    6,                        !- Vertex 1 Zcoordinate
    705478.0133687378,        !- Vertex 2 Xcoordinate
    5711179.820618238,        !- Vertex 2 Ycoordinate
    0,                        !- Vertex 2 Zcoordinate
    705475.273972278,         !- Vertex 3 Xcoordinate
    5711170.75453281,         !- Vertex 3 Ycoordinate
    0,                        !- Vertex 3 Zcoordinate
    705475.273972278,         !- Vertex 4 Xcoordinate
    5711170.75453281,         !- Vertex 4 Ycoordinate
    6;                        !- Vertex 4 Zcoordinate

SHADING:SITE:DETAILED,
    shade_way/1061146999_4,    !- Name
    ,                         !- Transmittance Schedule Name
    autocalculate,            !- Number of Vertices
    705475.273972278,         !- Vertex 1 Xcoordinate
    5711170.75453281,         !- Vertex 1 Ycoordinate
    6,                        !- Vertex 1 Zcoordinate
    705475.273972278,         !- Vertex 2 Xcoordinate
    5711170.75453281,         !- Vertex 2 Ycoordinate
    0,                        !- Vertex 2 Zcoordinate
    705470.7374369422,        !- Vertex 3 Xcoordinate
    5711172.125286368,        !- Vertex 3 Ycoordinate
    0,                        !- Vertex 3 Zcoordinate
    705470.7374369422,        !- Vertex 4 Xcoordinate
    5711172.125286368,        !- Vertex 4 Ycoordinate
    6;                        !- Vertex 4 Zcoordinate

SHADING:SITE:DETAILED,
    shade_way/1061146998_1,    !- Name
    ,                         !- Transmittance Schedule Name
    autocalculate,            !- Number of Vertices
    705466.1992138549,        !- Vertex 1 Xcoordinate
    5711173.478179951,        !- Vertex 1 Ycoordinate
    6,                        !- Vertex 1 Zcoordinate
    705466.1992138549,        !- Vertex 2 Xcoordinate
    5711173.478179951,        !- Vertex 2 Ycoordinate
    0,                        !- Vertex 2 Zcoordinate
    705468.9970158299,        !- Vertex 3 Xcoordinate
    5711182.550342145,        !- Vertex 3 Ycoordinate
    0,                        !- Vertex 3 Zcoordinate
    705468.9970158299,        !- Vertex 4 Xcoordinate
    5711182.550342145,        !- Vertex 4 Ycoordinate
    6;                        !- Vertex 4 Zcoordinate

SHADING:SITE:DETAILED,
    shade_way/1061146998_2,    !- Name
    ,                         !- Transmittance Schedule Name
    autocalculate,            !- Number of Vertices
    705468.9970158299,        !- Vertex 1 Xcoordinate
    5711182.550342145,        !- Vertex 1 Ycoordinate
    6,                        !- Vertex 1 Zcoordinate
    705468.9970158299,        !- Vertex 2 Xcoordinate
    5711182.550342145,        !- Vertex 2 Ycoordinate
    0,                        !- Vertex 2 Zcoordinate
    705473.5265856582,        !- Vertex 3 Xcoordinate
    5711181.153368924,        !- Vertex 3 Ycoordinate
    0,                        !- Vertex 3 Zcoordinate
    705473.5265856582,        !- Vertex 4 Xcoordinate
    5711181.153368924,        !- Vertex 4 Ycoordinate
    6;                        !- Vertex 4 Zcoordinate

SHADING:SITE:DETAILED,
    shade_way/1061146998_3,    !- Name
    ,                         !- Transmittance Schedule Name
    autocalculate,            !- Number of Vertices
    705473.5265856582,        !- Vertex 1 Xcoordinate
    5711181.153368924,        !- Vertex 1 Ycoordinate
    6,                        !- Vertex 1 Zcoordinate
    705473.5265856582,        !- Vertex 2 Xcoordinate
    5711181.153368924,        !- Vertex 2 Ycoordinate
    0,                        !- Vertex 2 Zcoordinate
    705470.7281146599,        !- Vertex 3 Xcoordinate
    5711172.081165668,        !- Vertex 3 Ycoordinate
    0,                        !- Vertex 3 Zcoordinate
    705470.7281146599,        !- Vertex 4 Xcoordinate
    5711172.081165668,        !- Vertex 4 Ycoordinate
    6;                        !- Vertex 4 Zcoordinate

SHADING:SITE:DETAILED,
    shade_way/1061146998_4,    !- Name
    ,                         !- Transmittance Schedule Name
    autocalculate,            !- Number of Vertices
    705470.7281146599,        !- Vertex 1 Xcoordinate
    5711172.081165668,        !- Vertex 1 Ycoordinate
    6,                        !- Vertex 1 Zcoordinate
    705470.7281146599,        !- Vertex 2 Xcoordinate
    5711172.081165668,        !- Vertex 2 Ycoordinate
    0,                        !- Vertex 2 Zcoordinate
    705466.1992138549,        !- Vertex 3 Xcoordinate
    5711173.478179951,        !- Vertex 3 Ycoordinate
    0,                        !- Vertex 3 Zcoordinate
    705466.1992138549,        !- Vertex 4 Xcoordinate
    5711173.478179951,        !- Vertex 4 Ycoordinate
    6;                        !- Vertex 4 Zcoordinate

SHADING:SITE:DETAILED,
    shade_way/397131471_1,    !- Name
    ,                         !- Transmittance Schedule Name
    autocalculate,            !- Number of Vertices
    705461.4922350909,        !- Vertex 1 Xcoordinate
    5711175.171107846,        !- Vertex 1 Ycoordinate
    6,                        !- Vertex 1 Zcoordinate
    705461.4922350909,        !- Vertex 2 Xcoordinate
    5711175.171107846,        !- Vertex 2 Ycoordinate
    0,                        !- Vertex 2 Zcoordinate
    705464.1790433519,        !- Vertex 3 Xcoordinate
    5711184.014458006,        !- Vertex 3 Ycoordinate
    0,                        !- Vertex 3 Zcoordinate
    705464.1790433519,        !- Vertex 4 Xcoordinate
    5711184.014458006,        !- Vertex 4 Ycoordinate
    6;                        !- Vertex 4 Zcoordinate

SHADING:SITE:DETAILED,
    shade_way/397131471_2,    !- Name
    ,                         !- Transmittance Schedule Name
    autocalculate,            !- Number of Vertices
    705464.1790433519,        !- Vertex 1 Xcoordinate
    5711184.014458006,        !- Vertex 1 Ycoordinate
    6,                        !- Vertex 1 Zcoordinate
    705464.1790433519,        !- Vertex 2 Xcoordinate
    5711184.014458006,        !- Vertex 2 Ycoordinate
    0,                        !- Vertex 2 Zcoordinate
    705468.9970158299,        !- Vertex 3 Xcoordinate
    5711182.550342145,        !- Vertex 3 Ycoordinate
    0,                        !- Vertex 3 Zcoordinate
    705468.9970158299,        !- Vertex 4 Xcoordinate
    5711182.550342145,        !- Vertex 4 Ycoordinate
    6;                        !- Vertex 4 Zcoordinate

SHADING:SITE:DETAILED,
    shade_way/397131471_3,    !- Name
    ,                         !- Transmittance Schedule Name
    autocalculate,            !- Number of Vertices
    705468.9970158299,        !- Vertex 1 Xcoordinate
    5711182.550342145,        !- Vertex 1 Ycoordinate
    6,                        !- Vertex 1 Zcoordinate
    705468.9970158299,        !- Vertex 2 Xcoordinate
    5711182.550342145,        !- Vertex 2 Ycoordinate
    0,                        !- Vertex 2 Zcoordinate
    705466.3104474691,        !- Vertex 3 Xcoordinate
    5711173.707226787,        !- Vertex 3 Ycoordinate
    0,                        !- Vertex 3 Zcoordinate
    705466.3104474691,        !- Vertex 4 Xcoordinate
    5711173.707226787,        !- Vertex 4 Ycoordinate
    6;                        !- Vertex 4 Zcoordinate

SHADING:SITE:DETAILED,
    shade_way/397131471_4,    !- Name
    ,                         !- Transmittance Schedule Name
    autocalculate,            !- Number of Vertices
    705466.3104474691,        !- Vertex 1 Xcoordinate
    5711173.707226787,        !- Vertex 1 Ycoordinate
    6,                        !- Vertex 1 Zcoordinate
    705466.3104474691,        !- Vertex 2 Xcoordinate
    5711173.707226787,        !- Vertex 2 Ycoordinate
    0,                        !- Vertex 2 Zcoordinate
    705461.4922350909,        !- Vertex 3 Xcoordinate
    5711175.171107846,        !- Vertex 3 Ycoordinate
    0,                        !- Vertex 3 Zcoordinate
    705461.4922350909,        !- Vertex 4 Xcoordinate
    5711175.171107846,        !- Vertex 4 Ycoordinate
    6;                        !- Vertex 4 Zcoordinate

SHADING:SITE:DETAILED,
    shade_way/502746345_1,    !- Name
    ,                         !- Transmittance Schedule Name
    autocalculate,            !- Number of Vertices
    705464.1974048751,        !- Vertex 1 Xcoordinate
    5711184.077267699,        !- Vertex 1 Ycoordinate
    6,                        !- Vertex 1 Zcoordinate
    705464.1974048751,        !- Vertex 2 Xcoordinate
    5711184.077267699,        !- Vertex 2 Ycoordinate
    0,                        !- Vertex 2 Zcoordinate
    705462.3845945947,        !- Vertex 3 Xcoordinate
    5711178.028541866,        !- Vertex 3 Ycoordinate
    0,                        !- Vertex 3 Zcoordinate
    705462.3845945947,        !- Vertex 4 Xcoordinate
    5711178.028541866,        !- Vertex 4 Ycoordinate
    6;                        !- Vertex 4 Zcoordinate

SHADING:SITE:DETAILED,
    shade_way/502746345_2,    !- Name
    ,                         !- Transmittance Schedule Name
    autocalculate,            !- Number of Vertices
    705462.3845945947,        !- Vertex 1 Xcoordinate
    5711178.028541866,        !- Vertex 1 Ycoordinate
    6,                        !- Vertex 1 Zcoordinate
    705462.3845945947,        !- Vertex 2 Xcoordinate
    5711178.028541866,        !- Vertex 2 Ycoordinate
    0,                        !- Vertex 2 Zcoordinate
    705457.4913893944,        !- Vertex 3 Xcoordinate
    5711179.495478182,        !- Vertex 3 Ycoordinate
    0,                        !- Vertex 3 Zcoordinate
    705457.4913893944,        !- Vertex 4 Xcoordinate
    5711179.495478182,        !- Vertex 4 Ycoordinate
    6;                        !- Vertex 4 Zcoordinate

SHADING:SITE:DETAILED,
    shade_way/502746345_3,    !- Name
    ,                         !- Transmittance Schedule Name
    autocalculate,            !- Number of Vertices
    705457.4913893944,        !- Vertex 1 Xcoordinate
    5711179.495478182,        !- Vertex 1 Ycoordinate
    6,                        !- Vertex 1 Zcoordinate
    705457.4913893944,        !- Vertex 2 Xcoordinate
    5711179.495478182,        !- Vertex 2 Ycoordinate
    0,                        !- Vertex 2 Zcoordinate
    705459.3043124785,        !- Vertex 3 Xcoordinate
    5711185.5438985815,       !- Vertex 3 Ycoordinate
    0,                        !- Vertex 3 Zcoordinate
    705459.3043124785,        !- Vertex 4 Xcoordinate
    5711185.5438985815,       !- Vertex 4 Ycoordinate
    6;                        !- Vertex 4 Zcoordinate

SHADING:SITE:DETAILED,
    shade_way/502746345_4,    !- Name
    ,                         !- Transmittance Schedule Name
    autocalculate,            !- Number of Vertices
    705459.3043124785,        !- Vertex 1 Xcoordinate
    5711185.5438985815,       !- Vertex 1 Ycoordinate
    6,                        !- Vertex 1 Zcoordinate
    705459.3043124785,        !- Vertex 2 Xcoordinate
    5711185.5438985815,       !- Vertex 2 Ycoordinate
    0,                        !- Vertex 2 Zcoordinate
    705464.1974048751,        !- Vertex 3 Xcoordinate
    5711184.077267699,        !- Vertex 3 Ycoordinate
    0,                        !- Vertex 3 Zcoordinate
    705464.1974048751,        !- Vertex 4 Xcoordinate
    5711184.077267699,        !- Vertex 4 Ycoordinate
    6;                        !- Vertex 4 Zcoordinate

SHADING:SITE:DETAILED,
    shade_way/892496599_1,    !- Name
    ,                         !- Transmittance Schedule Name
    autocalculate,            !- Number of Vertices
    705446.3965628826,        !- Vertex 1 Xcoordinate
    5711167.074921345,        !- Vertex 1 Ycoordinate
    6,                        !- Vertex 1 Zcoordinate
    705446.3965628826,        !- Vertex 2 Xcoordinate
    5711167.074921345,        !- Vertex 2 Ycoordinate
    0,                        !- Vertex 2 Zcoordinate
    705435.0128003313,        !- Vertex 3 Xcoordinate
    5711167.524798069,        !- Vertex 3 Ycoordinate
    0,                        !- Vertex 3 Zcoordinate
    705435.0128003313,        !- Vertex 4 Xcoordinate
    5711167.524798069,        !- Vertex 4 Ycoordinate
    6;                        !- Vertex 4 Zcoordinate

SHADING:SITE:DETAILED,
    shade_way/892496599_2,    !- Name
    ,                         !- Transmittance Schedule Name
    autocalculate,            !- Number of Vertices
    705435.0128003313,        !- Vertex 1 Xcoordinate
    5711167.524798069,        !- Vertex 1 Ycoordinate
    6,                        !- Vertex 1 Zcoordinate
    705435.0128003313,        !- Vertex 2 Xcoordinate
    5711167.524798069,        !- Vertex 2 Ycoordinate
    0,                        !- Vertex 2 Zcoordinate
    705435.2179756382,        !- Vertex 3 Xcoordinate
    5711172.716591424,        !- Vertex 3 Ycoordinate
    0,                        !- Vertex 3 Zcoordinate
    705435.2179756382,        !- Vertex 4 Xcoordinate
    5711172.716591424,        !- Vertex 4 Ycoordinate
    6;                        !- Vertex 4 Zcoordinate

SHADING:SITE:DETAILED,
    shade_way/892496599_3,    !- Name
    ,                         !- Transmittance Schedule Name
    autocalculate,            !- Number of Vertices
    705435.2179756382,        !- Vertex 1 Xcoordinate
    5711172.716591424,        !- Vertex 1 Ycoordinate
    6,                        !- Vertex 1 Zcoordinate
    705435.2179756382,        !- Vertex 2 Xcoordinate
    5711172.716591424,        !- Vertex 2 Ycoordinate
    0,                        !- Vertex 2 Zcoordinate
    705446.6018482473,        !- Vertex 3 Xcoordinate
    5711172.266820461,        !- Vertex 3 Ycoordinate
    0,                        !- Vertex 3 Zcoordinate
    705446.6018482473,        !- Vertex 4 Xcoordinate
    5711172.266820461,        !- Vertex 4 Ycoordinate
    6;                        !- Vertex 4 Zcoordinate

SHADING:SITE:DETAILED,
    shade_way/892496599_4,    !- Name
    ,                         !- Transmittance Schedule Name
    autocalculate,            !- Number of Vertices
    705446.6018482473,        !- Vertex 1 Xcoordinate
    5711172.266820461,        !- Vertex 1 Ycoordinate
    6,                        !- Vertex 1 Zcoordinate
    705446.6018482473,        !- Vertex 2 Xcoordinate
    5711172.266820461,        !- Vertex 2 Ycoordinate
    0,                        !- Vertex 2 Zcoordinate
    705446.3965628826,        !- Vertex 3 Xcoordinate
    5711167.074921345,        !- Vertex 3 Ycoordinate
    0,                        !- Vertex 3 Zcoordinate
    705446.3965628826,        !- Vertex 4 Xcoordinate
    5711167.074921345,        !- Vertex 4 Ycoordinate
    6;                        !- Vertex 4 Zcoordinate

SHADING:SITE:DETAILED,
    shade_way/892496591_1,    !- Name
    ,                         !- Transmittance Schedule Name
    autocalculate,            !- Number of Vertices
    705447.4646880752,        !- Vertex 1 Xcoordinate
    5711190.524749139,        !- Vertex 1 Ycoordinate
    6,                        !- Vertex 1 Zcoordinate
    705447.4646880752,        !- Vertex 2 Xcoordinate
    5711190.524749139,        !- Vertex 2 Ycoordinate
    0,                        !- Vertex 2 Zcoordinate
    705446.7468416961,        !- Vertex 3 Xcoordinate
    5711175.069662072,        !- Vertex 3 Ycoordinate
    0,                        !- Vertex 3 Zcoordinate
    705446.7468416961,        !- Vertex 4 Xcoordinate
    5711175.069662072,        !- Vertex 4 Ycoordinate
    6;                        !- Vertex 4 Zcoordinate

SHADING:SITE:DETAILED,
    shade_way/892496591_2,    !- Name
    ,                         !- Transmittance Schedule Name
    autocalculate,            !- Number of Vertices
    705446.7468416961,        !- Vertex 1 Xcoordinate
    5711175.069662072,        !- Vertex 1 Ycoordinate
    6,                        !- Vertex 1 Zcoordinate
    705446.7468416961,        !- Vertex 2 Xcoordinate
    5711175.069662072,        !- Vertex 2 Ycoordinate
    0,                        !- Vertex 2 Zcoordinate
    705441.482552511,         !- Vertex 3 Xcoordinate
    5711175.314173858,        !- Vertex 3 Ycoordinate
    0,                        !- Vertex 3 Zcoordinate
    705441.482552511,         !- Vertex 4 Xcoordinate
    5711175.314173858,        !- Vertex 4 Ycoordinate
    6;                        !- Vertex 4 Zcoordinate

SHADING:SITE:DETAILED,
    shade_way/892496591_3,    !- Name
    ,                         !- Transmittance Schedule Name
    autocalculate,            !- Number of Vertices
    705441.482552511,         !- Vertex 1 Xcoordinate
    5711175.314173858,        !- Vertex 1 Ycoordinate
    6,                        !- Vertex 1 Zcoordinate
    705441.482552511,         !- Vertex 2 Xcoordinate
    5711175.314173858,        !- Vertex 2 Ycoordinate
    0,                        !- Vertex 2 Zcoordinate
    705442.2003988902,        !- Vertex 3 Xcoordinate
    5711190.769260924,        !- Vertex 3 Ycoordinate
    0,                        !- Vertex 3 Zcoordinate
    705442.2003988902,        !- Vertex 4 Xcoordinate
    5711190.769260924,        !- Vertex 4 Ycoordinate
    6;                        !- Vertex 4 Zcoordinate

SHADING:SITE:DETAILED,
    shade_way/892496591_4,    !- Name
    ,                         !- Transmittance Schedule Name
    autocalculate,            !- Number of Vertices
    705442.2003988902,        !- Vertex 1 Xcoordinate
    5711190.769260924,        !- Vertex 1 Ycoordinate
    6,                        !- Vertex 1 Zcoordinate
    705442.2003988902,        !- Vertex 2 Xcoordinate
    5711190.769260924,        !- Vertex 2 Ycoordinate
    0,                        !- Vertex 2 Zcoordinate
    705447.4646880752,        !- Vertex 3 Xcoordinate
    5711190.524749139,        !- Vertex 3 Ycoordinate
    0,                        !- Vertex 3 Zcoordinate
    705447.4646880752,        !- Vertex 4 Xcoordinate
    5711190.524749139,        !- Vertex 4 Ycoordinate
    6;                        !- Vertex 4 Zcoordinate

SHADING:SITE:DETAILED,
    shade_way/892496604_1,    !- Name
    ,                         !- Transmittance Schedule Name
    autocalculate,            !- Number of Vertices
    705434.3193272295,        !- Vertex 1 Xcoordinate
    5711147.627281699,        !- Vertex 1 Ycoordinate
    6,                        !- Vertex 1 Zcoordinate
    705434.3193272295,        !- Vertex 2 Xcoordinate
    5711147.627281699,        !- Vertex 2 Ycoordinate
    0,                        !- Vertex 2 Zcoordinate
    705445.3337219129,        !- Vertex 3 Xcoordinate
    5711146.951939003,        !- Vertex 3 Ycoordinate
    0,                        !- Vertex 3 Zcoordinate
    705445.3337219129,        !- Vertex 4 Xcoordinate
    5711146.951939003,        !- Vertex 4 Ycoordinate
    6;                        !- Vertex 4 Zcoordinate

SHADING:SITE:DETAILED,
    shade_way/892496604_2,    !- Name
    ,                         !- Transmittance Schedule Name
    autocalculate,            !- Number of Vertices
    705445.3337219129,        !- Vertex 1 Xcoordinate
    5711146.951939003,        !- Vertex 1 Ycoordinate
    6,                        !- Vertex 1 Zcoordinate
    705445.3337219129,        !- Vertex 2 Xcoordinate
    5711146.951939003,        !- Vertex 2 Ycoordinate
    0,                        !- Vertex 2 Zcoordinate
    705445.0199075966,        !- Vertex 3 Xcoordinate
    5711141.834236849,        !- Vertex 3 Ycoordinate
    0,                        !- Vertex 3 Zcoordinate
    705445.0199075966,        !- Vertex 4 Xcoordinate
    5711141.834236849,        !- Vertex 4 Ycoordinate
    6;                        !- Vertex 4 Zcoordinate

SHADING:SITE:DETAILED,
    shade_way/892496604_3,    !- Name
    ,                         !- Transmittance Schedule Name
    autocalculate,            !- Number of Vertices
    705445.0199075966,        !- Vertex 1 Xcoordinate
    5711141.834236849,        !- Vertex 1 Ycoordinate
    6,                        !- Vertex 1 Zcoordinate
    705445.0199075966,        !- Vertex 2 Xcoordinate
    5711141.834236849,        !- Vertex 2 Ycoordinate
    0,                        !- Vertex 2 Zcoordinate
    705434.0055272939,        !- Vertex 3 Xcoordinate
    5711142.509411365,        !- Vertex 3 Ycoordinate
    0,                        !- Vertex 3 Zcoordinate
    705434.0055272939,        !- Vertex 4 Xcoordinate
    5711142.509411365,        !- Vertex 4 Ycoordinate
    6;                        !- Vertex 4 Zcoordinate

SHADING:SITE:DETAILED,
    shade_way/892496604_4,    !- Name
    ,                         !- Transmittance Schedule Name
    autocalculate,            !- Number of Vertices
    705434.0055272939,        !- Vertex 1 Xcoordinate
    5711142.509411365,        !- Vertex 1 Ycoordinate
    6,                        !- Vertex 1 Zcoordinate
    705434.0055272939,        !- Vertex 2 Xcoordinate
    5711142.509411365,        !- Vertex 2 Ycoordinate
    0,                        !- Vertex 2 Zcoordinate
    705434.3193272295,        !- Vertex 3 Xcoordinate
    5711147.627281699,        !- Vertex 3 Ycoordinate
    0,                        !- Vertex 3 Zcoordinate
    705434.3193272295,        !- Vertex 4 Xcoordinate
    5711147.627281699,        !- Vertex 4 Ycoordinate
    6;                        !- Vertex 4 Zcoordinate

SHADING:SITE:DETAILED,
    shade_way/892496603_1,    !- Name
    ,                         !- Transmittance Schedule Name
    autocalculate,            !- Number of Vertices
    705434.6502321868,        !- Vertex 1 Xcoordinate
    5711152.539503859,        !- Vertex 1 Ycoordinate
    6,                        !- Vertex 1 Zcoordinate
    705434.6502321868,        !- Vertex 2 Xcoordinate
    5711152.539503859,        !- Vertex 2 Ycoordinate
    0,                        !- Vertex 2 Zcoordinate
    705445.5667887394,        !- Vertex 3 Xcoordinate
    5711151.884903698,        !- Vertex 3 Ycoordinate
    0,                        !- Vertex 3 Zcoordinate
    705445.5667887394,        !- Vertex 4 Xcoordinate
    5711151.884903698,        !- Vertex 4 Ycoordinate
    6;                        !- Vertex 4 Zcoordinate

SHADING:SITE:DETAILED,
    shade_way/892496603_2,    !- Name
    ,                         !- Transmittance Schedule Name
    autocalculate,            !- Number of Vertices
    705445.5667887394,        !- Vertex 1 Xcoordinate
    5711151.884903698,        !- Vertex 1 Ycoordinate
    6,                        !- Vertex 1 Zcoordinate
    705445.5667887394,        !- Vertex 2 Xcoordinate
    5711151.884903698,        !- Vertex 2 Ycoordinate
    0,                        !- Vertex 2 Zcoordinate
    705445.2711357827,        !- Vertex 3 Xcoordinate
    5711146.955943743,        !- Vertex 3 Ycoordinate
    0,                        !- Vertex 3 Zcoordinate
    705445.2711357827,        !- Vertex 4 Xcoordinate
    5711146.955943743,        !- Vertex 4 Ycoordinate
    6;                        !- Vertex 4 Zcoordinate

SHADING:SITE:DETAILED,
    shade_way/892496603_3,    !- Name
    ,                         !- Transmittance Schedule Name
    autocalculate,            !- Number of Vertices
    705445.2711357827,        !- Vertex 1 Xcoordinate
    5711146.955943743,        !- Vertex 1 Ycoordinate
    6,                        !- Vertex 1 Zcoordinate
    705445.2711357827,        !- Vertex 2 Xcoordinate
    5711146.955943743,        !- Vertex 2 Ycoordinate
    0,                        !- Vertex 2 Zcoordinate
    705434.3548756688,        !- Vertex 3 Xcoordinate
    5711147.6102409,          !- Vertex 3 Ycoordinate
    0,                        !- Vertex 3 Zcoordinate
    705434.3548756688,        !- Vertex 4 Xcoordinate
    5711147.6102409,          !- Vertex 4 Ycoordinate
    6;                        !- Vertex 4 Zcoordinate

SHADING:SITE:DETAILED,
    shade_way/892496603_4,    !- Name
    ,                         !- Transmittance Schedule Name
    autocalculate,            !- Number of Vertices
    705434.3548756688,        !- Vertex 1 Xcoordinate
    5711147.6102409,          !- Vertex 1 Ycoordinate
    6,                        !- Vertex 1 Zcoordinate
    705434.3548756688,        !- Vertex 2 Xcoordinate
    5711147.6102409,          !- Vertex 2 Ycoordinate
    0,                        !- Vertex 2 Zcoordinate
    705434.6502321868,        !- Vertex 3 Xcoordinate
    5711152.539503859,        !- Vertex 3 Ycoordinate
    0,                        !- Vertex 3 Zcoordinate
    705434.6502321868,        !- Vertex 4 Xcoordinate
    5711152.539503859,        !- Vertex 4 Ycoordinate
    6;                        !- Vertex 4 Zcoordinate

SHADING:SITE:DETAILED,
    shade_way/892496602_1,    !- Name
    ,                         !- Transmittance Schedule Name
    autocalculate,            !- Number of Vertices
    705445.5189722169,        !- Vertex 1 Xcoordinate
    5711151.887642068,        !- Vertex 1 Ycoordinate
    6,                        !- Vertex 1 Zcoordinate
    705445.5189722169,        !- Vertex 2 Xcoordinate
    5711151.887642068,        !- Vertex 2 Ycoordinate
    0,                        !- Vertex 2 Zcoordinate
    705434.6178558485,        !- Vertex 3 Xcoordinate
    5711152.52586765,         !- Vertex 3 Ycoordinate
    0,                        !- Vertex 3 Zcoordinate
    705434.6178558485,        !- Vertex 4 Xcoordinate
    5711152.52586765,         !- Vertex 4 Ycoordinate
    6;                        !- Vertex 4 Zcoordinate

SHADING:SITE:DETAILED,
    shade_way/892496602_2,    !- Name
    ,                         !- Transmittance Schedule Name
    autocalculate,            !- Number of Vertices
    705434.6178558485,        !- Vertex 1 Xcoordinate
    5711152.52586765,         !- Vertex 1 Ycoordinate
    6,                        !- Vertex 1 Zcoordinate
    705434.6178558485,        !- Vertex 2 Xcoordinate
    5711152.52586765,         !- Vertex 2 Ycoordinate
    0,                        !- Vertex 2 Zcoordinate
    705434.9011691974,        !- Vertex 3 Xcoordinate
    5711157.364958855,        !- Vertex 3 Ycoordinate
    0,                        !- Vertex 3 Zcoordinate
    705434.9011691974,        !- Vertex 4 Xcoordinate
    5711157.364958855,        !- Vertex 4 Ycoordinate
    6;                        !- Vertex 4 Zcoordinate

SHADING:SITE:DETAILED,
    shade_way/892496602_3,    !- Name
    ,                         !- Transmittance Schedule Name
    autocalculate,            !- Number of Vertices
    705434.9011691974,        !- Vertex 1 Xcoordinate
    5711157.364958855,        !- Vertex 1 Ycoordinate
    6,                        !- Vertex 1 Zcoordinate
    705434.9011691974,        !- Vertex 2 Xcoordinate
    5711157.364958855,        !- Vertex 2 Ycoordinate
    0,                        !- Vertex 2 Zcoordinate
    705445.8022855658,        !- Vertex 3 Xcoordinate
    5711156.726733272,        !- Vertex 3 Ycoordinate
    0,                        !- Vertex 3 Zcoordinate
    705445.8022855658,        !- Vertex 4 Xcoordinate
    5711156.726733272,        !- Vertex 4 Ycoordinate
    6;                        !- Vertex 4 Zcoordinate

SHADING:SITE:DETAILED,
    shade_way/892496602_4,    !- Name
    ,                         !- Transmittance Schedule Name
    autocalculate,            !- Number of Vertices
    705445.8022855658,        !- Vertex 1 Xcoordinate
    5711156.726733272,        !- Vertex 1 Ycoordinate
    6,                        !- Vertex 1 Zcoordinate
    705445.8022855658,        !- Vertex 2 Xcoordinate
    5711156.726733272,        !- Vertex 2 Ycoordinate
    0,                        !- Vertex 2 Zcoordinate
    705445.5189722169,        !- Vertex 3 Xcoordinate
    5711151.887642068,        !- Vertex 3 Ycoordinate
    0,                        !- Vertex 3 Zcoordinate
    705445.5189722169,        !- Vertex 4 Xcoordinate
    5711151.887642068,        !- Vertex 4 Ycoordinate
    6;                        !- Vertex 4 Zcoordinate

SHADING:SITE:DETAILED,
    shade_way/892496601_1,    !- Name
    ,                         !- Transmittance Schedule Name
    autocalculate,            !- Number of Vertices
    705445.8007828161,        !- Vertex 1 Xcoordinate
    5711156.699327826,        !- Vertex 1 Ycoordinate
    6,                        !- Vertex 1 Zcoordinate
    705445.8007828161,        !- Vertex 2 Xcoordinate
    5711156.699327826,        !- Vertex 2 Ycoordinate
    0,                        !- Vertex 2 Zcoordinate
    705434.390359954,         !- Vertex 3 Xcoordinate
    5711157.412448941,        !- Vertex 3 Ycoordinate
    0,                        !- Vertex 3 Zcoordinate
    705434.390359954,         !- Vertex 4 Xcoordinate
    5711157.412448941,        !- Vertex 4 Ycoordinate
    6;                        !- Vertex 4 Zcoordinate

SHADING:SITE:DETAILED,
    shade_way/892496601_2,    !- Name
    ,                         !- Transmittance Schedule Name
    autocalculate,            !- Number of Vertices
    705434.390359954,         !- Vertex 1 Xcoordinate
    5711157.412448941,        !- Vertex 1 Ycoordinate
    6,                        !- Vertex 1 Zcoordinate
    705434.390359954,         !- Vertex 2 Xcoordinate
    5711157.412448941,        !- Vertex 2 Ycoordinate
    0,                        !- Vertex 2 Zcoordinate
    705434.7252431297,        !- Vertex 3 Xcoordinate
    5711162.770794856,        !- Vertex 3 Ycoordinate
    0,                        !- Vertex 3 Zcoordinate
    705434.7252431297,        !- Vertex 4 Xcoordinate
    5711162.770794856,        !- Vertex 4 Ycoordinate
    6;                        !- Vertex 4 Zcoordinate

SHADING:SITE:DETAILED,
    shade_way/892496601_3,    !- Name
    ,                         !- Transmittance Schedule Name
    autocalculate,            !- Number of Vertices
    705434.7252431297,        !- Vertex 1 Xcoordinate
    5711162.770794856,        !- Vertex 1 Ycoordinate
    6,                        !- Vertex 1 Zcoordinate
    705434.7252431297,        !- Vertex 2 Xcoordinate
    5711162.770794856,        !- Vertex 2 Ycoordinate
    0,                        !- Vertex 2 Zcoordinate
    705446.1356794781,        !- Vertex 3 Xcoordinate
    5711162.0576712135,       !- Vertex 3 Ycoordinate
    0,                        !- Vertex 3 Zcoordinate
    705446.1356794781,        !- Vertex 4 Xcoordinate
    5711162.0576712135,       !- Vertex 4 Ycoordinate
    6;                        !- Vertex 4 Zcoordinate

SHADING:SITE:DETAILED,
    shade_way/892496601_4,    !- Name
    ,                         !- Transmittance Schedule Name
    autocalculate,            !- Number of Vertices
    705446.1356794781,        !- Vertex 1 Xcoordinate
    5711162.0576712135,       !- Vertex 1 Ycoordinate
    6,                        !- Vertex 1 Zcoordinate
    705446.1356794781,        !- Vertex 2 Xcoordinate
    5711162.0576712135,       !- Vertex 2 Ycoordinate
    0,                        !- Vertex 2 Zcoordinate
    705445.8007828161,        !- Vertex 3 Xcoordinate
    5711156.699327826,        !- Vertex 3 Ycoordinate
    0,                        !- Vertex 3 Zcoordinate
    705445.8007828161,        !- Vertex 4 Xcoordinate
    5711156.699327826,        !- Vertex 4 Ycoordinate
    6;                        !- Vertex 4 Zcoordinate

SHADING:SITE:DETAILED,
    shade_way/892496600_1,    !- Name
    ,                         !- Transmittance Schedule Name
    autocalculate,            !- Number of Vertices
    705446.3325152032,        !- Vertex 1 Xcoordinate
    5711167.077562564,        !- Vertex 1 Ycoordinate
    6,                        !- Vertex 1 Zcoordinate
    705446.3325152032,        !- Vertex 2 Xcoordinate
    5711167.077562564,        !- Vertex 2 Ycoordinate
    0,                        !- Vertex 2 Zcoordinate
    705446.0920142441,        !- Vertex 3 Xcoordinate
    5711162.034243299,        !- Vertex 3 Ycoordinate
    0,                        !- Vertex 3 Zcoordinate
    705446.0920142441,        !- Vertex 4 Xcoordinate
    5711162.034243299,        !- Vertex 4 Ycoordinate
    6;                        !- Vertex 4 Zcoordinate

SHADING:SITE:DETAILED,
    shade_way/892496600_2,    !- Name
    ,                         !- Transmittance Schedule Name
    autocalculate,            !- Number of Vertices
    705446.0920142441,        !- Vertex 1 Xcoordinate
    5711162.034243299,        !- Vertex 1 Ycoordinate
    6,                        !- Vertex 1 Zcoordinate
    705446.0920142441,        !- Vertex 2 Xcoordinate
    5711162.034243299,        !- Vertex 2 Ycoordinate
    0,                        !- Vertex 2 Zcoordinate
    705434.5661363313,        !- Vertex 3 Xcoordinate
    5711162.583559191,        !- Vertex 3 Ycoordinate
    0,                        !- Vertex 3 Zcoordinate
    705434.5661363313,        !- Vertex 4 Xcoordinate
    5711162.583559191,        !- Vertex 4 Ycoordinate
    6;                        !- Vertex 4 Zcoordinate

SHADING:SITE:DETAILED,
    shade_way/892496600_3,    !- Name
    ,                         !- Transmittance Schedule Name
    autocalculate,            !- Number of Vertices
    705434.5661363313,        !- Vertex 1 Xcoordinate
    5711162.583559191,        !- Vertex 1 Ycoordinate
    6,                        !- Vertex 1 Zcoordinate
    705434.5661363313,        !- Vertex 2 Xcoordinate
    5711162.583559191,        !- Vertex 2 Ycoordinate
    0,                        !- Vertex 2 Zcoordinate
    705434.8066372903,        !- Vertex 3 Xcoordinate
    5711167.626878456,        !- Vertex 3 Ycoordinate
    0,                        !- Vertex 3 Zcoordinate
    705434.8066372903,        !- Vertex 4 Xcoordinate
    5711167.626878456,        !- Vertex 4 Ycoordinate
    6;                        !- Vertex 4 Zcoordinate

SHADING:SITE:DETAILED,
    shade_way/892496600_4,    !- Name
    ,                         !- Transmittance Schedule Name
    autocalculate,            !- Number of Vertices
    705434.8066372903,        !- Vertex 1 Xcoordinate
    5711167.626878456,        !- Vertex 1 Ycoordinate
    6,                        !- Vertex 1 Zcoordinate
    705434.8066372903,        !- Vertex 2 Xcoordinate
    5711167.626878456,        !- Vertex 2 Ycoordinate
    0,                        !- Vertex 2 Zcoordinate
    705446.3325152032,        !- Vertex 3 Xcoordinate
    5711167.077562564,        !- Vertex 3 Ycoordinate
    0,                        !- Vertex 3 Zcoordinate
    705446.3325152032,        !- Vertex 4 Xcoordinate
    5711167.077562564,        !- Vertex 4 Ycoordinate
    6;                        !- Vertex 4 Zcoordinate

OTHEREQUIPMENT,
    EU_Step8_InternalGain_8e522a3797cac2b5_F0_dwelling_0_f000,    !- Name
    Electricity,              !- Fuel Type
    8e522a3797cac2b5_F0_dwelling_0,    !- Zone or ZoneList or Space or SpaceList Name
    EU_Step8_GainSchedule_8e522a3797cac2b5_F0_dwelling_0_f000,    !- Schedule Name
    Watts/Area,               !- Design Level Calculation Method
    ,                         !- Design Level
    1,                        !- Power per Zone Floor Area
    ,                         !- Power per Person
    0,                        !- Fraction Latent
    0,                        !- Fraction Radiant
    0,                        !- Fraction Lost
    0,                        !- Carbon Dioxide Generation Rate
    EU_Step8_InternalGains;    !- EndUse Subcategory

ZONEVENTILATION:DESIGNFLOWRATE,
    EU_ConstantAir_8e522a3797cac2b5_F0_dwelling_0,    !- Name
    8e522a3797cac2b5_F0_dwelling_0,    !- Zone or ZoneList or Space or SpaceList Name
    EU_AlwaysOn,              !- Schedule Name
    AirChanges/Hour,          !- Design Flow Rate Calculation Method
    ,                         !- Design Flow Rate
    ,                         !- Flow Rate per Floor Area
    ,                         !- Flow Rate per Person
    0.4800000000000001,       !- Air Changes per Hour
    Natural,                  !- Ventilation Type
    0,                        !- Fan Pressure Rise
    1,                        !- Fan Total Efficiency
    1,                        !- Constant Term Coefficient
    0,                        !- Temperature Term Coefficient
    0,                        !- Velocity Term Coefficient
    0,                        !- Velocity Squared Term Coefficient
    -100,                     !- Minimum Indoor Temperature
    ,                         !- Minimum Indoor Temperature Schedule Name
    100,                      !- Maximum Indoor Temperature
    ,                         !- Maximum Indoor Temperature Schedule Name
    -100,                     !- Delta Temperature
    ,                         !- Delta Temperature Schedule Name
    -100,                     !- Minimum Outdoor Temperature
    ,                         !- Minimum Outdoor Temperature Schedule Name
    100,                      !- Maximum Outdoor Temperature
    ,                         !- Maximum Outdoor Temperature Schedule Name
    40;                       !- Maximum Wind Speed

HVACTEMPLATE:THERMOSTAT,
    EU_HeatOnly_8e522a3797cac2b5_F0_dwelling_0,    !- Name
    ,                         !- Heating Setpoint Schedule Name
    20,                       !- Constant Heating Setpoint
    ,                         !- Cooling Setpoint Schedule Name
    50;                       !- Constant Cooling Setpoint

HVACTEMPLATE:ZONE:IDEALLOADSAIRSYSTEM,
    8e522a3797cac2b5_F0_dwelling_0,    !- Zone Name
    EU_HeatOnly_8e522a3797cac2b5_F0_dwelling_0,    !- Template Thermostat Name
    EU_AlwaysOn,              !- System Availability Schedule Name
    50,                       !- Maximum Heating Supply Air Temperature
    13,                       !- Minimum Cooling Supply Air Temperature
    0.0156,                   !- Maximum Heating Supply Air Humidity Ratio
    0.0077,                   !- Minimum Cooling Supply Air Humidity Ratio
    NoLimit,                  !- Heating Limit
    ,                         !- Maximum Heating Air Flow Rate
    ,                         !- Maximum Sensible Heating Capacity
    NoLimit,                  !- Cooling Limit
    ,                         !- Maximum Cooling Air Flow Rate
    ,                         !- Maximum Total Cooling Capacity
    EU_AlwaysOn,              !- Heating Availability Schedule Name
    EU_CoolingOff,            !- Cooling Availability Schedule Name
    ConstantSensibleHeatRatio,    !- Dehumidification Control Type
    0.7,                      !- Cooling Sensible Heat Ratio
    60,                       !- Dehumidification Setpoint
    None,                     !- Humidification Control Type
    30,                       !- Humidification Setpoint
    None,                     !- Outdoor Air Method
    0.00944,                  !- Outdoor Air Flow Rate per Person
    0.0,                      !- Outdoor Air Flow Rate per Zone Floor Area
    0,                        !- Outdoor Air Flow Rate per Zone
    ,                         !- Design Specification Outdoor Air Object Name
    None,                     !- Demand Controlled Ventilation Type
    NoEconomizer,             !- Outdoor Air Economizer Type
    None,                     !- Heat Recovery Type
    0.70,                     !- Sensible Heat Recovery Effectiveness
    0.65;                     !- Latent Heat Recovery Effectiveness

SIZING:ZONE,
    8e522a3797cac2b5_F0_dwelling_0,    !- Zone or ZoneList Name
    SupplyAirTemperature,     !- Zone Cooling Design Supply Air Temperature Input Method
    13,                       !- Zone Cooling Design Supply Air Temperature
    ,                         !- Zone Cooling Design Supply Air Temperature Difference
    SupplyAirTemperature,     !- Zone Heating Design Supply Air Temperature Input Method
    50,                       !- Zone Heating Design Supply Air Temperature
    ,                         !- Zone Heating Design Supply Air Temperature Difference
    0.008,                    !- Zone Cooling Design Supply Air Humidity Ratio
    0.008,                    !- Zone Heating Design Supply Air Humidity Ratio
    ,                         !- Design Specification Outdoor Air Object Name
    ,                         !- Zone Heating Sizing Factor
    ,                         !- Zone Cooling Sizing Factor
    DesignDay,                !- Cooling Design Air Flow Method
    0,                        !- Cooling Design Air Flow Rate
    0.000762,                 !- Cooling Minimum Air Flow per Zone Floor Area
    0,                        !- Cooling Minimum Air Flow
    0.2,                      !- Cooling Minimum Air Flow Fraction
    DesignDay,                !- Heating Design Air Flow Method
    0,                        !- Heating Design Air Flow Rate
    0.002032,                 !- Heating Maximum Air Flow per Zone Floor Area
    0.1415762,                !- Heating Maximum Air Flow
    0.3,                      !- Heating Maximum Air Flow Fraction
    ,                         !- Design Specification Zone Air Distribution Object Name
    No,                       !- Account for Dedicated Outdoor Air System
    NeutralSupplyAir,         !- Dedicated Outdoor Air System Control Strategy
    autosize,                 !- Dedicated Outdoor Air Low Setpoint Temperature for Design
    autosize,                 !- Dedicated Outdoor Air High Setpoint Temperature for Design
    Sensible Load Only No Latent Load,    !- Zone Load Sizing Method
    HumidityRatioDifference,    !- Zone Latent Cooling Design Supply Air Humidity Ratio Input Method
    ,                         !- Zone Dehumidification Design Supply Air Humidity Ratio
    0.005,                    !- Zone Cooling Design Supply Air Humidity Ratio Difference
    HumidityRatioDifference,    !- Zone Latent Heating Design Supply Air Humidity Ratio Input Method
    ,                         !- Zone Humidification Design Supply Air Humidity Ratio
    0.005;                    !- Zone Humidification Design Supply Air Humidity Ratio Difference

OUTPUT:VARIABLE,
    *,                        !- Key Value
    Zone Ideal Loads Zone Total Heating Energy,    !- Variable Name
    Hourly;                   !- Reporting Frequency

OUTPUT:SQLITE,
    SimpleAndTabular,         !- Option Type
    UseOutputControlTableStyle;    !- Unit Conversion for Tabular Data