!- Windows Line endings 

Version,
    23.1;                     !- Version Identifier

SimulationControl,
    Yes,                      !- Do Zone Sizing Calculation
    Yes,                      !- Do System Sizing Calculation
    Yes,                      !- Do Plant Sizing Calculation
    No,                       !- Run Simulation for Sizing Periods
    Yes,                      !- Run Simulation for Weather File Run Periods
    No,                       !- Do HVAC Sizing Simulation for Sizing Periods
    1;                        !- Maximum Number of HVAC Sizing Simulation Passes

Building,
    EU S2 Campaign,           !- Name
    0,                        !- North Axis
    City,                     !- Terrain
    ,                         !- Loads Convergence Tolerance Value
    ,                         !- Temperature Convergence Tolerance Value
    FullExterior,             !- Solar Distribution
    ,                         !- Maximum Number of Warmup Days
    ;                         !- Minimum Number of Warmup Days

ShadowCalculation,
    PolygonClipping,          !- Shading Calculation Method
    Periodic,                 !- Shading Calculation Update Frequency Method
    1;                        !- Shading Calculation Update Frequency

HeatBalanceAlgorithm,
    ConductionTransferFunction,    !- Algorithm
    200,                      !- Surface Temperature Upper Limit
    0.1,                      !- Minimum Surface Convection Heat Transfer Coefficient Value
    10000000;                 !- Maximum Surface Convection Heat Transfer Coefficient Value

Timestep,
    12;                       !- Number of Timesteps per Hour

Site:Location,
    London,                   !- Name
    51.5,                     !- Latitude
    -0.5,                     !- Longitude
    0,                        !- Time Zone
    25;                       !- Elevation

SizingPeriod:WeatherFileDays,
    AnnualSizingPeriod,       !- Name
    1,                        !- Begin Month
    1,                        !- Begin Day of Month
    12,                       !- End Month
    31,                       !- End Day of Month
    Monday,                   !- Day of Week for Start Day
    No,                       !- Use Weather File Daylight Saving Period
    No;                       !- Use Weather File Rain and Snow Indicators

RunPeriod,
    RunPeriod1,               !- Name
    1,                        !- Begin Month
    1,                        !- Begin Day of Month
    ,                         !- Begin Year
    12,                       !- End Month
    31,                       !- End Day of Month
    ,                         !- End Year
    Sunday,                   !- Day of Week for Start Day
    No,                       !- Use Weather File Holidays and Special Days
    No,                       !- Use Weather File Daylight Saving Period
    No,                       !- Apply Weekend Holiday Rule
    Yes,                      !- Use Weather File Rain Indicators
    Yes;                      !- Use Weather File Snow Indicators

ScheduleTypeLimits,
    Any Number;               !- Name

SCHEDULETYPELIMITS,
    EU_Step8_AnyNumber_Wm2,    !- Name
    ,                         !- Lower Limit Value
    ,                         !- Upper Limit Value
    Continuous,               !- Numeric Type
    Dimensionless;            !- Unit Type

SCHEDULE:CONSTANT,
    EU_AlwaysOn,              !- Name
    ,                         !- Schedule Type Limits Name
    1;                        !- Hourly Value

SCHEDULE:CONSTANT,
    EU_CoolingOff,            !- Name
    ,                         !- Schedule Type Limits Name
    0;                        !- Hourly Value

SCHEDULE:FILE,
    EU_Step8_GainSchedule_ba35cabc9cc65853_F0_dwelling_0_f000,    !- Name
    EU_Step8_AnyNumber_Wm2,    !- Schedule Type Limits Name
    ../../schedules/ba35cabc9cc65853/ba35cabc9cc65853_F0_dwelling_0_f000_gain.csv,    !- File Name
    1,                        !- Column Number
    0,                        !- Rows to Skip at Top
    8760,                     !- Number of Hours of Data
    Comma,                    !- Column Separator
    No,                       !- Interpolate to Timestep
    60,                       !- Minutes per Item
    Yes;                      !- Adjust Schedule for Daylight Savings

MATERIAL,
    EU_InternalMass_Material,    !- Name
    MediumRough,              !- Roughness
    0.1,                      !- Thickness
    1,                        !- Conductivity
    1800,                     !- Density
    900,                      !- Specific Heat
    0.9,                      !- Thermal Absorptance
    0.7,                      !- Solar Absorptance
    0.7;                      !- Visible Absorptance

MATERIAL:NOMASS,
    EU_wall_NoMass,           !- Name
    MediumRough,              !- Roughness
    0.5555555555555555,       !- Thermal Resistance
    0.9,                      !- Thermal Absorptance
    0.7,                      !- Solar Absorptance
    0.7;                      !- Visible Absorptance

MATERIAL:NOMASS,
    EU_roof_NoMass,           !- Name
    MediumRough,              !- Roughness
    0.5102040816326531,       !- Thermal Resistance
    0.9,                      !- Thermal Absorptance
    0.7,                      !- Solar Absorptance
    0.7;                      !- Visible Absorptance

MATERIAL:NOMASS,
    EU_floor_NoMass,          !- Name
    MediumRough,              !- Roughness
    1.6891891891891893,       !- Thermal Resistance
    0.9,                      !- Thermal Absorptance
    0.7,                      !- Solar Absorptance
    0.7;                      !- Visible Absorptance

CONSTRUCTION,
    EU_wall_Construction,     !- Name
    EU_wall_NoMass;           !- Outside Layer

CONSTRUCTION,
    EU_roof_Construction,     !- Name
    EU_roof_NoMass;           !- Outside Layer

CONSTRUCTION,
    EU_floor_Construction,    !- Name
    EU_floor_NoMass;          !- Outside Layer

CONSTRUCTION,
    EU_InternalMass_Construction,    !- Name
    EU_InternalMass_Material;    !- Outside Layer

GlobalGeometryRules,
    UpperLeftCorner,          !- Starting Vertex Position
    CounterClockWise,         !- Vertex Entry Direction
    World;                    !- Coordinate System

ZONE,
    ba35cabc9cc65853_F0_dwelling_0,    !- Name
    0,                        !- Direction of Relative North
    0,                        !- X Origin
    0,                        !- Y Origin
    0,                        !- Z Origin
    1,                        !- Type
    1,                        !- Multiplier
    autocalculate,            !- Ceiling Height
    347.19580078125,          !- Volume
    autocalculate,            !- Floor Area
    ,                         !- Zone Inside Convection Algorithm
    ,                         !- Zone Outside Convection Algorithm
    Yes;                      !- Part of Total Floor Area

BUILDINGSURFACE:DETAILED,
    Block ba35cabc9cc65853_0 Storey 0 Wall 0001,    !- Name
    wall,                     !- Surface Type
    EU_wall_Construction,     !- Construction Name
    ba35cabc9cc65853_F0_dwelling_0,    !- Zone Name
    ,                         !- Space Name
    Adiabatic,                !- Outside Boundary Condition
    ,                         !- Outside Boundary Condition Object
    NoSun,                    !- Sun Exposure
    NoWind,                   !- Wind Exposure
    autocalculate,            !- View Factor to Ground
    autocalculate,            !- Number of Vertices
    705452.922,               !- Vertex 1 Xcoordinate
    5711048.265,              !- Vertex 1 Ycoordinate
    6,                        !- Vertex 1 Zcoordinate
    705452.922,               !- Vertex 2 Xcoordinate
    5711048.265,              !- Vertex 2 Ycoordinate
    0,                        !- Vertex 2 Zcoordinate
    705457.22,                !- Vertex 3 Xcoordinate
    5711048.171,              !- Vertex 3 Ycoordinate
    0,                        !- Vertex 3 Zcoordinate
    705457.22,                !- Vertex 4 Xcoordinate
    5711048.171,              !- Vertex 4 Ycoordinate
    6;                        !- Vertex 4 Zcoordinate

BUILDINGSURFACE:DETAILED,
    Block ba35cabc9cc65853_0 Storey 0 Wall 0002,    !- Name
    wall,                     !- Surface Type
    EU_wall_Construction,     !- Construction Name
    ba35cabc9cc65853_F0_dwelling_0,    !- Zone Name
    ,                         !- Space Name
    outdoors,                 !- Outside Boundary Condition
    ,                         !- Outside Boundary Condition Object
    SunExposed,               !- Sun Exposure
    WindExposed,              !- Wind Exposure
    autocalculate,            !- View Factor to Ground
    autocalculate,            !- Number of Vertices
    705457.22,                !- Vertex 1 Xcoordinate
    5711048.171,              !- Vertex 1 Ycoordinate
    6,                        !- Vertex 1 Zcoordinate
    705457.22,                !- Vertex 2 Xcoordinate
    5711048.171,              !- Vertex 2 Ycoordinate
    0,                        !- Vertex 2 Zcoordinate
    705456.952,               !- Vertex 3 Xcoordinate
    5711034.73,               !- Vertex 3 Ycoordinate
    0,                        !- Vertex 3 Zcoordinate
    705456.952,               !- Vertex 4 Xcoordinate
    5711034.73,               !- Vertex 4 Ycoordinate
    6;                        !- Vertex 4 Zcoordinate

BUILDINGSURFACE:DETAILED,
    Block ba35cabc9cc65853_0 Storey 0 Wall 0003,    !- Name
    wall,                     !- Surface Type
    EU_wall_Construction,     !- Construction Name
    ba35cabc9cc65853_F0_dwelling_0,    !- Zone Name
    ,                         !- Space Name
    outdoors,                 !- Outside Boundary Condition
    ,                         !- Outside Boundary Condition Object
    SunExposed,               !- Sun Exposure
    WindExposed,              !- Wind Exposure
    autocalculate,            !- View Factor to Ground
    autocalculate,            !- Number of Vertices
    705456.952,               !- Vertex 1 Xcoordinate
    5711034.73,               !- Vertex 1 Ycoordinate
    6,                        !- Vertex 1 Zcoordinate
    705456.952,               !- Vertex 2 Xcoordinate
    5711034.73,               !- Vertex 2 Ycoordinate
    0,                        !- Vertex 2 Zcoordinate
    705452.647,               !- Vertex 3 Xcoordinate
    5711034.812,              !- Vertex 3 Ycoordinate
    0,                        !- Vertex 3 Zcoordinate
    705452.647,               !- Vertex 4 Xcoordinate
    5711034.812,              !- Vertex 4 Ycoordinate
    6;                        !- Vertex 4 Zcoordinate

BUILDINGSURFACE:DETAILED,
    Block ba35cabc9cc65853_0 Storey 0 Wall 0004,    !- Name
    wall,                     !- Surface Type
    EU_wall_Construction,     !- Construction Name
    ba35cabc9cc65853_F0_dwelling_0,    !- Zone Name
    ,                         !- Space Name
    outdoors,                 !- Outside Boundary Condition
    ,                         !- Outside Boundary Condition Object
    SunExposed,               !- Sun Exposure
    WindExposed,              !- Wind Exposure
    autocalculate,            !- View Factor to Ground
    autocalculate,            !- Number of Vertices
    705452.647,               !- Vertex 1 Xcoordinate
    5711034.812,              !- Vertex 1 Ycoordinate
    6,                        !- Vertex 1 Zcoordinate
    705452.647,               !- Vertex 2 Xcoordinate
    5711034.812,              !- Vertex 2 Ycoordinate
    0,                        !- Vertex 2 Zcoordinate
    705452.922,               !- Vertex 3 Xcoordinate
    5711048.265,              !- Vertex 3 Ycoordinate
    0,                        !- Vertex 3 Zcoordinate
    705452.922,               !- Vertex 4 Xcoordinate
    5711048.265,              !- Vertex 4 Ycoordinate
    6;                        !- Vertex 4 Zcoordinate

BUILDINGSURFACE:DETAILED,
    Block ba35cabc9cc65853_0 Storey 0 Floor 0001,    !- Name
    floor,                    !- Surface Type
    EU_floor_Construction,    !- Construction Name
    ba35cabc9cc65853_F0_dwelling_0,    !- Zone Name
    ,                         !- Space Name
    ground,                   !- Outside Boundary Condition
    ,                         !- Outside Boundary Condition Object
    NoSun,                    !- Sun Exposure
    NoWind,                   !- Wind Exposure
    autocalculate,            !- View Factor to Ground
    autocalculate,            !- Number of Vertices
    705456.952,               !- Vertex 1 Xcoordinate
    5711034.73,               !- Vertex 1 Ycoordinate
    0,                        !- Vertex 1 Zcoordinate
    705457.22,                !- Vertex 2 Xcoordinate
    5711048.171,              !- Vertex 2 Ycoordinate
    0,                        !- Vertex 2 Zcoordinate
    705452.922,               !- Vertex 3 Xcoordinate
    5711048.265,              !- Vertex 3 Ycoordinate
    0,                        !- Vertex 3 Zcoordinate
    705452.647,               !- Vertex 4 Xcoordinate
    5711034.812,              !- Vertex 4 Ycoordinate
    0;                        !- Vertex 4 Zcoordinate

BUILDINGSURFACE:DETAILED,
    Block ba35cabc9cc65853_0 Storey 0 Roof 0001,    !- Name
    roof,                     !- Surface Type
    EU_roof_Construction,     !- Construction Name
    ba35cabc9cc65853_F0_dwelling_0,    !- Zone Name
    ,                         !- Space Name
    outdoors,                 !- Outside Boundary Condition
    ,                         !- Outside Boundary Condition Object
    NoSun,                    !- Sun Exposure
    WindExposed,              !- Wind Exposure
    autocalculate,            !- View Factor to Ground
    autocalculate,            !- Number of Vertices
    705457.22,                !- Vertex 1 Xcoordinate
    5711048.171,              !- Vertex 1 Ycoordinate
    6,                        !- Vertex 1 Zcoordinate
    705456.952,               !- Vertex 2 Xcoordinate
    5711034.73,               !- Vertex 2 Ycoordinate
    6,                        !- Vertex 2 Zcoordinate
    705452.647,               !- Vertex 3 Xcoordinate
    5711034.812,              !- Vertex 3 Ycoordinate
    6,                        !- Vertex 3 Zcoordinate
    705452.922,               !- Vertex 4 Xcoordinate
    5711048.265,              !- Vertex 4 Ycoordinate
    6;                        !- Vertex 4 Zcoordinate

INTERNALMASS,
    ba35cabc9cc65853_F0_dwelling_0_EU_InternalMass,    !- Name
    EU_InternalMass_Construction,    !- Construction Name
    ba35cabc9cc65853_F0_dwelling_0,    !- Zone or ZoneList Name
    ,                         !- Space or SpaceList Name
    57.866162500702465;       !- Surface Area

SHADING:SITE:DETAILED,
    shade_way/397134755_1,    !- Name
    ,                         !- Transmittance Schedule Name
    autocalculate,            !- Number of Vertices
    705440.3786601198,        !- Vertex 1 Xcoordinate
    5711035.328322644,        !- Vertex 1 Ycoordinate
    6,                        !- Vertex 1 Zcoordinate
    705440.3786601198,        !- Vertex 2 Xcoordinate
    5711035.328322644,        !- Vertex 2 Ycoordinate
    0,                        !- Vertex 2 Zcoordinate
    705433.4951738289,        !- Vertex 3 Xcoordinate
    5711035.607024411,        !- Vertex 3 Ycoordinate
    0,                        !- Vertex 3 Zcoordinate
    705433.4951738289,        !- Vertex 4 Xcoordinate
    5711035.607024411,        !- Vertex 4 Ycoordinate
    6;                        !- Vertex 4 Zcoordinate

SHADING:SITE:DETAILED,
    shade_way/397134755_2,    !- Name
    ,                         !- Transmittance Schedule Name
    autocalculate,            !- Number of Vertices
    705433.4951738289,        !- Vertex 1 Xcoordinate
    5711035.607024411,        !- Vertex 1 Ycoordinate
    6,                        !- Vertex 1 Zcoordinate
    705433.4951738289,        !- Vertex 2 Xcoordinate
    5711035.607024411,        !- Vertex 2 Ycoordinate
    0,                        !- Vertex 2 Zcoordinate
    705433.7020307097,        !- Vertex 3 Xcoordinate
    5711040.71605735,         !- Vertex 3 Ycoordinate
    0,                        !- Vertex 3 Zcoordinate
    705433.7020307097,        !- Vertex 4 Xcoordinate
    5711040.71605735,         !- Vertex 4 Ycoordinate
    6;                        !- Vertex 4 Zcoordinate

SHADING:SITE:DETAILED,
    shade_way/397134755_3,    !- Name
    ,                         !- Transmittance Schedule Name
    autocalculate,            !- Number of Vertices
    705433.7020307097,        !- Vertex 1 Xcoordinate
    5711040.71605735,         !- Vertex 1 Ycoordinate
    6,                        !- Vertex 1 Zcoordinate
    705433.7020307097,        !- Vertex 2 Xcoordinate
    5711040.71605735,         !- Vertex 2 Ycoordinate
    0,                        !- Vertex 2 Zcoordinate
    705440.5854465103,        !- Vertex 3 Xcoordinate
    5711040.437408471,        !- Vertex 3 Ycoordinate
    0,                        !- Vertex 3 Zcoordinate
    705440.5854465103,        !- Vertex 4 Xcoordinate
    5711040.437408471,        !- Vertex 4 Ycoordinate
    6;                        !- Vertex 4 Zcoordinate

SHADING:SITE:DETAILED,
    shade_way/397134755_4,    !- Name
    ,                         !- Transmittance Schedule Name
    autocalculate,            !- Number of Vertices
    705440.5854465103,        !- Vertex 1 Xcoordinate
    5711040.437408471,        !- Vertex 1 Ycoordinate
    6,                        !- Vertex 1 Zcoordinate
    705440.5854465103,        !- Vertex 2 Xcoordinate
    5711040.437408471,        !- Vertex 2 Ycoordinate
    0,                        !- Vertex 2 Zcoordinate
    705440.3786601198,        !- Vertex 3 Xcoordinate
    5711035.328322644,        !- Vertex 3 Ycoordinate
    0,                        !- Vertex 3 Zcoordinate
    705440.3786601198,        !- Vertex 4 Xcoordinate
    5711035.328322644,        !- Vertex 4 Ycoordinate
    6;                        !- Vertex 4 Zcoordinate

SHADING:SITE:DETAILED,
    shade_way/892496621_1,    !- Name
    ,                         !- Transmittance Schedule Name
    autocalculate,            !- Number of Vertices
    705433.7778608049,        !- Vertex 1 Xcoordinate
    5711044.850158303,        !- Vertex 1 Ycoordinate
    6,                        !- Vertex 1 Zcoordinate
    705433.7778608049,        !- Vertex 2 Xcoordinate
    5711044.850158303,        !- Vertex 2 Ycoordinate
    0,                        !- Vertex 2 Zcoordinate
    705440.71826058,          !- Vertex 3 Xcoordinate
    5711044.630640352,        !- Vertex 3 Ycoordinate
    0,                        !- Vertex 3 Zcoordinate
    705440.71826058,          !- Vertex 4 Xcoordinate
    5711044.630640352,        !- Vertex 4 Ycoordinate
    6;                        !- Vertex 4 Zcoordinate

SHADING:SITE:DETAILED,
    shade_way/892496621_2,    !- Name
    ,                         !- Transmittance Schedule Name
    autocalculate,            !- Number of Vertices
    705440.71826058,          !- Vertex 1 Xcoordinate
    5711044.630640352,        !- Vertex 1 Ycoordinate
    6,                        !- Vertex 1 Zcoordinate
    705440.71826058,          !- Vertex 2 Xcoordinate
    5711044.630640352,        !- Vertex 2 Ycoordinate
    0,                        !- Vertex 2 Zcoordinate
    705440.5854465103,        !- Vertex 3 Xcoordinate
    5711040.437408471,        !- Vertex 3 Ycoordinate
    0,                        !- Vertex 3 Zcoordinate
    705440.5854465103,        !- Vertex 4 Xcoordinate
    5711040.437408471,        !- Vertex 4 Ycoordinate
    6;                        !- Vertex 4 Zcoordinate

SHADING:SITE:DETAILED,
    shade_way/892496621_3,    !- Name
    ,                         !- Transmittance Schedule Name
    autocalculate,            !- Number of Vertices
    705440.5854465103,        !- Vertex 1 Xcoordinate
    5711040.437408471,        !- Vertex 1 Ycoordinate
    6,                        !- Vertex 1 Zcoordinate
    705440.5854465103,        !- Vertex 2 Xcoordinate
    5711040.437408471,        !- Vertex 2 Ycoordinate
    0,                        !- Vertex 2 Zcoordinate
    705433.645650492,         !- Vertex 3 Xcoordinate
    5711040.656502617,        !- Vertex 3 Ycoordinate
    0,                        !- Vertex 3 Zcoordinate
    705433.645650492,         !- Vertex 4 Xcoordinate
    5711040.656502617,        !- Vertex 4 Ycoordinate
    6;                        !- Vertex 4 Zcoordinate

SHADING:SITE:DETAILED,
    shade_way/892496621_4,    !- Name
    ,                         !- Transmittance Schedule Name
    autocalculate,            !- Number of Vertices
    705433.645650492,         !- Vertex 1 Xcoordinate
    5711040.656502617,        !- Vertex 1 Ycoordinate
    6,                        !- Vertex 1 Zcoordinate
    705433.645650492,         !- Vertex 2 Xcoordinate
    5711040.656502617,        !- Vertex 2 Ycoordinate
    0,                        !- Vertex 2 Zcoordinate
    705433.7778608049,        !- Vertex 3 Xcoordinate
    5711044.850158303,        !- Vertex 3 Ycoordinate
    0,                        !- Vertex 3 Zcoordinate
    705433.7778608049,        !- Vertex 4 Xcoordinate
    5711044.850158303,        !- Vertex 4 Ycoordinate
    6;                        !- Vertex 4 Zcoordinate

SHADING:SITE:DETAILED,
    shade_way/892496620_1,    !- Name
    ,                         !- Transmittance Schedule Name
    autocalculate,            !- Number of Vertices
    705440.5753057887,        !- Vertex 1 Xcoordinate
    5711044.635360067,        !- Vertex 1 Ycoordinate
    6,                        !- Vertex 1 Zcoordinate
    705440.5753057887,        !- Vertex 2 Xcoordinate
    5711044.635360067,        !- Vertex 2 Ycoordinate
    0,                        !- Vertex 2 Zcoordinate
    705433.7623974454,        !- Vertex 3 Xcoordinate
    5711044.85044458,         !- Vertex 3 Ycoordinate
    0,                        !- Vertex 3 Zcoordinate
    705433.7623974454,        !- Vertex 4 Xcoordinate
    5711044.85044458,         !- Vertex 4 Ycoordinate
    6;                        !- Vertex 4 Zcoordinate

SHADING:SITE:DETAILED,
    shade_way/892496620_2,    !- Name
    ,                         !- Transmittance Schedule Name
    autocalculate,            !- Number of Vertices
    705433.7623974454,        !- Vertex 1 Xcoordinate
    5711044.85044458,         !- Vertex 1 Ycoordinate
    6,                        !- Vertex 1 Zcoordinate
    705433.7623974454,        !- Vertex 2 Xcoordinate
    5711044.85044458,         !- Vertex 2 Ycoordinate
    0,                        !- Vertex 2 Zcoordinate
    705433.9121625074,        !- Vertex 3 Xcoordinate
    5711049.59963296,         !- Vertex 3 Ycoordinate
    0,                        !- Vertex 3 Zcoordinate
    705433.9121625074,        !- Vertex 4 Xcoordinate
    5711049.59963296,         !- Vertex 4 Ycoordinate
    6;                        !- Vertex 4 Zcoordinate

SHADING:SITE:DETAILED,
    shade_way/892496620_3,    !- Name
    ,                         !- Transmittance Schedule Name
    autocalculate,            !- Number of Vertices
    705433.9121625074,        !- Vertex 1 Xcoordinate
    5711049.59963296,         !- Vertex 1 Ycoordinate
    6,                        !- Vertex 1 Zcoordinate
    705433.9121625074,        !- Vertex 2 Xcoordinate
    5711049.59963296,         !- Vertex 2 Ycoordinate
    0,                        !- Vertex 2 Zcoordinate
    705440.7256746078,        !- Vertex 3 Xcoordinate
    5711049.384124641,        !- Vertex 3 Ycoordinate
    0,                        !- Vertex 3 Zcoordinate
    705440.7256746078,        !- Vertex 4 Xcoordinate
    5711049.384124641,        !- Vertex 4 Ycoordinate
    6;                        !- Vertex 4 Zcoordinate

SHADING:SITE:DETAILED,
    shade_way/892496620_4,    !- Name
    ,                         !- Transmittance Schedule Name
    autocalculate,            !- Number of Vertices
    705440.7256746078,        !- Vertex 1 Xcoordinate
    5711049.384124641,        !- Vertex 1 Ycoordinate
    6,                        !- Vertex 1 Zcoordinate
    705440.7256746078,        !- Vertex 2 Xcoordinate
    5711049.384124641,        !- Vertex 2 Ycoordinate
    0,                        !- Vertex 2 Zcoordinate
    705440.5753057887,        !- Vertex 3 Xcoordinate
    5711044.635360067,        !- Vertex 3 Ycoordinate
    0,                        !- Vertex 3 Zcoordinate
    705440.5753057887,        !- Vertex 4 Xcoordinate
    5711044.635360067,        !- Vertex 4 Ycoordinate
    6;                        !- Vertex 4 Zcoordinate

SHADING:SITE:DETAILED,
    shade_way/892496619_1,    !- Name
    ,                         !- Transmittance Schedule Name
    autocalculate,            !- Number of Vertices
    705440.6823025607,        !- Vertex 1 Xcoordinate
    5711049.372593611,        !- Vertex 1 Ycoordinate
    6,                        !- Vertex 1 Zcoordinate
    705440.6823025607,        !- Vertex 2 Xcoordinate
    5711049.372593611,        !- Vertex 2 Ycoordinate
    0,                        !- Vertex 2 Zcoordinate
    705433.8362577696,        !- Vertex 3 Xcoordinate
    5711049.6019787835,       !- Vertex 3 Ycoordinate
    0,                        !- Vertex 3 Zcoordinate
    705433.8362577696,        !- Vertex 4 Xcoordinate
    5711049.6019787835,       !- Vertex 4 Ycoordinate
    6;                        !- Vertex 4 Zcoordinate

SHADING:SITE:DETAILED,
    shade_way/892496619_2,    !- Name
    ,                         !- Transmittance Schedule Name
    autocalculate,            !- Number of Vertices
    705433.8362577696,        !- Vertex 1 Xcoordinate
    5711049.6019787835,       !- Vertex 1 Ycoordinate
    6,                        !- Vertex 1 Zcoordinate
    705433.8362577696,        !- Vertex 2 Xcoordinate
    5711049.6019787835,       !- Vertex 2 Ycoordinate
    0,                        !- Vertex 2 Zcoordinate
    705433.9965528806,        !- Vertex 3 Xcoordinate
    5711054.380495749,        !- Vertex 3 Ycoordinate
    0,                        !- Vertex 3 Zcoordinate
    705433.9965528806,        !- Vertex 4 Xcoordinate
    5711054.380495749,        !- Vertex 4 Ycoordinate
    6;                        !- Vertex 4 Zcoordinate

SHADING:SITE:DETAILED,
    shade_way/892496619_3,    !- Name
    ,                         !- Transmittance Schedule Name
    autocalculate,            !- Number of Vertices
    705433.9965528806,        !- Vertex 1 Xcoordinate
    5711054.380495749,        !- Vertex 1 Ycoordinate
    6,                        !- Vertex 1 Zcoordinate
    705433.9965528806,        !- Vertex 2 Xcoordinate
    5711054.380495749,        !- Vertex 2 Ycoordinate
    0,                        !- Vertex 2 Zcoordinate
    705440.8424931229,        !- Vertex 3 Xcoordinate
    5711054.150714737,        !- Vertex 3 Ycoordinate
    0,                        !- Vertex 3 Zcoordinate
    705440.8424931229,        !- Vertex 4 Xcoordinate
    5711054.150714737,        !- Vertex 4 Ycoordinate
    6;                        !- Vertex 4 Zcoordinate

SHADING:SITE:DETAILED,
    shade_way/892496619_4,    !- Name
    ,                         !- Transmittance Schedule Name
    autocalculate,            !- Number of Vertices
    705440.8424931229,        !- Vertex 1 Xcoordinate
    5711054.150714737,        !- Vertex 1 Ycoordinate
    6,                        !- Vertex 1 Zcoordinate
    705440.8424931229,        !- Vertex 2 Xcoordinate
    5711054.150714737,        !- Vertex 2 Ycoordinate
    0,                        !- Vertex 2 Zcoordinate
    705440.6823025607,        !- Vertex 3 Xcoordinate
    5711049.372593611,        !- Vertex 3 Ycoordinate
    0,                        !- Vertex 3 Zcoordinate
    705440.6823025607,        !- Vertex 4 Xcoordinate
    5711049.372593611,        !- Vertex 4 Ycoordinate
    6;                        !- Vertex 4 Zcoordinate

SHADING:SITE:DETAILED,
    shade_way/892496618_1,    !- Name
    ,                         !- Transmittance Schedule Name
    autocalculate,            !- Number of Vertices
    705440.9307151355,        !- Vertex 1 Xcoordinate
    5711059.02663421,         !- Vertex 1 Ycoordinate
    6,                        !- Vertex 1 Zcoordinate
    705440.9307151355,        !- Vertex 2 Xcoordinate
    5711059.02663421,         !- Vertex 2 Ycoordinate
    0,                        !- Vertex 2 Zcoordinate
    705440.7883984122,        !- Vertex 3 Xcoordinate
    5711054.132063219,        !- Vertex 3 Ycoordinate
    0,                        !- Vertex 3 Zcoordinate
    705440.7883984122,        !- Vertex 4 Xcoordinate
    5711054.132063219,        !- Vertex 4 Ycoordinate
    6;                        !- Vertex 4 Zcoordinate

SHADING:SITE:DETAILED,
    shade_way/892496618_2,    !- Name
    ,                         !- Transmittance Schedule Name
    autocalculate,            !- Number of Vertices
    705440.7883984122,        !- Vertex 1 Xcoordinate
    5711054.132063219,        !- Vertex 1 Ycoordinate
    6,                        !- Vertex 1 Zcoordinate
    705440.7883984122,        !- Vertex 2 Xcoordinate
    5711054.132063219,        !- Vertex 2 Ycoordinate
    0,                        !- Vertex 2 Zcoordinate
    705433.9664862559,        !- Vertex 3 Xcoordinate
    5711054.330357477,        !- Vertex 3 Ycoordinate
    0,                        !- Vertex 3 Zcoordinate
    705433.9664862559,        !- Vertex 4 Xcoordinate
    5711054.330357477,        !- Vertex 4 Ycoordinate
    6;                        !- Vertex 4 Zcoordinate

SHADING:SITE:DETAILED,
    shade_way/892496618_3,    !- Name
    ,                         !- Transmittance Schedule Name
    autocalculate,            !- Number of Vertices
    705433.9664862559,        !- Vertex 1 Xcoordinate
    5711054.330357477,        !- Vertex 1 Ycoordinate
    6,                        !- Vertex 1 Zcoordinate
    705433.9664862559,        !- Vertex 2 Xcoordinate
    5711054.330357477,        !- Vertex 2 Ycoordinate
    0,                        !- Vertex 2 Zcoordinate
    705434.1088029791,        !- Vertex 3 Xcoordinate
    5711059.224928468,        !- Vertex 3 Ycoordinate
    0,                        !- Vertex 3 Zcoordinate
    705434.1088029791,        !- Vertex 4 Xcoordinate
    5711059.224928468,        !- Vertex 4 Ycoordinate
    6;                        !- Vertex 4 Zcoordinate

SHADING:SITE:DETAILED,
    shade_way/892496618_4,    !- Name
    ,                         !- Transmittance Schedule Name
    autocalculate,            !- Number of Vertices
    705434.1088029791,        !- Vertex 1 Xcoordinate
    5711059.224928468,        !- Vertex 1 Ycoordinate
    6,                        !- Vertex 1 Zcoordinate
    705434.1088029791,        !- Vertex 2 Xcoordinate
    5711059.224928468,        !- Vertex 2 Ycoordinate
    0,                        !- Vertex 2 Zcoordinate
    705440.9307151355,        !- Vertex 3 Xcoordinate
    5711059.02663421,         !- Vertex 3 Ycoordinate
    0,                        !- Vertex 3 Zcoordinate
    705440.9307151355,        !- Vertex 4 Xcoordinate
    5711059.02663421,         !- Vertex 4 Ycoordinate
    6;                        !- Vertex 4 Zcoordinate

SHADING:SITE:DETAILED,
    shade_way/543109637_1,    !- Name
    ,                         !- Transmittance Schedule Name
    autocalculate,            !- Number of Vertices
    705447.8829266225,        !- Vertex 1 Xcoordinate
    5711024.930834629,        !- Vertex 1 Ycoordinate
    6,                        !- Vertex 1 Zcoordinate
    705447.8829266225,        !- Vertex 2 Xcoordinate
    5711024.930834629,        !- Vertex 2 Ycoordinate
    0,                        !- Vertex 2 Zcoordinate
    705430.8610256285,        !- Vertex 3 Xcoordinate
    5711011.072115444,        !- Vertex 3 Ycoordinate
    0,                        !- Vertex 3 Zcoordinate
    705430.8610256285,        !- Vertex 4 Xcoordinate
    5711011.072115444,        !- Vertex 4 Ycoordinate
    6;                        !- Vertex 4 Zcoordinate

SHADING:SITE:DETAILED,
    shade_way/543109637_2,    !- Name
    ,                         !- Transmittance Schedule Name
    autocalculate,            !- Number of Vertices
    705430.8610256285,        !- Vertex 1 Xcoordinate
    5711011.072115444,        !- Vertex 1 Ycoordinate
    6,                        !- Vertex 1 Zcoordinate
    705430.8610256285,        !- Vertex 2 Xcoordinate
    5711011.072115444,        !- Vertex 2 Ycoordinate
    0,                        !- Vertex 2 Zcoordinate
    705424.7313572123,        !- Vertex 3 Xcoordinate
    5711018.600849342,        !- Vertex 3 Ycoordinate
    0,                        !- Vertex 3 Zcoordinate
    705424.7313572123,        !- Vertex 4 Xcoordinate
    5711018.600849342,        !- Vertex 4 Ycoordinate
    6;                        !- Vertex 4 Zcoordinate

SHADING:SITE:DETAILED,
    shade_way/543109637_3,    !- Name
    ,                         !- Transmittance Schedule Name
    autocalculate,            !- Number of Vertices
    705424.7313572123,        !- Vertex 1 Xcoordinate
    5711018.600849342,        !- Vertex 1 Ycoordinate
    6,                        !- Vertex 1 Zcoordinate
    705424.7313572123,        !- Vertex 2 Xcoordinate
    5711018.600849342,        !- Vertex 2 Ycoordinate
    0,                        !- Vertex 2 Zcoordinate
    705441.7532582063,        !- Vertex 3 Xcoordinate
    5711032.459568526,        !- Vertex 3 Ycoordinate
    0,                        !- Vertex 3 Zcoordinate
    705441.7532582063,        !- Vertex 4 Xcoordinate
    5711032.459568526,        !- Vertex 4 Ycoordinate
    6;                        !- Vertex 4 Zcoordinate

SHADING:SITE:DETAILED,
    shade_way/543109637_4,    !- Name
    ,                         !- Transmittance Schedule Name
    autocalculate,            !- Number of Vertices
    705441.7532582063,        !- Vertex 1 Xcoordinate
    5711032.459568526,        !- Vertex 1 Ycoordinate
    6,                        !- Vertex 1 Zcoordinate
    705441.7532582063,        !- Vertex 2 Xcoordinate
    5711032.459568526,        !- Vertex 2 Ycoordinate
    0,                        !- Vertex 2 Zcoordinate
    705447.8829266225,        !- Vertex 3 Xcoordinate
    5711024.930834629,        !- Vertex 3 Ycoordinate
    0,                        !- Vertex 3 Zcoordinate
    705447.8829266225,        !- Vertex 4 Xcoordinate
    5711024.930834629,        !- Vertex 4 Ycoordinate
    6;                        !- Vertex 4 Zcoordinate

SHADING:SITE:DETAILED,
    shade_way/823489436_1,    !- Name
    ,                         !- Transmittance Schedule Name
    autocalculate,            !- Number of Vertices
    705463.1630979836,        !- Vertex 1 Xcoordinate
    5711057.885750038,        !- Vertex 1 Ycoordinate
    6,                        !- Vertex 1 Zcoordinate
    705463.1630979836,        !- Vertex 2 Xcoordinate
    5711057.885750038,        !- Vertex 2 Ycoordinate
    0,                        !- Vertex 2 Zcoordinate
    705469.6814717124,        !- Vertex 3 Xcoordinate
    5711040.341878939,        !- Vertex 3 Ycoordinate
    0,                        !- Vertex 3 Zcoordinate
    705469.6814717124,        !- Vertex 4 Xcoordinate
    5711040.341878939,        !- Vertex 4 Ycoordinate
    6;                        !- Vertex 4 Zcoordinate

SHADING:SITE:DETAILED,
    shade_way/823489436_2,    !- Name
    ,                         !- Transmittance Schedule Name
    autocalculate,            !- Number of Vertices
    705469.6814717124,        !- Vertex 1 Xcoordinate
    5711040.341878939,        !- Vertex 1 Ycoordinate
    6,                        !- Vertex 1 Zcoordinate
    705469.6814717124,        !- Vertex 2 Xcoordinate
    5711040.341878939,        !- Vertex 2 Ycoordinate
    0,                        !- Vertex 2 Zcoordinate
    705461.4018617296,        !- Vertex 3 Xcoordinate
    5711037.265614192,        !- Vertex 3 Ycoordinate
    0,                        !- Vertex 3 Zcoordinate
    705461.4018617296,        !- Vertex 4 Xcoordinate
    5711037.265614192,        !- Vertex 4 Ycoordinate
    6;                        !- Vertex 4 Zcoordinate

SHADING:SITE:DETAILED,
    shade_way/823489436_3,    !- Name
    ,                         !- Transmittance Schedule Name
    autocalculate,            !- Number of Vertices
    705461.4018617296,        !- Vertex 1 Xcoordinate
    5711037.265614192,        !- Vertex 1 Ycoordinate
    6,                        !- Vertex 1 Zcoordinate
    705461.4018617296,        !- Vertex 2 Xcoordinate
    5711037.265614192,        !- Vertex 2 Ycoordinate
    0,                        !- Vertex 2 Zcoordinate
    705454.8834880007,        !- Vertex 3 Xcoordinate
    5711054.809485289,        !- Vertex 3 Ycoordinate
    0,                        !- Vertex 3 Zcoordinate
    705454.8834880007,        !- Vertex 4 Xcoordinate
    5711054.809485289,        !- Vertex 4 Ycoordinate
    6;                        !- Vertex 4 Zcoordinate

SHADING:SITE:DETAILED,
    shade_way/823489436_4,    !- Name
    ,                         !- Transmittance Schedule Name
    autocalculate,            !- Number of Vertices
    705454.8834880007,        !- Vertex 1 Xcoordinate
    5711054.809485289,        !- Vertex 1 Ycoordinate
    6,                        !- Vertex 1 Zcoordinate
    705454.8834880007,        !- Vertex 2 Xcoordinate
    5711054.809485289,        !- Vertex 2 Ycoordinate
    0,                        !- Vertex 2 Zcoordinate
    705463.1630979836,        !- Vertex 3 Xcoordinate
    5711057.885750038,        !- Vertex 3 Ycoordinate
    0,                        !- Vertex 3 Zcoordinate
    705463.1630979836,        !- Vertex 4 Xcoordinate
    5711057.885750038,        !- Vertex 4 Ycoordinate
    6;                        !- Vertex 4 Zcoordinate

SHADING:SITE:DETAILED,
    shade_way/823489438_1,    !- Name
    ,                         !- Transmittance Schedule Name
    autocalculate,            !- Number of Vertices
    705469.7169030588,        !- Vertex 1 Xcoordinate
    5711059.756339336,        !- Vertex 1 Ycoordinate
    6,                        !- Vertex 1 Zcoordinate
    705469.7169030588,        !- Vertex 2 Xcoordinate
    5711059.756339336,        !- Vertex 2 Ycoordinate
    0,                        !- Vertex 2 Zcoordinate
    705477.0720637926,        !- Vertex 3 Xcoordinate
    5711047.3109657895,       !- Vertex 3 Ycoordinate
    0,                        !- Vertex 3 Zcoordinate
    705477.0720637926,        !- Vertex 4 Xcoordinate
    5711047.3109657895,       !- Vertex 4 Ycoordinate
    6;                        !- Vertex 4 Zcoordinate

SHADING:SITE:DETAILED,
    shade_way/823489438_2,    !- Name
    ,                         !- Transmittance Schedule Name
    autocalculate,            !- Number of Vertices
    705477.0720637926,        !- Vertex 1 Xcoordinate
    5711047.3109657895,       !- Vertex 1 Ycoordinate
    6,                        !- Vertex 1 Zcoordinate
    705477.0720637926,        !- Vertex 2 Xcoordinate
    5711047.3109657895,       !- Vertex 2 Ycoordinate
    0,                        !- Vertex 2 Zcoordinate
    705468.0068619314,        !- Vertex 3 Xcoordinate
    5711041.953471575,        !- Vertex 3 Ycoordinate
    0,                        !- Vertex 3 Zcoordinate
    705468.0068619314,        !- Vertex 4 Xcoordinate
    5711041.953471575,        !- Vertex 4 Ycoordinate
    6;                        !- Vertex 4 Zcoordinate

SHADING:SITE:DETAILED,
    shade_way/823489438_3,    !- Name
    ,                         !- Transmittance Schedule Name
    autocalculate,            !- Number of Vertices
    705468.0068619314,        !- Vertex 1 Xcoordinate
    5711041.953471575,        !- Vertex 1 Ycoordinate
    6,                        !- Vertex 1 Zcoordinate
    705468.0068619314,        !- Vertex 2 Xcoordinate
    5711041.953471575,        !- Vertex 2 Ycoordinate
    0,                        !- Vertex 2 Zcoordinate
    705460.6517011977,        !- Vertex 3 Xcoordinate
    5711054.398845121,        !- Vertex 3 Ycoordinate
    0,                        !- Vertex 3 Zcoordinate
    705460.6517011977,        !- Vertex 4 Xcoordinate
    5711054.398845121,        !- Vertex 4 Ycoordinate
    6;                        !- Vertex 4 Zcoordinate

SHADING:SITE:DETAILED,
    shade_way/823489438_4,    !- Name
    ,                         !- Transmittance Schedule Name
    autocalculate,            !- Number of Vertices
    705460.6517011977,        !- Vertex 1 Xcoordinate
    5711054.398845121,        !- Vertex 1 Ycoordinate
    6,                        !- Vertex 1 Zcoordinate
    705460.6517011977,        !- Vertex 2 Xcoordinate
    5711054.398845121,        !- Vertex 2 Ycoordinate
    0,                        !- Vertex 2 Zcoordinate
    705469.7169030588,        !- Vertex 3 Xcoordinate
    5711059.756339336,        !- Vertex 3 Ycoordinate
    0,                        !- Vertex 3 Zcoordinate
    705469.7169030588,        !- Vertex 4 Xcoordinate
    5711059.756339336,        !- Vertex 4 Ycoordinate
    6;                        !- Vertex 4 Zcoordinate

SHADING:SITE:DETAILED,
    shade_way/397134759_1,    !- Name
    ,                         !- Transmittance Schedule Name
    autocalculate,            !- Number of Vertices
    705457.2198789772,        !- Vertex 1 Xcoordinate
    5711048.171272353,        !- Vertex 1 Ycoordinate
    6,                        !- Vertex 1 Zcoordinate
    705457.2198789772,        !- Vertex 2 Xcoordinate
    5711048.171272353,        !- Vertex 2 Ycoordinate
    0,                        !- Vertex 2 Zcoordinate
    705452.9218910492,        !- Vertex 3 Xcoordinate
    5711048.264521686,        !- Vertex 3 Ycoordinate
    0,                        !- Vertex 3 Zcoordinate
    705452.9218910492,        !- Vertex 4 Xcoordinate
    5711048.264521686,        !- Vertex 4 Ycoordinate
    6;                        !- Vertex 4 Zcoordinate

SHADING:SITE:DETAILED,
    shade_way/397134759_2,    !- Name
    ,                         !- Transmittance Schedule Name
    autocalculate,            !- Number of Vertices
    705452.9218910492,        !- Vertex 1 Xcoordinate
    5711048.264521686,        !- Vertex 1 Ycoordinate
    6,                        !- Vertex 1 Zcoordinate
    705452.9218910492,        !- Vertex 2 Xcoordinate
    5711048.264521686,        !- Vertex 2 Ycoordinate
    0,                        !- Vertex 2 Zcoordinate
    705453.2336138571,        !- Vertex 3 Xcoordinate
    5711062.6218049005,       !- Vertex 3 Ycoordinate
    0,                        !- Vertex 3 Zcoordinate
    705453.2336138571,        !- Vertex 4 Xcoordinate
    5711062.6218049005,       !- Vertex 4 Ycoordinate
    6;                        !- Vertex 4 Zcoordinate

SHADING:SITE:DETAILED,
    shade_way/397134759_3,    !- Name
    ,                         !- Transmittance Schedule Name
    autocalculate,            !- Number of Vertices
    705453.2336138571,        !- Vertex 1 Xcoordinate
    5711062.6218049005,       !- Vertex 1 Ycoordinate
    6,                        !- Vertex 1 Zcoordinate
    705453.2336138571,        !- Vertex 2 Xcoordinate
    5711062.6218049005,       !- Vertex 2 Ycoordinate
    0,                        !- Vertex 2 Zcoordinate
    705457.5316017851,        !- Vertex 3 Xcoordinate
    5711062.528555568,        !- Vertex 3 Ycoordinate
    0,                        !- Vertex 3 Zcoordinate
    705457.5316017851,        !- Vertex 4 Xcoordinate
    5711062.528555568,        !- Vertex 4 Ycoordinate
    6;                        !- Vertex 4 Zcoordinate

SHADING:SITE:DETAILED,
    shade_way/397134759_4,    !- Name
    ,                         !- Transmittance Schedule Name
    autocalculate,            !- Number of Vertices
    705457.5316017851,        !- Vertex 1 Xcoordinate
    5711062.528555568,        !- Vertex 1 Ycoordinate
    6,                        !- Vertex 1 Zcoordinate
    705457.5316017851,        !- Vertex 2 Xcoordinate
    5711062.528555568,        !- Vertex 2 Ycoordinate
    0,                        !- Vertex 2 Zcoordinate
    705457.2198789772,        !- Vertex 3 Xcoordinate
    5711048.171272353,        !- Vertex 3 Ycoordinate
    0,                        !- Vertex 3 Zcoordinate
    705457.2198789772,        !- Vertex 4 Xcoordinate
    5711048.171272353,        !- Vertex 4 Ycoordinate
    6;                        !- Vertex 4 Zcoordinate

SHADING:SITE:DETAILED,
    shade_way/823489439_1,    !- Name
    ,                         !- Transmittance Schedule Name
    autocalculate,            !- Number of Vertices
    705456.6103700502,        !- Vertex 1 Xcoordinate
    5711063.214390186,        !- Vertex 1 Ycoordinate
    6,                        !- Vertex 1 Zcoordinate
    705456.6103700502,        !- Vertex 2 Xcoordinate
    5711063.214390186,        !- Vertex 2 Ycoordinate
    0,                        !- Vertex 2 Zcoordinate
    705478.5165379789,        !- Vertex 3 Xcoordinate
    5711064.379577939,        !- Vertex 3 Ycoordinate
    0,                        !- Vertex 3 Zcoordinate
    705478.5165379789,        !- Vertex 4 Xcoordinate
    5711064.379577939,        !- Vertex 4 Ycoordinate
    6;                        !- Vertex 4 Zcoordinate

SHADING:SITE:DETAILED,
    shade_way/823489439_2,    !- Name
    ,                         !- Transmittance Schedule Name
    autocalculate,            !- Number of Vertices
    705478.5165379789,        !- Vertex 1 Xcoordinate
    5711064.379577939,        !- Vertex 1 Ycoordinate
    6,                        !- Vertex 1 Zcoordinate
    705478.5165379789,        !- Vertex 2 Xcoordinate
    5711064.379577939,        !- Vertex 2 Ycoordinate
    0,                        !- Vertex 2 Zcoordinate
    705478.912838947,         !- Vertex 3 Xcoordinate
    5711056.93411172,         !- Vertex 3 Ycoordinate
    0,                        !- Vertex 3 Zcoordinate
    705478.912838947,         !- Vertex 4 Xcoordinate
    5711056.93411172,         !- Vertex 4 Ycoordinate
    6;                        !- Vertex 4 Zcoordinate

SHADING:SITE:DETAILED,
    shade_way/823489439_3,    !- Name
    ,                         !- Transmittance Schedule Name
    autocalculate,            !- Number of Vertices
    705478.912838947,         !- Vertex 1 Xcoordinate
    5711056.93411172,         !- Vertex 1 Ycoordinate
    6,                        !- Vertex 1 Zcoordinate
    705478.912838947,         !- Vertex 2 Xcoordinate
    5711056.93411172,         !- Vertex 2 Ycoordinate
    0,                        !- Vertex 2 Zcoordinate
    705457.0063842027,        !- Vertex 3 Xcoordinate
    5711055.769107194,        !- Vertex 3 Ycoordinate
    0,                        !- Vertex 3 Zcoordinate
    705457.0063842027,        !- Vertex 4 Xcoordinate
    5711055.769107194,        !- Vertex 4 Ycoordinate
    6;                        !- Vertex 4 Zcoordinate

SHADING:SITE:DETAILED,
    shade_way/823489439_4,    !- Name
    ,                         !- Transmittance Schedule Name
    autocalculate,            !- Number of Vertices
    705457.0063842027,        !- Vertex 1 Xcoordinate
    5711055.769107194,        !- Vertex 1 Ycoordinate
    6,                        !- Vertex 1 Zcoordinate
    705457.0063842027,        !- Vertex 2 Xcoordinate
    5711055.769107194,        !- Vertex 2 Ycoordinate
    0,                        !- Vertex 2 Zcoordinate
    705456.6103700502,        !- Vertex 3 Xcoordinate
    5711063.214390186,        !- Vertex 3 Ycoordinate
    0,                        !- Vertex 3 Zcoordinate
    705456.6103700502,        !- Vertex 4 Xcoordinate
    5711063.214390186,        !- Vertex 4 Ycoordinate
    6;                        !- Vertex 4 Zcoordinate

OTHEREQUIPMENT,
    EU_Step8_InternalGain_ba35cabc9cc65853_F0_dwelling_0_f000,    !- Name
    Electricity,              !- Fuel Type
    ba35cabc9cc65853_F0_dwelling_0,    !- Zone or ZoneList or Space or SpaceList Name
    EU_Step8_GainSchedule_ba35cabc9cc65853_F0_dwelling_0_f000,    !- Schedule Name
    Watts/Area,               !- Design Level Calculation Method
    ,                         !- Design Level
    1,                        !- Power per Zone Floor Area
    ,                         !- Power per Person
    0,                        !- Fraction Latent
    0,                        !- Fraction Radiant
    0,                        !- Fraction Lost
    0,                        !- Carbon Dioxide Generation Rate
    EU_Step8_InternalGains;    !- EndUse Subcategory

ZONEVENTILATION:DESIGNFLOWRATE,
    EU_ConstantAir_ba35cabc9cc65853_F0_dwelling_0,    !- Name
    ba35cabc9cc65853_F0_dwelling_0,    !- Zone or ZoneList or Space or SpaceList Name
    EU_AlwaysOn,              !- Schedule Name
    AirChanges/Hour,          !- Design Flow Rate Calculation Method
    ,                         !- Design Flow Rate
    ,                         !- Flow Rate per Floor Area
    ,                         !- Flow Rate per Person
    0.4800000000000001,       !- Air Changes per Hour
    Natural,                  !- Ventilation Type
    0,                        !- Fan Pressure Rise
    1,                        !- Fan Total Efficiency
    1,                        !- Constant Term Coefficient
    0,                        !- Temperature Term Coefficient
    0,                        !- Velocity Term Coefficient
    0,                        !- Velocity Squared Term Coefficient
    -100,                     !- Minimum Indoor Temperature
    ,                         !- Minimum Indoor Temperature Schedule Name
    100,                      !- Maximum Indoor Temperature
    ,                         !- Maximum Indoor Temperature Schedule Name
    -100,                     !- Delta Temperature
    ,                         !- Delta Temperature Schedule Name
    -100,                     !- Minimum Outdoor Temperature
    ,                         !- Minimum Outdoor Temperature Schedule Name
    100,                      !- Maximum Outdoor Temperature
    ,                         !- Maximum Outdoor Temperature Schedule Name
    40;                       !- Maximum Wind Speed

HVACTEMPLATE:THERMOSTAT,
    EU_HeatOnly_ba35cabc9cc65853_F0_dwelling_0,    !- Name
    ,                         !- Heating Setpoint Schedule Name
    20,                       !- Constant Heating Setpoint
    ,                         !- Cooling Setpoint Schedule Name
    50;                       !- Constant Cooling Setpoint

HVACTEMPLATE:ZONE:IDEALLOADSAIRSYSTEM,
    ba35cabc9cc65853_F0_dwelling_0,    !- Zone Name
    EU_HeatOnly_ba35cabc9cc65853_F0_dwelling_0,    !- Template Thermostat Name
    EU_AlwaysOn,              !- System Availability Schedule Name
    50,                       !- Maximum Heating Supply Air Temperature
    13,                       !- Minimum Cooling Supply Air Temperature
    0.0156,                   !- Maximum Heating Supply Air Humidity Ratio
    0.0077,                   !- Minimum Cooling Supply Air Humidity Ratio
    NoLimit,                  !- Heating Limit
    ,                         !- Maximum Heating Air Flow Rate
    ,                         !- Maximum Sensible Heating Capacity
    NoLimit,                  !- Cooling Limit
    ,                         !- Maximum Cooling Air Flow Rate
    ,                         !- Maximum Total Cooling Capacity
    EU_AlwaysOn,              !- Heating Availability Schedule Name
    EU_CoolingOff,            !- Cooling Availability Schedule Name
    ConstantSensibleHeatRatio,    !- Dehumidification Control Type
    0.7,                      !- Cooling Sensible Heat Ratio
    60,                       !- Dehumidification Setpoint
    None,                     !- Humidification Control Type
    30,                       !- Humidification Setpoint
    None,                     !- Outdoor Air Method
    0.00944,                  !- Outdoor Air Flow Rate per Person
    0.0,                      !- Outdoor Air Flow Rate per Zone Floor Area
    0,                        !- Outdoor Air Flow Rate per Zone
    ,                         !- Design Specification Outdoor Air Object Name
    None,                     !- Demand Controlled Ventilation Type
    NoEconomizer,             !- Outdoor Air Economizer Type
    None,                     !- Heat Recovery Type
    0.70,                     !- Sensible Heat Recovery Effectiveness
    0.65;                     !- Latent Heat Recovery Effectiveness

SIZING:ZONE,
    ba35cabc9cc65853_F0_dwelling_0,    !- Zone or ZoneList Name
    SupplyAirTemperature,     !- Zone Cooling Design Supply Air Temperature Input Method
    13,                       !- Zone Cooling Design Supply Air Temperature
    ,                         !- Zone Cooling Design Supply Air Temperature Difference
    SupplyAirTemperature,     !- Zone Heating Design Supply Air Temperature Input Method
    50,                       !- Zone Heating Design Supply Air Temperature
    ,                         !- Zone Heating Design Supply Air Temperature Difference
    0.008,                    !- Zone Cooling Design Supply Air Humidity Ratio
    0.008,                    !- Zone Heating Design Supply Air Humidity Ratio
    ,                         !- Design Specification Outdoor Air Object Name
    ,                         !- Zone Heating Sizing Factor
    ,                         !- Zone Cooling Sizing Factor
    DesignDay,                !- Cooling Design Air Flow Method
    0,                        !- Cooling Design Air Flow Rate
    0.000762,                 !- Cooling Minimum Air Flow per Zone Floor Area
    0,                        !- Cooling Minimum Air Flow
    0.2,                      !- Cooling Minimum Air Flow Fraction
    DesignDay,                !- Heating Design Air Flow Method
    0,                        !- Heating Design Air Flow Rate
    0.002032,                 !- Heating Maximum Air Flow per Zone Floor Area
    0.1415762,                !- Heating Maximum Air Flow
    0.3,                      !- Heating Maximum Air Flow Fraction
    ,                         !- Design Specification Zone Air Distribution Object Name
    No,                       !- Account for Dedicated Outdoor Air System
    NeutralSupplyAir,         !- Dedicated Outdoor Air System Control Strategy
    autosize,                 !- Dedicated Outdoor Air Low Setpoint Temperature for Design
    autosize,                 !- Dedicated Outdoor Air High Setpoint Temperature for Design
    Sensible Load Only No Latent Load,    !- Zone Load Sizing Method
    HumidityRatioDifference,    !- Zone Latent Cooling Design Supply Air Humidity Ratio Input Method
    ,                         !- Zone Dehumidification Design Supply Air Humidity Ratio
    0.005,                    !- Zone Cooling Design Supply Air Humidity Ratio Difference
    HumidityRatioDifference,    !- Zone Latent Heating Design Supply Air Humidity Ratio Input Method
    ,                         !- Zone Humidification Design Supply Air Humidity Ratio
    0.005;                    !- Zone Humidification Design Supply Air Humidity Ratio Difference

OUTPUT:VARIABLE,
    *,                        !- Key Value
    Zone Ideal Loads Zone Total Heating Energy,    !- Variable Name
    Hourly;                   !- Reporting Frequency

OUTPUT:SQLITE,
    SimpleAndTabular,         !- Option Type
    UseOutputControlTableStyle;    !- Unit Conversion for Tabular Data