!- Windows Line endings 

Version,
    23.1;                     !- Version Identifier

SimulationControl,
    Yes,                      !- Do Zone Sizing Calculation
    Yes,                      !- Do System Sizing Calculation
    Yes,                      !- Do Plant Sizing Calculation
    No,                       !- Run Simulation for Sizing Periods
    Yes,                      !- Run Simulation for Weather File Run Periods
    No,                       !- Do HVAC Sizing Simulation for Sizing Periods
    1;                        !- Maximum Number of HVAC Sizing Simulation Passes

Building,
    EU S2 Campaign,           !- Name
    0,                        !- North Axis
    City,                     !- Terrain
    ,                         !- Loads Convergence Tolerance Value
    ,                         !- Temperature Convergence Tolerance Value
    FullExterior,             !- Solar Distribution
    ,                         !- Maximum Number of Warmup Days
    ;                         !- Minimum Number of Warmup Days

ShadowCalculation,
    PolygonClipping,          !- Shading Calculation Method
    Periodic,                 !- Shading Calculation Update Frequency Method
    1;                        !- Shading Calculation Update Frequency

HeatBalanceAlgorithm,
    ConductionTransferFunction,    !- Algorithm
    200,                      !- Surface Temperature Upper Limit
    0.1,                      !- Minimum Surface Convection Heat Transfer Coefficient Value
    10000000;                 !- Maximum Surface Convection Heat Transfer Coefficient Value

Timestep,
    12;                       !- Number of Timesteps per Hour

Site:Location,
    London,                   !- Name
    51.5,                     !- Latitude
    -0.5,                     !- Longitude
    0,                        !- Time Zone
    25;                       !- Elevation

SizingPeriod:WeatherFileDays,
    AnnualSizingPeriod,       !- Name
    1,                        !- Begin Month
    1,                        !- Begin Day of Month
    12,                       !- End Month
    31,                       !- End Day of Month
    Monday,                   !- Day of Week for Start Day
    No,                       !- Use Weather File Daylight Saving Period
    No;                       !- Use Weather File Rain and Snow Indicators

RunPeriod,
    RunPeriod1,               !- Name
    1,                        !- Begin Month
    1,                        !- Begin Day of Month
    ,                         !- Begin Year
    12,                       !- End Month
    31,                       !- End Day of Month
    ,                         !- End Year
    Sunday,                   !- Day of Week for Start Day
    No,                       !- Use Weather File Holidays and Special Days
    No,                       !- Use Weather File Daylight Saving Period
    No,                       !- Apply Weekend Holiday Rule
    Yes,                      !- Use Weather File Rain Indicators
    Yes;                      !- Use Weather File Snow Indicators

ScheduleTypeLimits,
    Any Number;               !- Name

SCHEDULETYPELIMITS,
    EU_Step8_AnyNumber_Wm2,    !- Name
    ,                         !- Lower Limit Value
    ,                         !- Upper Limit Value
    Continuous,               !- Numeric Type
    Dimensionless;            !- Unit Type

SCHEDULE:CONSTANT,
    EU_AlwaysOn,              !- Name
    ,                         !- Schedule Type Limits Name
    1;                        !- Hourly Value

SCHEDULE:CONSTANT,
    EU_CoolingOff,            !- Name
    ,                         !- Schedule Type Limits Name
    0;                        !- Hourly Value

SCHEDULE:FILE,
    EU_Step8_GainSchedule_c591adf7da2c3c14_F0_dwelling_0_f000,    !- Name
    EU_Step8_AnyNumber_Wm2,    !- Schedule Type Limits Name
    ../../schedules/c591adf7da2c3c14/c591adf7da2c3c14_F0_dwelling_0_f000_gain.csv,    !- File Name
    1,                        !- Column Number
    0,                        !- Rows to Skip at Top
    8760,                     !- Number of Hours of Data
    Comma,                    !- Column Separator
    No,                       !- Interpolate to Timestep
    60,                       !- Minutes per Item
    Yes;                      !- Adjust Schedule for Daylight Savings

MATERIAL,
    EU_InternalMass_Material,    !- Name
    MediumRough,              !- Roughness
    0.1,                      !- Thickness
    1,                        !- Conductivity
    1800,                     !- Density
    900,                      !- Specific Heat
    0.9,                      !- Thermal Absorptance
    0.7,                      !- Solar Absorptance
    0.7;                      !- Visible Absorptance

MATERIAL:NOMASS,
    EU_wall_NoMass,           !- Name
    MediumRough,              !- Roughness
    0.5555555555555555,       !- Thermal Resistance
    0.9,                      !- Thermal Absorptance
    0.7,                      !- Solar Absorptance
    0.7;                      !- Visible Absorptance

MATERIAL:NOMASS,
    EU_roof_NoMass,           !- Name
    MediumRough,              !- Roughness
    0.5102040816326531,       !- Thermal Resistance
    0.9,                      !- Thermal Absorptance
    0.7,                      !- Solar Absorptance
    0.7;                      !- Visible Absorptance

MATERIAL:NOMASS,
    EU_floor_NoMass,          !- Name
    MediumRough,              !- Roughness
    1.6891891891891893,       !- Thermal Resistance
    0.9,                      !- Thermal Absorptance
    0.7,                      !- Solar Absorptance
    0.7;                      !- Visible Absorptance

CONSTRUCTION,
    EU_wall_Construction,     !- Name
    EU_wall_NoMass;           !- Outside Layer

CONSTRUCTION,
    EU_roof_Construction,     !- Name
    EU_roof_NoMass;           !- Outside Layer

CONSTRUCTION,
    EU_floor_Construction,    !- Name
    EU_floor_NoMass;          !- Outside Layer

CONSTRUCTION,
    EU_InternalMass_Construction,    !- Name
    EU_InternalMass_Material;    !- Outside Layer

GlobalGeometryRules,
    UpperLeftCorner,          !- Starting Vertex Position
    CounterClockWise,         !- Vertex Entry Direction
    World;                    !- Coordinate System

ZONE,
    c591adf7da2c3c14_F0_dwelling_0,    !- Name
    0,                        !- Direction of Relative North
    0,                        !- X Origin
    0,                        !- Y Origin
    0,                        !- Z Origin
    1,                        !- Type
    1,                        !- Multiplier
    autocalculate,            !- Ceiling Height
    188.54443359375,          !- Volume
    autocalculate,            !- Floor Area
    ,                         !- Zone Inside Convection Algorithm
    ,                         !- Zone Outside Convection Algorithm
    Yes;                      !- Part of Total Floor Area

BUILDINGSURFACE:DETAILED,
    Block c591adf7da2c3c14_0 Storey 0 Wall 0001,    !- Name
    wall,                     !- Surface Type
    EU_wall_Construction,     !- Construction Name
    c591adf7da2c3c14_F0_dwelling_0,    !- Zone Name
    ,                         !- Space Name
    outdoors,                 !- Outside Boundary Condition
    ,                         !- Outside Boundary Condition Object
    SunExposed,               !- Sun Exposure
    WindExposed,              !- Wind Exposure
    autocalculate,            !- View Factor to Ground
    autocalculate,            !- Number of Vertices
    705406.448,               !- Vertex 1 Xcoordinate
    5711055.715,              !- Vertex 1 Ycoordinate
    6,                        !- Vertex 1 Zcoordinate
    705406.448,               !- Vertex 2 Xcoordinate
    5711055.715,              !- Vertex 2 Ycoordinate
    0,                        !- Vertex 2 Zcoordinate
    705406.102,               !- Vertex 3 Xcoordinate
    5711051.202,              !- Vertex 3 Ycoordinate
    0,                        !- Vertex 3 Zcoordinate
    705406.102,               !- Vertex 4 Xcoordinate
    5711051.202,              !- Vertex 4 Ycoordinate
    6;                        !- Vertex 4 Zcoordinate

BUILDINGSURFACE:DETAILED,
    Block c591adf7da2c3c14_0 Storey 0 Wall 0002,    !- Name
    wall,                     !- Surface Type
    EU_wall_Construction,     !- Construction Name
    c591adf7da2c3c14_F0_dwelling_0,    !- Zone Name
    ,                         !- Space Name
    Adiabatic,                !- Outside Boundary Condition
    ,                         !- Outside Boundary Condition Object
    NoSun,                    !- Sun Exposure
    NoWind,                   !- Wind Exposure
    autocalculate,            !- View Factor to Ground
    autocalculate,            !- Number of Vertices
    705406.102,               !- Vertex 1 Xcoordinate
    5711051.202,              !- Vertex 1 Ycoordinate
    6,                        !- Vertex 1 Zcoordinate
    705406.102,               !- Vertex 2 Xcoordinate
    5711051.202,              !- Vertex 2 Ycoordinate
    0,                        !- Vertex 2 Zcoordinate
    705399.129,               !- Vertex 3 Xcoordinate
    5711051.644,              !- Vertex 3 Ycoordinate
    0,                        !- Vertex 3 Zcoordinate
    705399.129,               !- Vertex 4 Xcoordinate
    5711051.644,              !- Vertex 4 Ycoordinate
    6;                        !- Vertex 4 Zcoordinate

BUILDINGSURFACE:DETAILED,
    Block c591adf7da2c3c14_0 Storey 0 Wall 0003,    !- Name
    wall,                     !- Surface Type
    EU_wall_Construction,     !- Construction Name
    c591adf7da2c3c14_F0_dwelling_0,    !- Zone Name
    ,                         !- Space Name
    outdoors,                 !- Outside Boundary Condition
    ,                         !- Outside Boundary Condition Object
    SunExposed,               !- Sun Exposure
    WindExposed,              !- Wind Exposure
    autocalculate,            !- View Factor to Ground
    autocalculate,            !- Number of Vertices
    705399.129,               !- Vertex 1 Xcoordinate
    5711051.644,              !- Vertex 1 Ycoordinate
    6,                        !- Vertex 1 Zcoordinate
    705399.129,               !- Vertex 2 Xcoordinate
    5711051.644,              !- Vertex 2 Ycoordinate
    0,                        !- Vertex 2 Zcoordinate
    705399.558,               !- Vertex 3 Xcoordinate
    5711056.149,              !- Vertex 3 Ycoordinate
    0,                        !- Vertex 3 Zcoordinate
    705399.558,               !- Vertex 4 Xcoordinate
    5711056.149,              !- Vertex 4 Ycoordinate
    6;                        !- Vertex 4 Zcoordinate

BUILDINGSURFACE:DETAILED,
    Block c591adf7da2c3c14_0 Storey 0 Wall 0004,    !- Name
    wall,                     !- Surface Type
    EU_wall_Construction,     !- Construction Name
    c591adf7da2c3c14_F0_dwelling_0,    !- Zone Name
    ,                         !- Space Name
    Adiabatic,                !- Outside Boundary Condition
    ,                         !- Outside Boundary Condition Object
    NoSun,                    !- Sun Exposure
    NoWind,                   !- Wind Exposure
    autocalculate,            !- View Factor to Ground
    autocalculate,            !- Number of Vertices
    705399.558,               !- Vertex 1 Xcoordinate
    5711056.149,              !- Vertex 1 Ycoordinate
    6,                        !- Vertex 1 Zcoordinate
    705399.558,               !- Vertex 2 Xcoordinate
    5711056.149,              !- Vertex 2 Ycoordinate
    0,                        !- Vertex 2 Zcoordinate
    705406.448,               !- Vertex 3 Xcoordinate
    5711055.715,              !- Vertex 3 Ycoordinate
    0,                        !- Vertex 3 Zcoordinate
    705406.448,               !- Vertex 4 Xcoordinate
    5711055.715,              !- Vertex 4 Ycoordinate
    6;                        !- Vertex 4 Zcoordinate

BUILDINGSURFACE:DETAILED,
    Block c591adf7da2c3c14_0 Storey 0 Floor 0001,    !- Name
    floor,                    !- Surface Type
    EU_floor_Construction,    !- Construction Name
    c591adf7da2c3c14_F0_dwelling_0,    !- Zone Name
    ,                         !- Space Name
    ground,                   !- Outside Boundary Condition
    ,                         !- Outside Boundary Condition Object
    NoSun,                    !- Sun Exposure
    NoWind,                   !- Wind Exposure
    autocalculate,            !- View Factor to Ground
    autocalculate,            !- Number of Vertices
    705406.102,               !- Vertex 1 Xcoordinate
    5711051.202,              !- Vertex 1 Ycoordinate
    0,                        !- Vertex 1 Zcoordinate
    705406.448,               !- Vertex 2 Xcoordinate
    5711055.715,              !- Vertex 2 Ycoordinate
    0,                        !- Vertex 2 Zcoordinate
    705399.558,               !- Vertex 3 Xcoordinate
    5711056.149,              !- Vertex 3 Ycoordinate
    0,                        !- Vertex 3 Zcoordinate
    705399.129,               !- Vertex 4 Xcoordinate
    5711051.644,              !- Vertex 4 Ycoordinate
    0;                        !- Vertex 4 Zcoordinate

BUILDINGSURFACE:DETAILED,
    Block c591adf7da2c3c14_0 Storey 0 Roof 0001,    !- Name
    roof,                     !- Surface Type
    EU_roof_Construction,     !- Construction Name
    c591adf7da2c3c14_F0_dwelling_0,    !- Zone Name
    ,                         !- Space Name
    outdoors,                 !- Outside Boundary Condition
    ,                         !- Outside Boundary Condition Object
    NoSun,                    !- Sun Exposure
    WindExposed,              !- Wind Exposure
    autocalculate,            !- View Factor to Ground
    autocalculate,            !- Number of Vertices
    705406.448,               !- Vertex 1 Xcoordinate
    5711055.715,              !- Vertex 1 Ycoordinate
    6,                        !- Vertex 1 Zcoordinate
    705406.102,               !- Vertex 2 Xcoordinate
    5711051.202,              !- Vertex 2 Ycoordinate
    6,                        !- Vertex 2 Zcoordinate
    705399.129,               !- Vertex 3 Xcoordinate
    5711051.644,              !- Vertex 3 Ycoordinate
    6,                        !- Vertex 3 Zcoordinate
    705399.558,               !- Vertex 4 Xcoordinate
    5711056.149,              !- Vertex 4 Ycoordinate
    6;                        !- Vertex 4 Zcoordinate

INTERNALMASS,
    c591adf7da2c3c14_F0_dwelling_0_EU_InternalMass,    !- Name
    EU_InternalMass_Construction,    !- Construction Name
    c591adf7da2c3c14_F0_dwelling_0,    !- Zone or ZoneList Name
    ,                         !- Space or SpaceList Name
    31.42385850042596;        !- Surface Area

SHADING:SITE:DETAILED,
    shade_way/892347485_1,    !- Name
    ,                         !- Transmittance Schedule Name
    autocalculate,            !- Number of Vertices
    705385.4648448217,        !- Vertex 1 Xcoordinate
    5711035.399772919,        !- Vertex 1 Ycoordinate
    6,                        !- Vertex 1 Zcoordinate
    705385.4648448217,        !- Vertex 2 Xcoordinate
    5711035.399772919,        !- Vertex 2 Ycoordinate
    0,                        !- Vertex 2 Zcoordinate
    705375.1005908656,        !- Vertex 3 Xcoordinate
    5711036.362814778,        !- Vertex 3 Ycoordinate
    0,                        !- Vertex 3 Zcoordinate
    705375.1005908656,        !- Vertex 4 Xcoordinate
    5711036.362814778,        !- Vertex 4 Ycoordinate
    6;                        !- Vertex 4 Zcoordinate

SHADING:SITE:DETAILED,
    shade_way/892347485_2,    !- Name
    ,                         !- Transmittance Schedule Name
    autocalculate,            !- Number of Vertices
    705375.1005908656,        !- Vertex 1 Xcoordinate
    5711036.362814778,        !- Vertex 1 Ycoordinate
    6,                        !- Vertex 1 Zcoordinate
    705375.1005908656,        !- Vertex 2 Xcoordinate
    5711036.362814778,        !- Vertex 2 Ycoordinate
    0,                        !- Vertex 2 Zcoordinate
    705375.6957959377,        !- Vertex 3 Xcoordinate
    5711042.76633272,         !- Vertex 3 Ycoordinate
    0,                        !- Vertex 3 Zcoordinate
    705375.6957959377,        !- Vertex 4 Xcoordinate
    5711042.76633272,         !- Vertex 4 Ycoordinate
    6;                        !- Vertex 4 Zcoordinate

SHADING:SITE:DETAILED,
    shade_way/892347485_3,    !- Name
    ,                         !- Transmittance Schedule Name
    autocalculate,            !- Number of Vertices
    705375.6957959377,        !- Vertex 1 Xcoordinate
    5711042.76633272,         !- Vertex 1 Ycoordinate
    6,                        !- Vertex 1 Zcoordinate
    705375.6957959377,        !- Vertex 2 Xcoordinate
    5711042.76633272,         !- Vertex 2 Ycoordinate
    0,                        !- Vertex 2 Zcoordinate
    705386.0598947149,        !- Vertex 3 Xcoordinate
    5711041.80286795,         !- Vertex 3 Ycoordinate
    0,                        !- Vertex 3 Zcoordinate
    705386.0598947149,        !- Vertex 4 Xcoordinate
    5711041.80286795,         !- Vertex 4 Ycoordinate
    6;                        !- Vertex 4 Zcoordinate

SHADING:SITE:DETAILED,
    shade_way/892347485_4,    !- Name
    ,                         !- Transmittance Schedule Name
    autocalculate,            !- Number of Vertices
    705386.0598947149,        !- Vertex 1 Xcoordinate
    5711041.80286795,         !- Vertex 1 Ycoordinate
    6,                        !- Vertex 1 Zcoordinate
    705386.0598947149,        !- Vertex 2 Xcoordinate
    5711041.80286795,         !- Vertex 2 Ycoordinate
    0,                        !- Vertex 2 Zcoordinate
    705385.4648448217,        !- Vertex 3 Xcoordinate
    5711035.399772919,        !- Vertex 3 Ycoordinate
    0,                        !- Vertex 3 Zcoordinate
    705385.4648448217,        !- Vertex 4 Xcoordinate
    5711035.399772919,        !- Vertex 4 Ycoordinate
    6;                        !- Vertex 4 Zcoordinate

SHADING:SITE:DETAILED,
    shade_way/892347484_1,    !- Name
    ,                         !- Transmittance Schedule Name
    autocalculate,            !- Number of Vertices
    705386.0212260176,        !- Vertex 1 Xcoordinate
    5711041.778805912,        !- Vertex 1 Ycoordinate
    6,                        !- Vertex 1 Zcoordinate
    705386.0212260176,        !- Vertex 2 Xcoordinate
    5711041.778805912,        !- Vertex 2 Ycoordinate
    0,                        !- Vertex 2 Zcoordinate
    705375.6405359975,        !- Vertex 3 Xcoordinate
    5711042.771459347,        !- Vertex 3 Ycoordinate
    0,                        !- Vertex 3 Zcoordinate
    705375.6405359975,        !- Vertex 4 Xcoordinate
    5711042.771459347,        !- Vertex 4 Ycoordinate
    6;                        !- Vertex 4 Zcoordinate

SHADING:SITE:DETAILED,
    shade_way/892347484_2,    !- Name
    ,                         !- Transmittance Schedule Name
    autocalculate,            !- Number of Vertices
    705375.6405359975,        !- Vertex 1 Xcoordinate
    5711042.771459347,        !- Vertex 1 Ycoordinate
    6,                        !- Vertex 1 Zcoordinate
    705375.6405359975,        !- Vertex 2 Xcoordinate
    5711042.771459347,        !- Vertex 2 Ycoordinate
    0,                        !- Vertex 2 Zcoordinate
    705376.2447475526,        !- Vertex 3 Xcoordinate
    5711049.090011875,        !- Vertex 3 Ycoordinate
    0,                        !- Vertex 3 Zcoordinate
    705376.2447475526,        !- Vertex 4 Xcoordinate
    5711049.090011875,        !- Vertex 4 Ycoordinate
    6;                        !- Vertex 4 Zcoordinate

SHADING:SITE:DETAILED,
    shade_way/892347484_3,    !- Name
    ,                         !- Transmittance Schedule Name
    autocalculate,            !- Number of Vertices
    705376.2447475526,        !- Vertex 1 Xcoordinate
    5711049.090011875,        !- Vertex 1 Ycoordinate
    6,                        !- Vertex 1 Zcoordinate
    705376.2447475526,        !- Vertex 2 Xcoordinate
    5711049.090011875,        !- Vertex 2 Ycoordinate
    0,                        !- Vertex 2 Zcoordinate
    705386.6255056802,        !- Vertex 3 Xcoordinate
    5711048.097509534,        !- Vertex 3 Ycoordinate
    0,                        !- Vertex 3 Zcoordinate
    705386.6255056802,        !- Vertex 4 Xcoordinate
    5711048.097509534,        !- Vertex 4 Ycoordinate
    6;                        !- Vertex 4 Zcoordinate

SHADING:SITE:DETAILED,
    shade_way/892347484_4,    !- Name
    ,                         !- Transmittance Schedule Name
    autocalculate,            !- Number of Vertices
    705386.6255056802,        !- Vertex 1 Xcoordinate
    5711048.097509534,        !- Vertex 1 Ycoordinate
    6,                        !- Vertex 1 Zcoordinate
    705386.6255056802,        !- Vertex 2 Xcoordinate
    5711048.097509534,        !- Vertex 2 Ycoordinate
    0,                        !- Vertex 2 Zcoordinate
    705386.0212260176,        !- Vertex 3 Xcoordinate
    5711041.778805912,        !- Vertex 3 Ycoordinate
    0,                        !- Vertex 3 Zcoordinate
    705386.0212260176,        !- Vertex 4 Xcoordinate
    5711041.778805912,        !- Vertex 4 Ycoordinate
    6;                        !- Vertex 4 Zcoordinate

SHADING:SITE:DETAILED,
    shade_way/190840465_1,    !- Name
    ,                         !- Transmittance Schedule Name
    autocalculate,            !- Number of Vertices
    705413.4629109997,        !- Vertex 1 Xcoordinate
    5711032.769023068,        !- Vertex 1 Ycoordinate
    9,                        !- Vertex 1 Zcoordinate
    705413.4629109997,        !- Vertex 2 Xcoordinate
    5711032.769023068,        !- Vertex 2 Ycoordinate
    0,                        !- Vertex 2 Zcoordinate
    705412.2010767125,        !- Vertex 3 Xcoordinate
    5711013.912838677,        !- Vertex 3 Ycoordinate
    0,                        !- Vertex 3 Zcoordinate
    705412.2010767125,        !- Vertex 4 Xcoordinate
    5711013.912838677,        !- Vertex 4 Ycoordinate
    9;                        !- Vertex 4 Zcoordinate

SHADING:SITE:DETAILED,
    shade_way/190840465_2,    !- Name
    ,                         !- Transmittance Schedule Name
    autocalculate,            !- Number of Vertices
    705412.2010767125,        !- Vertex 1 Xcoordinate
    5711013.912838677,        !- Vertex 1 Ycoordinate
    9,                        !- Vertex 1 Zcoordinate
    705412.2010767125,        !- Vertex 2 Xcoordinate
    5711013.912838677,        !- Vertex 2 Ycoordinate
    0,                        !- Vertex 2 Zcoordinate
    705406.6577827947,        !- Vertex 3 Xcoordinate
    5711014.28374807,         !- Vertex 3 Ycoordinate
    0,                        !- Vertex 3 Zcoordinate
    705406.6577827947,        !- Vertex 4 Xcoordinate
    5711014.28374807,         !- Vertex 4 Ycoordinate
    9;                        !- Vertex 4 Zcoordinate

SHADING:SITE:DETAILED,
    shade_way/190840465_3,    !- Name
    ,                         !- Transmittance Schedule Name
    autocalculate,            !- Number of Vertices
    705406.6577827947,        !- Vertex 1 Xcoordinate
    5711014.28374807,         !- Vertex 1 Ycoordinate
    9,                        !- Vertex 1 Zcoordinate
    705406.6577827947,        !- Vertex 2 Xcoordinate
    5711014.28374807,         !- Vertex 2 Ycoordinate
    0,                        !- Vertex 2 Zcoordinate
    705407.9194749888,        !- Vertex 3 Xcoordinate
    5711033.139918343,        !- Vertex 3 Ycoordinate
    0,                        !- Vertex 3 Zcoordinate
    705407.9194749888,        !- Vertex 4 Xcoordinate
    5711033.139918343,        !- Vertex 4 Ycoordinate
    9;                        !- Vertex 4 Zcoordinate

SHADING:SITE:DETAILED,
    shade_way/190840465_4,    !- Name
    ,                         !- Transmittance Schedule Name
    autocalculate,            !- Number of Vertices
    705407.9194749888,        !- Vertex 1 Xcoordinate
    5711033.139918343,        !- Vertex 1 Ycoordinate
    9,                        !- Vertex 1 Zcoordinate
    705407.9194749888,        !- Vertex 2 Xcoordinate
    5711033.139918343,        !- Vertex 2 Ycoordinate
    0,                        !- Vertex 2 Zcoordinate
    705413.4629109997,        !- Vertex 3 Xcoordinate
    5711032.769023068,        !- Vertex 3 Ycoordinate
    0,                        !- Vertex 3 Zcoordinate
    705413.4629109997,        !- Vertex 4 Xcoordinate
    5711032.769023068,        !- Vertex 4 Ycoordinate
    9;                        !- Vertex 4 Zcoordinate

SHADING:SITE:DETAILED,
    shade_way/190840473_1,    !- Name
    ,                         !- Transmittance Schedule Name
    autocalculate,            !- Number of Vertices
    705397.0434828645,        !- Vertex 1 Xcoordinate
    5711028.81919565,         !- Vertex 1 Ycoordinate
    3,                        !- Vertex 1 Zcoordinate
    705397.0434828645,        !- Vertex 2 Xcoordinate
    5711028.81919565,         !- Vertex 2 Ycoordinate
    0,                        !- Vertex 2 Zcoordinate
    705397.9105418235,        !- Vertex 3 Xcoordinate
    5711037.658961158,        !- Vertex 3 Ycoordinate
    0,                        !- Vertex 3 Zcoordinate
    705397.9105418235,        !- Vertex 4 Xcoordinate
    5711037.658961158,        !- Vertex 4 Ycoordinate
    3;                        !- Vertex 4 Zcoordinate

SHADING:SITE:DETAILED,
    shade_way/190840473_2,    !- Name
    ,                         !- Transmittance Schedule Name
    autocalculate,            !- Number of Vertices
    705397.9105418235,        !- Vertex 1 Xcoordinate
    5711037.658961158,        !- Vertex 1 Ycoordinate
    3,                        !- Vertex 1 Zcoordinate
    705397.9105418235,        !- Vertex 2 Xcoordinate
    5711037.658961158,        !- Vertex 2 Ycoordinate
    0,                        !- Vertex 2 Zcoordinate
    705403.2663854356,        !- Vertex 3 Xcoordinate
    5711037.133717849,        !- Vertex 3 Ycoordinate
    0,                        !- Vertex 3 Zcoordinate
    705403.2663854356,        !- Vertex 4 Xcoordinate
    5711037.133717849,        !- Vertex 4 Ycoordinate
    3;                        !- Vertex 4 Zcoordinate

SHADING:SITE:DETAILED,
    shade_way/190840473_3,    !- Name
    ,                         !- Transmittance Schedule Name
    autocalculate,            !- Number of Vertices
    705403.2663854356,        !- Vertex 1 Xcoordinate
    5711037.133717849,        !- Vertex 1 Ycoordinate
    3,                        !- Vertex 1 Zcoordinate
    705403.2663854356,        !- Vertex 2 Xcoordinate
    5711037.133717849,        !- Vertex 2 Ycoordinate
    0,                        !- Vertex 2 Zcoordinate
    705402.3992162285,        !- Vertex 3 Xcoordinate
    5711028.29372769,         !- Vertex 3 Ycoordinate
    0,                        !- Vertex 3 Zcoordinate
    705402.3992162285,        !- Vertex 4 Xcoordinate
    5711028.29372769,         !- Vertex 4 Ycoordinate
    3;                        !- Vertex 4 Zcoordinate

SHADING:SITE:DETAILED,
    shade_way/190840473_4,    !- Name
    ,                         !- Transmittance Schedule Name
    autocalculate,            !- Number of Vertices
    705402.3992162285,        !- Vertex 1 Xcoordinate
    5711028.29372769,         !- Vertex 1 Ycoordinate
    3,                        !- Vertex 1 Zcoordinate
    705402.3992162285,        !- Vertex 2 Xcoordinate
    5711028.29372769,         !- Vertex 2 Ycoordinate
    0,                        !- Vertex 2 Zcoordinate
    705397.0434828645,        !- Vertex 3 Xcoordinate
    5711028.81919565,         !- Vertex 3 Ycoordinate
    0,                        !- Vertex 3 Zcoordinate
    705397.0434828645,        !- Vertex 4 Xcoordinate
    5711028.81919565,         !- Vertex 4 Ycoordinate
    3;                        !- Vertex 4 Zcoordinate

SHADING:SITE:DETAILED,
    shade_way/892347470_1,    !- Name
    ,                         !- Transmittance Schedule Name
    autocalculate,            !- Number of Vertices
    705398.1518880411,        !- Vertex 1 Xcoordinate
    5711041.802622083,        !- Vertex 1 Ycoordinate
    6,                        !- Vertex 1 Zcoordinate
    705398.1518880411,        !- Vertex 2 Xcoordinate
    5711041.802622083,        !- Vertex 2 Ycoordinate
    0,                        !- Vertex 2 Zcoordinate
    705405.1796800159,        !- Vertex 3 Xcoordinate
    5711041.36498072,         !- Vertex 3 Ycoordinate
    0,                        !- Vertex 3 Zcoordinate
    705405.1796800159,        !- Vertex 4 Xcoordinate
    5711041.36498072,         !- Vertex 4 Ycoordinate
    6;                        !- Vertex 4 Zcoordinate

SHADING:SITE:DETAILED,
    shade_way/892347470_2,    !- Name
    ,                         !- Transmittance Schedule Name
    autocalculate,            !- Number of Vertices
    705405.1796800159,        !- Vertex 1 Xcoordinate
    5711041.36498072,         !- Vertex 1 Ycoordinate
    6,                        !- Vertex 1 Zcoordinate
    705405.1796800159,        !- Vertex 2 Xcoordinate
    5711041.36498072,         !- Vertex 2 Ycoordinate
    0,                        !- Vertex 2 Zcoordinate
    705404.89287458,          !- Vertex 3 Xcoordinate
    5711036.756226977,        !- Vertex 3 Ycoordinate
    0,                        !- Vertex 3 Zcoordinate
    705404.89287458,          !- Vertex 4 Xcoordinate
    5711036.756226977,        !- Vertex 4 Ycoordinate
    6;                        !- Vertex 4 Zcoordinate

SHADING:SITE:DETAILED,
    shade_way/892347470_3,    !- Name
    ,                         !- Transmittance Schedule Name
    autocalculate,            !- Number of Vertices
    705404.89287458,          !- Vertex 1 Xcoordinate
    5711036.756226977,        !- Vertex 1 Ycoordinate
    6,                        !- Vertex 1 Zcoordinate
    705404.89287458,          !- Vertex 2 Xcoordinate
    5711036.756226977,        !- Vertex 2 Ycoordinate
    0,                        !- Vertex 2 Zcoordinate
    705397.864926699,         !- Vertex 3 Xcoordinate
    5711037.193483746,        !- Vertex 3 Ycoordinate
    0,                        !- Vertex 3 Zcoordinate
    705397.864926699,         !- Vertex 4 Xcoordinate
    5711037.193483746,        !- Vertex 4 Ycoordinate
    6;                        !- Vertex 4 Zcoordinate

SHADING:SITE:DETAILED,
    shade_way/892347470_4,    !- Name
    ,                         !- Transmittance Schedule Name
    autocalculate,            !- Number of Vertices
    705397.864926699,         !- Vertex 1 Xcoordinate
    5711037.193483746,        !- Vertex 1 Ycoordinate
    6,                        !- Vertex 1 Zcoordinate
    705397.864926699,         !- Vertex 2 Xcoordinate
    5711037.193483746,        !- Vertex 2 Ycoordinate
    0,                        !- Vertex 2 Zcoordinate
    705398.1518880411,        !- Vertex 3 Xcoordinate
    5711041.802622083,        !- Vertex 3 Ycoordinate
    0,                        !- Vertex 3 Zcoordinate
    705398.1518880411,        !- Vertex 4 Xcoordinate
    5711041.802622083,        !- Vertex 4 Ycoordinate
    6;                        !- Vertex 4 Zcoordinate

SHADING:SITE:DETAILED,
    shade_way/892347471_1,    !- Name
    ,                         !- Transmittance Schedule Name
    autocalculate,            !- Number of Vertices
    705405.3410424746,        !- Vertex 1 Xcoordinate
    5711041.35513388,         !- Vertex 1 Ycoordinate
    6,                        !- Vertex 1 Zcoordinate
    705405.3410424746,        !- Vertex 2 Xcoordinate
    5711041.35513388,         !- Vertex 2 Ycoordinate
    0,                        !- Vertex 2 Zcoordinate
    705398.2414279322,        !- Vertex 3 Xcoordinate
    5711041.7968515325,       !- Vertex 3 Ycoordinate
    0,                        !- Vertex 3 Zcoordinate
    705398.2414279322,        !- Vertex 4 Xcoordinate
    5711041.7968515325,       !- Vertex 4 Ycoordinate
    6;                        !- Vertex 4 Zcoordinate

SHADING:SITE:DETAILED,
    shade_way/892347471_2,    !- Name
    ,                         !- Transmittance Schedule Name
    autocalculate,            !- Number of Vertices
    705398.2414279322,        !- Vertex 1 Xcoordinate
    5711041.7968515325,       !- Vertex 1 Ycoordinate
    6,                        !- Vertex 1 Zcoordinate
    705398.2414279322,        !- Vertex 2 Xcoordinate
    5711041.7968515325,       !- Vertex 2 Ycoordinate
    0,                        !- Vertex 2 Zcoordinate
    705398.5566457255,        !- Vertex 3 Xcoordinate
    5711046.859945949,        !- Vertex 3 Ycoordinate
    0,                        !- Vertex 3 Zcoordinate
    705398.5566457255,        !- Vertex 4 Xcoordinate
    5711046.859945949,        !- Vertex 4 Ycoordinate
    6;                        !- Vertex 4 Zcoordinate

SHADING:SITE:DETAILED,
    shade_way/892347471_3,    !- Name
    ,                         !- Transmittance Schedule Name
    autocalculate,            !- Number of Vertices
    705398.5566457255,        !- Vertex 1 Xcoordinate
    5711046.859945949,        !- Vertex 1 Ycoordinate
    6,                        !- Vertex 1 Zcoordinate
    705398.5566457255,        !- Vertex 2 Xcoordinate
    5711046.859945949,        !- Vertex 2 Ycoordinate
    0,                        !- Vertex 2 Zcoordinate
    705405.6561043616,        !- Vertex 3 Xcoordinate
    5711046.417843703,        !- Vertex 3 Ycoordinate
    0,                        !- Vertex 3 Zcoordinate
    705405.6561043616,        !- Vertex 4 Xcoordinate
    5711046.417843703,        !- Vertex 4 Ycoordinate
    6;                        !- Vertex 4 Zcoordinate

SHADING:SITE:DETAILED,
    shade_way/892347471_4,    !- Name
    ,                         !- Transmittance Schedule Name
    autocalculate,            !- Number of Vertices
    705405.6561043616,        !- Vertex 1 Xcoordinate
    5711046.417843703,        !- Vertex 1 Ycoordinate
    6,                        !- Vertex 1 Zcoordinate
    705405.6561043616,        !- Vertex 2 Xcoordinate
    5711046.417843703,        !- Vertex 2 Ycoordinate
    0,                        !- Vertex 2 Zcoordinate
    705405.3410424746,        !- Vertex 3 Xcoordinate
    5711041.35513388,         !- Vertex 3 Ycoordinate
    0,                        !- Vertex 3 Zcoordinate
    705405.3410424746,        !- Vertex 4 Xcoordinate
    5711041.35513388,         !- Vertex 4 Ycoordinate
    6;                        !- Vertex 4 Zcoordinate

SHADING:SITE:DETAILED,
    shade_way/892347472_1,    !- Name
    ,                         !- Transmittance Schedule Name
    autocalculate,            !- Number of Vertices
    705399.0023595168,        !- Vertex 1 Xcoordinate
    5711051.651996218,        !- Vertex 1 Ycoordinate
    6,                        !- Vertex 1 Zcoordinate
    705399.0023595168,        !- Vertex 2 Xcoordinate
    5711051.651996218,        !- Vertex 2 Ycoordinate
    0,                        !- Vertex 2 Zcoordinate
    705406.1017052846,        !- Vertex 3 Xcoordinate
    5711051.2021895135,       !- Vertex 3 Ycoordinate
    0,                        !- Vertex 3 Zcoordinate
    705406.1017052846,        !- Vertex 4 Xcoordinate
    5711051.2021895135,       !- Vertex 4 Ycoordinate
    6;                        !- Vertex 4 Zcoordinate

SHADING:SITE:DETAILED,
    shade_way/892347472_2,    !- Name
    ,                         !- Transmittance Schedule Name
    autocalculate,            !- Number of Vertices
    705406.1017052846,        !- Vertex 1 Xcoordinate
    5711051.2021895135,       !- Vertex 1 Ycoordinate
    6,                        !- Vertex 1 Zcoordinate
    705406.1017052846,        !- Vertex 2 Xcoordinate
    5711051.2021895135,       !- Vertex 2 Ycoordinate
    0,                        !- Vertex 2 Zcoordinate
    705405.7926354331,        !- Vertex 3 Xcoordinate
    5711046.321448772,        !- Vertex 3 Ycoordinate
    0,                        !- Vertex 3 Zcoordinate
    705405.7926354331,        !- Vertex 4 Xcoordinate
    5711046.321448772,        !- Vertex 4 Ycoordinate
    6;                        !- Vertex 4 Zcoordinate

SHADING:SITE:DETAILED,
    shade_way/892347472_3,    !- Name
    ,                         !- Transmittance Schedule Name
    autocalculate,            !- Number of Vertices
    705405.7926354331,        !- Vertex 1 Xcoordinate
    5711046.321448772,        !- Vertex 1 Ycoordinate
    6,                        !- Vertex 1 Zcoordinate
    705405.7926354331,        !- Vertex 2 Xcoordinate
    5711046.321448772,        !- Vertex 2 Ycoordinate
    0,                        !- Vertex 2 Zcoordinate
    705398.6932604876,        !- Vertex 3 Xcoordinate
    5711046.7707643695,       !- Vertex 3 Ycoordinate
    0,                        !- Vertex 3 Zcoordinate
    705398.6932604876,        !- Vertex 4 Xcoordinate
    5711046.7707643695,       !- Vertex 4 Ycoordinate
    6;                        !- Vertex 4 Zcoordinate

SHADING:SITE:DETAILED,
    shade_way/892347472_4,    !- Name
    ,                         !- Transmittance Schedule Name
    autocalculate,            !- Number of Vertices
    705398.6932604876,        !- Vertex 1 Xcoordinate
    5711046.7707643695,       !- Vertex 1 Ycoordinate
    6,                        !- Vertex 1 Zcoordinate
    705398.6932604876,        !- Vertex 2 Xcoordinate
    5711046.7707643695,       !- Vertex 2 Ycoordinate
    0,                        !- Vertex 2 Zcoordinate
    705399.0023595168,        !- Vertex 3 Xcoordinate
    5711051.651996218,        !- Vertex 3 Ycoordinate
    0,                        !- Vertex 3 Zcoordinate
    705399.0023595168,        !- Vertex 4 Xcoordinate
    5711051.651996218,        !- Vertex 4 Ycoordinate
    6;                        !- Vertex 4 Zcoordinate

SHADING:SITE:DETAILED,
    shade_way/892347483_1,    !- Name
    ,                         !- Transmittance Schedule Name
    autocalculate,            !- Number of Vertices
    705386.6541555404,        !- Vertex 1 Xcoordinate
    5711048.095107359,        !- Vertex 1 Ycoordinate
    6,                        !- Vertex 1 Zcoordinate
    705386.6541555404,        !- Vertex 2 Xcoordinate
    5711048.095107359,        !- Vertex 2 Ycoordinate
    0,                        !- Vertex 2 Zcoordinate
    705376.2377988525,        !- Vertex 3 Xcoordinate
    5711049.079731462,        !- Vertex 3 Ycoordinate
    0,                        !- Vertex 3 Zcoordinate
    705376.2377988525,        !- Vertex 4 Xcoordinate
    5711049.079731462,        !- Vertex 4 Ycoordinate
    6;                        !- Vertex 4 Zcoordinate

SHADING:SITE:DETAILED,
    shade_way/892347483_2,    !- Name
    ,                         !- Transmittance Schedule Name
    autocalculate,            !- Number of Vertices
    705376.2377988525,        !- Vertex 1 Xcoordinate
    5711049.079731462,        !- Vertex 1 Ycoordinate
    6,                        !- Vertex 1 Zcoordinate
    705376.2377988525,        !- Vertex 2 Xcoordinate
    5711049.079731462,        !- Vertex 2 Ycoordinate
    0,                        !- Vertex 2 Zcoordinate
    705376.7189704082,        !- Vertex 3 Xcoordinate
    5711054.170054273,        !- Vertex 3 Ycoordinate
    0,                        !- Vertex 3 Zcoordinate
    705376.7189704082,        !- Vertex 4 Xcoordinate
    5711054.170054273,        !- Vertex 4 Ycoordinate
    6;                        !- Vertex 4 Zcoordinate

SHADING:SITE:DETAILED,
    shade_way/892347483_3,    !- Name
    ,                         !- Transmittance Schedule Name
    autocalculate,            !- Number of Vertices
    705376.7189704082,        !- Vertex 1 Xcoordinate
    5711054.170054273,        !- Vertex 1 Ycoordinate
    6,                        !- Vertex 1 Zcoordinate
    705376.7189704082,        !- Vertex 2 Xcoordinate
    5711054.170054273,        !- Vertex 2 Ycoordinate
    0,                        !- Vertex 2 Zcoordinate
    705387.1352828576,        !- Vertex 3 Xcoordinate
    5711053.18512835,         !- Vertex 3 Ycoordinate
    0,                        !- Vertex 3 Zcoordinate
    705387.1352828576,        !- Vertex 4 Xcoordinate
    5711053.18512835,         !- Vertex 4 Ycoordinate
    6;                        !- Vertex 4 Zcoordinate

SHADING:SITE:DETAILED,
    shade_way/892347483_4,    !- Name
    ,                         !- Transmittance Schedule Name
    autocalculate,            !- Number of Vertices
    705387.1352828576,        !- Vertex 1 Xcoordinate
    5711053.18512835,         !- Vertex 1 Ycoordinate
    6,                        !- Vertex 1 Zcoordinate
    705387.1352828576,        !- Vertex 2 Xcoordinate
    5711053.18512835,         !- Vertex 2 Ycoordinate
    0,                        !- Vertex 2 Zcoordinate
    705386.6541555404,        !- Vertex 3 Xcoordinate
    5711048.095107359,        !- Vertex 3 Ycoordinate
    0,                        !- Vertex 3 Zcoordinate
    705386.6541555404,        !- Vertex 4 Xcoordinate
    5711048.095107359,        !- Vertex 4 Ycoordinate
    6;                        !- Vertex 4 Zcoordinate

SHADING:SITE:DETAILED,
    shade_way/892347482_1,    !- Name
    ,                         !- Transmittance Schedule Name
    autocalculate,            !- Number of Vertices
    705387.1352828576,        !- Vertex 1 Xcoordinate
    5711053.18512835,         !- Vertex 1 Ycoordinate
    6,                        !- Vertex 1 Zcoordinate
    705387.1352828576,        !- Vertex 2 Xcoordinate
    5711053.18512835,         !- Vertex 2 Ycoordinate
    0,                        !- Vertex 2 Zcoordinate
    705376.2974675474,        !- Vertex 3 Xcoordinate
    5711054.165559442,        !- Vertex 3 Ycoordinate
    0,                        !- Vertex 3 Zcoordinate
    705376.2974675474,        !- Vertex 4 Xcoordinate
    5711054.165559442,        !- Vertex 4 Ycoordinate
    6;                        !- Vertex 4 Zcoordinate

SHADING:SITE:DETAILED,
    shade_way/892347482_2,    !- Name
    ,                         !- Transmittance Schedule Name
    autocalculate,            !- Number of Vertices
    705376.2974675474,        !- Vertex 1 Xcoordinate
    5711054.165559442,        !- Vertex 1 Ycoordinate
    6,                        !- Vertex 1 Zcoordinate
    705376.2974675474,        !- Vertex 2 Xcoordinate
    5711054.165559442,        !- Vertex 2 Ycoordinate
    0,                        !- Vertex 2 Zcoordinate
    705376.7296395669,        !- Vertex 3 Xcoordinate
    5711058.944402568,        !- Vertex 3 Ycoordinate
    0,                        !- Vertex 3 Zcoordinate
    705376.7296395669,        !- Vertex 4 Xcoordinate
    5711058.944402568,        !- Vertex 4 Ycoordinate
    6;                        !- Vertex 4 Zcoordinate

SHADING:SITE:DETAILED,
    shade_way/892347482_3,    !- Name
    ,                         !- Transmittance Schedule Name
    autocalculate,            !- Number of Vertices
    705376.7296395669,        !- Vertex 1 Xcoordinate
    5711058.944402568,        !- Vertex 1 Ycoordinate
    6,                        !- Vertex 1 Zcoordinate
    705376.7296395669,        !- Vertex 2 Xcoordinate
    5711058.944402568,        !- Vertex 2 Ycoordinate
    0,                        !- Vertex 2 Zcoordinate
    705387.5675571809,        !- Vertex 3 Xcoordinate
    5711057.964281524,        !- Vertex 3 Ycoordinate
    0,                        !- Vertex 3 Zcoordinate
    705387.5675571809,        !- Vertex 4 Xcoordinate
    5711057.964281524,        !- Vertex 4 Ycoordinate
    6;                        !- Vertex 4 Zcoordinate

SHADING:SITE:DETAILED,
    shade_way/892347482_4,    !- Name
    ,                         !- Transmittance Schedule Name
    autocalculate,            !- Number of Vertices
    705387.5675571809,        !- Vertex 1 Xcoordinate
    5711057.964281524,        !- Vertex 1 Ycoordinate
    6,                        !- Vertex 1 Zcoordinate
    705387.5675571809,        !- Vertex 2 Xcoordinate
    5711057.964281524,        !- Vertex 2 Ycoordinate
    0,                        !- Vertex 2 Zcoordinate
    705387.1352828576,        !- Vertex 3 Xcoordinate
    5711053.18512835,         !- Vertex 3 Ycoordinate
    0,                        !- Vertex 3 Zcoordinate
    705387.1352828576,        !- Vertex 4 Xcoordinate
    5711053.18512835,         !- Vertex 4 Ycoordinate
    6;                        !- Vertex 4 Zcoordinate

SHADING:SITE:DETAILED,
    shade_way/892347481_1,    !- Name
    ,                         !- Transmittance Schedule Name
    autocalculate,            !- Number of Vertices
    705377.2724208947,        !- Vertex 1 Xcoordinate
    5711064.136041031,        !- Vertex 1 Ycoordinate
    6,                        !- Vertex 1 Zcoordinate
    705377.2724208947,        !- Vertex 2 Xcoordinate
    5711064.136041031,        !- Vertex 2 Ycoordinate
    0,                        !- Vertex 2 Zcoordinate
    705388.0645553261,        !- Vertex 3 Xcoordinate
    5711063.088802676,        !- Vertex 3 Ycoordinate
    0,                        !- Vertex 3 Zcoordinate
    705388.0645553261,        !- Vertex 4 Xcoordinate
    5711063.088802676,        !- Vertex 4 Ycoordinate
    6;                        !- Vertex 4 Zcoordinate

SHADING:SITE:DETAILED,
    shade_way/892347481_2,    !- Name
    ,                         !- Transmittance Schedule Name
    autocalculate,            !- Number of Vertices
    705388.0645553261,        !- Vertex 1 Xcoordinate
    5711063.088802676,        !- Vertex 1 Ycoordinate
    6,                        !- Vertex 1 Zcoordinate
    705388.0645553261,        !- Vertex 2 Xcoordinate
    5711063.088802676,        !- Vertex 2 Ycoordinate
    0,                        !- Vertex 2 Zcoordinate
    705387.552514042,         !- Vertex 3 Xcoordinate
    5711057.812415968,        !- Vertex 3 Ycoordinate
    0,                        !- Vertex 3 Zcoordinate
    705387.552514042,         !- Vertex 4 Xcoordinate
    5711057.812415968,        !- Vertex 4 Ycoordinate
    6;                        !- Vertex 4 Zcoordinate

SHADING:SITE:DETAILED,
    shade_way/892347481_3,    !- Name
    ,                         !- Transmittance Schedule Name
    autocalculate,            !- Number of Vertices
    705387.552514042,         !- Vertex 1 Xcoordinate
    5711057.812415968,        !- Vertex 1 Ycoordinate
    6,                        !- Vertex 1 Zcoordinate
    705387.552514042,         !- Vertex 2 Xcoordinate
    5711057.812415968,        !- Vertex 2 Ycoordinate
    0,                        !- Vertex 2 Zcoordinate
    705376.7603927155,        !- Vertex 3 Xcoordinate
    5711058.859422834,        !- Vertex 3 Ycoordinate
    0,                        !- Vertex 3 Zcoordinate
    705376.7603927155,        !- Vertex 4 Xcoordinate
    5711058.859422834,        !- Vertex 4 Ycoordinate
    6;                        !- Vertex 4 Zcoordinate

SHADING:SITE:DETAILED,
    shade_way/892347481_4,    !- Name
    ,                         !- Transmittance Schedule Name
    autocalculate,            !- Number of Vertices
    705376.7603927155,        !- Vertex 1 Xcoordinate
    5711058.859422834,        !- Vertex 1 Ycoordinate
    6,                        !- Vertex 1 Zcoordinate
    705376.7603927155,        !- Vertex 2 Xcoordinate
    5711058.859422834,        !- Vertex 2 Ycoordinate
    0,                        !- Vertex 2 Zcoordinate
    705377.2724208947,        !- Vertex 3 Xcoordinate
    5711064.136041031,        !- Vertex 3 Ycoordinate
    0,                        !- Vertex 3 Zcoordinate
    705377.2724208947,        !- Vertex 4 Xcoordinate
    5711064.136041031,        !- Vertex 4 Ycoordinate
    6;                        !- Vertex 4 Zcoordinate

SHADING:SITE:DETAILED,
    shade_way/892347480_1,    !- Name
    ,                         !- Transmittance Schedule Name
    autocalculate,            !- Number of Vertices
    705377.6593742485,        !- Vertex 1 Xcoordinate
    5711068.896387658,        !- Vertex 1 Ycoordinate
    6,                        !- Vertex 1 Zcoordinate
    705377.6593742485,        !- Vertex 2 Xcoordinate
    5711068.896387658,        !- Vertex 2 Ycoordinate
    0,                        !- Vertex 2 Zcoordinate
    705388.5727740312,        !- Vertex 3 Xcoordinate
    5711067.798367023,        !- Vertex 3 Ycoordinate
    0,                        !- Vertex 3 Zcoordinate
    705388.5727740312,        !- Vertex 4 Xcoordinate
    5711067.798367023,        !- Vertex 4 Ycoordinate
    6;                        !- Vertex 4 Zcoordinate

SHADING:SITE:DETAILED,
    shade_way/892347480_2,    !- Name
    ,                         !- Transmittance Schedule Name
    autocalculate,            !- Number of Vertices
    705388.5727740312,        !- Vertex 1 Xcoordinate
    5711067.798367023,        !- Vertex 1 Ycoordinate
    6,                        !- Vertex 1 Zcoordinate
    705388.5727740312,        !- Vertex 2 Xcoordinate
    5711067.798367023,        !- Vertex 2 Ycoordinate
    0,                        !- Vertex 2 Zcoordinate
    705388.0933600517,        !- Vertex 3 Xcoordinate
    5711063.0339992475,       !- Vertex 3 Ycoordinate
    0,                        !- Vertex 3 Zcoordinate
    705388.0933600517,        !- Vertex 4 Xcoordinate
    5711063.0339992475,       !- Vertex 4 Ycoordinate
    6;                        !- Vertex 4 Zcoordinate

SHADING:SITE:DETAILED,
    shade_way/892347480_3,    !- Name
    ,                         !- Transmittance Schedule Name
    autocalculate,            !- Number of Vertices
    705388.0933600517,        !- Vertex 1 Xcoordinate
    5711063.0339992475,       !- Vertex 1 Ycoordinate
    6,                        !- Vertex 1 Zcoordinate
    705388.0933600517,        !- Vertex 2 Xcoordinate
    5711063.0339992475,       !- Vertex 2 Ycoordinate
    0,                        !- Vertex 2 Zcoordinate
    705377.17994721,          !- Vertex 3 Xcoordinate
    5711064.13224112,         !- Vertex 3 Ycoordinate
    0,                        !- Vertex 3 Zcoordinate
    705377.17994721,          !- Vertex 4 Xcoordinate
    5711064.13224112,         !- Vertex 4 Ycoordinate
    6;                        !- Vertex 4 Zcoordinate

SHADING:SITE:DETAILED,
    shade_way/892347480_4,    !- Name
    ,                         !- Transmittance Schedule Name
    autocalculate,            !- Number of Vertices
    705377.17994721,          !- Vertex 1 Xcoordinate
    5711064.13224112,         !- Vertex 1 Ycoordinate
    6,                        !- Vertex 1 Zcoordinate
    705377.17994721,          !- Vertex 2 Xcoordinate
    5711064.13224112,         !- Vertex 2 Ycoordinate
    0,                        !- Vertex 2 Zcoordinate
    705377.6593742485,        !- Vertex 3 Xcoordinate
    5711068.896387658,        !- Vertex 3 Ycoordinate
    0,                        !- Vertex 3 Zcoordinate
    705377.6593742485,        !- Vertex 4 Xcoordinate
    5711068.896387658,        !- Vertex 4 Ycoordinate
    6;                        !- Vertex 4 Zcoordinate

SHADING:SITE:DETAILED,
    shade_way/892347479_1,    !- Name
    ,                         !- Transmittance Schedule Name
    autocalculate,            !- Number of Vertices
    705378.1022582786,        !- Vertex 1 Xcoordinate
    5711073.295718848,        !- Vertex 1 Ycoordinate
    6,                        !- Vertex 1 Zcoordinate
    705378.1022582786,        !- Vertex 2 Xcoordinate
    5711073.295718848,        !- Vertex 2 Ycoordinate
    0,                        !- Vertex 2 Zcoordinate
    705388.9981416545,        !- Vertex 3 Xcoordinate
    5711072.25596526,         !- Vertex 3 Ycoordinate
    0,                        !- Vertex 3 Zcoordinate
    705388.9981416545,        !- Vertex 4 Xcoordinate
    5711072.25596526,         !- Vertex 4 Ycoordinate
    6;                        !- Vertex 4 Zcoordinate

SHADING:SITE:DETAILED,
    shade_way/892347479_2,    !- Name
    ,                         !- Transmittance Schedule Name
    autocalculate,            !- Number of Vertices
    705388.9981416545,        !- Vertex 1 Xcoordinate
    5711072.25596526,         !- Vertex 1 Ycoordinate
    6,                        !- Vertex 1 Zcoordinate
    705388.9981416545,        !- Vertex 2 Xcoordinate
    5711072.25596526,         !- Vertex 2 Ycoordinate
    0,                        !- Vertex 2 Zcoordinate
    705388.5727740312,        !- Vertex 3 Xcoordinate
    5711067.798367023,        !- Vertex 3 Ycoordinate
    0,                        !- Vertex 3 Zcoordinate
    705388.5727740312,        !- Vertex 4 Xcoordinate
    5711067.798367023,        !- Vertex 4 Ycoordinate
    6;                        !- Vertex 4 Zcoordinate

SHADING:SITE:DETAILED,
    shade_way/892347479_3,    !- Name
    ,                         !- Transmittance Schedule Name
    autocalculate,            !- Number of Vertices
    705388.5727740312,        !- Vertex 1 Xcoordinate
    5711067.798367023,        !- Vertex 1 Ycoordinate
    6,                        !- Vertex 1 Zcoordinate
    705388.5727740312,        !- Vertex 2 Xcoordinate
    5711067.798367023,        !- Vertex 2 Ycoordinate
    0,                        !- Vertex 2 Zcoordinate
    705377.6768902467,        !- Vertex 3 Xcoordinate
    5711068.83816225,         !- Vertex 3 Ycoordinate
    0,                        !- Vertex 3 Zcoordinate
    705377.6768902467,        !- Vertex 4 Xcoordinate
    5711068.83816225,         !- Vertex 4 Ycoordinate
    6;                        !- Vertex 4 Zcoordinate

SHADING:SITE:DETAILED,
    shade_way/892347479_4,    !- Name
    ,                         !- Transmittance Schedule Name
    autocalculate,            !- Number of Vertices
    705377.6768902467,        !- Vertex 1 Xcoordinate
    5711068.83816225,         !- Vertex 1 Ycoordinate
    6,                        !- Vertex 1 Zcoordinate
    705377.6768902467,        !- Vertex 2 Xcoordinate
    5711068.83816225,         !- Vertex 2 Ycoordinate
    0,                        !- Vertex 2 Zcoordinate
    705378.1022582786,        !- Vertex 3 Xcoordinate
    5711073.295718848,        !- Vertex 3 Ycoordinate
    0,                        !- Vertex 3 Zcoordinate
    705378.1022582786,        !- Vertex 4 Xcoordinate
    5711073.295718848,        !- Vertex 4 Ycoordinate
    6;                        !- Vertex 4 Zcoordinate

SHADING:SITE:DETAILED,
    shade_way/892347474_1,    !- Name
    ,                         !- Transmittance Schedule Name
    autocalculate,            !- Number of Vertices
    705399.8609562354,        !- Vertex 1 Xcoordinate
    5711060.835918708,        !- Vertex 1 Ycoordinate
    6,                        !- Vertex 1 Zcoordinate
    705399.8609562354,        !- Vertex 2 Xcoordinate
    5711060.835918708,        !- Vertex 2 Ycoordinate
    0,                        !- Vertex 2 Zcoordinate
    705406.8072269186,        !- Vertex 3 Xcoordinate
    5711060.386236083,        !- Vertex 3 Ycoordinate
    0,                        !- Vertex 3 Zcoordinate
    705406.8072269186,        !- Vertex 4 Xcoordinate
    5711060.386236083,        !- Vertex 4 Ycoordinate
    6;                        !- Vertex 4 Zcoordinate

SHADING:SITE:DETAILED,
    shade_way/892347474_2,    !- Name
    ,                         !- Transmittance Schedule Name
    autocalculate,            !- Number of Vertices
    705406.8072269186,        !- Vertex 1 Xcoordinate
    5711060.386236083,        !- Vertex 1 Ycoordinate
    6,                        !- Vertex 1 Zcoordinate
    705406.8072269186,        !- Vertex 2 Xcoordinate
    5711060.386236083,        !- Vertex 2 Ycoordinate
    0,                        !- Vertex 2 Zcoordinate
    705406.5037916771,        !- Vertex 3 Xcoordinate
    5711055.6990562305,       !- Vertex 3 Ycoordinate
    0,                        !- Vertex 3 Zcoordinate
    705406.5037916771,        !- Vertex 4 Xcoordinate
    5711055.6990562305,       !- Vertex 4 Ycoordinate
    6;                        !- Vertex 4 Zcoordinate

SHADING:SITE:DETAILED,
    shade_way/892347474_3,    !- Name
    ,                         !- Transmittance Schedule Name
    autocalculate,            !- Number of Vertices
    705406.5037916771,        !- Vertex 1 Xcoordinate
    5711055.6990562305,       !- Vertex 1 Ycoordinate
    6,                        !- Vertex 1 Zcoordinate
    705406.5037916771,        !- Vertex 2 Xcoordinate
    5711055.6990562305,       !- Vertex 2 Ycoordinate
    0,                        !- Vertex 2 Zcoordinate
    705399.5574385866,        !- Vertex 3 Xcoordinate
    5711056.149044227,        !- Vertex 3 Ycoordinate
    0,                        !- Vertex 3 Zcoordinate
    705399.5574385866,        !- Vertex 4 Xcoordinate
    5711056.149044227,        !- Vertex 4 Ycoordinate
    6;                        !- Vertex 4 Zcoordinate

SHADING:SITE:DETAILED,
    shade_way/892347474_4,    !- Name
    ,                         !- Transmittance Schedule Name
    autocalculate,            !- Number of Vertices
    705399.5574385866,        !- Vertex 1 Xcoordinate
    5711056.149044227,        !- Vertex 1 Ycoordinate
    6,                        !- Vertex 1 Zcoordinate
    705399.5574385866,        !- Vertex 2 Xcoordinate
    5711056.149044227,        !- Vertex 2 Ycoordinate
    0,                        !- Vertex 2 Zcoordinate
    705399.8609562354,        !- Vertex 3 Xcoordinate
    5711060.835918708,        !- Vertex 3 Ycoordinate
    0,                        !- Vertex 3 Zcoordinate
    705399.8609562354,        !- Vertex 4 Xcoordinate
    5711060.835918708,        !- Vertex 4 Ycoordinate
    6;                        !- Vertex 4 Zcoordinate

SHADING:SITE:DETAILED,
    shade_way/892347464_1,    !- Name
    ,                         !- Transmittance Schedule Name
    autocalculate,            !- Number of Vertices
    705415.9615717133,        !- Vertex 1 Xcoordinate
    5711070.944960721,        !- Vertex 1 Ycoordinate
    6,                        !- Vertex 1 Zcoordinate
    705415.9615717133,        !- Vertex 2 Xcoordinate
    5711070.944960721,        !- Vertex 2 Ycoordinate
    0,                        !- Vertex 2 Zcoordinate
    705416.2580156614,        !- Vertex 3 Xcoordinate
    5711077.182117318,        !- Vertex 3 Ycoordinate
    0,                        !- Vertex 3 Zcoordinate
    705416.2580156614,        !- Vertex 4 Xcoordinate
    5711077.182117318,        !- Vertex 4 Ycoordinate
    6;                        !- Vertex 4 Zcoordinate

SHADING:SITE:DETAILED,
    shade_way/892347464_2,    !- Name
    ,                         !- Transmittance Schedule Name
    autocalculate,            !- Number of Vertices
    705416.2580156614,        !- Vertex 1 Xcoordinate
    5711077.182117318,        !- Vertex 1 Ycoordinate
    6,                        !- Vertex 1 Zcoordinate
    705416.2580156614,        !- Vertex 2 Xcoordinate
    5711077.182117318,        !- Vertex 2 Ycoordinate
    0,                        !- Vertex 2 Zcoordinate
    705421.2780007405,        !- Vertex 3 Xcoordinate
    5711076.943260859,        !- Vertex 3 Ycoordinate
    0,                        !- Vertex 3 Zcoordinate
    705421.2780007405,        !- Vertex 4 Xcoordinate
    5711076.943260859,        !- Vertex 4 Ycoordinate
    6;                        !- Vertex 4 Zcoordinate

SHADING:SITE:DETAILED,
    shade_way/892347464_3,    !- Name
    ,                         !- Transmittance Schedule Name
    autocalculate,            !- Number of Vertices
    705421.2780007405,        !- Vertex 1 Xcoordinate
    5711076.943260859,        !- Vertex 1 Ycoordinate
    6,                        !- Vertex 1 Zcoordinate
    705421.2780007405,        !- Vertex 2 Xcoordinate
    5711076.943260859,        !- Vertex 2 Ycoordinate
    0,                        !- Vertex 2 Zcoordinate
    705420.9815567923,        !- Vertex 3 Xcoordinate
    5711070.706104262,        !- Vertex 3 Ycoordinate
    0,                        !- Vertex 3 Zcoordinate
    705420.9815567923,        !- Vertex 4 Xcoordinate
    5711070.706104262,        !- Vertex 4 Ycoordinate
    6;                        !- Vertex 4 Zcoordinate

SHADING:SITE:DETAILED,
    shade_way/892347464_4,    !- Name
    ,                         !- Transmittance Schedule Name
    autocalculate,            !- Number of Vertices
    705420.9815567923,        !- Vertex 1 Xcoordinate
    5711070.706104262,        !- Vertex 1 Ycoordinate
    6,                        !- Vertex 1 Zcoordinate
    705420.9815567923,        !- Vertex 2 Xcoordinate
    5711070.706104262,        !- Vertex 2 Ycoordinate
    0,                        !- Vertex 2 Zcoordinate
    705415.9615717133,        !- Vertex 3 Xcoordinate
    5711070.944960721,        !- Vertex 3 Ycoordinate
    0,                        !- Vertex 3 Zcoordinate
    705415.9615717133,        !- Vertex 4 Xcoordinate
    5711070.944960721,        !- Vertex 4 Ycoordinate
    6;                        !- Vertex 4 Zcoordinate

SHADING:SITE:DETAILED,
    shade_way/892347463_1,    !- Name
    ,                         !- Transmittance Schedule Name
    autocalculate,            !- Number of Vertices
    705411.2952673446,        !- Vertex 1 Xcoordinate
    5711077.438066381,        !- Vertex 1 Ycoordinate
    6,                        !- Vertex 1 Zcoordinate
    705411.2952673446,        !- Vertex 2 Xcoordinate
    5711077.438066381,        !- Vertex 2 Ycoordinate
    0,                        !- Vertex 2 Zcoordinate
    705416.2834135642,        !- Vertex 3 Xcoordinate
    5711077.180602537,        !- Vertex 3 Ycoordinate
    0,                        !- Vertex 3 Zcoordinate
    705416.2834135642,        !- Vertex 4 Xcoordinate
    5711077.180602537,        !- Vertex 4 Ycoordinate
    6;                        !- Vertex 4 Zcoordinate

SHADING:SITE:DETAILED,
    shade_way/892347463_2,    !- Name
    ,                         !- Transmittance Schedule Name
    autocalculate,            !- Number of Vertices
    705416.2834135642,        !- Vertex 1 Xcoordinate
    5711077.180602537,        !- Vertex 1 Ycoordinate
    6,                        !- Vertex 1 Zcoordinate
    705416.2834135642,        !- Vertex 2 Xcoordinate
    5711077.180602537,        !- Vertex 2 Ycoordinate
    0,                        !- Vertex 2 Zcoordinate
    705415.9591006193,        !- Vertex 3 Xcoordinate
    5711070.897310977,        !- Vertex 3 Ycoordinate
    0,                        !- Vertex 3 Zcoordinate
    705415.9591006193,        !- Vertex 4 Xcoordinate
    5711070.897310977,        !- Vertex 4 Ycoordinate
    6;                        !- Vertex 4 Zcoordinate

SHADING:SITE:DETAILED,
    shade_way/892347463_3,    !- Name
    ,                         !- Transmittance Schedule Name
    autocalculate,            !- Number of Vertices
    705415.9591006193,        !- Vertex 1 Xcoordinate
    5711070.897310977,        !- Vertex 1 Ycoordinate
    6,                        !- Vertex 1 Zcoordinate
    705415.9591006193,        !- Vertex 2 Xcoordinate
    5711070.897310977,        !- Vertex 2 Ycoordinate
    0,                        !- Vertex 2 Zcoordinate
    705410.9709765092,        !- Vertex 3 Xcoordinate
    5711071.154977543,        !- Vertex 3 Ycoordinate
    0,                        !- Vertex 3 Zcoordinate
    705410.9709765092,        !- Vertex 4 Xcoordinate
    5711071.154977543,        !- Vertex 4 Ycoordinate
    6;                        !- Vertex 4 Zcoordinate

SHADING:SITE:DETAILED,
    shade_way/892347463_4,    !- Name
    ,                         !- Transmittance Schedule Name
    autocalculate,            !- Number of Vertices
    705410.9709765092,        !- Vertex 1 Xcoordinate
    5711071.154977543,        !- Vertex 1 Ycoordinate
    6,                        !- Vertex 1 Zcoordinate
    705410.9709765092,        !- Vertex 2 Xcoordinate
    5711071.154977543,        !- Vertex 2 Ycoordinate
    0,                        !- Vertex 2 Zcoordinate
    705411.2952673446,        !- Vertex 3 Xcoordinate
    5711077.438066381,        !- Vertex 3 Ycoordinate
    0,                        !- Vertex 3 Zcoordinate
    705411.2952673446,        !- Vertex 4 Xcoordinate
    5711077.438066381,        !- Vertex 4 Ycoordinate
    6;                        !- Vertex 4 Zcoordinate

SHADING:SITE:DETAILED,
    shade_way/892347462_1,    !- Name
    ,                         !- Transmittance Schedule Name
    autocalculate,            !- Number of Vertices
    705406.0016435641,        !- Vertex 1 Xcoordinate
    5711071.354723679,        !- Vertex 1 Ycoordinate
    6,                        !- Vertex 1 Zcoordinate
    705406.0016435641,        !- Vertex 2 Xcoordinate
    5711071.354723679,        !- Vertex 2 Ycoordinate
    0,                        !- Vertex 2 Zcoordinate
    705406.2949865768,        !- Vertex 3 Xcoordinate
    5711077.670776164,        !- Vertex 3 Ycoordinate
    0,                        !- Vertex 3 Zcoordinate
    705406.2949865768,        !- Vertex 4 Xcoordinate
    5711077.670776164,        !- Vertex 4 Ycoordinate
    6;                        !- Vertex 4 Zcoordinate

SHADING:SITE:DETAILED,
    shade_way/892347462_2,    !- Name
    ,                         !- Transmittance Schedule Name
    autocalculate,            !- Number of Vertices
    705406.2949865768,        !- Vertex 1 Xcoordinate
    5711077.670776164,        !- Vertex 1 Ycoordinate
    6,                        !- Vertex 1 Zcoordinate
    705406.2949865768,        !- Vertex 2 Xcoordinate
    5711077.670776164,        !- Vertex 2 Ycoordinate
    0,                        !- Vertex 2 Zcoordinate
    705411.3003120022,        !- Vertex 3 Xcoordinate
    5711077.438009864,        !- Vertex 3 Ycoordinate
    0,                        !- Vertex 3 Zcoordinate
    705411.3003120022,        !- Vertex 4 Xcoordinate
    5711077.438009864,        !- Vertex 4 Ycoordinate
    6;                        !- Vertex 4 Zcoordinate

SHADING:SITE:DETAILED,
    shade_way/892347462_3,    !- Name
    ,                         !- Transmittance Schedule Name
    autocalculate,            !- Number of Vertices
    705411.3003120022,        !- Vertex 1 Xcoordinate
    5711077.438009864,        !- Vertex 1 Ycoordinate
    6,                        !- Vertex 1 Zcoordinate
    705411.3003120022,        !- Vertex 2 Xcoordinate
    5711077.438009864,        !- Vertex 2 Ycoordinate
    0,                        !- Vertex 2 Zcoordinate
    705411.0069710843,        !- Vertex 3 Xcoordinate
    5711071.122535179,        !- Vertex 3 Ycoordinate
    0,                        !- Vertex 3 Zcoordinate
    705411.0069710843,        !- Vertex 4 Xcoordinate
    5711071.122535179,        !- Vertex 4 Ycoordinate
    6;                        !- Vertex 4 Zcoordinate

SHADING:SITE:DETAILED,
    shade_way/892347462_4,    !- Name
    ,                         !- Transmittance Schedule Name
    autocalculate,            !- Number of Vertices
    705411.0069710843,        !- Vertex 1 Xcoordinate
    5711071.122535179,        !- Vertex 1 Ycoordinate
    6,                        !- Vertex 1 Zcoordinate
    705411.0069710843,        !- Vertex 2 Xcoordinate
    5711071.122535179,        !- Vertex 2 Ycoordinate
    0,                        !- Vertex 2 Zcoordinate
    705406.0016435641,        !- Vertex 3 Xcoordinate
    5711071.354723679,        !- Vertex 3 Ycoordinate
    0,                        !- Vertex 3 Zcoordinate
    705406.0016435641,        !- Vertex 4 Xcoordinate
    5711071.354723679,        !- Vertex 4 Ycoordinate
    6;                        !- Vertex 4 Zcoordinate

SHADING:SITE:DETAILED,
    shade_way/892347461_1,    !- Name
    ,                         !- Transmittance Schedule Name
    autocalculate,            !- Number of Vertices
    705406.29494922,          !- Vertex 1 Xcoordinate
    5711077.669705508,        !- Vertex 1 Ycoordinate
    6,                        !- Vertex 1 Zcoordinate
    705406.29494922,          !- Vertex 2 Xcoordinate
    5711077.669705508,        !- Vertex 2 Ycoordinate
    0,                        !- Vertex 2 Zcoordinate
    705406.0016310596,        !- Vertex 3 Xcoordinate
    5711071.354720803,        !- Vertex 3 Ycoordinate
    0,                        !- Vertex 3 Zcoordinate
    705406.0016310596,        !- Vertex 4 Xcoordinate
    5711071.354720803,        !- Vertex 4 Ycoordinate
    6;                        !- Vertex 4 Zcoordinate

SHADING:SITE:DETAILED,
    shade_way/892347461_2,    !- Name
    ,                         !- Transmittance Schedule Name
    autocalculate,            !- Number of Vertices
    705406.0016310596,        !- Vertex 1 Xcoordinate
    5711071.354720803,        !- Vertex 1 Ycoordinate
    6,                        !- Vertex 1 Zcoordinate
    705406.0016310596,        !- Vertex 2 Xcoordinate
    5711071.354720803,        !- Vertex 2 Ycoordinate
    0,                        !- Vertex 2 Zcoordinate
    705400.7456376734,        !- Vertex 3 Xcoordinate
    5711071.598551732,        !- Vertex 3 Ycoordinate
    0,                        !- Vertex 3 Zcoordinate
    705400.7456376734,        !- Vertex 4 Xcoordinate
    5711071.598551732,        !- Vertex 4 Ycoordinate
    6;                        !- Vertex 4 Zcoordinate

SHADING:SITE:DETAILED,
    shade_way/892347461_3,    !- Name
    ,                         !- Transmittance Schedule Name
    autocalculate,            !- Number of Vertices
    705400.7456376734,        !- Vertex 1 Xcoordinate
    5711071.598551732,        !- Vertex 1 Ycoordinate
    6,                        !- Vertex 1 Zcoordinate
    705400.7456376734,        !- Vertex 2 Xcoordinate
    5711071.598551732,        !- Vertex 2 Ycoordinate
    0,                        !- Vertex 2 Zcoordinate
    705401.0389579284,        !- Vertex 3 Xcoordinate
    5711077.914114235,        !- Vertex 3 Ycoordinate
    0,                        !- Vertex 3 Zcoordinate
    705401.0389579284,        !- Vertex 4 Xcoordinate
    5711077.914114235,        !- Vertex 4 Ycoordinate
    6;                        !- Vertex 4 Zcoordinate

SHADING:SITE:DETAILED,
    shade_way/892347461_4,    !- Name
    ,                         !- Transmittance Schedule Name
    autocalculate,            !- Number of Vertices
    705401.0389579284,        !- Vertex 1 Xcoordinate
    5711077.914114235,        !- Vertex 1 Ycoordinate
    6,                        !- Vertex 1 Zcoordinate
    705401.0389579284,        !- Vertex 2 Xcoordinate
    5711077.914114235,        !- Vertex 2 Ycoordinate
    0,                        !- Vertex 2 Zcoordinate
    705406.29494922,          !- Vertex 3 Xcoordinate
    5711077.669705508,        !- Vertex 3 Ycoordinate
    0,                        !- Vertex 3 Zcoordinate
    705406.29494922,          !- Vertex 4 Xcoordinate
    5711077.669705508,        !- Vertex 4 Ycoordinate
    6;                        !- Vertex 4 Zcoordinate

SHADING:SITE:DETAILED,
    shade_way/394902418_1,    !- Name
    ,                         !- Transmittance Schedule Name
    autocalculate,            !- Number of Vertices
    705375.256730766,         !- Vertex 1 Xcoordinate
    5711073.046401635,        !- Vertex 1 Ycoordinate
    6,                        !- Vertex 1 Zcoordinate
    705375.256730766,         !- Vertex 2 Xcoordinate
    5711073.046401635,        !- Vertex 2 Ycoordinate
    0,                        !- Vertex 2 Zcoordinate
    705375.5620556001,        !- Vertex 3 Xcoordinate
    5711078.357883215,        !- Vertex 3 Ycoordinate
    0,                        !- Vertex 3 Zcoordinate
    705375.5620556001,        !- Vertex 4 Xcoordinate
    5711078.357883215,        !- Vertex 4 Ycoordinate
    6;                        !- Vertex 4 Zcoordinate

SHADING:SITE:DETAILED,
    shade_way/394902418_2,    !- Name
    ,                         !- Transmittance Schedule Name
    autocalculate,            !- Number of Vertices
    705375.5620556001,        !- Vertex 1 Xcoordinate
    5711078.357883215,        !- Vertex 1 Ycoordinate
    6,                        !- Vertex 1 Zcoordinate
    705375.5620556001,        !- Vertex 2 Xcoordinate
    5711078.357883215,        !- Vertex 2 Ycoordinate
    0,                        !- Vertex 2 Zcoordinate
    705389.491033884,         !- Vertex 3 Xcoordinate
    5711077.557465511,        !- Vertex 3 Ycoordinate
    0,                        !- Vertex 3 Zcoordinate
    705389.491033884,         !- Vertex 4 Xcoordinate
    5711077.557465511,        !- Vertex 4 Ycoordinate
    6;                        !- Vertex 4 Zcoordinate

SHADING:SITE:DETAILED,
    shade_way/394902418_3,    !- Name
    ,                         !- Transmittance Schedule Name
    autocalculate,            !- Number of Vertices
    705389.491033884,         !- Vertex 1 Xcoordinate
    5711077.557465511,        !- Vertex 1 Ycoordinate
    6,                        !- Vertex 1 Zcoordinate
    705389.491033884,         !- Vertex 2 Xcoordinate
    5711077.557465511,        !- Vertex 2 Ycoordinate
    0,                        !- Vertex 2 Zcoordinate
    705389.1855907941,        !- Vertex 3 Xcoordinate
    5711072.245716018,        !- Vertex 3 Ycoordinate
    0,                        !- Vertex 3 Zcoordinate
    705389.1855907941,        !- Vertex 4 Xcoordinate
    5711072.245716018,        !- Vertex 4 Ycoordinate
    6;                        !- Vertex 4 Zcoordinate

SHADING:SITE:DETAILED,
    shade_way/394902418_4,    !- Name
    ,                         !- Transmittance Schedule Name
    autocalculate,            !- Number of Vertices
    705389.1855907941,        !- Vertex 1 Xcoordinate
    5711072.245716018,        !- Vertex 1 Ycoordinate
    6,                        !- Vertex 1 Zcoordinate
    705389.1855907941,        !- Vertex 2 Xcoordinate
    5711072.245716018,        !- Vertex 2 Ycoordinate
    0,                        !- Vertex 2 Zcoordinate
    705375.256730766,         !- Vertex 3 Xcoordinate
    5711073.046401635,        !- Vertex 3 Ycoordinate
    0,                        !- Vertex 3 Zcoordinate
    705375.256730766,         !- Vertex 4 Xcoordinate
    5711073.046401635,        !- Vertex 4 Ycoordinate
    6;                        !- Vertex 4 Zcoordinate

OTHEREQUIPMENT,
    EU_Step8_InternalGain_c591adf7da2c3c14_F0_dwelling_0_f000,    !- Name
    Electricity,              !- Fuel Type
    c591adf7da2c3c14_F0_dwelling_0,    !- Zone or ZoneList or Space or SpaceList Name
    EU_Step8_GainSchedule_c591adf7da2c3c14_F0_dwelling_0_f000,    !- Schedule Name
    Watts/Area,               !- Design Level Calculation Method
    ,                         !- Design Level
    1,                        !- Power per Zone Floor Area
    ,                         !- Power per Person
    0,                        !- Fraction Latent
    0,                        !- Fraction Radiant
    0,                        !- Fraction Lost
    0,                        !- Carbon Dioxide Generation Rate
    EU_Step8_InternalGains;    !- EndUse Subcategory

ZONEVENTILATION:DESIGNFLOWRATE,
    EU_ConstantAir_c591adf7da2c3c14_F0_dwelling_0,    !- Name
    c591adf7da2c3c14_F0_dwelling_0,    !- Zone or ZoneList or Space or SpaceList Name
    EU_AlwaysOn,              !- Schedule Name
    AirChanges/Hour,          !- Design Flow Rate Calculation Method
    ,                         !- Design Flow Rate
    ,                         !- Flow Rate per Floor Area
    ,                         !- Flow Rate per Person
    0.4800000000000001,       !- Air Changes per Hour
    Natural,                  !- Ventilation Type
    0,                        !- Fan Pressure Rise
    1,                        !- Fan Total Efficiency
    1,                        !- Constant Term Coefficient
    0,                        !- Temperature Term Coefficient
    0,                        !- Velocity Term Coefficient
    0,                        !- Velocity Squared Term Coefficient
    -100,                     !- Minimum Indoor Temperature
    ,                         !- Minimum Indoor Temperature Schedule Name
    100,                      !- Maximum Indoor Temperature
    ,                         !- Maximum Indoor Temperature Schedule Name
    -100,                     !- Delta Temperature
    ,                         !- Delta Temperature Schedule Name
    -100,                     !- Minimum Outdoor Temperature
    ,                         !- Minimum Outdoor Temperature Schedule Name
    100,                      !- Maximum Outdoor Temperature
    ,                         !- Maximum Outdoor Temperature Schedule Name
    40;                       !- Maximum Wind Speed

HVACTEMPLATE:THERMOSTAT,
    EU_HeatOnly_c591adf7da2c3c14_F0_dwelling_0,    !- Name
    ,                         !- Heating Setpoint Schedule Name
    20,                       !- Constant Heating Setpoint
    ,                         !- Cooling Setpoint Schedule Name
    50;                       !- Constant Cooling Setpoint

HVACTEMPLATE:ZONE:IDEALLOADSAIRSYSTEM,
    c591adf7da2c3c14_F0_dwelling_0,    !- Zone Name
    EU_HeatOnly_c591adf7da2c3c14_F0_dwelling_0,    !- Template Thermostat Name
    EU_AlwaysOn,              !- System Availability Schedule Name
    50,                       !- Maximum Heating Supply Air Temperature
    13,                       !- Minimum Cooling Supply Air Temperature
    0.0156,                   !- Maximum Heating Supply Air Humidity Ratio
    0.0077,                   !- Minimum Cooling Supply Air Humidity Ratio
    NoLimit,                  !- Heating Limit
    ,                         !- Maximum Heating Air Flow Rate
    ,                         !- Maximum Sensible Heating Capacity
    NoLimit,                  !- Cooling Limit
    ,                         !- Maximum Cooling Air Flow Rate
    ,                         !- Maximum Total Cooling Capacity
    EU_AlwaysOn,              !- Heating Availability Schedule Name
    EU_CoolingOff,            !- Cooling Availability Schedule Name
    ConstantSensibleHeatRatio,    !- Dehumidification Control Type
    0.7,                      !- Cooling Sensible Heat Ratio
    60,                       !- Dehumidification Setpoint
    None,                     !- Humidification Control Type
    30,                       !- Humidification Setpoint
    None,                     !- Outdoor Air Method
    0.00944,                  !- Outdoor Air Flow Rate per Person
    0.0,                      !- Outdoor Air Flow Rate per Zone Floor Area
    0,                        !- Outdoor Air Flow Rate per Zone
    ,                         !- Design Specification Outdoor Air Object Name
    None,                     !- Demand Controlled Ventilation Type
    NoEconomizer,             !- Outdoor Air Economizer Type
    None,                     !- Heat Recovery Type
    0.70,                     !- Sensible Heat Recovery Effectiveness
    0.65;                     !- Latent Heat Recovery Effectiveness

SIZING:ZONE,
    c591adf7da2c3c14_F0_dwelling_0,    !- Zone or ZoneList Name
    SupplyAirTemperature,     !- Zone Cooling Design Supply Air Temperature Input Method
    13,                       !- Zone Cooling Design Supply Air Temperature
    ,                         !- Zone Cooling Design Supply Air Temperature Difference
    SupplyAirTemperature,     !- Zone Heating Design Supply Air Temperature Input Method
    50,                       !- Zone Heating Design Supply Air Temperature
    ,                         !- Zone Heating Design Supply Air Temperature Difference
    0.008,                    !- Zone Cooling Design Supply Air Humidity Ratio
    0.008,                    !- Zone Heating Design Supply Air Humidity Ratio
    ,                         !- Design Specification Outdoor Air Object Name
    ,                         !- Zone Heating Sizing Factor
    ,                         !- Zone Cooling Sizing Factor
    DesignDay,                !- Cooling Design Air Flow Method
    0,                        !- Cooling Design Air Flow Rate
    0.000762,                 !- Cooling Minimum Air Flow per Zone Floor Area
    0,                        !- Cooling Minimum Air Flow
    0.2,                      !- Cooling Minimum Air Flow Fraction
    DesignDay,                !- Heating Design Air Flow Method
    0,                        !- Heating Design Air Flow Rate
    0.002032,                 !- Heating Maximum Air Flow per Zone Floor Area
    0.1415762,                !- Heating Maximum Air Flow
    0.3,                      !- Heating Maximum Air Flow Fraction
    ,                         !- Design Specification Zone Air Distribution Object Name
    No,                       !- Account for Dedicated Outdoor Air System
    NeutralSupplyAir,         !- Dedicated Outdoor Air System Control Strategy
    autosize,                 !- Dedicated Outdoor Air Low Setpoint Temperature for Design
    autosize,                 !- Dedicated Outdoor Air High Setpoint Temperature for Design
    Sensible Load Only No Latent Load,    !- Zone Load Sizing Method
    HumidityRatioDifference,    !- Zone Latent Cooling Design Supply Air Humidity Ratio Input Method
    ,                         !- Zone Dehumidification Design Supply Air Humidity Ratio
    0.005,                    !- Zone Cooling Design Supply Air Humidity Ratio Difference
    HumidityRatioDifference,    !- Zone Latent Heating Design Supply Air Humidity Ratio Input Method
    ,                         !- Zone Humidification Design Supply Air Humidity Ratio
    0.005;                    !- Zone Humidification Design Supply Air Humidity Ratio Difference

OUTPUT:VARIABLE,
    *,                        !- Key Value
    Zone Ideal Loads Zone Total Heating Energy,    !- Variable Name
    Hourly;                   !- Reporting Frequency

OUTPUT:SQLITE,
    SimpleAndTabular,         !- Option Type
    UseOutputControlTableStyle;    !- Unit Conversion for Tabular Data