!- Windows Line endings 

Version,
    23.1;                     !- Version Identifier

SimulationControl,
    Yes,                      !- Do Zone Sizing Calculation
    Yes,                      !- Do System Sizing Calculation
    Yes,                      !- Do Plant Sizing Calculation
    No,                       !- Run Simulation for Sizing Periods
    Yes,                      !- Run Simulation for Weather File Run Periods
    No,                       !- Do HVAC Sizing Simulation for Sizing Periods
    1;                        !- Maximum Number of HVAC Sizing Simulation Passes

Building,
    EU S2 Campaign,           !- Name
    0,                        !- North Axis
    City,                     !- Terrain
    ,                         !- Loads Convergence Tolerance Value
    ,                         !- Temperature Convergence Tolerance Value
    FullExterior,             !- Solar Distribution
    ,                         !- Maximum Number of Warmup Days
    ;                         !- Minimum Number of Warmup Days

ShadowCalculation,
    PolygonClipping,          !- Shading Calculation Method
    Periodic,                 !- Shading Calculation Update Frequency Method
    1;                        !- Shading Calculation Update Frequency

HeatBalanceAlgorithm,
    ConductionTransferFunction,    !- Algorithm
    200,                      !- Surface Temperature Upper Limit
    0.1,                      !- Minimum Surface Convection Heat Transfer Coefficient Value
    10000000;                 !- Maximum Surface Convection Heat Transfer Coefficient Value

Timestep,
    12;                       !- Number of Timesteps per Hour

Site:Location,
    London,                   !- Name
    51.5,                     !- Latitude
    -0.5,                     !- Longitude
    0,                        !- Time Zone
    25;                       !- Elevation

SizingPeriod:WeatherFileDays,
    AnnualSizingPeriod,       !- Name
    1,                        !- Begin Month
    1,                        !- Begin Day of Month
    12,                       !- End Month
    31,                       !- End Day of Month
    Monday,                   !- Day of Week for Start Day
    No,                       !- Use Weather File Daylight Saving Period
    No;                       !- Use Weather File Rain and Snow Indicators

RunPeriod,
    RunPeriod1,               !- Name
    1,                        !- Begin Month
    1,                        !- Begin Day of Month
    ,                         !- Begin Year
    12,                       !- End Month
    31,                       !- End Day of Month
    ,                         !- End Year
    Sunday,                   !- Day of Week for Start Day
    No,                       !- Use Weather File Holidays and Special Days
    No,                       !- Use Weather File Daylight Saving Period
    No,                       !- Apply Weekend Holiday Rule
    Yes,                      !- Use Weather File Rain Indicators
    Yes;                      !- Use Weather File Snow Indicators

ScheduleTypeLimits,
    Any Number;               !- Name

SCHEDULETYPELIMITS,
    EU_Step8_AnyNumber_Wm2,    !- Name
    ,                         !- Lower Limit Value
    ,                         !- Upper Limit Value
    Continuous,               !- Numeric Type
    Dimensionless;            !- Unit Type

SCHEDULE:CONSTANT,
    EU_AlwaysOn,              !- Name
    ,                         !- Schedule Type Limits Name
    1;                        !- Hourly Value

SCHEDULE:CONSTANT,
    EU_CoolingOff,            !- Name
    ,                         !- Schedule Type Limits Name
    0;                        !- Hourly Value

SCHEDULE:FILE,
    EU_Step8_GainSchedule_cfed096ca3635922_F0_dwelling_0_f000,    !- Name
    EU_Step8_AnyNumber_Wm2,    !- Schedule Type Limits Name
    ../../schedules/cfed096ca3635922/cfed096ca3635922_F0_dwelling_0_f000_gain.csv,    !- File Name
    1,                        !- Column Number
    0,                        !- Rows to Skip at Top
    8760,                     !- Number of Hours of Data
    Comma,                    !- Column Separator
    No,                       !- Interpolate to Timestep
    60,                       !- Minutes per Item
    Yes;                      !- Adjust Schedule for Daylight Savings

MATERIAL,
    EU_InternalMass_Material,    !- Name
    MediumRough,              !- Roughness
    0.1,                      !- Thickness
    1,                        !- Conductivity
    1800,                     !- Density
    900,                      !- Specific Heat
    0.9,                      !- Thermal Absorptance
    0.7,                      !- Solar Absorptance
    0.7;                      !- Visible Absorptance

MATERIAL:NOMASS,
    EU_wall_NoMass,           !- Name
    MediumRough,              !- Roughness
    0.7278629942482108,       !- Thermal Resistance
    0.9,                      !- Thermal Absorptance
    0.7,                      !- Solar Absorptance
    0.7;                      !- Visible Absorptance

MATERIAL:NOMASS,
    EU_roof_NoMass,           !- Name
    MediumRough,              !- Roughness
    0.7733544313887238,       !- Thermal Resistance
    0.9,                      !- Thermal Absorptance
    0.7,                      !- Solar Absorptance
    0.7;                      !- Visible Absorptance

MATERIAL:NOMASS,
    EU_floor_NoMass,          !- Name
    MediumRough,              !- Roughness
    1.7932856380028381,       !- Thermal Resistance
    0.9,                      !- Thermal Absorptance
    0.7,                      !- Solar Absorptance
    0.7;                      !- Visible Absorptance

CONSTRUCTION,
    EU_wall_Construction,     !- Name
    EU_wall_NoMass;           !- Outside Layer

CONSTRUCTION,
    EU_roof_Construction,     !- Name
    EU_roof_NoMass;           !- Outside Layer

CONSTRUCTION,
    EU_floor_Construction,    !- Name
    EU_floor_NoMass;          !- Outside Layer

CONSTRUCTION,
    EU_InternalMass_Construction,    !- Name
    EU_InternalMass_Material;    !- Outside Layer

GlobalGeometryRules,
    UpperLeftCorner,          !- Starting Vertex Position
    CounterClockWise,         !- Vertex Entry Direction
    World;                    !- Coordinate System

ZONE,
    cfed096ca3635922_F0_dwelling_0,    !- Name
    0,                        !- Direction of Relative North
    0,                        !- X Origin
    0,                        !- Y Origin
    0,                        !- Z Origin
    1,                        !- Type
    1,                        !- Multiplier
    autocalculate,            !- Ceiling Height
    259.7958984375,           !- Volume
    autocalculate,            !- Floor Area
    ,                         !- Zone Inside Convection Algorithm
    ,                         !- Zone Outside Convection Algorithm
    Yes;                      !- Part of Total Floor Area

BUILDINGSURFACE:DETAILED,
    Block cfed096ca3635922_0 Storey 0 Wall 0001,    !- Name
    wall,                     !- Surface Type
    EU_wall_Construction,     !- Construction Name
    cfed096ca3635922_F0_dwelling_0,    !- Zone Name
    ,                         !- Space Name
    outdoors,                 !- Outside Boundary Condition
    ,                         !- Outside Boundary Condition Object
    SunExposed,               !- Sun Exposure
    WindExposed,              !- Wind Exposure
    autocalculate,            !- View Factor to Ground
    autocalculate,            !- Number of Vertices
    705077.096,               !- Vertex 1 Xcoordinate
    5711903.98,               !- Vertex 1 Ycoordinate
    6,                        !- Vertex 1 Zcoordinate
    705077.096,               !- Vertex 2 Xcoordinate
    5711903.98,               !- Vertex 2 Ycoordinate
    0,                        !- Vertex 2 Zcoordinate
    705082.562,               !- Vertex 3 Xcoordinate
    5711906.06,               !- Vertex 3 Ycoordinate
    0,                        !- Vertex 3 Zcoordinate
    705082.562,               !- Vertex 4 Xcoordinate
    5711906.06,               !- Vertex 4 Ycoordinate
    6;                        !- Vertex 4 Zcoordinate

BUILDINGSURFACE:DETAILED,
    Block cfed096ca3635922_0 Storey 0 Wall 0002,    !- Name
    wall,                     !- Surface Type
    EU_wall_Construction,     !- Construction Name
    cfed096ca3635922_F0_dwelling_0,    !- Zone Name
    ,                         !- Space Name
    Adiabatic,                !- Outside Boundary Condition
    ,                         !- Outside Boundary Condition Object
    NoSun,                    !- Sun Exposure
    NoWind,                   !- Wind Exposure
    autocalculate,            !- View Factor to Ground
    autocalculate,            !- Number of Vertices
    705082.562,               !- Vertex 1 Xcoordinate
    5711906.06,               !- Vertex 1 Ycoordinate
    6,                        !- Vertex 1 Zcoordinate
    705082.562,               !- Vertex 2 Xcoordinate
    5711906.06,               !- Vertex 2 Ycoordinate
    0,                        !- Vertex 2 Zcoordinate
    705085.199,               !- Vertex 3 Xcoordinate
    5711899.107,              !- Vertex 3 Ycoordinate
    0,                        !- Vertex 3 Zcoordinate
    705085.199,               !- Vertex 4 Xcoordinate
    5711899.107,              !- Vertex 4 Ycoordinate
    6;                        !- Vertex 4 Zcoordinate

BUILDINGSURFACE:DETAILED,
    Block cfed096ca3635922_0 Storey 0 Wall 0003,    !- Name
    wall,                     !- Surface Type
    EU_wall_Construction,     !- Construction Name
    cfed096ca3635922_F0_dwelling_0,    !- Zone Name
    ,                         !- Space Name
    outdoors,                 !- Outside Boundary Condition
    ,                         !- Outside Boundary Condition Object
    SunExposed,               !- Sun Exposure
    WindExposed,              !- Wind Exposure
    autocalculate,            !- View Factor to Ground
    autocalculate,            !- Number of Vertices
    705085.199,               !- Vertex 1 Xcoordinate
    5711899.107,              !- Vertex 1 Ycoordinate
    6,                        !- Vertex 1 Zcoordinate
    705085.199,               !- Vertex 2 Xcoordinate
    5711899.107,              !- Vertex 2 Ycoordinate
    0,                        !- Vertex 2 Zcoordinate
    705079.773,               !- Vertex 3 Xcoordinate
    5711897.05,               !- Vertex 3 Ycoordinate
    0,                        !- Vertex 3 Zcoordinate
    705079.773,               !- Vertex 4 Xcoordinate
    5711897.05,               !- Vertex 4 Ycoordinate
    6;                        !- Vertex 4 Zcoordinate

BUILDINGSURFACE:DETAILED,
    Block cfed096ca3635922_0 Storey 0 Wall 0004,    !- Name
    wall,                     !- Surface Type
    EU_wall_Construction,     !- Construction Name
    cfed096ca3635922_F0_dwelling_0,    !- Zone Name
    ,                         !- Space Name
    Adiabatic,                !- Outside Boundary Condition
    ,                         !- Outside Boundary Condition Object
    NoSun,                    !- Sun Exposure
    NoWind,                   !- Wind Exposure
    autocalculate,            !- View Factor to Ground
    autocalculate,            !- Number of Vertices
    705079.773,               !- Vertex 1 Xcoordinate
    5711897.05,               !- Vertex 1 Ycoordinate
    6,                        !- Vertex 1 Zcoordinate
    705079.773,               !- Vertex 2 Xcoordinate
    5711897.05,               !- Vertex 2 Ycoordinate
    0,                        !- Vertex 2 Zcoordinate
    705077.096,               !- Vertex 3 Xcoordinate
    5711903.98,               !- Vertex 3 Ycoordinate
    0,                        !- Vertex 3 Zcoordinate
    705077.096,               !- Vertex 4 Xcoordinate
    5711903.98,               !- Vertex 4 Ycoordinate
    6;                        !- Vertex 4 Zcoordinate

BUILDINGSURFACE:DETAILED,
    Block cfed096ca3635922_0 Storey 0 Floor 0001,    !- Name
    floor,                    !- Surface Type
    EU_floor_Construction,    !- Construction Name
    cfed096ca3635922_F0_dwelling_0,    !- Zone Name
    ,                         !- Space Name
    ground,                   !- Outside Boundary Condition
    ,                         !- Outside Boundary Condition Object
    NoSun,                    !- Sun Exposure
    NoWind,                   !- Wind Exposure
    autocalculate,            !- View Factor to Ground
    autocalculate,            !- Number of Vertices
    705085.199,               !- Vertex 1 Xcoordinate
    5711899.107,              !- Vertex 1 Ycoordinate
    0,                        !- Vertex 1 Zcoordinate
    705082.562,               !- Vertex 2 Xcoordinate
    5711906.06,               !- Vertex 2 Ycoordinate
    0,                        !- Vertex 2 Zcoordinate
    705077.096,               !- Vertex 3 Xcoordinate
    5711903.98,               !- Vertex 3 Ycoordinate
    0,                        !- Vertex 3 Zcoordinate
    705079.773,               !- Vertex 4 Xcoordinate
    5711897.05,               !- Vertex 4 Ycoordinate
    0;                        !- Vertex 4 Zcoordinate

BUILDINGSURFACE:DETAILED,
    Block cfed096ca3635922_0 Storey 0 Roof 0001,    !- Name
    roof,                     !- Surface Type
    EU_roof_Construction,     !- Construction Name
    cfed096ca3635922_F0_dwelling_0,    !- Zone Name
    ,                         !- Space Name
    outdoors,                 !- Outside Boundary Condition
    ,                         !- Outside Boundary Condition Object
    NoSun,                    !- Sun Exposure
    WindExposed,              !- Wind Exposure
    autocalculate,            !- View Factor to Ground
    autocalculate,            !- Number of Vertices
    705082.562,               !- Vertex 1 Xcoordinate
    5711906.06,               !- Vertex 1 Ycoordinate
    6,                        !- Vertex 1 Zcoordinate
    705085.199,               !- Vertex 2 Xcoordinate
    5711899.107,              !- Vertex 2 Ycoordinate
    6,                        !- Vertex 2 Zcoordinate
    705079.773,               !- Vertex 3 Xcoordinate
    5711897.05,               !- Vertex 3 Ycoordinate
    6,                        !- Vertex 3 Zcoordinate
    705077.096,               !- Vertex 4 Xcoordinate
    5711903.98,               !- Vertex 4 Ycoordinate
    6;                        !- Vertex 4 Zcoordinate

INTERNALMASS,
    cfed096ca3635922_F0_dwelling_0_EU_InternalMass,    !- Name
    EU_InternalMass_Construction,    !- Construction Name
    cfed096ca3635922_F0_dwelling_0,    !- Zone or ZoneList Name
    ,                         !- Space or SpaceList Name
    43.299413498624894;       !- Surface Area

SHADING:SITE:DETAILED,
    shade_way/1430302487_1,    !- Name
    ,                         !- Transmittance Schedule Name
    autocalculate,            !- Number of Vertices
    705090.5046020905,        !- Vertex 1 Xcoordinate
    5711884.364798466,        !- Vertex 1 Ycoordinate
    6,                        !- Vertex 1 Zcoordinate
    705090.5046020905,        !- Vertex 2 Xcoordinate
    5711884.364798466,        !- Vertex 2 Ycoordinate
    0,                        !- Vertex 2 Zcoordinate
    705097.3889954044,        !- Vertex 3 Xcoordinate
    5711886.864500779,        !- Vertex 3 Ycoordinate
    0,                        !- Vertex 3 Zcoordinate
    705097.3889954044,        !- Vertex 4 Xcoordinate
    5711886.864500779,        !- Vertex 4 Ycoordinate
    6;                        !- Vertex 4 Zcoordinate

SHADING:SITE:DETAILED,
    shade_way/1430302487_2,    !- Name
    ,                         !- Transmittance Schedule Name
    autocalculate,            !- Number of Vertices
    705097.3889954044,        !- Vertex 1 Xcoordinate
    5711886.864500779,        !- Vertex 1 Ycoordinate
    6,                        !- Vertex 1 Zcoordinate
    705097.3889954044,        !- Vertex 2 Xcoordinate
    5711886.864500779,        !- Vertex 2 Ycoordinate
    0,                        !- Vertex 2 Zcoordinate
    705099.7697082385,        !- Vertex 3 Xcoordinate
    5711880.307164401,        !- Vertex 3 Ycoordinate
    0,                        !- Vertex 3 Zcoordinate
    705099.7697082385,        !- Vertex 4 Xcoordinate
    5711880.307164401,        !- Vertex 4 Ycoordinate
    6;                        !- Vertex 4 Zcoordinate

SHADING:SITE:DETAILED,
    shade_way/1430302487_3,    !- Name
    ,                         !- Transmittance Schedule Name
    autocalculate,            !- Number of Vertices
    705099.7697082385,        !- Vertex 1 Xcoordinate
    5711880.307164401,        !- Vertex 1 Ycoordinate
    6,                        !- Vertex 1 Zcoordinate
    705099.7697082385,        !- Vertex 2 Xcoordinate
    5711880.307164401,        !- Vertex 2 Ycoordinate
    0,                        !- Vertex 2 Zcoordinate
    705092.8858088979,        !- Vertex 3 Xcoordinate
    5711877.8075753935,       !- Vertex 3 Ycoordinate
    0,                        !- Vertex 3 Zcoordinate
    705092.8858088979,        !- Vertex 4 Xcoordinate
    5711877.8075753935,       !- Vertex 4 Ycoordinate
    6;                        !- Vertex 4 Zcoordinate

SHADING:SITE:DETAILED,
    shade_way/1430302487_4,    !- Name
    ,                         !- Transmittance Schedule Name
    autocalculate,            !- Number of Vertices
    705092.8858088979,        !- Vertex 1 Xcoordinate
    5711877.8075753935,       !- Vertex 1 Ycoordinate
    6,                        !- Vertex 1 Zcoordinate
    705092.8858088979,        !- Vertex 2 Xcoordinate
    5711877.8075753935,       !- Vertex 2 Ycoordinate
    0,                        !- Vertex 2 Zcoordinate
    705090.5046020905,        !- Vertex 3 Xcoordinate
    5711884.364798466,        !- Vertex 3 Ycoordinate
    0,                        !- Vertex 3 Zcoordinate
    705090.5046020905,        !- Vertex 4 Xcoordinate
    5711884.364798466,        !- Vertex 4 Ycoordinate
    6;                        !- Vertex 4 Zcoordinate

SHADING:SITE:DETAILED,
    shade_way/298846082_1,    !- Name
    ,                         !- Transmittance Schedule Name
    autocalculate,            !- Number of Vertices
    705094.2212369649,        !- Vertex 1 Xcoordinate
    5711896.742612766,        !- Vertex 1 Ycoordinate
    6,                        !- Vertex 1 Zcoordinate
    705094.2212369649,        !- Vertex 2 Xcoordinate
    5711896.742612766,        !- Vertex 2 Ycoordinate
    0,                        !- Vertex 2 Zcoordinate
    705100.4883250007,        !- Vertex 3 Xcoordinate
    5711899.13413973,         !- Vertex 3 Ycoordinate
    0,                        !- Vertex 3 Zcoordinate
    705100.4883250007,        !- Vertex 4 Xcoordinate
    5711899.13413973,         !- Vertex 4 Ycoordinate
    6;                        !- Vertex 4 Zcoordinate

SHADING:SITE:DETAILED,
    shade_way/298846082_2,    !- Name
    ,                         !- Transmittance Schedule Name
    autocalculate,            !- Number of Vertices
    705100.4883250007,        !- Vertex 1 Xcoordinate
    5711899.13413973,         !- Vertex 1 Ycoordinate
    6,                        !- Vertex 1 Zcoordinate
    705100.4883250007,        !- Vertex 2 Xcoordinate
    5711899.13413973,         !- Vertex 2 Ycoordinate
    0,                        !- Vertex 2 Zcoordinate
    705103.0302345314,        !- Vertex 3 Xcoordinate
    5711892.472838518,        !- Vertex 3 Ycoordinate
    0,                        !- Vertex 3 Zcoordinate
    705103.0302345314,        !- Vertex 4 Xcoordinate
    5711892.472838518,        !- Vertex 4 Ycoordinate
    6;                        !- Vertex 4 Zcoordinate

SHADING:SITE:DETAILED,
    shade_way/298846082_3,    !- Name
    ,                         !- Transmittance Schedule Name
    autocalculate,            !- Number of Vertices
    705103.0302345314,        !- Vertex 1 Xcoordinate
    5711892.472838518,        !- Vertex 1 Ycoordinate
    6,                        !- Vertex 1 Zcoordinate
    705103.0302345314,        !- Vertex 2 Xcoordinate
    5711892.472838518,        !- Vertex 2 Ycoordinate
    0,                        !- Vertex 2 Zcoordinate
    705096.763146495,         !- Vertex 3 Xcoordinate
    5711890.081311555,        !- Vertex 3 Ycoordinate
    0,                        !- Vertex 3 Zcoordinate
    705096.763146495,         !- Vertex 4 Xcoordinate
    5711890.081311555,        !- Vertex 4 Ycoordinate
    6;                        !- Vertex 4 Zcoordinate

SHADING:SITE:DETAILED,
    shade_way/298846082_4,    !- Name
    ,                         !- Transmittance Schedule Name
    autocalculate,            !- Number of Vertices
    705096.763146495,         !- Vertex 1 Xcoordinate
    5711890.081311555,        !- Vertex 1 Ycoordinate
    6,                        !- Vertex 1 Zcoordinate
    705096.763146495,         !- Vertex 2 Xcoordinate
    5711890.081311555,        !- Vertex 2 Ycoordinate
    0,                        !- Vertex 2 Zcoordinate
    705094.2212369649,        !- Vertex 3 Xcoordinate
    5711896.742612766,        !- Vertex 3 Ycoordinate
    0,                        !- Vertex 3 Zcoordinate
    705094.2212369649,        !- Vertex 4 Xcoordinate
    5711896.742612766,        !- Vertex 4 Ycoordinate
    6;                        !- Vertex 4 Zcoordinate

SHADING:SITE:DETAILED,
    shade_way/1430536816_1,    !- Name
    ,                         !- Transmittance Schedule Name
    autocalculate,            !- Number of Vertices
    705106.9131377484,        !- Vertex 1 Xcoordinate
    5711901.576596676,        !- Vertex 1 Ycoordinate
    6,                        !- Vertex 1 Zcoordinate
    705106.9131377484,        !- Vertex 2 Xcoordinate
    5711901.576596676,        !- Vertex 2 Ycoordinate
    0,                        !- Vertex 2 Zcoordinate
    705109.4399839619,        !- Vertex 3 Xcoordinate
    5711894.899719887,        !- Vertex 3 Ycoordinate
    0,                        !- Vertex 3 Zcoordinate
    705109.4399839619,        !- Vertex 4 Xcoordinate
    5711894.899719887,        !- Vertex 4 Ycoordinate
    6;                        !- Vertex 4 Zcoordinate

SHADING:SITE:DETAILED,
    shade_way/1430536816_2,    !- Name
    ,                         !- Transmittance Schedule Name
    autocalculate,            !- Number of Vertices
    705109.4399839619,        !- Vertex 1 Xcoordinate
    5711894.899719887,        !- Vertex 1 Ycoordinate
    6,                        !- Vertex 1 Zcoordinate
    705109.4399839619,        !- Vertex 2 Xcoordinate
    5711894.899719887,        !- Vertex 2 Ycoordinate
    0,                        !- Vertex 2 Zcoordinate
    705102.9746638946,        !- Vertex 3 Xcoordinate
    5711892.452711206,        !- Vertex 3 Ycoordinate
    0,                        !- Vertex 3 Zcoordinate
    705102.9746638946,        !- Vertex 4 Xcoordinate
    5711892.452711206,        !- Vertex 4 Ycoordinate
    6;                        !- Vertex 4 Zcoordinate

SHADING:SITE:DETAILED,
    shade_way/1430536816_3,    !- Name
    ,                         !- Transmittance Schedule Name
    autocalculate,            !- Number of Vertices
    705102.9746638946,        !- Vertex 1 Xcoordinate
    5711892.452711206,        !- Vertex 1 Ycoordinate
    6,                        !- Vertex 1 Zcoordinate
    705102.9746638946,        !- Vertex 2 Xcoordinate
    5711892.452711206,        !- Vertex 2 Ycoordinate
    0,                        !- Vertex 2 Zcoordinate
    705100.4471061225,        !- Vertex 3 Xcoordinate
    5711899.128787229,        !- Vertex 3 Ycoordinate
    0,                        !- Vertex 3 Zcoordinate
    705100.4471061225,        !- Vertex 4 Xcoordinate
    5711899.128787229,        !- Vertex 4 Ycoordinate
    6;                        !- Vertex 4 Zcoordinate

SHADING:SITE:DETAILED,
    shade_way/1430536816_4,    !- Name
    ,                         !- Transmittance Schedule Name
    autocalculate,            !- Number of Vertices
    705100.4471061225,        !- Vertex 1 Xcoordinate
    5711899.128787229,        !- Vertex 1 Ycoordinate
    6,                        !- Vertex 1 Zcoordinate
    705100.4471061225,        !- Vertex 2 Xcoordinate
    5711899.128787229,        !- Vertex 2 Ycoordinate
    0,                        !- Vertex 2 Zcoordinate
    705106.9131377484,        !- Vertex 3 Xcoordinate
    5711901.576596676,        !- Vertex 3 Ycoordinate
    0,                        !- Vertex 3 Zcoordinate
    705106.9131377484,        !- Vertex 4 Xcoordinate
    5711901.576596676,        !- Vertex 4 Ycoordinate
    6;                        !- Vertex 4 Zcoordinate

SHADING:SITE:DETAILED,
    shade_way/1430549437_1,    !- Name
    ,                         !- Transmittance Schedule Name
    autocalculate,            !- Number of Vertices
    705079.772234353,         !- Vertex 1 Xcoordinate
    5711897.049374198,        !- Vertex 1 Ycoordinate
    6,                        !- Vertex 1 Zcoordinate
    705079.772234353,         !- Vertex 2 Xcoordinate
    5711897.049374198,        !- Vertex 2 Ycoordinate
    0,                        !- Vertex 2 Zcoordinate
    705074.1758766986,        !- Vertex 3 Xcoordinate
    5711894.907711785,        !- Vertex 3 Ycoordinate
    0,                        !- Vertex 3 Zcoordinate
    705074.1758766986,        !- Vertex 4 Xcoordinate
    5711894.907711785,        !- Vertex 4 Ycoordinate
    6;                        !- Vertex 4 Zcoordinate

SHADING:SITE:DETAILED,
    shade_way/1430549437_2,    !- Name
    ,                         !- Transmittance Schedule Name
    autocalculate,            !- Number of Vertices
    705074.1758766986,        !- Vertex 1 Xcoordinate
    5711894.907711785,        !- Vertex 1 Ycoordinate
    6,                        !- Vertex 1 Zcoordinate
    705074.1758766986,        !- Vertex 2 Xcoordinate
    5711894.907711785,        !- Vertex 2 Ycoordinate
    0,                        !- Vertex 2 Zcoordinate
    705071.5115890574,        !- Vertex 3 Xcoordinate
    5711901.870679325,        !- Vertex 3 Ycoordinate
    0,                        !- Vertex 3 Zcoordinate
    705071.5115890574,        !- Vertex 4 Xcoordinate
    5711901.870679325,        !- Vertex 4 Ycoordinate
    6;                        !- Vertex 4 Zcoordinate

SHADING:SITE:DETAILED,
    shade_way/1430549437_3,    !- Name
    ,                         !- Transmittance Schedule Name
    autocalculate,            !- Number of Vertices
    705071.5115890574,        !- Vertex 1 Xcoordinate
    5711901.870679325,        !- Vertex 1 Ycoordinate
    6,                        !- Vertex 1 Zcoordinate
    705071.5115890574,        !- Vertex 2 Xcoordinate
    5711901.870679325,        !- Vertex 2 Ycoordinate
    0,                        !- Vertex 2 Zcoordinate
    705077.1079467112,        !- Vertex 3 Xcoordinate
    5711904.012341741,        !- Vertex 3 Ycoordinate
    0,                        !- Vertex 3 Zcoordinate
    705077.1079467112,        !- Vertex 4 Xcoordinate
    5711904.012341741,        !- Vertex 4 Ycoordinate
    6;                        !- Vertex 4 Zcoordinate

SHADING:SITE:DETAILED,
    shade_way/1430549437_4,    !- Name
    ,                         !- Transmittance Schedule Name
    autocalculate,            !- Number of Vertices
    705077.1079467112,        !- Vertex 1 Xcoordinate
    5711904.012341741,        !- Vertex 1 Ycoordinate
    6,                        !- Vertex 1 Zcoordinate
    705077.1079467112,        !- Vertex 2 Xcoordinate
    5711904.012341741,        !- Vertex 2 Ycoordinate
    0,                        !- Vertex 2 Zcoordinate
    705079.772234353,         !- Vertex 3 Xcoordinate
    5711897.049374198,        !- Vertex 3 Ycoordinate
    0,                        !- Vertex 3 Zcoordinate
    705079.772234353,         !- Vertex 4 Xcoordinate
    5711897.049374198,        !- Vertex 4 Ycoordinate
    6;                        !- Vertex 4 Zcoordinate

SHADING:SITE:DETAILED,
    shade_way/298846069_1,    !- Name
    ,                         !- Transmittance Schedule Name
    autocalculate,            !- Number of Vertices
    705057.2676569448,        !- Vertex 1 Xcoordinate
    5711888.474821242,        !- Vertex 1 Ycoordinate
    6,                        !- Vertex 1 Zcoordinate
    705057.2676569448,        !- Vertex 2 Xcoordinate
    5711888.474821242,        !- Vertex 2 Ycoordinate
    0,                        !- Vertex 2 Zcoordinate
    705054.6109237472,        !- Vertex 3 Xcoordinate
    5711895.453184261,        !- Vertex 3 Ycoordinate
    0,                        !- Vertex 3 Zcoordinate
    705054.6109237472,        !- Vertex 4 Xcoordinate
    5711895.453184261,        !- Vertex 4 Ycoordinate
    6;                        !- Vertex 4 Zcoordinate

SHADING:SITE:DETAILED,
    shade_way/298846069_2,    !- Name
    ,                         !- Transmittance Schedule Name
    autocalculate,            !- Number of Vertices
    705054.6109237472,        !- Vertex 1 Xcoordinate
    5711895.453184261,        !- Vertex 1 Ycoordinate
    6,                        !- Vertex 1 Zcoordinate
    705054.6109237472,        !- Vertex 2 Xcoordinate
    5711895.453184261,        !- Vertex 2 Ycoordinate
    0,                        !- Vertex 2 Zcoordinate
    705060.4158808013,        !- Vertex 3 Xcoordinate
    5711897.662383254,        !- Vertex 3 Ycoordinate
    0,                        !- Vertex 3 Zcoordinate
    705060.4158808013,        !- Vertex 4 Xcoordinate
    5711897.662383254,        !- Vertex 4 Ycoordinate
    6;                        !- Vertex 4 Zcoordinate

SHADING:SITE:DETAILED,
    shade_way/298846069_3,    !- Name
    ,                         !- Transmittance Schedule Name
    autocalculate,            !- Number of Vertices
    705060.4158808013,        !- Vertex 1 Xcoordinate
    5711897.662383254,        !- Vertex 1 Ycoordinate
    6,                        !- Vertex 1 Zcoordinate
    705060.4158808013,        !- Vertex 2 Xcoordinate
    5711897.662383254,        !- Vertex 2 Ycoordinate
    0,                        !- Vertex 2 Zcoordinate
    705063.0710694324,        !- Vertex 3 Xcoordinate
    5711890.683640869,        !- Vertex 3 Ycoordinate
    0,                        !- Vertex 3 Zcoordinate
    705063.0710694324,        !- Vertex 4 Xcoordinate
    5711890.683640869,        !- Vertex 4 Ycoordinate
    6;                        !- Vertex 4 Zcoordinate

SHADING:SITE:DETAILED,
    shade_way/298846069_4,    !- Name
    ,                         !- Transmittance Schedule Name
    autocalculate,            !- Number of Vertices
    705063.0710694324,        !- Vertex 1 Xcoordinate
    5711890.683640869,        !- Vertex 1 Ycoordinate
    6,                        !- Vertex 1 Zcoordinate
    705063.0710694324,        !- Vertex 2 Xcoordinate
    5711890.683640869,        !- Vertex 2 Ycoordinate
    0,                        !- Vertex 2 Zcoordinate
    705057.2676569448,        !- Vertex 3 Xcoordinate
    5711888.474821242,        !- Vertex 3 Ycoordinate
    0,                        !- Vertex 3 Zcoordinate
    705057.2676569448,        !- Vertex 4 Xcoordinate
    5711888.474821242,        !- Vertex 4 Ycoordinate
    6;                        !- Vertex 4 Zcoordinate

SHADING:SITE:DETAILED,
    shade_way/1430549439_1,    !- Name
    ,                         !- Transmittance Schedule Name
    autocalculate,            !- Number of Vertices
    705090.8427851527,        !- Vertex 1 Xcoordinate
    5711901.260962294,        !- Vertex 1 Ycoordinate
    6,                        !- Vertex 1 Zcoordinate
    705090.8427851527,        !- Vertex 2 Xcoordinate
    5711901.260962294,        !- Vertex 2 Ycoordinate
    0,                        !- Vertex 2 Zcoordinate
    705085.198333534,         !- Vertex 3 Xcoordinate
    5711899.106206576,        !- Vertex 3 Ycoordinate
    0,                        !- Vertex 3 Zcoordinate
    705085.198333534,         !- Vertex 4 Xcoordinate
    5711899.106206576,        !- Vertex 4 Ycoordinate
    6;                        !- Vertex 4 Zcoordinate

SHADING:SITE:DETAILED,
    shade_way/1430549439_2,    !- Name
    ,                         !- Transmittance Schedule Name
    autocalculate,            !- Number of Vertices
    705085.198333534,         !- Vertex 1 Xcoordinate
    5711899.106206576,        !- Vertex 1 Ycoordinate
    6,                        !- Vertex 1 Zcoordinate
    705085.198333534,         !- Vertex 2 Xcoordinate
    5711899.106206576,        !- Vertex 2 Ycoordinate
    0,                        !- Vertex 2 Zcoordinate
    705082.5462795048,        !- Vertex 3 Xcoordinate
    5711906.05424634,         !- Vertex 3 Ycoordinate
    0,                        !- Vertex 3 Zcoordinate
    705082.5462795048,        !- Vertex 4 Xcoordinate
    5711906.05424634,         !- Vertex 4 Ycoordinate
    6;                        !- Vertex 4 Zcoordinate

SHADING:SITE:DETAILED,
    shade_way/1430549439_3,    !- Name
    ,                         !- Transmittance Schedule Name
    autocalculate,            !- Number of Vertices
    705082.5462795048,        !- Vertex 1 Xcoordinate
    5711906.05424634,         !- Vertex 1 Ycoordinate
    6,                        !- Vertex 1 Zcoordinate
    705082.5462795048,        !- Vertex 2 Xcoordinate
    5711906.05424634,         !- Vertex 2 Ycoordinate
    0,                        !- Vertex 2 Zcoordinate
    705088.1907311231,        !- Vertex 3 Xcoordinate
    5711908.20900206,         !- Vertex 3 Ycoordinate
    0,                        !- Vertex 3 Zcoordinate
    705088.1907311231,        !- Vertex 4 Xcoordinate
    5711908.20900206,         !- Vertex 4 Ycoordinate
    6;                        !- Vertex 4 Zcoordinate

SHADING:SITE:DETAILED,
    shade_way/1430549439_4,    !- Name
    ,                         !- Transmittance Schedule Name
    autocalculate,            !- Number of Vertices
    705088.1907311231,        !- Vertex 1 Xcoordinate
    5711908.20900206,         !- Vertex 1 Ycoordinate
    6,                        !- Vertex 1 Zcoordinate
    705088.1907311231,        !- Vertex 2 Xcoordinate
    5711908.20900206,         !- Vertex 2 Ycoordinate
    0,                        !- Vertex 2 Zcoordinate
    705090.8427851527,        !- Vertex 3 Xcoordinate
    5711901.260962294,        !- Vertex 3 Ycoordinate
    0,                        !- Vertex 3 Zcoordinate
    705090.8427851527,        !- Vertex 4 Xcoordinate
    5711901.260962294,        !- Vertex 4 Ycoordinate
    6;                        !- Vertex 4 Zcoordinate

SHADING:SITE:DETAILED,
    shade_way/298846088_1,    !- Name
    ,                         !- Transmittance Schedule Name
    autocalculate,            !- Number of Vertices
    705093.2471170796,        !- Vertex 1 Xcoordinate
    5711918.77519659,         !- Vertex 1 Ycoordinate
    6,                        !- Vertex 1 Zcoordinate
    705093.2471170796,        !- Vertex 2 Xcoordinate
    5711918.77519659,         !- Vertex 2 Ycoordinate
    0,                        !- Vertex 2 Zcoordinate
    705086.8458263206,        !- Vertex 3 Xcoordinate
    5711916.266889497,        !- Vertex 3 Ycoordinate
    0,                        !- Vertex 3 Zcoordinate
    705086.8458263206,        !- Vertex 4 Xcoordinate
    5711916.266889497,        !- Vertex 4 Ycoordinate
    6;                        !- Vertex 4 Zcoordinate

SHADING:SITE:DETAILED,
    shade_way/298846088_2,    !- Name
    ,                         !- Transmittance Schedule Name
    autocalculate,            !- Number of Vertices
    705086.8458263206,        !- Vertex 1 Xcoordinate
    5711916.266889497,        !- Vertex 1 Ycoordinate
    6,                        !- Vertex 1 Zcoordinate
    705086.8458263206,        !- Vertex 2 Xcoordinate
    5711916.266889497,        !- Vertex 2 Ycoordinate
    0,                        !- Vertex 2 Zcoordinate
    705084.2080739484,        !- Vertex 3 Xcoordinate
    5711922.99734837,         !- Vertex 3 Ycoordinate
    0,                        !- Vertex 3 Zcoordinate
    705084.2080739484,        !- Vertex 4 Xcoordinate
    5711922.99734837,         !- Vertex 4 Ycoordinate
    6;                        !- Vertex 4 Zcoordinate

SHADING:SITE:DETAILED,
    shade_way/298846088_3,    !- Name
    ,                         !- Transmittance Schedule Name
    autocalculate,            !- Number of Vertices
    705084.2080739484,        !- Vertex 1 Xcoordinate
    5711922.99734837,         !- Vertex 1 Ycoordinate
    6,                        !- Vertex 1 Zcoordinate
    705084.2080739484,        !- Vertex 2 Xcoordinate
    5711922.99734837,         !- Vertex 2 Ycoordinate
    0,                        !- Vertex 2 Zcoordinate
    705090.6093647074,        !- Vertex 3 Xcoordinate
    5711925.505655464,        !- Vertex 3 Ycoordinate
    0,                        !- Vertex 3 Zcoordinate
    705090.6093647074,        !- Vertex 4 Xcoordinate
    5711925.505655464,        !- Vertex 4 Ycoordinate
    6;                        !- Vertex 4 Zcoordinate

SHADING:SITE:DETAILED,
    shade_way/298846088_4,    !- Name
    ,                         !- Transmittance Schedule Name
    autocalculate,            !- Number of Vertices
    705090.6093647074,        !- Vertex 1 Xcoordinate
    5711925.505655464,        !- Vertex 1 Ycoordinate
    6,                        !- Vertex 1 Zcoordinate
    705090.6093647074,        !- Vertex 2 Xcoordinate
    5711925.505655464,        !- Vertex 2 Ycoordinate
    0,                        !- Vertex 2 Zcoordinate
    705093.2471170796,        !- Vertex 3 Xcoordinate
    5711918.77519659,         !- Vertex 3 Ycoordinate
    0,                        !- Vertex 3 Zcoordinate
    705093.2471170796,        !- Vertex 4 Xcoordinate
    5711918.77519659,         !- Vertex 4 Ycoordinate
    6;                        !- Vertex 4 Zcoordinate

SHADING:SITE:DETAILED,
    shade_way/1430549447_1,    !- Name
    ,                         !- Transmittance Schedule Name
    autocalculate,            !- Number of Vertices
    705090.6173922906,        !- Vertex 1 Xcoordinate
    5711925.395150626,        !- Vertex 1 Ycoordinate
    6,                        !- Vertex 1 Zcoordinate
    705090.6173922906,        !- Vertex 2 Xcoordinate
    5711925.395150626,        !- Vertex 2 Ycoordinate
    0,                        !- Vertex 2 Zcoordinate
    705096.9320978624,        !- Vertex 3 Xcoordinate
    5711927.810873089,        !- Vertex 3 Ycoordinate
    0,                        !- Vertex 3 Zcoordinate
    705096.9320978624,        !- Vertex 4 Xcoordinate
    5711927.810873089,        !- Vertex 4 Ycoordinate
    6;                        !- Vertex 4 Zcoordinate

SHADING:SITE:DETAILED,
    shade_way/1430549447_2,    !- Name
    ,                         !- Transmittance Schedule Name
    autocalculate,            !- Number of Vertices
    705096.9320978624,        !- Vertex 1 Xcoordinate
    5711927.810873089,        !- Vertex 1 Ycoordinate
    6,                        !- Vertex 1 Zcoordinate
    705096.9320978624,        !- Vertex 2 Xcoordinate
    5711927.810873089,        !- Vertex 2 Ycoordinate
    0,                        !- Vertex 2 Zcoordinate
    705099.4767583242,        !- Vertex 3 Xcoordinate
    5711921.158410904,        !- Vertex 3 Ycoordinate
    0,                        !- Vertex 3 Zcoordinate
    705099.4767583242,        !- Vertex 4 Xcoordinate
    5711921.158410904,        !- Vertex 4 Ycoordinate
    6;                        !- Vertex 4 Zcoordinate

SHADING:SITE:DETAILED,
    shade_way/1430549447_3,    !- Name
    ,                         !- Transmittance Schedule Name
    autocalculate,            !- Number of Vertices
    705099.4767583242,        !- Vertex 1 Xcoordinate
    5711921.158410904,        !- Vertex 1 Ycoordinate
    6,                        !- Vertex 1 Zcoordinate
    705099.4767583242,        !- Vertex 2 Xcoordinate
    5711921.158410904,        !- Vertex 2 Ycoordinate
    0,                        !- Vertex 2 Zcoordinate
    705093.1620527528,        !- Vertex 3 Xcoordinate
    5711918.742688441,        !- Vertex 3 Ycoordinate
    0,                        !- Vertex 3 Zcoordinate
    705093.1620527528,        !- Vertex 4 Xcoordinate
    5711918.742688441,        !- Vertex 4 Ycoordinate
    6;                        !- Vertex 4 Zcoordinate

SHADING:SITE:DETAILED,
    shade_way/1430549447_4,    !- Name
    ,                         !- Transmittance Schedule Name
    autocalculate,            !- Number of Vertices
    705093.1620527528,        !- Vertex 1 Xcoordinate
    5711918.742688441,        !- Vertex 1 Ycoordinate
    6,                        !- Vertex 1 Zcoordinate
    705093.1620527528,        !- Vertex 2 Xcoordinate
    5711918.742688441,        !- Vertex 2 Ycoordinate
    0,                        !- Vertex 2 Zcoordinate
    705090.6173922906,        !- Vertex 3 Xcoordinate
    5711925.395150626,        !- Vertex 3 Ycoordinate
    0,                        !- Vertex 3 Zcoordinate
    705090.6173922906,        !- Vertex 4 Xcoordinate
    5711925.395150626,        !- Vertex 4 Ycoordinate
    6;                        !- Vertex 4 Zcoordinate

SHADING:SITE:DETAILED,
    shade_way/1430549434_1,    !- Name
    ,                         !- Transmittance Schedule Name
    autocalculate,            !- Number of Vertices
    705063.0710694324,        !- Vertex 1 Xcoordinate
    5711890.683640869,        !- Vertex 1 Ycoordinate
    6,                        !- Vertex 1 Zcoordinate
    705063.0710694324,        !- Vertex 2 Xcoordinate
    5711890.683640869,        !- Vertex 2 Ycoordinate
    0,                        !- Vertex 2 Zcoordinate
    705060.4178508101,        !- Vertex 3 Xcoordinate
    5711897.652433931,        !- Vertex 3 Ycoordinate
    0,                        !- Vertex 3 Zcoordinate
    705060.4178508101,        !- Vertex 4 Xcoordinate
    5711897.652433931,        !- Vertex 4 Ycoordinate
    6;                        !- Vertex 4 Zcoordinate

SHADING:SITE:DETAILED,
    shade_way/1430549434_2,    !- Name
    ,                         !- Transmittance Schedule Name
    autocalculate,            !- Number of Vertices
    705060.4178508101,        !- Vertex 1 Xcoordinate
    5711897.652433931,        !- Vertex 1 Ycoordinate
    6,                        !- Vertex 1 Zcoordinate
    705060.4178508101,        !- Vertex 2 Xcoordinate
    5711897.652433931,        !- Vertex 2 Ycoordinate
    0,                        !- Vertex 2 Zcoordinate
    705065.8392259446,        !- Vertex 3 Xcoordinate
    5711899.71563766,         !- Vertex 3 Ycoordinate
    0,                        !- Vertex 3 Zcoordinate
    705065.8392259446,        !- Vertex 4 Xcoordinate
    5711899.71563766,         !- Vertex 4 Ycoordinate
    6;                        !- Vertex 4 Zcoordinate

SHADING:SITE:DETAILED,
    shade_way/1430549434_3,    !- Name
    ,                         !- Transmittance Schedule Name
    autocalculate,            !- Number of Vertices
    705065.8392259446,        !- Vertex 1 Xcoordinate
    5711899.71563766,         !- Vertex 1 Ycoordinate
    6,                        !- Vertex 1 Zcoordinate
    705065.8392259446,        !- Vertex 2 Xcoordinate
    5711899.71563766,         !- Vertex 2 Ycoordinate
    0,                        !- Vertex 2 Zcoordinate
    705068.4906819147,        !- Vertex 3 Xcoordinate
    5711892.746411668,        !- Vertex 3 Ycoordinate
    0,                        !- Vertex 3 Zcoordinate
    705068.4906819147,        !- Vertex 4 Xcoordinate
    5711892.746411668,        !- Vertex 4 Ycoordinate
    6;                        !- Vertex 4 Zcoordinate

SHADING:SITE:DETAILED,
    shade_way/1430549434_4,    !- Name
    ,                         !- Transmittance Schedule Name
    autocalculate,            !- Number of Vertices
    705068.4906819147,        !- Vertex 1 Xcoordinate
    5711892.746411668,        !- Vertex 1 Ycoordinate
    6,                        !- Vertex 1 Zcoordinate
    705068.4906819147,        !- Vertex 2 Xcoordinate
    5711892.746411668,        !- Vertex 2 Ycoordinate
    0,                        !- Vertex 2 Zcoordinate
    705063.0710694324,        !- Vertex 3 Xcoordinate
    5711890.683640869,        !- Vertex 3 Ycoordinate
    0,                        !- Vertex 3 Zcoordinate
    705063.0710694324,        !- Vertex 4 Xcoordinate
    5711890.683640869,        !- Vertex 4 Ycoordinate
    6;                        !- Vertex 4 Zcoordinate

SHADING:SITE:DETAILED,
    shade_way/1430549436_1,    !- Name
    ,                         !- Transmittance Schedule Name
    autocalculate,            !- Number of Vertices
    705068.4694371482,        !- Vertex 1 Xcoordinate
    5711892.739333522,        !- Vertex 1 Ycoordinate
    6,                        !- Vertex 1 Zcoordinate
    705068.4694371482,        !- Vertex 2 Xcoordinate
    5711892.739333522,        !- Vertex 2 Ycoordinate
    0,                        !- Vertex 2 Zcoordinate
    705065.834797463,         !- Vertex 3 Xcoordinate
    5711899.730689099,        !- Vertex 3 Ycoordinate
    0,                        !- Vertex 3 Zcoordinate
    705065.834797463,         !- Vertex 4 Xcoordinate
    5711899.730689099,        !- Vertex 4 Ycoordinate
    6;                        !- Vertex 4 Zcoordinate

SHADING:SITE:DETAILED,
    shade_way/1430549436_2,    !- Name
    ,                         !- Transmittance Schedule Name
    autocalculate,            !- Number of Vertices
    705065.834797463,         !- Vertex 1 Xcoordinate
    5711899.730689099,        !- Vertex 1 Ycoordinate
    6,                        !- Vertex 1 Zcoordinate
    705065.834797463,         !- Vertex 2 Xcoordinate
    5711899.730689099,        !- Vertex 2 Ycoordinate
    0,                        !- Vertex 2 Zcoordinate
    705071.579888898,         !- Vertex 3 Xcoordinate
    5711901.896533114,        !- Vertex 3 Ycoordinate
    0,                        !- Vertex 3 Zcoordinate
    705071.579888898,         !- Vertex 4 Xcoordinate
    5711901.896533114,        !- Vertex 4 Ycoordinate
    6;                        !- Vertex 4 Zcoordinate

SHADING:SITE:DETAILED,
    shade_way/1430549436_3,    !- Name
    ,                         !- Transmittance Schedule Name
    autocalculate,            !- Number of Vertices
    705071.579888898,         !- Vertex 1 Xcoordinate
    5711901.896533114,        !- Vertex 1 Ycoordinate
    6,                        !- Vertex 1 Zcoordinate
    705071.579888898,         !- Vertex 2 Xcoordinate
    5711901.896533114,        !- Vertex 2 Ycoordinate
    0,                        !- Vertex 2 Zcoordinate
    705074.2165956346,        !- Vertex 3 Xcoordinate
    5711894.90630584,         !- Vertex 3 Ycoordinate
    0,                        !- Vertex 3 Zcoordinate
    705074.2165956346,        !- Vertex 4 Xcoordinate
    5711894.90630584,         !- Vertex 4 Ycoordinate
    6;                        !- Vertex 4 Zcoordinate

SHADING:SITE:DETAILED,
    shade_way/1430549436_4,    !- Name
    ,                         !- Transmittance Schedule Name
    autocalculate,            !- Number of Vertices
    705074.2165956346,        !- Vertex 1 Xcoordinate
    5711894.90630584,         !- Vertex 1 Ycoordinate
    6,                        !- Vertex 1 Zcoordinate
    705074.2165956346,        !- Vertex 2 Xcoordinate
    5711894.90630584,         !- Vertex 2 Ycoordinate
    0,                        !- Vertex 2 Zcoordinate
    705068.4694371482,        !- Vertex 3 Xcoordinate
    5711892.739333522,        !- Vertex 3 Ycoordinate
    0,                        !- Vertex 3 Zcoordinate
    705068.4694371482,        !- Vertex 4 Xcoordinate
    5711892.739333522,        !- Vertex 4 Ycoordinate
    6;                        !- Vertex 4 Zcoordinate

OTHEREQUIPMENT,
    EU_Step8_InternalGain_cfed096ca3635922_F0_dwelling_0_f000,    !- Name
    Electricity,              !- Fuel Type
    cfed096ca3635922_F0_dwelling_0,    !- Zone or ZoneList or Space or SpaceList Name
    EU_Step8_GainSchedule_cfed096ca3635922_F0_dwelling_0_f000,    !- Schedule Name
    Watts/Area,               !- Design Level Calculation Method
    ,                         !- Design Level
    1,                        !- Power per Zone Floor Area
    ,                         !- Power per Person
    0,                        !- Fraction Latent
    0,                        !- Fraction Radiant
    0,                        !- Fraction Lost
    0,                        !- Carbon Dioxide Generation Rate
    EU_Step8_InternalGains;    !- EndUse Subcategory

ZONEVENTILATION:DESIGNFLOWRATE,
    EU_ConstantAir_cfed096ca3635922_F0_dwelling_0,    !- Name
    cfed096ca3635922_F0_dwelling_0,    !- Zone or ZoneList or Space or SpaceList Name
    EU_AlwaysOn,              !- Schedule Name
    AirChanges/Hour,          !- Design Flow Rate Calculation Method
    ,                         !- Design Flow Rate
    ,                         !- Flow Rate per Floor Area
    ,                         !- Flow Rate per Person
    4.849006e-01,             !- Air Changes per Hour
    Natural,                  !- Ventilation Type
    0,                        !- Fan Pressure Rise
    1,                        !- Fan Total Efficiency
    1,                        !- Constant Term Coefficient
    0,                        !- Temperature Term Coefficient
    0,                        !- Velocity Term Coefficient
    0,                        !- Velocity Squared Term Coefficient
    -100,                     !- Minimum Indoor Temperature
    ,                         !- Minimum Indoor Temperature Schedule Name
    100,                      !- Maximum Indoor Temperature
    ,                         !- Maximum Indoor Temperature Schedule Name
    -100,                     !- Delta Temperature
    ,                         !- Delta Temperature Schedule Name
    -100,                     !- Minimum Outdoor Temperature
    ,                         !- Minimum Outdoor Temperature Schedule Name
    100,                      !- Maximum Outdoor Temperature
    ,                         !- Maximum Outdoor Temperature Schedule Name
    40;                       !- Maximum Wind Speed

HVACTEMPLATE:THERMOSTAT,
    EU_HeatOnly_cfed096ca3635922_F0_dwelling_0,    !- Name
    ,                         !- Heating Setpoint Schedule Name
    20,                       !- Constant Heating Setpoint
    ,                         !- Cooling Setpoint Schedule Name
    50;                       !- Constant Cooling Setpoint

HVACTEMPLATE:ZONE:IDEALLOADSAIRSYSTEM,
    cfed096ca3635922_F0_dwelling_0,    !- Zone Name
    EU_HeatOnly_cfed096ca3635922_F0_dwelling_0,    !- Template Thermostat Name
    EU_AlwaysOn,              !- System Availability Schedule Name
    50,                       !- Maximum Heating Supply Air Temperature
    13,                       !- Minimum Cooling Supply Air Temperature
    0.0156,                   !- Maximum Heating Supply Air Humidity Ratio
    0.0077,                   !- Minimum Cooling Supply Air Humidity Ratio
    NoLimit,                  !- Heating Limit
    ,                         !- Maximum Heating Air Flow Rate
    ,                         !- Maximum Sensible Heating Capacity
    NoLimit,                  !- Cooling Limit
    ,                         !- Maximum Cooling Air Flow Rate
    ,                         !- Maximum Total Cooling Capacity
    EU_AlwaysOn,              !- Heating Availability Schedule Name
    EU_CoolingOff,            !- Cooling Availability Schedule Name
    ConstantSensibleHeatRatio,    !- Dehumidification Control Type
    0.7,                      !- Cooling Sensible Heat Ratio
    60,                       !- Dehumidification Setpoint
    None,                     !- Humidification Control Type
    30,                       !- Humidification Setpoint
    None,                     !- Outdoor Air Method
    0.00944,                  !- Outdoor Air Flow Rate per Person
    0.0,                      !- Outdoor Air Flow Rate per Zone Floor Area
    0,                        !- Outdoor Air Flow Rate per Zone
    ,                         !- Design Specification Outdoor Air Object Name
    None,                     !- Demand Controlled Ventilation Type
    NoEconomizer,             !- Outdoor Air Economizer Type
    None,                     !- Heat Recovery Type
    0.70,                     !- Sensible Heat Recovery Effectiveness
    0.65;                     !- Latent Heat Recovery Effectiveness

SIZING:ZONE,
    cfed096ca3635922_F0_dwelling_0,    !- Zone or ZoneList Name
    SupplyAirTemperature,     !- Zone Cooling Design Supply Air Temperature Input Method
    13,                       !- Zone Cooling Design Supply Air Temperature
    ,                         !- Zone Cooling Design Supply Air Temperature Difference
    SupplyAirTemperature,     !- Zone Heating Design Supply Air Temperature Input Method
    50,                       !- Zone Heating Design Supply Air Temperature
    ,                         !- Zone Heating Design Supply Air Temperature Difference
    0.008,                    !- Zone Cooling Design Supply Air Humidity Ratio
    0.008,                    !- Zone Heating Design Supply Air Humidity Ratio
    ,                         !- Design Specification Outdoor Air Object Name
    ,                         !- Zone Heating Sizing Factor
    ,                         !- Zone Cooling Sizing Factor
    DesignDay,                !- Cooling Design Air Flow Method
    0,                        !- Cooling Design Air Flow Rate
    0.000762,                 !- Cooling Minimum Air Flow per Zone Floor Area
    0,                        !- Cooling Minimum Air Flow
    0.2,                      !- Cooling Minimum Air Flow Fraction
    DesignDay,                !- Heating Design Air Flow Method
    0,                        !- Heating Design Air Flow Rate
    0.002032,                 !- Heating Maximum Air Flow per Zone Floor Area
    0.1415762,                !- Heating Maximum Air Flow
    0.3,                      !- Heating Maximum Air Flow Fraction
    ,                         !- Design Specification Zone Air Distribution Object Name
    No,                       !- Account for Dedicated Outdoor Air System
    NeutralSupplyAir,         !- Dedicated Outdoor Air System Control Strategy
    autosize,                 !- Dedicated Outdoor Air Low Setpoint Temperature for Design
    autosize,                 !- Dedicated Outdoor Air High Setpoint Temperature for Design
    Sensible Load Only No Latent Load,    !- Zone Load Sizing Method
    HumidityRatioDifference,    !- Zone Latent Cooling Design Supply Air Humidity Ratio Input Method
    ,                         !- Zone Dehumidification Design Supply Air Humidity Ratio
    0.005,                    !- Zone Cooling Design Supply Air Humidity Ratio Difference
    HumidityRatioDifference,    !- Zone Latent Heating Design Supply Air Humidity Ratio Input Method
    ,                         !- Zone Humidification Design Supply Air Humidity Ratio
    0.005;                    !- Zone Humidification Design Supply Air Humidity Ratio Difference

OUTPUT:VARIABLE,
    *,                        !- Key Value
    Zone Ideal Loads Zone Total Heating Energy,    !- Variable Name
    Hourly;                   !- Reporting Frequency

OUTPUT:SQLITE,
    SimpleAndTabular,         !- Option Type
    UseOutputControlTableStyle;    !- Unit Conversion for Tabular Data