!- Windows Line endings 

Version,
    23.1;                     !- Version Identifier

SimulationControl,
    Yes,                      !- Do Zone Sizing Calculation
    Yes,                      !- Do System Sizing Calculation
    Yes,                      !- Do Plant Sizing Calculation
    No,                       !- Run Simulation for Sizing Periods
    Yes,                      !- Run Simulation for Weather File Run Periods
    No,                       !- Do HVAC Sizing Simulation for Sizing Periods
    1;                        !- Maximum Number of HVAC Sizing Simulation Passes

Building,
    EU S2 Campaign,           !- Name
    0,                        !- North Axis
    City,                     !- Terrain
    ,                         !- Loads Convergence Tolerance Value
    ,                         !- Temperature Convergence Tolerance Value
    FullExterior,             !- Solar Distribution
    ,                         !- Maximum Number of Warmup Days
    ;                         !- Minimum Number of Warmup Days

ShadowCalculation,
    PolygonClipping,          !- Shading Calculation Method
    Periodic,                 !- Shading Calculation Update Frequency Method
    1;                        !- Shading Calculation Update Frequency

HeatBalanceAlgorithm,
    ConductionTransferFunction,    !- Algorithm
    200,                      !- Surface Temperature Upper Limit
    0.1,                      !- Minimum Surface Convection Heat Transfer Coefficient Value
    10000000;                 !- Maximum Surface Convection Heat Transfer Coefficient Value

Timestep,
    12;                       !- Number of Timesteps per Hour

Site:Location,
    London,                   !- Name
    51.5,                     !- Latitude
    -0.5,                     !- Longitude
    0,                        !- Time Zone
    25;                       !- Elevation

SizingPeriod:WeatherFileDays,
    AnnualSizingPeriod,       !- Name
    1,                        !- Begin Month
    1,                        !- Begin Day of Month
    12,                       !- End Month
    31,                       !- End Day of Month
    Monday,                   !- Day of Week for Start Day
    No,                       !- Use Weather File Daylight Saving Period
    No;                       !- Use Weather File Rain and Snow Indicators

RunPeriod,
    RunPeriod1,               !- Name
    1,                        !- Begin Month
    1,                        !- Begin Day of Month
    ,                         !- Begin Year
    12,                       !- End Month
    31,                       !- End Day of Month
    ,                         !- End Year
    Sunday,                   !- Day of Week for Start Day
    No,                       !- Use Weather File Holidays and Special Days
    No,                       !- Use Weather File Daylight Saving Period
    No,                       !- Apply Weekend Holiday Rule
    Yes,                      !- Use Weather File Rain Indicators
    Yes;                      !- Use Weather File Snow Indicators

ScheduleTypeLimits,
    Any Number;               !- Name

SCHEDULETYPELIMITS,
    EU_Step8_AnyNumber_Wm2,    !- Name
    ,                         !- Lower Limit Value
    ,                         !- Upper Limit Value
    Continuous,               !- Numeric Type
    Dimensionless;            !- Unit Type

SCHEDULE:CONSTANT,
    EU_AlwaysOn,              !- Name
    ,                         !- Schedule Type Limits Name
    1;                        !- Hourly Value

SCHEDULE:CONSTANT,
    EU_CoolingOff,            !- Name
    ,                         !- Schedule Type Limits Name
    0;                        !- Hourly Value

SCHEDULE:FILE,
    EU_Step8_GainSchedule_dadd3c4c4fb39dac_F0_dwelling_0_f000,    !- Name
    EU_Step8_AnyNumber_Wm2,    !- Schedule Type Limits Name
    ../../schedules/dadd3c4c4fb39dac/dadd3c4c4fb39dac_F0_dwelling_0_f000_gain.csv,    !- File Name
    1,                        !- Column Number
    0,                        !- Rows to Skip at Top
    8760,                     !- Number of Hours of Data
    Comma,                    !- Column Separator
    No,                       !- Interpolate to Timestep
    60,                       !- Minutes per Item
    Yes;                      !- Adjust Schedule for Daylight Savings

MATERIAL,
    EU_InternalMass_Material,    !- Name
    MediumRough,              !- Roughness
    0.1,                      !- Thickness
    1,                        !- Conductivity
    1800,                     !- Density
    900,                      !- Specific Heat
    0.9,                      !- Thermal Absorptance
    0.7,                      !- Solar Absorptance
    0.7;                      !- Visible Absorptance

MATERIAL:NOMASS,
    EU_wall_NoMass,           !- Name
    MediumRough,              !- Roughness
    3.3399304303113486,       !- Thermal Resistance
    0.9,                      !- Thermal Absorptance
    0.7,                      !- Solar Absorptance
    0.7;                      !- Visible Absorptance

MATERIAL:NOMASS,
    EU_roof_NoMass,           !- Name
    MediumRough,              !- Roughness
    5.248462104774976,        !- Thermal Resistance
    0.9,                      !- Thermal Absorptance
    0.7,                      !- Solar Absorptance
    0.7;                      !- Visible Absorptance

MATERIAL:NOMASS,
    EU_floor_NoMass,          !- Name
    MediumRough,              !- Roughness
    4.08213719260276,         !- Thermal Resistance
    0.9,                      !- Thermal Absorptance
    0.7,                      !- Solar Absorptance
    0.7;                      !- Visible Absorptance

CONSTRUCTION,
    EU_wall_Construction,     !- Name
    EU_wall_NoMass;           !- Outside Layer

CONSTRUCTION,
    EU_roof_Construction,     !- Name
    EU_roof_NoMass;           !- Outside Layer

CONSTRUCTION,
    EU_floor_Construction,    !- Name
    EU_floor_NoMass;          !- Outside Layer

CONSTRUCTION,
    EU_InternalMass_Construction,    !- Name
    EU_InternalMass_Material;    !- Outside Layer

GlobalGeometryRules,
    UpperLeftCorner,          !- Starting Vertex Position
    CounterClockWise,         !- Vertex Entry Direction
    World;                    !- Coordinate System

ZONE,
    dadd3c4c4fb39dac_F0_dwelling_0,    !- Name
    0,                        !- Direction of Relative North
    0,                        !- X Origin
    0,                        !- Y Origin
    0,                        !- Z Origin
    1,                        !- Type
    1,                        !- Multiplier
    autocalculate,            !- Ceiling Height
    549.415283203125,         !- Volume
    autocalculate,            !- Floor Area
    ,                         !- Zone Inside Convection Algorithm
    ,                         !- Zone Outside Convection Algorithm
    Yes;                      !- Part of Total Floor Area

BUILDINGSURFACE:DETAILED,
    Block dadd3c4c4fb39dac_0 Storey 0 Wall 0001,    !- Name
    wall,                     !- Surface Type
    EU_wall_Construction,     !- Construction Name
    dadd3c4c4fb39dac_F0_dwelling_0,    !- Zone Name
    ,                         !- Space Name
    outdoors,                 !- Outside Boundary Condition
    ,                         !- Outside Boundary Condition Object
    SunExposed,               !- Sun Exposure
    WindExposed,              !- Wind Exposure
    autocalculate,            !- View Factor to Ground
    autocalculate,            !- Number of Vertices
    705414.579,               !- Vertex 1 Xcoordinate
    5711340.219,              !- Vertex 1 Ycoordinate
    9,                        !- Vertex 1 Zcoordinate
    705414.579,               !- Vertex 2 Xcoordinate
    5711340.219,              !- Vertex 2 Ycoordinate
    0,                        !- Vertex 2 Zcoordinate
    705420.615,               !- Vertex 3 Xcoordinate
    5711340.798,              !- Vertex 3 Ycoordinate
    0,                        !- Vertex 3 Zcoordinate
    705420.615,               !- Vertex 4 Xcoordinate
    5711340.798,              !- Vertex 4 Ycoordinate
    9;                        !- Vertex 4 Zcoordinate

BUILDINGSURFACE:DETAILED,
    Block dadd3c4c4fb39dac_0 Storey 0 Wall 0002,    !- Name
    wall,                     !- Surface Type
    EU_wall_Construction,     !- Construction Name
    dadd3c4c4fb39dac_F0_dwelling_0,    !- Zone Name
    ,                         !- Space Name
    Adiabatic,                !- Outside Boundary Condition
    ,                         !- Outside Boundary Condition Object
    NoSun,                    !- Sun Exposure
    NoWind,                   !- Wind Exposure
    autocalculate,            !- View Factor to Ground
    autocalculate,            !- Number of Vertices
    705420.615,               !- Vertex 1 Xcoordinate
    5711340.798,              !- Vertex 1 Ycoordinate
    9,                        !- Vertex 1 Zcoordinate
    705420.615,               !- Vertex 2 Xcoordinate
    5711340.798,              !- Vertex 2 Ycoordinate
    0,                        !- Vertex 2 Zcoordinate
    705421.57,                !- Vertex 3 Xcoordinate
    5711330.769,              !- Vertex 3 Ycoordinate
    0,                        !- Vertex 3 Zcoordinate
    705421.57,                !- Vertex 4 Xcoordinate
    5711330.769,              !- Vertex 4 Ycoordinate
    9;                        !- Vertex 4 Zcoordinate

BUILDINGSURFACE:DETAILED,
    Block dadd3c4c4fb39dac_0 Storey 0 Wall 0003,    !- Name
    wall,                     !- Surface Type
    EU_wall_Construction,     !- Construction Name
    dadd3c4c4fb39dac_F0_dwelling_0,    !- Zone Name
    ,                         !- Space Name
    outdoors,                 !- Outside Boundary Condition
    ,                         !- Outside Boundary Condition Object
    SunExposed,               !- Sun Exposure
    WindExposed,              !- Wind Exposure
    autocalculate,            !- View Factor to Ground
    autocalculate,            !- Number of Vertices
    705421.57,                !- Vertex 1 Xcoordinate
    5711330.769,              !- Vertex 1 Ycoordinate
    9,                        !- Vertex 1 Zcoordinate
    705421.57,                !- Vertex 2 Xcoordinate
    5711330.769,              !- Vertex 2 Ycoordinate
    0,                        !- Vertex 2 Zcoordinate
    705415.534,               !- Vertex 3 Xcoordinate
    5711330.202,              !- Vertex 3 Ycoordinate
    0,                        !- Vertex 3 Zcoordinate
    705415.534,               !- Vertex 4 Xcoordinate
    5711330.202,              !- Vertex 4 Ycoordinate
    9;                        !- Vertex 4 Zcoordinate

BUILDINGSURFACE:DETAILED,
    Block dadd3c4c4fb39dac_0 Storey 0 Wall 0004,    !- Name
    wall,                     !- Surface Type
    EU_wall_Construction,     !- Construction Name
    dadd3c4c4fb39dac_F0_dwelling_0,    !- Zone Name
    ,                         !- Space Name
    outdoors,                 !- Outside Boundary Condition
    ,                         !- Outside Boundary Condition Object
    SunExposed,               !- Sun Exposure
    WindExposed,              !- Wind Exposure
    autocalculate,            !- View Factor to Ground
    autocalculate,            !- Number of Vertices
    705415.534,               !- Vertex 1 Xcoordinate
    5711330.202,              !- Vertex 1 Ycoordinate
    9,                        !- Vertex 1 Zcoordinate
    705415.534,               !- Vertex 2 Xcoordinate
    5711330.202,              !- Vertex 2 Ycoordinate
    0,                        !- Vertex 2 Zcoordinate
    705414.579,               !- Vertex 3 Xcoordinate
    5711340.219,              !- Vertex 3 Ycoordinate
    0,                        !- Vertex 3 Zcoordinate
    705414.579,               !- Vertex 4 Xcoordinate
    5711340.219,              !- Vertex 4 Ycoordinate
    9;                        !- Vertex 4 Zcoordinate

BUILDINGSURFACE:DETAILED,
    Block dadd3c4c4fb39dac_0 Storey 0 Floor 0001,    !- Name
    floor,                    !- Surface Type
    EU_floor_Construction,    !- Construction Name
    dadd3c4c4fb39dac_F0_dwelling_0,    !- Zone Name
    ,                         !- Space Name
    ground,                   !- Outside Boundary Condition
    ,                         !- Outside Boundary Condition Object
    NoSun,                    !- Sun Exposure
    NoWind,                   !- Wind Exposure
    autocalculate,            !- View Factor to Ground
    autocalculate,            !- Number of Vertices
    705421.57,                !- Vertex 1 Xcoordinate
    5711330.769,              !- Vertex 1 Ycoordinate
    0,                        !- Vertex 1 Zcoordinate
    705420.615,               !- Vertex 2 Xcoordinate
    5711340.798,              !- Vertex 2 Ycoordinate
    0,                        !- Vertex 2 Zcoordinate
    705414.579,               !- Vertex 3 Xcoordinate
    5711340.219,              !- Vertex 3 Ycoordinate
    0,                        !- Vertex 3 Zcoordinate
    705415.534,               !- Vertex 4 Xcoordinate
    5711330.202,              !- Vertex 4 Ycoordinate
    0;                        !- Vertex 4 Zcoordinate

BUILDINGSURFACE:DETAILED,
    Block dadd3c4c4fb39dac_0 Storey 0 Roof 0001,    !- Name
    roof,                     !- Surface Type
    EU_roof_Construction,     !- Construction Name
    dadd3c4c4fb39dac_F0_dwelling_0,    !- Zone Name
    ,                         !- Space Name
    outdoors,                 !- Outside Boundary Condition
    ,                         !- Outside Boundary Condition Object
    NoSun,                    !- Sun Exposure
    WindExposed,              !- Wind Exposure
    autocalculate,            !- View Factor to Ground
    autocalculate,            !- Number of Vertices
    705420.615,               !- Vertex 1 Xcoordinate
    5711340.798,              !- Vertex 1 Ycoordinate
    9,                        !- Vertex 1 Zcoordinate
    705421.57,                !- Vertex 2 Xcoordinate
    5711330.769,              !- Vertex 2 Ycoordinate
    9,                        !- Vertex 2 Zcoordinate
    705415.534,               !- Vertex 3 Xcoordinate
    5711330.202,              !- Vertex 3 Ycoordinate
    9,                        !- Vertex 3 Zcoordinate
    705414.579,               !- Vertex 4 Xcoordinate
    5711340.219,              !- Vertex 4 Ycoordinate
    9;                        !- Vertex 4 Zcoordinate

INTERNALMASS,
    dadd3c4c4fb39dac_F0_dwelling_0_EU_InternalMass,    !- Name
    EU_InternalMass_Construction,    !- Construction Name
    dadd3c4c4fb39dac_F0_dwelling_0,    !- Zone or ZoneList Name
    ,                         !- Space or SpaceList Name
    61.04604300036334;        !- Surface Area

SHADING:SITE:DETAILED,
    shade_way/1055004677_1,    !- Name
    ,                         !- Transmittance Schedule Name
    autocalculate,            !- Number of Vertices
    705425.1335181366,        !- Vertex 1 Xcoordinate
    5711302.304157049,        !- Vertex 1 Ycoordinate
    6,                        !- Vertex 1 Zcoordinate
    705425.1335181366,        !- Vertex 2 Xcoordinate
    5711302.304157049,        !- Vertex 2 Ycoordinate
    0,                        !- Vertex 2 Zcoordinate
    705424.1748811374,        !- Vertex 3 Xcoordinate
    5711314.827027508,        !- Vertex 3 Ycoordinate
    0,                        !- Vertex 3 Zcoordinate
    705424.1748811374,        !- Vertex 4 Xcoordinate
    5711314.827027508,        !- Vertex 4 Ycoordinate
    6;                        !- Vertex 4 Zcoordinate

SHADING:SITE:DETAILED,
    shade_way/1055004677_2,    !- Name
    ,                         !- Transmittance Schedule Name
    autocalculate,            !- Number of Vertices
    705424.1748811374,        !- Vertex 1 Xcoordinate
    5711314.827027508,        !- Vertex 1 Ycoordinate
    6,                        !- Vertex 1 Zcoordinate
    705424.1748811374,        !- Vertex 2 Xcoordinate
    5711314.827027508,        !- Vertex 2 Ycoordinate
    0,                        !- Vertex 2 Zcoordinate
    705429.087874971,         !- Vertex 3 Xcoordinate
    5711315.203410245,        !- Vertex 3 Ycoordinate
    0,                        !- Vertex 3 Zcoordinate
    705429.087874971,         !- Vertex 4 Xcoordinate
    5711315.203410245,        !- Vertex 4 Ycoordinate
    6;                        !- Vertex 4 Zcoordinate

SHADING:SITE:DETAILED,
    shade_way/1055004677_3,    !- Name
    ,                         !- Transmittance Schedule Name
    autocalculate,            !- Number of Vertices
    705429.087874971,         !- Vertex 1 Xcoordinate
    5711315.203410245,        !- Vertex 1 Ycoordinate
    6,                        !- Vertex 1 Zcoordinate
    705429.087874971,         !- Vertex 2 Xcoordinate
    5711315.203410245,        !- Vertex 2 Ycoordinate
    0,                        !- Vertex 2 Zcoordinate
    705430.0465119695,        !- Vertex 3 Xcoordinate
    5711302.680539784,        !- Vertex 3 Ycoordinate
    0,                        !- Vertex 3 Zcoordinate
    705430.0465119695,        !- Vertex 4 Xcoordinate
    5711302.680539784,        !- Vertex 4 Ycoordinate
    6;                        !- Vertex 4 Zcoordinate

SHADING:SITE:DETAILED,
    shade_way/1055004677_4,    !- Name
    ,                         !- Transmittance Schedule Name
    autocalculate,            !- Number of Vertices
    705430.0465119695,        !- Vertex 1 Xcoordinate
    5711302.680539784,        !- Vertex 1 Ycoordinate
    6,                        !- Vertex 1 Zcoordinate
    705430.0465119695,        !- Vertex 2 Xcoordinate
    5711302.680539784,        !- Vertex 2 Ycoordinate
    0,                        !- Vertex 2 Zcoordinate
    705425.1335181366,        !- Vertex 3 Xcoordinate
    5711302.304157049,        !- Vertex 3 Ycoordinate
    0,                        !- Vertex 3 Zcoordinate
    705425.1335181366,        !- Vertex 4 Xcoordinate
    5711302.304157049,        !- Vertex 4 Ycoordinate
    6;                        !- Vertex 4 Zcoordinate

SHADING:SITE:DETAILED,
    shade_way/1055004676_1,    !- Name
    ,                         !- Transmittance Schedule Name
    autocalculate,            !- Number of Vertices
    705433.8705357384,        !- Vertex 1 Xcoordinate
    5711315.583325146,        !- Vertex 1 Ycoordinate
    6,                        !- Vertex 1 Zcoordinate
    705433.8705357384,        !- Vertex 2 Xcoordinate
    5711315.583325146,        !- Vertex 2 Ycoordinate
    0,                        !- Vertex 2 Zcoordinate
    705434.8857376649,        !- Vertex 3 Xcoordinate
    5711303.066493143,        !- Vertex 3 Ycoordinate
    0,                        !- Vertex 3 Zcoordinate
    705434.8857376649,        !- Vertex 4 Xcoordinate
    5711303.066493143,        !- Vertex 4 Ycoordinate
    6;                        !- Vertex 4 Zcoordinate

SHADING:SITE:DETAILED,
    shade_way/1055004676_2,    !- Name
    ,                         !- Transmittance Schedule Name
    autocalculate,            !- Number of Vertices
    705434.8857376649,        !- Vertex 1 Xcoordinate
    5711303.066493143,        !- Vertex 1 Ycoordinate
    6,                        !- Vertex 1 Zcoordinate
    705434.8857376649,        !- Vertex 2 Xcoordinate
    5711303.066493143,        !- Vertex 2 Ycoordinate
    0,                        !- Vertex 2 Zcoordinate
    705430.0469573532,        !- Vertex 3 Xcoordinate
    5711302.673802759,        !- Vertex 3 Ycoordinate
    0,                        !- Vertex 3 Zcoordinate
    705430.0469573532,        !- Vertex 4 Xcoordinate
    5711302.673802759,        !- Vertex 4 Ycoordinate
    6;                        !- Vertex 4 Zcoordinate

SHADING:SITE:DETAILED,
    shade_way/1055004676_3,    !- Name
    ,                         !- Transmittance Schedule Name
    autocalculate,            !- Number of Vertices
    705430.0469573532,        !- Vertex 1 Xcoordinate
    5711302.673802759,        !- Vertex 1 Ycoordinate
    6,                        !- Vertex 1 Zcoordinate
    705430.0469573532,        !- Vertex 2 Xcoordinate
    5711302.673802759,        !- Vertex 2 Ycoordinate
    0,                        !- Vertex 2 Zcoordinate
    705429.0308437676,        !- Vertex 3 Xcoordinate
    5711315.190673008,        !- Vertex 3 Ycoordinate
    0,                        !- Vertex 3 Zcoordinate
    705429.0308437676,        !- Vertex 4 Xcoordinate
    5711315.190673008,        !- Vertex 4 Ycoordinate
    6;                        !- Vertex 4 Zcoordinate

SHADING:SITE:DETAILED,
    shade_way/1055004676_4,    !- Name
    ,                         !- Transmittance Schedule Name
    autocalculate,            !- Number of Vertices
    705429.0308437676,        !- Vertex 1 Xcoordinate
    5711315.190673008,        !- Vertex 1 Ycoordinate
    6,                        !- Vertex 1 Zcoordinate
    705429.0308437676,        !- Vertex 2 Xcoordinate
    5711315.190673008,        !- Vertex 2 Ycoordinate
    0,                        !- Vertex 2 Zcoordinate
    705433.8705357384,        !- Vertex 3 Xcoordinate
    5711315.583325146,        !- Vertex 3 Ycoordinate
    0,                        !- Vertex 3 Zcoordinate
    705433.8705357384,        !- Vertex 4 Xcoordinate
    5711315.583325146,        !- Vertex 4 Ycoordinate
    6;                        !- Vertex 4 Zcoordinate

SHADING:SITE:DETAILED,
    shade_way/531931790_1,    !- Name
    ,                         !- Transmittance Schedule Name
    autocalculate,            !- Number of Vertices
    705452.088276583,         !- Vertex 1 Xcoordinate
    5711323.719644478,        !- Vertex 1 Ycoordinate
    12,                       !- Vertex 1 Zcoordinate
    705452.088276583,         !- Vertex 2 Xcoordinate
    5711323.719644478,        !- Vertex 2 Ycoordinate
    0,                        !- Vertex 2 Zcoordinate
    705441.2285642355,        !- Vertex 3 Xcoordinate
    5711322.810029846,        !- Vertex 3 Ycoordinate
    0,                        !- Vertex 3 Zcoordinate
    705441.2285642355,        !- Vertex 4 Xcoordinate
    5711322.810029846,        !- Vertex 4 Ycoordinate
    12;                       !- Vertex 4 Zcoordinate

SHADING:SITE:DETAILED,
    shade_way/531931790_2,    !- Name
    ,                         !- Transmittance Schedule Name
    autocalculate,            !- Number of Vertices
    705441.2285642355,        !- Vertex 1 Xcoordinate
    5711322.810029846,        !- Vertex 1 Ycoordinate
    12,                       !- Vertex 1 Zcoordinate
    705441.2285642355,        !- Vertex 2 Xcoordinate
    5711322.810029846,        !- Vertex 2 Ycoordinate
    0,                        !- Vertex 2 Zcoordinate
    705439.5859460157,        !- Vertex 3 Xcoordinate
    5711342.420929652,        !- Vertex 3 Ycoordinate
    0,                        !- Vertex 3 Zcoordinate
    705439.5859460157,        !- Vertex 4 Xcoordinate
    5711342.420929652,        !- Vertex 4 Ycoordinate
    12;                       !- Vertex 4 Zcoordinate

SHADING:SITE:DETAILED,
    shade_way/531931790_3,    !- Name
    ,                         !- Transmittance Schedule Name
    autocalculate,            !- Number of Vertices
    705439.5859460157,        !- Vertex 1 Xcoordinate
    5711342.420929652,        !- Vertex 1 Ycoordinate
    12,                       !- Vertex 1 Zcoordinate
    705439.5859460157,        !- Vertex 2 Xcoordinate
    5711342.420929652,        !- Vertex 2 Ycoordinate
    0,                        !- Vertex 2 Zcoordinate
    705450.4452690551,        !- Vertex 3 Xcoordinate
    5711343.330397035,        !- Vertex 3 Ycoordinate
    0,                        !- Vertex 3 Zcoordinate
    705450.4452690551,        !- Vertex 4 Xcoordinate
    5711343.330397035,        !- Vertex 4 Ycoordinate
    12;                       !- Vertex 4 Zcoordinate

SHADING:SITE:DETAILED,
    shade_way/531931790_4,    !- Name
    ,                         !- Transmittance Schedule Name
    autocalculate,            !- Number of Vertices
    705450.4452690551,        !- Vertex 1 Xcoordinate
    5711343.330397035,        !- Vertex 1 Ycoordinate
    12,                       !- Vertex 1 Zcoordinate
    705450.4452690551,        !- Vertex 2 Xcoordinate
    5711343.330397035,        !- Vertex 2 Ycoordinate
    0,                        !- Vertex 2 Zcoordinate
    705452.088276583,         !- Vertex 3 Xcoordinate
    5711323.719644478,        !- Vertex 3 Ycoordinate
    0,                        !- Vertex 3 Zcoordinate
    705452.088276583,         !- Vertex 4 Xcoordinate
    5711323.719644478,        !- Vertex 4 Ycoordinate
    12;                       !- Vertex 4 Zcoordinate

SHADING:SITE:DETAILED,
    shade_way/514905783_1,    !- Name
    ,                         !- Transmittance Schedule Name
    autocalculate,            !- Number of Vertices
    705411.9389534991,        !- Vertex 1 Xcoordinate
    5711329.076039617,        !- Vertex 1 Ycoordinate
    6,                        !- Vertex 1 Zcoordinate
    705411.9389534991,        !- Vertex 2 Xcoordinate
    5711329.076039617,        !- Vertex 2 Ycoordinate
    0,                        !- Vertex 2 Zcoordinate
    705398.4241427424,        !- Vertex 3 Xcoordinate
    5711326.508082827,        !- Vertex 3 Ycoordinate
    0,                        !- Vertex 3 Zcoordinate
    705398.4241427424,        !- Vertex 4 Xcoordinate
    5711326.508082827,        !- Vertex 4 Ycoordinate
    6;                        !- Vertex 4 Zcoordinate

SHADING:SITE:DETAILED,
    shade_way/514905783_2,    !- Name
    ,                         !- Transmittance Schedule Name
    autocalculate,            !- Number of Vertices
    705398.4241427424,        !- Vertex 1 Xcoordinate
    5711326.508082827,        !- Vertex 1 Ycoordinate
    6,                        !- Vertex 1 Zcoordinate
    705398.4241427424,        !- Vertex 2 Xcoordinate
    5711326.508082827,        !- Vertex 2 Ycoordinate
    0,                        !- Vertex 2 Zcoordinate
    705395.7398023953,        !- Vertex 3 Xcoordinate
    5711340.635571773,        !- Vertex 3 Ycoordinate
    0,                        !- Vertex 3 Zcoordinate
    705395.7398023953,        !- Vertex 4 Xcoordinate
    5711340.635571773,        !- Vertex 4 Ycoordinate
    6;                        !- Vertex 4 Zcoordinate

SHADING:SITE:DETAILED,
    shade_way/514905783_3,    !- Name
    ,                         !- Transmittance Schedule Name
    autocalculate,            !- Number of Vertices
    705395.7398023953,        !- Vertex 1 Xcoordinate
    5711340.635571773,        !- Vertex 1 Ycoordinate
    6,                        !- Vertex 1 Zcoordinate
    705395.7398023953,        !- Vertex 2 Xcoordinate
    5711340.635571773,        !- Vertex 2 Ycoordinate
    0,                        !- Vertex 2 Zcoordinate
    705409.254856217,         !- Vertex 3 Xcoordinate
    5711343.203544355,        !- Vertex 3 Ycoordinate
    0,                        !- Vertex 3 Zcoordinate
    705409.254856217,         !- Vertex 4 Xcoordinate
    5711343.203544355,        !- Vertex 4 Ycoordinate
    6;                        !- Vertex 4 Zcoordinate

SHADING:SITE:DETAILED,
    shade_way/514905783_4,    !- Name
    ,                         !- Transmittance Schedule Name
    autocalculate,            !- Number of Vertices
    705409.254856217,         !- Vertex 1 Xcoordinate
    5711343.203544355,        !- Vertex 1 Ycoordinate
    6,                        !- Vertex 1 Zcoordinate
    705409.254856217,         !- Vertex 2 Xcoordinate
    5711343.203544355,        !- Vertex 2 Ycoordinate
    0,                        !- Vertex 2 Zcoordinate
    705411.9389534991,        !- Vertex 3 Xcoordinate
    5711329.076039617,        !- Vertex 3 Ycoordinate
    0,                        !- Vertex 3 Zcoordinate
    705411.9389534991,        !- Vertex 4 Xcoordinate
    5711329.076039617,        !- Vertex 4 Ycoordinate
    6;                        !- Vertex 4 Zcoordinate

SHADING:SITE:DETAILED,
    shade_way/1056162838_1,    !- Name
    ,                         !- Transmittance Schedule Name
    autocalculate,            !- Number of Vertices
    705421.570069656,         !- Vertex 1 Xcoordinate
    5711330.76889516,         !- Vertex 1 Ycoordinate
    9,                        !- Vertex 1 Zcoordinate
    705421.570069656,         !- Vertex 2 Xcoordinate
    5711330.76889516,         !- Vertex 2 Ycoordinate
    0,                        !- Vertex 2 Zcoordinate
    705420.6151517539,        !- Vertex 3 Xcoordinate
    5711340.797398205,        !- Vertex 3 Ycoordinate
    0,                        !- Vertex 3 Zcoordinate
    705420.6151517539,        !- Vertex 4 Xcoordinate
    5711340.797398205,        !- Vertex 4 Ycoordinate
    9;                        !- Vertex 4 Zcoordinate

SHADING:SITE:DETAILED,
    shade_way/1056162838_2,    !- Name
    ,                         !- Transmittance Schedule Name
    autocalculate,            !- Number of Vertices
    705420.6151517539,        !- Vertex 1 Xcoordinate
    5711340.797398205,        !- Vertex 1 Ycoordinate
    9,                        !- Vertex 1 Zcoordinate
    705420.6151517539,        !- Vertex 2 Xcoordinate
    5711340.797398205,        !- Vertex 2 Ycoordinate
    0,                        !- Vertex 2 Zcoordinate
    705426.8755926853,        !- Vertex 3 Xcoordinate
    5711341.393608554,        !- Vertex 3 Ycoordinate
    0,                        !- Vertex 3 Zcoordinate
    705426.8755926853,        !- Vertex 4 Xcoordinate
    5711341.393608554,        !- Vertex 4 Ycoordinate
    9;                        !- Vertex 4 Zcoordinate

SHADING:SITE:DETAILED,
    shade_way/1056162838_3,    !- Name
    ,                         !- Transmittance Schedule Name
    autocalculate,            !- Number of Vertices
    705426.8755926853,        !- Vertex 1 Xcoordinate
    5711341.393608554,        !- Vertex 1 Ycoordinate
    9,                        !- Vertex 1 Zcoordinate
    705426.8755926853,        !- Vertex 2 Xcoordinate
    5711341.393608554,        !- Vertex 2 Ycoordinate
    0,                        !- Vertex 2 Zcoordinate
    705427.8305105864,        !- Vertex 3 Xcoordinate
    5711331.36510551,         !- Vertex 3 Ycoordinate
    0,                        !- Vertex 3 Zcoordinate
    705427.8305105864,        !- Vertex 4 Xcoordinate
    5711331.36510551,         !- Vertex 4 Ycoordinate
    9;                        !- Vertex 4 Zcoordinate

SHADING:SITE:DETAILED,
    shade_way/1056162838_4,    !- Name
    ,                         !- Transmittance Schedule Name
    autocalculate,            !- Number of Vertices
    705427.8305105864,        !- Vertex 1 Xcoordinate
    5711331.36510551,         !- Vertex 1 Ycoordinate
    9,                        !- Vertex 1 Zcoordinate
    705427.8305105864,        !- Vertex 2 Xcoordinate
    5711331.36510551,         !- Vertex 2 Ycoordinate
    0,                        !- Vertex 2 Zcoordinate
    705421.570069656,         !- Vertex 3 Xcoordinate
    5711330.76889516,         !- Vertex 3 Ycoordinate
    0,                        !- Vertex 3 Zcoordinate
    705421.570069656,         !- Vertex 4 Xcoordinate
    5711330.76889516,         !- Vertex 4 Ycoordinate
    9;                        !- Vertex 4 Zcoordinate

SHADING:SITE:DETAILED,
    shade_way/1056162837_1,    !- Name
    ,                         !- Transmittance Schedule Name
    autocalculate,            !- Number of Vertices
    705426.8821433076,        !- Vertex 1 Xcoordinate
    5711341.318396392,        !- Vertex 1 Ycoordinate
    9,                        !- Vertex 1 Zcoordinate
    705426.8821433076,        !- Vertex 2 Xcoordinate
    5711341.318396392,        !- Vertex 2 Ycoordinate
    0,                        !- Vertex 2 Zcoordinate
    705433.149584234,         !- Vertex 3 Xcoordinate
    5711341.828284327,        !- Vertex 3 Ycoordinate
    0,                        !- Vertex 3 Zcoordinate
    705433.149584234,         !- Vertex 4 Xcoordinate
    5711341.828284327,        !- Vertex 4 Ycoordinate
    9;                        !- Vertex 4 Zcoordinate

SHADING:SITE:DETAILED,
    shade_way/1056162837_2,    !- Name
    ,                         !- Transmittance Schedule Name
    autocalculate,            !- Number of Vertices
    705433.149584234,         !- Vertex 1 Xcoordinate
    5711341.828284327,        !- Vertex 1 Ycoordinate
    9,                        !- Vertex 1 Zcoordinate
    705433.149584234,         !- Vertex 2 Xcoordinate
    5711341.828284327,        !- Vertex 2 Ycoordinate
    0,                        !- Vertex 2 Zcoordinate
    705433.9551810323,        !- Vertex 3 Xcoordinate
    5711331.925064836,        !- Vertex 3 Ycoordinate
    0,                        !- Vertex 3 Zcoordinate
    705433.9551810323,        !- Vertex 4 Xcoordinate
    5711331.925064836,        !- Vertex 4 Ycoordinate
    9;                        !- Vertex 4 Zcoordinate

SHADING:SITE:DETAILED,
    shade_way/1056162837_3,    !- Name
    ,                         !- Transmittance Schedule Name
    autocalculate,            !- Number of Vertices
    705433.9551810323,        !- Vertex 1 Xcoordinate
    5711331.925064836,        !- Vertex 1 Ycoordinate
    9,                        !- Vertex 1 Zcoordinate
    705433.9551810323,        !- Vertex 2 Xcoordinate
    5711331.925064836,        !- Vertex 2 Ycoordinate
    0,                        !- Vertex 2 Zcoordinate
    705427.687740106,         !- Vertex 3 Xcoordinate
    5711331.415176899,        !- Vertex 3 Ycoordinate
    0,                        !- Vertex 3 Zcoordinate
    705427.687740106,         !- Vertex 4 Xcoordinate
    5711331.415176899,        !- Vertex 4 Ycoordinate
    9;                        !- Vertex 4 Zcoordinate

SHADING:SITE:DETAILED,
    shade_way/1056162837_4,    !- Name
    ,                         !- Transmittance Schedule Name
    autocalculate,            !- Number of Vertices
    705427.687740106,         !- Vertex 1 Xcoordinate
    5711331.415176899,        !- Vertex 1 Ycoordinate
    9,                        !- Vertex 1 Zcoordinate
    705427.687740106,         !- Vertex 2 Xcoordinate
    5711331.415176899,        !- Vertex 2 Ycoordinate
    0,                        !- Vertex 2 Zcoordinate
    705426.8821433076,        !- Vertex 3 Xcoordinate
    5711341.318396392,        !- Vertex 3 Ycoordinate
    0,                        !- Vertex 3 Zcoordinate
    705426.8821433076,        !- Vertex 4 Xcoordinate
    5711341.318396392,        !- Vertex 4 Ycoordinate
    9;                        !- Vertex 4 Zcoordinate

SHADING:SITE:DETAILED,
    shade_way/531931788_1,    !- Name
    ,                         !- Transmittance Schedule Name
    autocalculate,            !- Number of Vertices
    705433.040155664,         !- Vertex 1 Xcoordinate
    5711341.819086731,        !- Vertex 1 Ycoordinate
    9,                        !- Vertex 1 Zcoordinate
    705433.040155664,         !- Vertex 2 Xcoordinate
    5711341.819086731,        !- Vertex 2 Ycoordinate
    0,                        !- Vertex 2 Zcoordinate
    705439.5995973081,        !- Vertex 3 Xcoordinate
    5711342.379606684,        !- Vertex 3 Ycoordinate
    0,                        !- Vertex 3 Zcoordinate
    705439.5995973081,        !- Vertex 4 Xcoordinate
    5711342.379606684,        !- Vertex 4 Ycoordinate
    9;                        !- Vertex 4 Zcoordinate

SHADING:SITE:DETAILED,
    shade_way/531931788_2,    !- Name
    ,                         !- Transmittance Schedule Name
    autocalculate,            !- Number of Vertices
    705439.5995973081,        !- Vertex 1 Xcoordinate
    5711342.379606684,        !- Vertex 1 Ycoordinate
    9,                        !- Vertex 1 Zcoordinate
    705439.5995973081,        !- Vertex 2 Xcoordinate
    5711342.379606684,        !- Vertex 2 Ycoordinate
    0,                        !- Vertex 2 Zcoordinate
    705440.4511697409,        !- Vertex 3 Xcoordinate
    5711332.413112164,        !- Vertex 3 Ycoordinate
    0,                        !- Vertex 3 Zcoordinate
    705440.4511697409,        !- Vertex 4 Xcoordinate
    5711332.413112164,        !- Vertex 4 Ycoordinate
    9;                        !- Vertex 4 Zcoordinate

SHADING:SITE:DETAILED,
    shade_way/531931788_3,    !- Name
    ,                         !- Transmittance Schedule Name
    autocalculate,            !- Number of Vertices
    705440.4511697409,        !- Vertex 1 Xcoordinate
    5711332.413112164,        !- Vertex 1 Ycoordinate
    9,                        !- Vertex 1 Zcoordinate
    705440.4511697409,        !- Vertex 2 Xcoordinate
    5711332.413112164,        !- Vertex 2 Ycoordinate
    0,                        !- Vertex 2 Zcoordinate
    705433.8918027704,        !- Vertex 3 Xcoordinate
    5711331.85275193,         !- Vertex 3 Ycoordinate
    0,                        !- Vertex 3 Zcoordinate
    705433.8918027704,        !- Vertex 4 Xcoordinate
    5711331.85275193,         !- Vertex 4 Ycoordinate
    9;                        !- Vertex 4 Zcoordinate

SHADING:SITE:DETAILED,
    shade_way/531931788_4,    !- Name
    ,                         !- Transmittance Schedule Name
    autocalculate,            !- Number of Vertices
    705433.8918027704,        !- Vertex 1 Xcoordinate
    5711331.85275193,         !- Vertex 1 Ycoordinate
    9,                        !- Vertex 1 Zcoordinate
    705433.8918027704,        !- Vertex 2 Xcoordinate
    5711331.85275193,         !- Vertex 2 Ycoordinate
    0,                        !- Vertex 2 Zcoordinate
    705433.040155664,         !- Vertex 3 Xcoordinate
    5711341.819086731,        !- Vertex 3 Ycoordinate
    0,                        !- Vertex 3 Zcoordinate
    705433.040155664,         !- Vertex 4 Xcoordinate
    5711341.819086731,        !- Vertex 4 Ycoordinate
    9;                        !- Vertex 4 Zcoordinate

SHADING:SITE:DETAILED,
    shade_way/823489444_1,    !- Name
    ,                         !- Transmittance Schedule Name
    autocalculate,            !- Number of Vertices
    705453.8065681679,        !- Vertex 1 Xcoordinate
    5711391.1862999005,       !- Vertex 1 Ycoordinate
    39,                       !- Vertex 1 Zcoordinate
    705453.8065681679,        !- Vertex 2 Xcoordinate
    5711391.1862999005,       !- Vertex 2 Ycoordinate
    0,                        !- Vertex 2 Zcoordinate
    705452.5037853982,        !- Vertex 3 Xcoordinate
    5711359.234159175,        !- Vertex 3 Ycoordinate
    0,                        !- Vertex 3 Zcoordinate
    705452.5037853982,        !- Vertex 4 Xcoordinate
    5711359.234159175,        !- Vertex 4 Ycoordinate
    39;                       !- Vertex 4 Zcoordinate

SHADING:SITE:DETAILED,
    shade_way/823489444_2,    !- Name
    ,                         !- Transmittance Schedule Name
    autocalculate,            !- Number of Vertices
    705452.5037853982,        !- Vertex 1 Xcoordinate
    5711359.234159175,        !- Vertex 1 Ycoordinate
    39,                       !- Vertex 1 Zcoordinate
    705452.5037853982,        !- Vertex 2 Xcoordinate
    5711359.234159175,        !- Vertex 2 Ycoordinate
    0,                        !- Vertex 2 Zcoordinate
    705419.0338591735,        !- Vertex 3 Xcoordinate
    5711360.598826532,        !- Vertex 3 Ycoordinate
    0,                        !- Vertex 3 Zcoordinate
    705419.0338591735,        !- Vertex 4 Xcoordinate
    5711360.598826532,        !- Vertex 4 Ycoordinate
    39;                       !- Vertex 4 Zcoordinate

SHADING:SITE:DETAILED,
    shade_way/823489444_3,    !- Name
    ,                         !- Transmittance Schedule Name
    autocalculate,            !- Number of Vertices
    705419.0338591735,        !- Vertex 1 Xcoordinate
    5711360.598826532,        !- Vertex 1 Ycoordinate
    39,                       !- Vertex 1 Zcoordinate
    705419.0338591735,        !- Vertex 2 Xcoordinate
    5711360.598826532,        !- Vertex 2 Ycoordinate
    0,                        !- Vertex 2 Zcoordinate
    705420.3366419433,        !- Vertex 3 Xcoordinate
    5711392.5509672575,       !- Vertex 3 Ycoordinate
    0,                        !- Vertex 3 Zcoordinate
    705420.3366419433,        !- Vertex 4 Xcoordinate
    5711392.5509672575,       !- Vertex 4 Ycoordinate
    39;                       !- Vertex 4 Zcoordinate

SHADING:SITE:DETAILED,
    shade_way/823489444_4,    !- Name
    ,                         !- Transmittance Schedule Name
    autocalculate,            !- Number of Vertices
    705420.3366419433,        !- Vertex 1 Xcoordinate
    5711392.5509672575,       !- Vertex 1 Ycoordinate
    39,                       !- Vertex 1 Zcoordinate
    705420.3366419433,        !- Vertex 2 Xcoordinate
    5711392.5509672575,       !- Vertex 2 Ycoordinate
    0,                        !- Vertex 2 Zcoordinate
    705453.8065681679,        !- Vertex 3 Xcoordinate
    5711391.1862999005,       !- Vertex 3 Ycoordinate
    0,                        !- Vertex 3 Zcoordinate
    705453.8065681679,        !- Vertex 4 Xcoordinate
    5711391.1862999005,       !- Vertex 4 Ycoordinate
    39;                       !- Vertex 4 Zcoordinate

SHADING:SITE:DETAILED,
    shade_way/1055004679_1,    !- Name
    ,                         !- Transmittance Schedule Name
    autocalculate,            !- Number of Vertices
    705419.4299073322,        !- Vertex 1 Xcoordinate
    5711314.467880099,        !- Vertex 1 Ycoordinate
    6,                        !- Vertex 1 Zcoordinate
    705419.4299073322,        !- Vertex 2 Xcoordinate
    5711314.467880099,        !- Vertex 2 Ycoordinate
    0,                        !- Vertex 2 Zcoordinate
    705420.2663701017,        !- Vertex 3 Xcoordinate
    5711301.873245807,        !- Vertex 3 Ycoordinate
    0,                        !- Vertex 3 Zcoordinate
    705420.2663701017,        !- Vertex 4 Xcoordinate
    5711301.873245807,        !- Vertex 4 Ycoordinate
    6;                        !- Vertex 4 Zcoordinate

SHADING:SITE:DETAILED,
    shade_way/1055004679_2,    !- Name
    ,                         !- Transmittance Schedule Name
    autocalculate,            !- Number of Vertices
    705420.2663701017,        !- Vertex 1 Xcoordinate
    5711301.873245807,        !- Vertex 1 Ycoordinate
    6,                        !- Vertex 1 Zcoordinate
    705420.2663701017,        !- Vertex 2 Xcoordinate
    5711301.873245807,        !- Vertex 2 Ycoordinate
    0,                        !- Vertex 2 Zcoordinate
    705415.2290170053,        !- Vertex 3 Xcoordinate
    5711301.538664085,        !- Vertex 3 Ycoordinate
    0,                        !- Vertex 3 Zcoordinate
    705415.2290170053,        !- Vertex 4 Xcoordinate
    5711301.538664085,        !- Vertex 4 Ycoordinate
    6;                        !- Vertex 4 Zcoordinate

SHADING:SITE:DETAILED,
    shade_way/1055004679_3,    !- Name
    ,                         !- Transmittance Schedule Name
    autocalculate,            !- Number of Vertices
    705415.2290170053,        !- Vertex 1 Xcoordinate
    5711301.538664085,        !- Vertex 1 Ycoordinate
    6,                        !- Vertex 1 Zcoordinate
    705415.2290170053,        !- Vertex 2 Xcoordinate
    5711301.538664085,        !- Vertex 2 Ycoordinate
    0,                        !- Vertex 2 Zcoordinate
    705414.3925542362,        !- Vertex 3 Xcoordinate
    5711314.133298378,        !- Vertex 3 Ycoordinate
    0,                        !- Vertex 3 Zcoordinate
    705414.3925542362,        !- Vertex 4 Xcoordinate
    5711314.133298378,        !- Vertex 4 Ycoordinate
    6;                        !- Vertex 4 Zcoordinate

SHADING:SITE:DETAILED,
    shade_way/1055004679_4,    !- Name
    ,                         !- Transmittance Schedule Name
    autocalculate,            !- Number of Vertices
    705414.3925542362,        !- Vertex 1 Xcoordinate
    5711314.133298378,        !- Vertex 1 Ycoordinate
    6,                        !- Vertex 1 Zcoordinate
    705414.3925542362,        !- Vertex 2 Xcoordinate
    5711314.133298378,        !- Vertex 2 Ycoordinate
    0,                        !- Vertex 2 Zcoordinate
    705419.4299073322,        !- Vertex 3 Xcoordinate
    5711314.467880099,        !- Vertex 3 Ycoordinate
    0,                        !- Vertex 3 Zcoordinate
    705419.4299073322,        !- Vertex 4 Xcoordinate
    5711314.467880099,        !- Vertex 4 Ycoordinate
    6;                        !- Vertex 4 Zcoordinate

SHADING:SITE:DETAILED,
    shade_way/1055004678_1,    !- Name
    ,                         !- Transmittance Schedule Name
    autocalculate,            !- Number of Vertices
    705419.3135979982,        !- Vertex 1 Xcoordinate
    5711314.459094951,        !- Vertex 1 Ycoordinate
    6,                        !- Vertex 1 Zcoordinate
    705419.3135979982,        !- Vertex 2 Xcoordinate
    5711314.459094951,        !- Vertex 2 Ycoordinate
    0,                        !- Vertex 2 Zcoordinate
    705424.1854509535,        !- Vertex 3 Xcoordinate
    5711314.827845852,        !- Vertex 3 Ycoordinate
    0,                        !- Vertex 3 Zcoordinate
    705424.1854509535,        !- Vertex 4 Xcoordinate
    5711314.827845852,        !- Vertex 4 Ycoordinate
    6;                        !- Vertex 4 Zcoordinate

SHADING:SITE:DETAILED,
    shade_way/1055004678_2,    !- Name
    ,                         !- Transmittance Schedule Name
    autocalculate,            !- Number of Vertices
    705424.1854509535,        !- Vertex 1 Xcoordinate
    5711314.827845852,        !- Vertex 1 Ycoordinate
    6,                        !- Vertex 1 Zcoordinate
    705424.1854509535,        !- Vertex 2 Xcoordinate
    5711314.827845852,        !- Vertex 2 Ycoordinate
    0,                        !- Vertex 2 Zcoordinate
    705425.1380742481,        !- Vertex 3 Xcoordinate
    5711302.242003759,        !- Vertex 3 Ycoordinate
    0,                        !- Vertex 3 Zcoordinate
    705425.1380742481,        !- Vertex 4 Xcoordinate
    5711302.242003759,        !- Vertex 4 Ycoordinate
    6;                        !- Vertex 4 Zcoordinate

SHADING:SITE:DETAILED,
    shade_way/1055004678_3,    !- Name
    ,                         !- Transmittance Schedule Name
    autocalculate,            !- Number of Vertices
    705425.1380742481,        !- Vertex 1 Xcoordinate
    5711302.242003759,        !- Vertex 1 Ycoordinate
    6,                        !- Vertex 1 Zcoordinate
    705425.1380742481,        !- Vertex 2 Xcoordinate
    5711302.242003759,        !- Vertex 2 Ycoordinate
    0,                        !- Vertex 2 Zcoordinate
    705420.2663701017,        !- Vertex 3 Xcoordinate
    5711301.873245807,        !- Vertex 3 Ycoordinate
    0,                        !- Vertex 3 Zcoordinate
    705420.2663701017,        !- Vertex 4 Xcoordinate
    5711301.873245807,        !- Vertex 4 Ycoordinate
    6;                        !- Vertex 4 Zcoordinate

SHADING:SITE:DETAILED,
    shade_way/1055004678_4,    !- Name
    ,                         !- Transmittance Schedule Name
    autocalculate,            !- Number of Vertices
    705420.2663701017,        !- Vertex 1 Xcoordinate
    5711301.873245807,        !- Vertex 1 Ycoordinate
    6,                        !- Vertex 1 Zcoordinate
    705420.2663701017,        !- Vertex 2 Xcoordinate
    5711301.873245807,        !- Vertex 2 Ycoordinate
    0,                        !- Vertex 2 Zcoordinate
    705419.3135979982,        !- Vertex 3 Xcoordinate
    5711314.459094951,        !- Vertex 3 Ycoordinate
    0,                        !- Vertex 3 Zcoordinate
    705419.3135979982,        !- Vertex 4 Xcoordinate
    5711314.459094951,        !- Vertex 4 Ycoordinate
    6;                        !- Vertex 4 Zcoordinate

OTHEREQUIPMENT,
    EU_Step8_InternalGain_dadd3c4c4fb39dac_F0_dwelling_0_f000,    !- Name
    Electricity,              !- Fuel Type
    dadd3c4c4fb39dac_F0_dwelling_0,    !- Zone or ZoneList or Space or SpaceList Name
    EU_Step8_GainSchedule_dadd3c4c4fb39dac_F0_dwelling_0_f000,    !- Schedule Name
    Watts/Area,               !- Design Level Calculation Method
    ,                         !- Design Level
    1,                        !- Power per Zone Floor Area
    ,                         !- Power per Person
    0,                        !- Fraction Latent
    0,                        !- Fraction Radiant
    0,                        !- Fraction Lost
    0,                        !- Carbon Dioxide Generation Rate
    EU_Step8_InternalGains;    !- EndUse Subcategory

ZONEVENTILATION:DESIGNFLOWRATE,
    EU_ConstantAir_dadd3c4c4fb39dac_F0_dwelling_0,    !- Name
    dadd3c4c4fb39dac_F0_dwelling_0,    !- Zone or ZoneList or Space or SpaceList Name
    EU_AlwaysOn,              !- Schedule Name
    AirChanges/Hour,          !- Design Flow Rate Calculation Method
    ,                         !- Design Flow Rate
    ,                         !- Flow Rate per Floor Area
    ,                         !- Flow Rate per Person
    4.536476e-01,             !- Air Changes per Hour
    Natural,                  !- Ventilation Type
    0,                        !- Fan Pressure Rise
    1,                        !- Fan Total Efficiency
    1,                        !- Constant Term Coefficient
    0,                        !- Temperature Term Coefficient
    0,                        !- Velocity Term Coefficient
    0,                        !- Velocity Squared Term Coefficient
    -100,                     !- Minimum Indoor Temperature
    ,                         !- Minimum Indoor Temperature Schedule Name
    100,                      !- Maximum Indoor Temperature
    ,                         !- Maximum Indoor Temperature Schedule Name
    -100,                     !- Delta Temperature
    ,                         !- Delta Temperature Schedule Name
    -100,                     !- Minimum Outdoor Temperature
    ,                         !- Minimum Outdoor Temperature Schedule Name
    100,                      !- Maximum Outdoor Temperature
    ,                         !- Maximum Outdoor Temperature Schedule Name
    40;                       !- Maximum Wind Speed

HVACTEMPLATE:THERMOSTAT,
    EU_HeatOnly_dadd3c4c4fb39dac_F0_dwelling_0,    !- Name
    ,                         !- Heating Setpoint Schedule Name
    20,                       !- Constant Heating Setpoint
    ,                         !- Cooling Setpoint Schedule Name
    50;                       !- Constant Cooling Setpoint

HVACTEMPLATE:ZONE:IDEALLOADSAIRSYSTEM,
    dadd3c4c4fb39dac_F0_dwelling_0,    !- Zone Name
    EU_HeatOnly_dadd3c4c4fb39dac_F0_dwelling_0,    !- Template Thermostat Name
    EU_AlwaysOn,              !- System Availability Schedule Name
    50,                       !- Maximum Heating Supply Air Temperature
    13,                       !- Minimum Cooling Supply Air Temperature
    0.0156,                   !- Maximum Heating Supply Air Humidity Ratio
    0.0077,                   !- Minimum Cooling Supply Air Humidity Ratio
    NoLimit,                  !- Heating Limit
    ,                         !- Maximum Heating Air Flow Rate
    ,                         !- Maximum Sensible Heating Capacity
    NoLimit,                  !- Cooling Limit
    ,                         !- Maximum Cooling Air Flow Rate
    ,                         !- Maximum Total Cooling Capacity
    EU_AlwaysOn,              !- Heating Availability Schedule Name
    EU_CoolingOff,            !- Cooling Availability Schedule Name
    ConstantSensibleHeatRatio,    !- Dehumidification Control Type
    0.7,                      !- Cooling Sensible Heat Ratio
    60,                       !- Dehumidification Setpoint
    None,                     !- Humidification Control Type
    30,                       !- Humidification Setpoint
    None,                     !- Outdoor Air Method
    0.00944,                  !- Outdoor Air Flow Rate per Person
    0.0,                      !- Outdoor Air Flow Rate per Zone Floor Area
    0,                        !- Outdoor Air Flow Rate per Zone
    ,                         !- Design Specification Outdoor Air Object Name
    None,                     !- Demand Controlled Ventilation Type
    NoEconomizer,             !- Outdoor Air Economizer Type
    None,                     !- Heat Recovery Type
    0.70,                     !- Sensible Heat Recovery Effectiveness
    0.65;                     !- Latent Heat Recovery Effectiveness

SIZING:ZONE,
    dadd3c4c4fb39dac_F0_dwelling_0,    !- Zone or ZoneList Name
    SupplyAirTemperature,     !- Zone Cooling Design Supply Air Temperature Input Method
    13,                       !- Zone Cooling Design Supply Air Temperature
    ,                         !- Zone Cooling Design Supply Air Temperature Difference
    SupplyAirTemperature,     !- Zone Heating Design Supply Air Temperature Input Method
    50,                       !- Zone Heating Design Supply Air Temperature
    ,                         !- Zone Heating Design Supply Air Temperature Difference
    0.008,                    !- Zone Cooling Design Supply Air Humidity Ratio
    0.008,                    !- Zone Heating Design Supply Air Humidity Ratio
    ,                         !- Design Specification Outdoor Air Object Name
    ,                         !- Zone Heating Sizing Factor
    ,                         !- Zone Cooling Sizing Factor
    DesignDay,                !- Cooling Design Air Flow Method
    0,                        !- Cooling Design Air Flow Rate
    0.000762,                 !- Cooling Minimum Air Flow per Zone Floor Area
    0,                        !- Cooling Minimum Air Flow
    0.2,                      !- Cooling Minimum Air Flow Fraction
    DesignDay,                !- Heating Design Air Flow Method
    0,                        !- Heating Design Air Flow Rate
    0.002032,                 !- Heating Maximum Air Flow per Zone Floor Area
    0.1415762,                !- Heating Maximum Air Flow
    0.3,                      !- Heating Maximum Air Flow Fraction
    ,                         !- Design Specification Zone Air Distribution Object Name
    No,                       !- Account for Dedicated Outdoor Air System
    NeutralSupplyAir,         !- Dedicated Outdoor Air System Control Strategy
    autosize,                 !- Dedicated Outdoor Air Low Setpoint Temperature for Design
    autosize,                 !- Dedicated Outdoor Air High Setpoint Temperature for Design
    Sensible Load Only No Latent Load,    !- Zone Load Sizing Method
    HumidityRatioDifference,    !- Zone Latent Cooling Design Supply Air Humidity Ratio Input Method
    ,                         !- Zone Dehumidification Design Supply Air Humidity Ratio
    0.005,                    !- Zone Cooling Design Supply Air Humidity Ratio Difference
    HumidityRatioDifference,    !- Zone Latent Heating Design Supply Air Humidity Ratio Input Method
    ,                         !- Zone Humidification Design Supply Air Humidity Ratio
    0.005;                    !- Zone Humidification Design Supply Air Humidity Ratio Difference

OUTPUT:VARIABLE,
    *,                        !- Key Value
    Zone Ideal Loads Zone Total Heating Energy,    !- Variable Name
    Hourly;                   !- Reporting Frequency

OUTPUT:SQLITE,
    SimpleAndTabular,         !- Option Type
    UseOutputControlTableStyle;    !- Unit Conversion for Tabular Data