!- Windows Line endings 

Version,
    23.1;                     !- Version Identifier

SimulationControl,
    Yes,                      !- Do Zone Sizing Calculation
    Yes,                      !- Do System Sizing Calculation
    Yes,                      !- Do Plant Sizing Calculation
    No,                       !- Run Simulation for Sizing Periods
    Yes,                      !- Run Simulation for Weather File Run Periods
    No,                       !- Do HVAC Sizing Simulation for Sizing Periods
    1;                        !- Maximum Number of HVAC Sizing Simulation Passes

Building,
    EU S2 Campaign,           !- Name
    0,                        !- North Axis
    City,                     !- Terrain
    ,                         !- Loads Convergence Tolerance Value
    ,                         !- Temperature Convergence Tolerance Value
    FullExterior,             !- Solar Distribution
    ,                         !- Maximum Number of Warmup Days
    ;                         !- Minimum Number of Warmup Days

ShadowCalculation,
    PolygonClipping,          !- Shading Calculation Method
    Periodic,                 !- Shading Calculation Update Frequency Method
    1;                        !- Shading Calculation Update Frequency

HeatBalanceAlgorithm,
    ConductionTransferFunction,    !- Algorithm
    200,                      !- Surface Temperature Upper Limit
    0.1,                      !- Minimum Surface Convection Heat Transfer Coefficient Value
    10000000;                 !- Maximum Surface Convection Heat Transfer Coefficient Value

Timestep,
    12;                       !- Number of Timesteps per Hour

Site:Location,
    London,                   !- Name
    51.5,                     !- Latitude
    -0.5,                     !- Longitude
    0,                        !- Time Zone
    25;                       !- Elevation

SizingPeriod:WeatherFileDays,
    AnnualSizingPeriod,       !- Name
    1,                        !- Begin Month
    1,                        !- Begin Day of Month
    12,                       !- End Month
    31,                       !- End Day of Month
    Monday,                   !- Day of Week for Start Day
    No,                       !- Use Weather File Daylight Saving Period
    No;                       !- Use Weather File Rain and Snow Indicators

RunPeriod,
    RunPeriod1,               !- Name
    1,                        !- Begin Month
    1,                        !- Begin Day of Month
    ,                         !- Begin Year
    12,                       !- End Month
    31,                       !- End Day of Month
    ,                         !- End Year
    Sunday,                   !- Day of Week for Start Day
    No,                       !- Use Weather File Holidays and Special Days
    No,                       !- Use Weather File Daylight Saving Period
    No,                       !- Apply Weekend Holiday Rule
    Yes,                      !- Use Weather File Rain Indicators
    Yes;                      !- Use Weather File Snow Indicators

ScheduleTypeLimits,
    Any Number;               !- Name

SCHEDULETYPELIMITS,
    EU_Step8_AnyNumber_Wm2,    !- Name
    ,                         !- Lower Limit Value
    ,                         !- Upper Limit Value
    Continuous,               !- Numeric Type
    Dimensionless;            !- Unit Type

SCHEDULE:CONSTANT,
    EU_AlwaysOn,              !- Name
    ,                         !- Schedule Type Limits Name
    1;                        !- Hourly Value

SCHEDULE:CONSTANT,
    EU_CoolingOff,            !- Name
    ,                         !- Schedule Type Limits Name
    0;                        !- Hourly Value

SCHEDULE:FILE,
    EU_Step8_GainSchedule_dde5e760db1e4c4e_F0_dwelling_0_f000,    !- Name
    EU_Step8_AnyNumber_Wm2,    !- Schedule Type Limits Name
    ../../schedules/dde5e760db1e4c4e/dde5e760db1e4c4e_F0_dwelling_0_f000_gain.csv,    !- File Name
    1,                        !- Column Number
    0,                        !- Rows to Skip at Top
    8760,                     !- Number of Hours of Data
    Comma,                    !- Column Separator
    No,                       !- Interpolate to Timestep
    60,                       !- Minutes per Item
    Yes;                      !- Adjust Schedule for Daylight Savings

MATERIAL,
    EU_InternalMass_Material,    !- Name
    MediumRough,              !- Roughness
    0.1,                      !- Thickness
    1,                        !- Conductivity
    1800,                     !- Density
    900,                      !- Specific Heat
    0.9,                      !- Thermal Absorptance
    0.7,                      !- Solar Absorptance
    0.7;                      !- Visible Absorptance

MATERIAL:NOMASS,
    EU_wall_NoMass,           !- Name
    MediumRough,              !- Roughness
    0.7247189243747139,       !- Thermal Resistance
    0.9,                      !- Thermal Absorptance
    0.7,                      !- Solar Absorptance
    0.7;                      !- Visible Absorptance

MATERIAL:NOMASS,
    EU_roof_NoMass,           !- Name
    MediumRough,              !- Roughness
    2.989465563045695,        !- Thermal Resistance
    0.9,                      !- Thermal Absorptance
    0.7,                      !- Solar Absorptance
    0.7;                      !- Visible Absorptance

MATERIAL:NOMASS,
    EU_floor_NoMass,          !- Name
    MediumRough,              !- Roughness
    2.3915724504365556,       !- Thermal Resistance
    0.9,                      !- Thermal Absorptance
    0.7,                      !- Solar Absorptance
    0.7;                      !- Visible Absorptance

CONSTRUCTION,
    EU_wall_Construction,     !- Name
    EU_wall_NoMass;           !- Outside Layer

CONSTRUCTION,
    EU_roof_Construction,     !- Name
    EU_roof_NoMass;           !- Outside Layer

CONSTRUCTION,
    EU_floor_Construction,    !- Name
    EU_floor_NoMass;          !- Outside Layer

CONSTRUCTION,
    EU_InternalMass_Construction,    !- Name
    EU_InternalMass_Material;    !- Outside Layer

GlobalGeometryRules,
    UpperLeftCorner,          !- Starting Vertex Position
    CounterClockWise,         !- Vertex Entry Direction
    World;                    !- Coordinate System

ZONE,
    dde5e760db1e4c4e_F0_dwelling_0,    !- Name
    0,                        !- Direction of Relative North
    0,                        !- X Origin
    0,                        !- Y Origin
    0,                        !- Z Origin
    1,                        !- Type
    1,                        !- Multiplier
    autocalculate,            !- Ceiling Height
    333.28125,                !- Volume
    autocalculate,            !- Floor Area
    ,                         !- Zone Inside Convection Algorithm
    ,                         !- Zone Outside Convection Algorithm
    Yes;                      !- Part of Total Floor Area

BUILDINGSURFACE:DETAILED,
    Block dde5e760db1e4c4e_0 Storey 0 Wall 0001,    !- Name
    wall,                     !- Surface Type
    EU_wall_Construction,     !- Construction Name
    dde5e760db1e4c4e_F0_dwelling_0,    !- Zone Name
    ,                         !- Space Name
    outdoors,                 !- Outside Boundary Condition
    ,                         !- Outside Boundary Condition Object
    SunExposed,               !- Sun Exposure
    WindExposed,              !- Wind Exposure
    autocalculate,            !- View Factor to Ground
    autocalculate,            !- Number of Vertices
    705508.528,               !- Vertex 1 Xcoordinate
    5711188.862,              !- Vertex 1 Ycoordinate
    6,                        !- Vertex 1 Zcoordinate
    705508.528,               !- Vertex 2 Xcoordinate
    5711188.862,              !- Vertex 2 Ycoordinate
    0,                        !- Vertex 2 Zcoordinate
    705506.209,               !- Vertex 3 Xcoordinate
    5711189.514,              !- Vertex 3 Ycoordinate
    0,                        !- Vertex 3 Zcoordinate
    705506.209,               !- Vertex 4 Xcoordinate
    5711189.514,              !- Vertex 4 Ycoordinate
    6;                        !- Vertex 4 Zcoordinate

BUILDINGSURFACE:DETAILED,
    Block dde5e760db1e4c4e_0 Storey 0 Wall 0002,    !- Name
    wall,                     !- Surface Type
    EU_wall_Construction,     !- Construction Name
    dde5e760db1e4c4e_F0_dwelling_0,    !- Zone Name
    ,                         !- Space Name
    outdoors,                 !- Outside Boundary Condition
    ,                         !- Outside Boundary Condition Object
    SunExposed,               !- Sun Exposure
    WindExposed,              !- Wind Exposure
    autocalculate,            !- View Factor to Ground
    autocalculate,            !- Number of Vertices
    705506.209,               !- Vertex 1 Xcoordinate
    5711189.514,              !- Vertex 1 Ycoordinate
    6,                        !- Vertex 1 Zcoordinate
    705506.209,               !- Vertex 2 Xcoordinate
    5711189.514,              !- Vertex 2 Ycoordinate
    0,                        !- Vertex 2 Zcoordinate
    705505.881,               !- Vertex 3 Xcoordinate
    5711188.332,              !- Vertex 3 Ycoordinate
    0,                        !- Vertex 3 Zcoordinate
    705505.881,               !- Vertex 4 Xcoordinate
    5711188.332,              !- Vertex 4 Ycoordinate
    6;                        !- Vertex 4 Zcoordinate

BUILDINGSURFACE:DETAILED,
    Block dde5e760db1e4c4e_0 Storey 0 Wall 0003,    !- Name
    wall,                     !- Surface Type
    EU_wall_Construction,     !- Construction Name
    dde5e760db1e4c4e_F0_dwelling_0,    !- Zone Name
    ,                         !- Space Name
    outdoors,                 !- Outside Boundary Condition
    ,                         !- Outside Boundary Condition Object
    SunExposed,               !- Sun Exposure
    WindExposed,              !- Wind Exposure
    autocalculate,            !- View Factor to Ground
    autocalculate,            !- Number of Vertices
    705505.881,               !- Vertex 1 Xcoordinate
    5711188.332,              !- Vertex 1 Ycoordinate
    6,                        !- Vertex 1 Zcoordinate
    705505.881,               !- Vertex 2 Xcoordinate
    5711188.332,              !- Vertex 2 Ycoordinate
    0,                        !- Vertex 2 Zcoordinate
    705501.23,                !- Vertex 3 Xcoordinate
    5711189.591,              !- Vertex 3 Ycoordinate
    0,                        !- Vertex 3 Zcoordinate
    705501.23,                !- Vertex 4 Xcoordinate
    5711189.591,              !- Vertex 4 Ycoordinate
    6;                        !- Vertex 4 Zcoordinate

BUILDINGSURFACE:DETAILED,
    Block dde5e760db1e4c4e_0 Storey 0 Wall 0004,    !- Name
    wall,                     !- Surface Type
    EU_wall_Construction,     !- Construction Name
    dde5e760db1e4c4e_F0_dwelling_0,    !- Zone Name
    ,                         !- Space Name
    Adiabatic,                !- Outside Boundary Condition
    ,                         !- Outside Boundary Condition Object
    NoSun,                    !- Sun Exposure
    NoWind,                   !- Wind Exposure
    autocalculate,            !- View Factor to Ground
    autocalculate,            !- Number of Vertices
    705501.23,                !- Vertex 1 Xcoordinate
    5711189.591,              !- Vertex 1 Ycoordinate
    6,                        !- Vertex 1 Zcoordinate
    705501.23,                !- Vertex 2 Xcoordinate
    5711189.591,              !- Vertex 2 Ycoordinate
    0,                        !- Vertex 2 Zcoordinate
    705501.587,               !- Vertex 3 Xcoordinate
    5711196.232,              !- Vertex 3 Ycoordinate
    0,                        !- Vertex 3 Zcoordinate
    705501.587,               !- Vertex 4 Xcoordinate
    5711196.232,              !- Vertex 4 Ycoordinate
    6;                        !- Vertex 4 Zcoordinate

BUILDINGSURFACE:DETAILED,
    Block dde5e760db1e4c4e_0 Storey 0 Wall 0005,    !- Name
    wall,                     !- Surface Type
    EU_wall_Construction,     !- Construction Name
    dde5e760db1e4c4e_F0_dwelling_0,    !- Zone Name
    ,                         !- Space Name
    outdoors,                 !- Outside Boundary Condition
    ,                         !- Outside Boundary Condition Object
    SunExposed,               !- Sun Exposure
    WindExposed,              !- Wind Exposure
    autocalculate,            !- View Factor to Ground
    autocalculate,            !- Number of Vertices
    705501.587,               !- Vertex 1 Xcoordinate
    5711196.232,              !- Vertex 1 Ycoordinate
    6,                        !- Vertex 1 Zcoordinate
    705501.587,               !- Vertex 2 Xcoordinate
    5711196.232,              !- Vertex 2 Ycoordinate
    0,                        !- Vertex 2 Zcoordinate
    705505.666,               !- Vertex 3 Xcoordinate
    5711196.219,              !- Vertex 3 Ycoordinate
    0,                        !- Vertex 3 Zcoordinate
    705505.666,               !- Vertex 4 Xcoordinate
    5711196.219,              !- Vertex 4 Ycoordinate
    6;                        !- Vertex 4 Zcoordinate

BUILDINGSURFACE:DETAILED,
    Block dde5e760db1e4c4e_0 Storey 0 Wall 0006,    !- Name
    wall,                     !- Surface Type
    EU_wall_Construction,     !- Construction Name
    dde5e760db1e4c4e_F0_dwelling_0,    !- Zone Name
    ,                         !- Space Name
    outdoors,                 !- Outside Boundary Condition
    ,                         !- Outside Boundary Condition Object
    SunExposed,               !- Sun Exposure
    WindExposed,              !- Wind Exposure
    autocalculate,            !- View Factor to Ground
    autocalculate,            !- Number of Vertices
    705505.666,               !- Vertex 1 Xcoordinate
    5711196.219,              !- Vertex 1 Ycoordinate
    6,                        !- Vertex 1 Zcoordinate
    705505.666,               !- Vertex 2 Xcoordinate
    5711196.219,              !- Vertex 2 Ycoordinate
    0,                        !- Vertex 2 Zcoordinate
    705505.669,               !- Vertex 3 Xcoordinate
    5711197.856,              !- Vertex 3 Ycoordinate
    0,                        !- Vertex 3 Zcoordinate
    705505.669,               !- Vertex 4 Xcoordinate
    5711197.856,              !- Vertex 4 Ycoordinate
    6;                        !- Vertex 4 Zcoordinate

BUILDINGSURFACE:DETAILED,
    Block dde5e760db1e4c4e_0 Storey 0 Wall 0007,    !- Name
    wall,                     !- Surface Type
    EU_wall_Construction,     !- Construction Name
    dde5e760db1e4c4e_F0_dwelling_0,    !- Zone Name
    ,                         !- Space Name
    outdoors,                 !- Outside Boundary Condition
    ,                         !- Outside Boundary Condition Object
    SunExposed,               !- Sun Exposure
    WindExposed,              !- Wind Exposure
    autocalculate,            !- View Factor to Ground
    autocalculate,            !- Number of Vertices
    705505.669,               !- Vertex 1 Xcoordinate
    5711197.856,              !- Vertex 1 Ycoordinate
    6,                        !- Vertex 1 Zcoordinate
    705505.669,               !- Vertex 2 Xcoordinate
    5711197.856,              !- Vertex 2 Ycoordinate
    0,                        !- Vertex 2 Zcoordinate
    705508.435,               !- Vertex 3 Xcoordinate
    5711197.845,              !- Vertex 3 Ycoordinate
    0,                        !- Vertex 3 Zcoordinate
    705508.435,               !- Vertex 4 Xcoordinate
    5711197.845,              !- Vertex 4 Ycoordinate
    6;                        !- Vertex 4 Zcoordinate

BUILDINGSURFACE:DETAILED,
    Block dde5e760db1e4c4e_0 Storey 0 Wall 0008,    !- Name
    wall,                     !- Surface Type
    EU_wall_Construction,     !- Construction Name
    dde5e760db1e4c4e_F0_dwelling_0,    !- Zone Name
    ,                         !- Space Name
    outdoors,                 !- Outside Boundary Condition
    ,                         !- Outside Boundary Condition Object
    SunExposed,               !- Sun Exposure
    WindExposed,              !- Wind Exposure
    autocalculate,            !- View Factor to Ground
    autocalculate,            !- Number of Vertices
    705508.435,               !- Vertex 1 Xcoordinate
    5711197.845,              !- Vertex 1 Ycoordinate
    6,                        !- Vertex 1 Zcoordinate
    705508.435,               !- Vertex 2 Xcoordinate
    5711197.845,              !- Vertex 2 Ycoordinate
    0,                        !- Vertex 2 Zcoordinate
    705508.528,               !- Vertex 3 Xcoordinate
    5711188.862,              !- Vertex 3 Ycoordinate
    0,                        !- Vertex 3 Zcoordinate
    705508.528,               !- Vertex 4 Xcoordinate
    5711188.862,              !- Vertex 4 Ycoordinate
    6;                        !- Vertex 4 Zcoordinate

BUILDINGSURFACE:DETAILED,
    Block dde5e760db1e4c4e_0 Storey 0 Floor 0001,    !- Name
    floor,                    !- Surface Type
    EU_floor_Construction,    !- Construction Name
    dde5e760db1e4c4e_F0_dwelling_0,    !- Zone Name
    ,                         !- Space Name
    ground,                   !- Outside Boundary Condition
    ,                         !- Outside Boundary Condition Object
    NoSun,                    !- Sun Exposure
    NoWind,                   !- Wind Exposure
    autocalculate,            !- View Factor to Ground
    autocalculate,            !- Number of Vertices
    705508.528,               !- Vertex 1 Xcoordinate
    5711188.862,              !- Vertex 1 Ycoordinate
    0,                        !- Vertex 1 Zcoordinate
    705508.435,               !- Vertex 2 Xcoordinate
    5711197.845,              !- Vertex 2 Ycoordinate
    0,                        !- Vertex 2 Zcoordinate
    705505.669,               !- Vertex 3 Xcoordinate
    5711197.856,              !- Vertex 3 Ycoordinate
    0,                        !- Vertex 3 Zcoordinate
    705505.666,               !- Vertex 4 Xcoordinate
    5711196.219,              !- Vertex 4 Ycoordinate
    0,                        !- Vertex 4 Zcoordinate
    705501.587,               !- Vertex 5 Xcoordinate
    5711196.232,              !- Vertex 5 Ycoordinate
    0,                        !- Vertex 5 Zcoordinate
    705501.23,                !- Vertex 6 Xcoordinate
    5711189.591,              !- Vertex 6 Ycoordinate
    0,                        !- Vertex 6 Zcoordinate
    705505.881,               !- Vertex 7 Xcoordinate
    5711188.332,              !- Vertex 7 Ycoordinate
    0,                        !- Vertex 7 Zcoordinate
    705506.209,               !- Vertex 8 Xcoordinate
    5711189.514,              !- Vertex 8 Ycoordinate
    0;                        !- Vertex 8 Zcoordinate

BUILDINGSURFACE:DETAILED,
    Block dde5e760db1e4c4e_0 Storey 0 Roof 0001,    !- Name
    roof,                     !- Surface Type
    EU_roof_Construction,     !- Construction Name
    dde5e760db1e4c4e_F0_dwelling_0,    !- Zone Name
    ,                         !- Space Name
    outdoors,                 !- Outside Boundary Condition
    ,                         !- Outside Boundary Condition Object
    NoSun,                    !- Sun Exposure
    WindExposed,              !- Wind Exposure
    autocalculate,            !- View Factor to Ground
    autocalculate,            !- Number of Vertices
    705508.435,               !- Vertex 1 Xcoordinate
    5711197.845,              !- Vertex 1 Ycoordinate
    6,                        !- Vertex 1 Zcoordinate
    705508.528,               !- Vertex 2 Xcoordinate
    5711188.862,              !- Vertex 2 Ycoordinate
    6,                        !- Vertex 2 Zcoordinate
    705506.209,               !- Vertex 3 Xcoordinate
    5711189.514,              !- Vertex 3 Ycoordinate
    6,                        !- Vertex 3 Zcoordinate
    705505.881,               !- Vertex 4 Xcoordinate
    5711188.332,              !- Vertex 4 Ycoordinate
    6,                        !- Vertex 4 Zcoordinate
    705501.23,                !- Vertex 5 Xcoordinate
    5711189.591,              !- Vertex 5 Ycoordinate
    6,                        !- Vertex 5 Zcoordinate
    705501.587,               !- Vertex 6 Xcoordinate
    5711196.232,              !- Vertex 6 Ycoordinate
    6,                        !- Vertex 6 Zcoordinate
    705505.666,               !- Vertex 7 Xcoordinate
    5711196.219,              !- Vertex 7 Ycoordinate
    6,                        !- Vertex 7 Zcoordinate
    705505.669,               !- Vertex 8 Xcoordinate
    5711197.856,              !- Vertex 8 Ycoordinate
    6;                        !- Vertex 8 Zcoordinate

INTERNALMASS,
    dde5e760db1e4c4e_F0_dwelling_0_EU_InternalMass,    !- Name
    EU_InternalMass_Construction,    !- Construction Name
    dde5e760db1e4c4e_F0_dwelling_0,    !- Zone or ZoneList Name
    ,                         !- Space or SpaceList Name
    55.54703849893944;        !- Surface Area

SHADING:SITE:DETAILED,
    shade_way/1061147006_1,    !- Name
    ,                         !- Transmittance Schedule Name
    autocalculate,            !- Number of Vertices
    705510.9439726615,        !- Vertex 1 Xcoordinate
    5711169.830266407,        !- Vertex 1 Ycoordinate
    6,                        !- Vertex 1 Zcoordinate
    705510.9439726615,        !- Vertex 2 Xcoordinate
    5711169.830266407,        !- Vertex 2 Ycoordinate
    0,                        !- Vertex 2 Zcoordinate
    705508.2944520736,        !- Vertex 3 Xcoordinate
    5711160.877802721,        !- Vertex 3 Ycoordinate
    0,                        !- Vertex 3 Zcoordinate
    705508.2944520736,        !- Vertex 4 Xcoordinate
    5711160.877802721,        !- Vertex 4 Ycoordinate
    6;                        !- Vertex 4 Zcoordinate

SHADING:SITE:DETAILED,
    shade_way/1061147006_2,    !- Name
    ,                         !- Transmittance Schedule Name
    autocalculate,            !- Number of Vertices
    705508.2944520736,        !- Vertex 1 Xcoordinate
    5711160.877802721,        !- Vertex 1 Ycoordinate
    6,                        !- Vertex 1 Zcoordinate
    705508.2944520736,        !- Vertex 2 Xcoordinate
    5711160.877802721,        !- Vertex 2 Ycoordinate
    0,                        !- Vertex 2 Zcoordinate
    705503.5700192164,        !- Vertex 3 Xcoordinate
    5711162.276019188,        !- Vertex 3 Ycoordinate
    0,                        !- Vertex 3 Zcoordinate
    705503.5700192164,        !- Vertex 4 Xcoordinate
    5711162.276019188,        !- Vertex 4 Ycoordinate
    6;                        !- Vertex 4 Zcoordinate

SHADING:SITE:DETAILED,
    shade_way/1061147006_3,    !- Name
    ,                         !- Transmittance Schedule Name
    autocalculate,            !- Number of Vertices
    705503.5700192164,        !- Vertex 1 Xcoordinate
    5711162.276019188,        !- Vertex 1 Ycoordinate
    6,                        !- Vertex 1 Zcoordinate
    705503.5700192164,        !- Vertex 2 Xcoordinate
    5711162.276019188,        !- Vertex 2 Ycoordinate
    0,                        !- Vertex 2 Zcoordinate
    705506.2194522456,        !- Vertex 3 Xcoordinate
    5711171.228776742,        !- Vertex 3 Ycoordinate
    0,                        !- Vertex 3 Zcoordinate
    705506.2194522456,        !- Vertex 4 Xcoordinate
    5711171.228776742,        !- Vertex 4 Ycoordinate
    6;                        !- Vertex 4 Zcoordinate

SHADING:SITE:DETAILED,
    shade_way/1061147006_4,    !- Name
    ,                         !- Transmittance Schedule Name
    autocalculate,            !- Number of Vertices
    705506.2194522456,        !- Vertex 1 Xcoordinate
    5711171.228776742,        !- Vertex 1 Ycoordinate
    6,                        !- Vertex 1 Zcoordinate
    705506.2194522456,        !- Vertex 2 Xcoordinate
    5711171.228776742,        !- Vertex 2 Ycoordinate
    0,                        !- Vertex 2 Zcoordinate
    705510.9439726615,        !- Vertex 3 Xcoordinate
    5711169.830266407,        !- Vertex 3 Ycoordinate
    0,                        !- Vertex 3 Zcoordinate
    705510.9439726615,        !- Vertex 4 Xcoordinate
    5711169.830266407,        !- Vertex 4 Ycoordinate
    6;                        !- Vertex 4 Zcoordinate

SHADING:SITE:DETAILED,
    shade_way/1061147005_1,    !- Name
    ,                         !- Transmittance Schedule Name
    autocalculate,            !- Number of Vertices
    705498.8014896337,        !- Vertex 1 Xcoordinate
    5711163.778878259,        !- Vertex 1 Ycoordinate
    6,                        !- Vertex 1 Zcoordinate
    705498.8014896337,        !- Vertex 2 Xcoordinate
    5711163.778878259,        !- Vertex 2 Ycoordinate
    0,                        !- Vertex 2 Zcoordinate
    705501.5332032534,        !- Vertex 3 Xcoordinate
    5711172.676012385,        !- Vertex 3 Ycoordinate
    0,                        !- Vertex 3 Zcoordinate
    705501.5332032534,        !- Vertex 4 Xcoordinate
    5711172.676012385,        !- Vertex 4 Ycoordinate
    6;                        !- Vertex 4 Zcoordinate

SHADING:SITE:DETAILED,
    shade_way/1061147005_2,    !- Name
    ,                         !- Transmittance Schedule Name
    autocalculate,            !- Number of Vertices
    705501.5332032534,        !- Vertex 1 Xcoordinate
    5711172.676012385,        !- Vertex 1 Ycoordinate
    6,                        !- Vertex 1 Zcoordinate
    705501.5332032534,        !- Vertex 2 Xcoordinate
    5711172.676012385,        !- Vertex 2 Ycoordinate
    0,                        !- Vertex 2 Zcoordinate
    705506.3174703693,        !- Vertex 3 Xcoordinate
    5711171.206978046,        !- Vertex 3 Ycoordinate
    0,                        !- Vertex 3 Zcoordinate
    705506.3174703693,        !- Vertex 4 Xcoordinate
    5711171.206978046,        !- Vertex 4 Ycoordinate
    6;                        !- Vertex 4 Zcoordinate

SHADING:SITE:DETAILED,
    shade_way/1061147005_3,    !- Name
    ,                         !- Transmittance Schedule Name
    autocalculate,            !- Number of Vertices
    705506.3174703693,        !- Vertex 1 Xcoordinate
    5711171.206978046,        !- Vertex 1 Ycoordinate
    6,                        !- Vertex 1 Zcoordinate
    705506.3174703693,        !- Vertex 2 Xcoordinate
    5711171.206978046,        !- Vertex 2 Ycoordinate
    0,                        !- Vertex 2 Zcoordinate
    705503.5857567495,        !- Vertex 3 Xcoordinate
    5711162.30984392,         !- Vertex 3 Ycoordinate
    0,                        !- Vertex 3 Zcoordinate
    705503.5857567495,        !- Vertex 4 Xcoordinate
    5711162.30984392,         !- Vertex 4 Ycoordinate
    6;                        !- Vertex 4 Zcoordinate

SHADING:SITE:DETAILED,
    shade_way/1061147005_4,    !- Name
    ,                         !- Transmittance Schedule Name
    autocalculate,            !- Number of Vertices
    705503.5857567495,        !- Vertex 1 Xcoordinate
    5711162.30984392,         !- Vertex 1 Ycoordinate
    6,                        !- Vertex 1 Zcoordinate
    705503.5857567495,        !- Vertex 2 Xcoordinate
    5711162.30984392,         !- Vertex 2 Ycoordinate
    0,                        !- Vertex 2 Zcoordinate
    705498.8014896337,        !- Vertex 3 Xcoordinate
    5711163.778878259,        !- Vertex 3 Ycoordinate
    0,                        !- Vertex 3 Zcoordinate
    705498.8014896337,        !- Vertex 4 Xcoordinate
    5711163.778878259,        !- Vertex 4 Ycoordinate
    6;                        !- Vertex 4 Zcoordinate

SHADING:SITE:DETAILED,
    shade_way/1061147004_1,    !- Name
    ,                         !- Transmittance Schedule Name
    autocalculate,            !- Number of Vertices
    705493.7955465685,        !- Vertex 1 Xcoordinate
    5711165.148735441,        !- Vertex 1 Ycoordinate
    6,                        !- Vertex 1 Zcoordinate
    705493.7955465685,        !- Vertex 2 Xcoordinate
    5711165.148735441,        !- Vertex 2 Ycoordinate
    0,                        !- Vertex 2 Zcoordinate
    705496.5695345432,        !- Vertex 3 Xcoordinate
    5711174.19787232,         !- Vertex 3 Ycoordinate
    0,                        !- Vertex 3 Zcoordinate
    705496.5695345432,        !- Vertex 4 Xcoordinate
    5711174.19787232,         !- Vertex 4 Ycoordinate
    6;                        !- Vertex 4 Zcoordinate

SHADING:SITE:DETAILED,
    shade_way/1061147004_2,    !- Name
    ,                         !- Transmittance Schedule Name
    autocalculate,            !- Number of Vertices
    705496.5695345432,        !- Vertex 1 Xcoordinate
    5711174.19787232,         !- Vertex 1 Ycoordinate
    6,                        !- Vertex 1 Zcoordinate
    705496.5695345432,        !- Vertex 2 Xcoordinate
    5711174.19787232,         !- Vertex 2 Ycoordinate
    0,                        !- Vertex 2 Zcoordinate
    705501.5347110064,        !- Vertex 3 Xcoordinate
    5711172.675811159,        !- Vertex 3 Ycoordinate
    0,                        !- Vertex 3 Zcoordinate
    705501.5347110064,        !- Vertex 4 Xcoordinate
    5711172.675811159,        !- Vertex 4 Ycoordinate
    6;                        !- Vertex 4 Zcoordinate

SHADING:SITE:DETAILED,
    shade_way/1061147004_3,    !- Name
    ,                         !- Transmittance Schedule Name
    autocalculate,            !- Number of Vertices
    705501.5347110064,        !- Vertex 1 Xcoordinate
    5711172.675811159,        !- Vertex 1 Ycoordinate
    6,                        !- Vertex 1 Zcoordinate
    705501.5347110064,        !- Vertex 2 Xcoordinate
    5711172.675811159,        !- Vertex 2 Ycoordinate
    0,                        !- Vertex 2 Zcoordinate
    705498.7607230317,        !- Vertex 3 Xcoordinate
    5711163.6266742805,       !- Vertex 3 Ycoordinate
    0,                        !- Vertex 3 Zcoordinate
    705498.7607230317,        !- Vertex 4 Xcoordinate
    5711163.6266742805,       !- Vertex 4 Ycoordinate
    6;                        !- Vertex 4 Zcoordinate

SHADING:SITE:DETAILED,
    shade_way/1061147004_4,    !- Name
    ,                         !- Transmittance Schedule Name
    autocalculate,            !- Number of Vertices
    705498.7607230317,        !- Vertex 1 Xcoordinate
    5711163.6266742805,       !- Vertex 1 Ycoordinate
    6,                        !- Vertex 1 Zcoordinate
    705498.7607230317,        !- Vertex 2 Xcoordinate
    5711163.6266742805,       !- Vertex 2 Ycoordinate
    0,                        !- Vertex 2 Zcoordinate
    705493.7955465685,        !- Vertex 3 Xcoordinate
    5711165.148735441,        !- Vertex 3 Ycoordinate
    0,                        !- Vertex 3 Zcoordinate
    705493.7955465685,        !- Vertex 4 Xcoordinate
    5711165.148735441,        !- Vertex 4 Ycoordinate
    6;                        !- Vertex 4 Zcoordinate

SHADING:SITE:DETAILED,
    shade_way/1061147003_1,    !- Name
    ,                         !- Transmittance Schedule Name
    autocalculate,            !- Number of Vertices
    705496.5602880009,        !- Vertex 1 Xcoordinate
    5711174.167323818,        !- Vertex 1 Ycoordinate
    6,                        !- Vertex 1 Zcoordinate
    705496.5602880009,        !- Vertex 2 Xcoordinate
    5711174.167323818,        !- Vertex 2 Ycoordinate
    0,                        !- Vertex 2 Zcoordinate
    705493.8128130015,        !- Vertex 3 Xcoordinate
    5711165.112023367,        !- Vertex 3 Ycoordinate
    0,                        !- Vertex 3 Zcoordinate
    705493.8128130015,        !- Vertex 4 Xcoordinate
    5711165.112023367,        !- Vertex 4 Ycoordinate
    6;                        !- Vertex 4 Zcoordinate

SHADING:SITE:DETAILED,
    shade_way/1061147003_2,    !- Name
    ,                         !- Transmittance Schedule Name
    autocalculate,            !- Number of Vertices
    705493.8128130015,        !- Vertex 1 Xcoordinate
    5711165.112023367,        !- Vertex 1 Ycoordinate
    6,                        !- Vertex 1 Zcoordinate
    705493.8128130015,        !- Vertex 2 Xcoordinate
    5711165.112023367,        !- Vertex 2 Ycoordinate
    0,                        !- Vertex 2 Zcoordinate
    705489.3169649491,        !- Vertex 3 Xcoordinate
    5711166.47625599,         !- Vertex 3 Ycoordinate
    0,                        !- Vertex 3 Zcoordinate
    705489.3169649491,        !- Vertex 4 Xcoordinate
    5711166.47625599,         !- Vertex 4 Ycoordinate
    6;                        !- Vertex 4 Zcoordinate

SHADING:SITE:DETAILED,
    shade_way/1061147003_3,    !- Name
    ,                         !- Transmittance Schedule Name
    autocalculate,            !- Number of Vertices
    705489.3169649491,        !- Vertex 1 Xcoordinate
    5711166.47625599,         !- Vertex 1 Ycoordinate
    6,                        !- Vertex 1 Zcoordinate
    705489.3169649491,        !- Vertex 2 Xcoordinate
    5711166.47625599,         !- Vertex 2 Ycoordinate
    0,                        !- Vertex 2 Zcoordinate
    705492.064696007,         !- Vertex 3 Xcoordinate
    5711175.531442854,        !- Vertex 3 Ycoordinate
    0,                        !- Vertex 3 Zcoordinate
    705492.064696007,         !- Vertex 4 Xcoordinate
    5711175.531442854,        !- Vertex 4 Ycoordinate
    6;                        !- Vertex 4 Zcoordinate

SHADING:SITE:DETAILED,
    shade_way/1061147003_4,    !- Name
    ,                         !- Transmittance Schedule Name
    autocalculate,            !- Number of Vertices
    705492.064696007,         !- Vertex 1 Xcoordinate
    5711175.531442854,        !- Vertex 1 Ycoordinate
    6,                        !- Vertex 1 Zcoordinate
    705492.064696007,         !- Vertex 2 Xcoordinate
    5711175.531442854,        !- Vertex 2 Ycoordinate
    0,                        !- Vertex 2 Zcoordinate
    705496.5602880009,        !- Vertex 3 Xcoordinate
    5711174.167323818,        !- Vertex 3 Ycoordinate
    0,                        !- Vertex 3 Zcoordinate
    705496.5602880009,        !- Vertex 4 Xcoordinate
    5711174.167323818,        !- Vertex 4 Ycoordinate
    6;                        !- Vertex 4 Zcoordinate

SHADING:SITE:DETAILED,
    shade_way/1061147002_1,    !- Name
    ,                         !- Transmittance Schedule Name
    autocalculate,            !- Number of Vertices
    705492.1131997459,        !- Vertex 1 Xcoordinate
    5711175.518482325,        !- Vertex 1 Ycoordinate
    6,                        !- Vertex 1 Zcoordinate
    705492.1131997459,        !- Vertex 2 Xcoordinate
    5711175.518482325,        !- Vertex 2 Ycoordinate
    0,                        !- Vertex 2 Zcoordinate
    705489.2628677358,        !- Vertex 3 Xcoordinate
    5711166.393760302,        !- Vertex 3 Ycoordinate
    0,                        !- Vertex 3 Zcoordinate
    705489.2628677358,        !- Vertex 4 Xcoordinate
    5711166.393760302,        !- Vertex 4 Ycoordinate
    6;                        !- Vertex 4 Zcoordinate

SHADING:SITE:DETAILED,
    shade_way/1061147002_2,    !- Name
    ,                         !- Transmittance Schedule Name
    autocalculate,            !- Number of Vertices
    705489.2628677358,        !- Vertex 1 Xcoordinate
    5711166.393760302,        !- Vertex 1 Ycoordinate
    6,                        !- Vertex 1 Zcoordinate
    705489.2628677358,        !- Vertex 2 Xcoordinate
    5711166.393760302,        !- Vertex 2 Ycoordinate
    0,                        !- Vertex 2 Zcoordinate
    705484.7034968438,        !- Vertex 3 Xcoordinate
    5711167.817992271,        !- Vertex 3 Ycoordinate
    0,                        !- Vertex 3 Zcoordinate
    705484.7034968438,        !- Vertex 4 Xcoordinate
    5711167.817992271,        !- Vertex 4 Ycoordinate
    6;                        !- Vertex 4 Zcoordinate

SHADING:SITE:DETAILED,
    shade_way/1061147002_3,    !- Name
    ,                         !- Transmittance Schedule Name
    autocalculate,            !- Number of Vertices
    705484.7034968438,        !- Vertex 1 Xcoordinate
    5711167.817992271,        !- Vertex 1 Ycoordinate
    6,                        !- Vertex 1 Zcoordinate
    705484.7034968438,        !- Vertex 2 Xcoordinate
    5711167.817992271,        !- Vertex 2 Ycoordinate
    0,                        !- Vertex 2 Zcoordinate
    705487.5539325947,        !- Vertex 3 Xcoordinate
    5711176.943008962,        !- Vertex 3 Ycoordinate
    0,                        !- Vertex 3 Zcoordinate
    705487.5539325947,        !- Vertex 4 Xcoordinate
    5711176.943008962,        !- Vertex 4 Ycoordinate
    6;                        !- Vertex 4 Zcoordinate

SHADING:SITE:DETAILED,
    shade_way/1061147002_4,    !- Name
    ,                         !- Transmittance Schedule Name
    autocalculate,            !- Number of Vertices
    705487.5539325947,        !- Vertex 1 Xcoordinate
    5711176.943008962,        !- Vertex 1 Ycoordinate
    6,                        !- Vertex 1 Zcoordinate
    705487.5539325947,        !- Vertex 2 Xcoordinate
    5711176.943008962,        !- Vertex 2 Ycoordinate
    0,                        !- Vertex 2 Zcoordinate
    705492.1131997459,        !- Vertex 3 Xcoordinate
    5711175.518482325,        !- Vertex 3 Ycoordinate
    0,                        !- Vertex 3 Zcoordinate
    705492.1131997459,        !- Vertex 4 Xcoordinate
    5711175.518482325,        !- Vertex 4 Ycoordinate
    6;                        !- Vertex 4 Zcoordinate

SHADING:SITE:DETAILED,
    shade_way/1061147001_1,    !- Name
    ,                         !- Transmittance Schedule Name
    autocalculate,            !- Number of Vertices
    705480.0926637361,        !- Vertex 1 Xcoordinate
    5711169.156968092,        !- Vertex 1 Ycoordinate
    6,                        !- Vertex 1 Zcoordinate
    705480.0926637361,        !- Vertex 2 Xcoordinate
    5711169.156968092,        !- Vertex 2 Ycoordinate
    0,                        !- Vertex 2 Zcoordinate
    705482.7870981935,        !- Vertex 3 Xcoordinate
    5711178.341594772,        !- Vertex 3 Ycoordinate
    0,                        !- Vertex 3 Zcoordinate
    705482.7870981935,        !- Vertex 4 Xcoordinate
    5711178.341594772,        !- Vertex 4 Ycoordinate
    6;                        !- Vertex 4 Zcoordinate

SHADING:SITE:DETAILED,
    shade_way/1061147001_2,    !- Name
    ,                         !- Transmittance Schedule Name
    autocalculate,            !- Number of Vertices
    705482.7870981935,        !- Vertex 1 Xcoordinate
    5711178.341594772,        !- Vertex 1 Ycoordinate
    6,                        !- Vertex 1 Zcoordinate
    705482.7870981935,        !- Vertex 2 Xcoordinate
    5711178.341594772,        !- Vertex 2 Ycoordinate
    0,                        !- Vertex 2 Zcoordinate
    705487.5676172301,        !- Vertex 3 Xcoordinate
    5711176.939164859,        !- Vertex 3 Ycoordinate
    0,                        !- Vertex 3 Zcoordinate
    705487.5676172301,        !- Vertex 4 Xcoordinate
    5711176.939164859,        !- Vertex 4 Ycoordinate
    6;                        !- Vertex 4 Zcoordinate

SHADING:SITE:DETAILED,
    shade_way/1061147001_3,    !- Name
    ,                         !- Transmittance Schedule Name
    autocalculate,            !- Number of Vertices
    705487.5676172301,        !- Vertex 1 Xcoordinate
    5711176.939164859,        !- Vertex 1 Ycoordinate
    6,                        !- Vertex 1 Zcoordinate
    705487.5676172301,        !- Vertex 2 Xcoordinate
    5711176.939164859,        !- Vertex 2 Ycoordinate
    0,                        !- Vertex 2 Zcoordinate
    705484.8731827727,        !- Vertex 3 Xcoordinate
    5711167.7545381775,       !- Vertex 3 Ycoordinate
    0,                        !- Vertex 3 Zcoordinate
    705484.8731827727,        !- Vertex 4 Xcoordinate
    5711167.7545381775,       !- Vertex 4 Ycoordinate
    6;                        !- Vertex 4 Zcoordinate

SHADING:SITE:DETAILED,
    shade_way/1061147001_4,    !- Name
    ,                         !- Transmittance Schedule Name
    autocalculate,            !- Number of Vertices
    705484.8731827727,        !- Vertex 1 Xcoordinate
    5711167.7545381775,       !- Vertex 1 Ycoordinate
    6,                        !- Vertex 1 Zcoordinate
    705484.8731827727,        !- Vertex 2 Xcoordinate
    5711167.7545381775,       !- Vertex 2 Ycoordinate
    0,                        !- Vertex 2 Zcoordinate
    705480.0926637361,        !- Vertex 3 Xcoordinate
    5711169.156968092,        !- Vertex 3 Ycoordinate
    0,                        !- Vertex 3 Zcoordinate
    705480.0926637361,        !- Vertex 4 Xcoordinate
    5711169.156968092,        !- Vertex 4 Ycoordinate
    6;                        !- Vertex 4 Zcoordinate

SHADING:SITE:DETAILED,
    shade_way/1055232808_1,    !- Name
    ,                         !- Transmittance Schedule Name
    autocalculate,            !- Number of Vertices
    705493.6718174244,        !- Vertex 1 Xcoordinate
    5711189.8675496,          !- Vertex 1 Ycoordinate
    6,                        !- Vertex 1 Zcoordinate
    705493.6718174244,        !- Vertex 2 Xcoordinate
    5711189.8675496,          !- Vertex 2 Ycoordinate
    0,                        !- Vertex 2 Zcoordinate
    705494.0687579621,        !- Vertex 3 Xcoordinate
    5711200.704814209,        !- Vertex 3 Ycoordinate
    0,                        !- Vertex 3 Zcoordinate
    705494.0687579621,        !- Vertex 4 Xcoordinate
    5711200.704814209,        !- Vertex 4 Ycoordinate
    6;                        !- Vertex 4 Zcoordinate

SHADING:SITE:DETAILED,
    shade_way/1055232808_2,    !- Name
    ,                         !- Transmittance Schedule Name
    autocalculate,            !- Number of Vertices
    705494.0687579621,        !- Vertex 1 Xcoordinate
    5711200.704814209,        !- Vertex 1 Ycoordinate
    6,                        !- Vertex 1 Zcoordinate
    705494.0687579621,        !- Vertex 2 Xcoordinate
    5711200.704814209,        !- Vertex 2 Ycoordinate
    0,                        !- Vertex 2 Zcoordinate
    705501.7504293867,        !- Vertex 3 Xcoordinate
    5711200.42345476,         !- Vertex 3 Ycoordinate
    0,                        !- Vertex 3 Zcoordinate
    705501.7504293867,        !- Vertex 4 Xcoordinate
    5711200.42345476,         !- Vertex 4 Ycoordinate
    6;                        !- Vertex 4 Zcoordinate

SHADING:SITE:DETAILED,
    shade_way/1055232808_3,    !- Name
    ,                         !- Transmittance Schedule Name
    autocalculate,            !- Number of Vertices
    705501.7504293867,        !- Vertex 1 Xcoordinate
    5711200.42345476,         !- Vertex 1 Ycoordinate
    6,                        !- Vertex 1 Zcoordinate
    705501.7504293867,        !- Vertex 2 Xcoordinate
    5711200.42345476,         !- Vertex 2 Ycoordinate
    0,                        !- Vertex 2 Zcoordinate
    705501.353488849,         !- Vertex 3 Xcoordinate
    5711189.58619015,         !- Vertex 3 Ycoordinate
    0,                        !- Vertex 3 Zcoordinate
    705501.353488849,         !- Vertex 4 Xcoordinate
    5711189.58619015,         !- Vertex 4 Ycoordinate
    6;                        !- Vertex 4 Zcoordinate

SHADING:SITE:DETAILED,
    shade_way/1055232808_4,    !- Name
    ,                         !- Transmittance Schedule Name
    autocalculate,            !- Number of Vertices
    705501.353488849,         !- Vertex 1 Xcoordinate
    5711189.58619015,         !- Vertex 1 Ycoordinate
    6,                        !- Vertex 1 Zcoordinate
    705501.353488849,         !- Vertex 2 Xcoordinate
    5711189.58619015,         !- Vertex 2 Ycoordinate
    0,                        !- Vertex 2 Zcoordinate
    705493.6718174244,        !- Vertex 3 Xcoordinate
    5711189.8675496,          !- Vertex 3 Ycoordinate
    0,                        !- Vertex 3 Zcoordinate
    705493.6718174244,        !- Vertex 4 Xcoordinate
    5711189.8675496,          !- Vertex 4 Ycoordinate
    6;                        !- Vertex 4 Zcoordinate

SHADING:SITE:DETAILED,
    shade_way/1055232807_1,    !- Name
    ,                         !- Transmittance Schedule Name
    autocalculate,            !- Number of Vertices
    705489.1384870711,        !- Vertex 1 Xcoordinate
    5711200.907235196,        !- Vertex 1 Ycoordinate
    6,                        !- Vertex 1 Zcoordinate
    705489.1384870711,        !- Vertex 2 Xcoordinate
    5711200.907235196,        !- Vertex 2 Ycoordinate
    0,                        !- Vertex 2 Zcoordinate
    705495.7086539852,        !- Vertex 3 Xcoordinate
    5711198.92395815,         !- Vertex 3 Ycoordinate
    0,                        !- Vertex 3 Zcoordinate
    705495.7086539852,        !- Vertex 4 Xcoordinate
    5711198.92395815,         !- Vertex 4 Ycoordinate
    6;                        !- Vertex 4 Zcoordinate

SHADING:SITE:DETAILED,
    shade_way/1055232807_2,    !- Name
    ,                         !- Transmittance Schedule Name
    autocalculate,            !- Number of Vertices
    705495.7086539852,        !- Vertex 1 Xcoordinate
    5711198.92395815,         !- Vertex 1 Ycoordinate
    6,                        !- Vertex 1 Zcoordinate
    705495.7086539852,        !- Vertex 2 Xcoordinate
    5711198.92395815,         !- Vertex 2 Ycoordinate
    0,                        !- Vertex 2 Zcoordinate
    705493.6764521613,        !- Vertex 3 Xcoordinate
    5711192.191714056,        !- Vertex 3 Ycoordinate
    0,                        !- Vertex 3 Zcoordinate
    705493.6764521613,        !- Vertex 4 Xcoordinate
    5711192.191714056,        !- Vertex 4 Ycoordinate
    6;                        !- Vertex 4 Zcoordinate

SHADING:SITE:DETAILED,
    shade_way/1055232807_3,    !- Name
    ,                         !- Transmittance Schedule Name
    autocalculate,            !- Number of Vertices
    705493.6764521613,        !- Vertex 1 Xcoordinate
    5711192.191714056,        !- Vertex 1 Ycoordinate
    6,                        !- Vertex 1 Zcoordinate
    705493.6764521613,        !- Vertex 2 Xcoordinate
    5711192.191714056,        !- Vertex 2 Ycoordinate
    0,                        !- Vertex 2 Zcoordinate
    705487.1062339239,        !- Vertex 3 Xcoordinate
    5711194.17492847,         !- Vertex 3 Ycoordinate
    0,                        !- Vertex 3 Zcoordinate
    705487.1062339239,        !- Vertex 4 Xcoordinate
    5711194.17492847,         !- Vertex 4 Ycoordinate
    6;                        !- Vertex 4 Zcoordinate

SHADING:SITE:DETAILED,
    shade_way/1055232807_4,    !- Name
    ,                         !- Transmittance Schedule Name
    autocalculate,            !- Number of Vertices
    705487.1062339239,        !- Vertex 1 Xcoordinate
    5711194.17492847,         !- Vertex 1 Ycoordinate
    6,                        !- Vertex 1 Zcoordinate
    705487.1062339239,        !- Vertex 2 Xcoordinate
    5711194.17492847,         !- Vertex 2 Ycoordinate
    0,                        !- Vertex 2 Zcoordinate
    705489.1384870711,        !- Vertex 3 Xcoordinate
    5711200.907235196,        !- Vertex 3 Ycoordinate
    0,                        !- Vertex 3 Zcoordinate
    705489.1384870711,        !- Vertex 4 Xcoordinate
    5711200.907235196,        !- Vertex 4 Ycoordinate
    6;                        !- Vertex 4 Zcoordinate

SHADING:SITE:DETAILED,
    shade_way/397131466_1,    !- Name
    ,                         !- Transmittance Schedule Name
    autocalculate,            !- Number of Vertices
    705530.897990452,         !- Vertex 1 Xcoordinate
    5711188.180710815,        !- Vertex 1 Ycoordinate
    6,                        !- Vertex 1 Zcoordinate
    705530.897990452,         !- Vertex 2 Xcoordinate
    5711188.180710815,        !- Vertex 2 Ycoordinate
    0,                        !- Vertex 2 Zcoordinate
    705528.7818057816,        !- Vertex 3 Xcoordinate
    5711180.127308285,        !- Vertex 3 Ycoordinate
    0,                        !- Vertex 3 Zcoordinate
    705528.7818057816,        !- Vertex 4 Xcoordinate
    5711180.127308285,        !- Vertex 4 Ycoordinate
    6;                        !- Vertex 4 Zcoordinate

SHADING:SITE:DETAILED,
    shade_way/397131466_2,    !- Name
    ,                         !- Transmittance Schedule Name
    autocalculate,            !- Number of Vertices
    705528.7818057816,        !- Vertex 1 Xcoordinate
    5711180.127308285,        !- Vertex 1 Ycoordinate
    6,                        !- Vertex 1 Zcoordinate
    705528.7818057816,        !- Vertex 2 Xcoordinate
    5711180.127308285,        !- Vertex 2 Ycoordinate
    0,                        !- Vertex 2 Zcoordinate
    705523.5110053623,        !- Vertex 3 Xcoordinate
    5711181.512473313,        !- Vertex 3 Ycoordinate
    0,                        !- Vertex 3 Zcoordinate
    705523.5110053623,        !- Vertex 4 Xcoordinate
    5711181.512473313,        !- Vertex 4 Ycoordinate
    6;                        !- Vertex 4 Zcoordinate

SHADING:SITE:DETAILED,
    shade_way/397131466_3,    !- Name
    ,                         !- Transmittance Schedule Name
    autocalculate,            !- Number of Vertices
    705523.5110053623,        !- Vertex 1 Xcoordinate
    5711181.512473313,        !- Vertex 1 Ycoordinate
    6,                        !- Vertex 1 Zcoordinate
    705523.5110053623,        !- Vertex 2 Xcoordinate
    5711181.512473313,        !- Vertex 2 Ycoordinate
    0,                        !- Vertex 2 Zcoordinate
    705525.6271039583,        !- Vertex 3 Xcoordinate
    5711189.56557065,         !- Vertex 3 Ycoordinate
    0,                        !- Vertex 3 Zcoordinate
    705525.6271039583,        !- Vertex 4 Xcoordinate
    5711189.56557065,         !- Vertex 4 Ycoordinate
    6;                        !- Vertex 4 Zcoordinate

SHADING:SITE:DETAILED,
    shade_way/397131466_4,    !- Name
    ,                         !- Transmittance Schedule Name
    autocalculate,            !- Number of Vertices
    705525.6271039583,        !- Vertex 1 Xcoordinate
    5711189.56557065,         !- Vertex 1 Ycoordinate
    6,                        !- Vertex 1 Zcoordinate
    705525.6271039583,        !- Vertex 2 Xcoordinate
    5711189.56557065,         !- Vertex 2 Ycoordinate
    0,                        !- Vertex 2 Zcoordinate
    705530.897990452,         !- Vertex 3 Xcoordinate
    5711188.180710815,        !- Vertex 3 Ycoordinate
    0,                        !- Vertex 3 Zcoordinate
    705530.897990452,         !- Vertex 4 Xcoordinate
    5711188.180710815,        !- Vertex 4 Ycoordinate
    6;                        !- Vertex 4 Zcoordinate

SHADING:SITE:DETAILED,
    shade_way/397131465_1,    !- Name
    ,                         !- Transmittance Schedule Name
    autocalculate,            !- Number of Vertices
    705518.1828059069,        !- Vertex 1 Xcoordinate
    5711181.564180611,        !- Vertex 1 Ycoordinate
    9,                        !- Vertex 1 Zcoordinate
    705518.1828059069,        !- Vertex 2 Xcoordinate
    5711181.564180611,        !- Vertex 2 Ycoordinate
    0,                        !- Vertex 2 Zcoordinate
    705517.8880626556,        !- Vertex 3 Xcoordinate
    5711195.5479774615,       !- Vertex 3 Ycoordinate
    0,                        !- Vertex 3 Zcoordinate
    705517.8880626556,        !- Vertex 4 Xcoordinate
    5711195.5479774615,       !- Vertex 4 Ycoordinate
    9;                        !- Vertex 4 Zcoordinate

SHADING:SITE:DETAILED,
    shade_way/397131465_2,    !- Name
    ,                         !- Transmittance Schedule Name
    autocalculate,            !- Number of Vertices
    705517.8880626556,        !- Vertex 1 Xcoordinate
    5711195.5479774615,       !- Vertex 1 Ycoordinate
    9,                        !- Vertex 1 Zcoordinate
    705517.8880626556,        !- Vertex 2 Xcoordinate
    5711195.5479774615,       !- Vertex 2 Ycoordinate
    0,                        !- Vertex 2 Zcoordinate
    705525.8412291975,        !- Vertex 3 Xcoordinate
    5711195.7156102015,       !- Vertex 3 Ycoordinate
    0,                        !- Vertex 3 Zcoordinate
    705525.8412291975,        !- Vertex 4 Xcoordinate
    5711195.7156102015,       !- Vertex 4 Ycoordinate
    9;                        !- Vertex 4 Zcoordinate

SHADING:SITE:DETAILED,
    shade_way/397131465_3,    !- Name
    ,                         !- Transmittance Schedule Name
    autocalculate,            !- Number of Vertices
    705525.8412291975,        !- Vertex 1 Xcoordinate
    5711195.7156102015,       !- Vertex 1 Ycoordinate
    9,                        !- Vertex 1 Zcoordinate
    705525.8412291975,        !- Vertex 2 Xcoordinate
    5711195.7156102015,       !- Vertex 2 Ycoordinate
    0,                        !- Vertex 2 Zcoordinate
    705526.1359724487,        !- Vertex 3 Xcoordinate
    5711181.731813351,        !- Vertex 3 Ycoordinate
    0,                        !- Vertex 3 Zcoordinate
    705526.1359724487,        !- Vertex 4 Xcoordinate
    5711181.731813351,        !- Vertex 4 Ycoordinate
    9;                        !- Vertex 4 Zcoordinate

SHADING:SITE:DETAILED,
    shade_way/397131465_4,    !- Name
    ,                         !- Transmittance Schedule Name
    autocalculate,            !- Number of Vertices
    705526.1359724487,        !- Vertex 1 Xcoordinate
    5711181.731813351,        !- Vertex 1 Ycoordinate
    9,                        !- Vertex 1 Zcoordinate
    705526.1359724487,        !- Vertex 2 Xcoordinate
    5711181.731813351,        !- Vertex 2 Ycoordinate
    0,                        !- Vertex 2 Zcoordinate
    705518.1828059069,        !- Vertex 3 Xcoordinate
    5711181.564180611,        !- Vertex 3 Ycoordinate
    0,                        !- Vertex 3 Zcoordinate
    705518.1828059069,        !- Vertex 4 Xcoordinate
    5711181.564180611,        !- Vertex 4 Ycoordinate
    9;                        !- Vertex 4 Zcoordinate

SHADING:SITE:DETAILED,
    shade_way/1055232806_1,    !- Name
    ,                         !- Transmittance Schedule Name
    autocalculate,            !- Number of Vertices
    705486.2396959827,        !- Vertex 1 Xcoordinate
    5711207.217965466,        !- Vertex 1 Ycoordinate
    6,                        !- Vertex 1 Zcoordinate
    705486.2396959827,        !- Vertex 2 Xcoordinate
    5711207.217965466,        !- Vertex 2 Ycoordinate
    0,                        !- Vertex 2 Zcoordinate
    705490.7098769598,        !- Vertex 3 Xcoordinate
    5711205.836575471,        !- Vertex 3 Ycoordinate
    0,                        !- Vertex 3 Zcoordinate
    705490.7098769598,        !- Vertex 4 Xcoordinate
    5711205.836575471,        !- Vertex 4 Ycoordinate
    6;                        !- Vertex 4 Zcoordinate

SHADING:SITE:DETAILED,
    shade_way/1055232806_2,    !- Name
    ,                         !- Transmittance Schedule Name
    autocalculate,            !- Number of Vertices
    705490.7098769598,        !- Vertex 1 Xcoordinate
    5711205.836575471,        !- Vertex 1 Ycoordinate
    6,                        !- Vertex 1 Zcoordinate
    705490.7098769598,        !- Vertex 2 Xcoordinate
    5711205.836575471,        !- Vertex 2 Ycoordinate
    0,                        !- Vertex 2 Zcoordinate
    705487.0772402773,        !- Vertex 3 Xcoordinate
    5711194.081355398,        !- Vertex 3 Ycoordinate
    0,                        !- Vertex 3 Zcoordinate
    705487.0772402773,        !- Vertex 4 Xcoordinate
    5711194.081355398,        !- Vertex 4 Ycoordinate
    6;                        !- Vertex 4 Zcoordinate

SHADING:SITE:DETAILED,
    shade_way/1055232806_3,    !- Name
    ,                         !- Transmittance Schedule Name
    autocalculate,            !- Number of Vertices
    705487.0772402773,        !- Vertex 1 Xcoordinate
    5711194.081355398,        !- Vertex 1 Ycoordinate
    6,                        !- Vertex 1 Zcoordinate
    705487.0772402773,        !- Vertex 2 Xcoordinate
    5711194.081355398,        !- Vertex 2 Ycoordinate
    0,                        !- Vertex 2 Zcoordinate
    705482.607127246,         !- Vertex 3 Xcoordinate
    5711195.462714835,        !- Vertex 3 Ycoordinate
    0,                        !- Vertex 3 Zcoordinate
    705482.607127246,         !- Vertex 4 Xcoordinate
    5711195.462714835,        !- Vertex 4 Ycoordinate
    6;                        !- Vertex 4 Zcoordinate

SHADING:SITE:DETAILED,
    shade_way/1055232806_4,    !- Name
    ,                         !- Transmittance Schedule Name
    autocalculate,            !- Number of Vertices
    705482.607127246,         !- Vertex 1 Xcoordinate
    5711195.462714835,        !- Vertex 1 Ycoordinate
    6,                        !- Vertex 1 Zcoordinate
    705482.607127246,         !- Vertex 2 Xcoordinate
    5711195.462714835,        !- Vertex 2 Ycoordinate
    0,                        !- Vertex 2 Zcoordinate
    705486.2396959827,        !- Vertex 3 Xcoordinate
    5711207.217965466,        !- Vertex 3 Ycoordinate
    0,                        !- Vertex 3 Zcoordinate
    705486.2396959827,        !- Vertex 4 Xcoordinate
    5711207.217965466,        !- Vertex 4 Ycoordinate
    6;                        !- Vertex 4 Zcoordinate

SHADING:SITE:DETAILED,
    shade_way/1055232805_1,    !- Name
    ,                         !- Transmittance Schedule Name
    autocalculate,            !- Number of Vertices
    705481.6653702882,        !- Vertex 1 Xcoordinate
    5711208.641568547,        !- Vertex 1 Ycoordinate
    6,                        !- Vertex 1 Zcoordinate
    705481.6653702882,        !- Vertex 2 Xcoordinate
    5711208.641568547,        !- Vertex 2 Ycoordinate
    0,                        !- Vertex 2 Zcoordinate
    705486.2628162656,        !- Vertex 3 Xcoordinate
    5711207.210959683,        !- Vertex 3 Ycoordinate
    0,                        !- Vertex 3 Zcoordinate
    705486.2628162656,        !- Vertex 4 Xcoordinate
    5711207.210959683,        !- Vertex 4 Ycoordinate
    6;                        !- Vertex 4 Zcoordinate

SHADING:SITE:DETAILED,
    shade_way/1055232805_2,    !- Name
    ,                         !- Transmittance Schedule Name
    autocalculate,            !- Number of Vertices
    705486.2628162656,        !- Vertex 1 Xcoordinate
    5711207.210959683,        !- Vertex 1 Ycoordinate
    6,                        !- Vertex 1 Zcoordinate
    705486.2628162656,        !- Vertex 2 Xcoordinate
    5711207.210959683,        !- Vertex 2 Ycoordinate
    0,                        !- Vertex 2 Zcoordinate
    705482.607127246,         !- Vertex 3 Xcoordinate
    5711195.462714835,        !- Vertex 3 Ycoordinate
    0,                        !- Vertex 3 Zcoordinate
    705482.607127246,         !- Vertex 4 Xcoordinate
    5711195.462714835,        !- Vertex 4 Ycoordinate
    6;                        !- Vertex 4 Zcoordinate

SHADING:SITE:DETAILED,
    shade_way/1055232805_3,    !- Name
    ,                         !- Transmittance Schedule Name
    autocalculate,            !- Number of Vertices
    705482.607127246,         !- Vertex 1 Xcoordinate
    5711195.462714835,        !- Vertex 1 Ycoordinate
    6,                        !- Vertex 1 Zcoordinate
    705482.607127246,         !- Vertex 2 Xcoordinate
    5711195.462714835,        !- Vertex 2 Ycoordinate
    0,                        !- Vertex 2 Zcoordinate
    705478.0096686694,        !- Vertex 3 Xcoordinate
    5711196.89350022,         !- Vertex 3 Ycoordinate
    0,                        !- Vertex 3 Zcoordinate
    705478.0096686694,        !- Vertex 4 Xcoordinate
    5711196.89350022,         !- Vertex 4 Ycoordinate
    6;                        !- Vertex 4 Zcoordinate

SHADING:SITE:DETAILED,
    shade_way/1055232805_4,    !- Name
    ,                         !- Transmittance Schedule Name
    autocalculate,            !- Number of Vertices
    705478.0096686694,        !- Vertex 1 Xcoordinate
    5711196.89350022,         !- Vertex 1 Ycoordinate
    6,                        !- Vertex 1 Zcoordinate
    705478.0096686694,        !- Vertex 2 Xcoordinate
    5711196.89350022,         !- Vertex 2 Ycoordinate
    0,                        !- Vertex 2 Zcoordinate
    705481.6653702882,        !- Vertex 3 Xcoordinate
    5711208.641568547,        !- Vertex 3 Ycoordinate
    0,                        !- Vertex 3 Zcoordinate
    705481.6653702882,        !- Vertex 4 Xcoordinate
    5711208.641568547,        !- Vertex 4 Ycoordinate
    6;                        !- Vertex 4 Zcoordinate

SHADING:SITE:DETAILED,
    shade_way/635993716_1,    !- Name
    ,                         !- Transmittance Schedule Name
    autocalculate,            !- Number of Vertices
    705476.2252885087,        !- Vertex 1 Xcoordinate
    5711215.850980711,        !- Vertex 1 Ycoordinate
    6,                        !- Vertex 1 Zcoordinate
    705476.2252885087,        !- Vertex 2 Xcoordinate
    5711215.850980711,        !- Vertex 2 Ycoordinate
    0,                        !- Vertex 2 Zcoordinate
    705491.2361206709,        !- Vertex 3 Xcoordinate
    5711216.759449919,        !- Vertex 3 Ycoordinate
    0,                        !- Vertex 3 Zcoordinate
    705491.2361206709,        !- Vertex 4 Xcoordinate
    5711216.759449919,        !- Vertex 4 Ycoordinate
    6;                        !- Vertex 4 Zcoordinate

SHADING:SITE:DETAILED,
    shade_way/635993716_2,    !- Name
    ,                         !- Transmittance Schedule Name
    autocalculate,            !- Number of Vertices
    705491.2361206709,        !- Vertex 1 Xcoordinate
    5711216.759449919,        !- Vertex 1 Ycoordinate
    6,                        !- Vertex 1 Zcoordinate
    705491.2361206709,        !- Vertex 2 Xcoordinate
    5711216.759449919,        !- Vertex 2 Ycoordinate
    0,                        !- Vertex 2 Zcoordinate
    705491.5217430871,        !- Vertex 3 Xcoordinate
    5711212.037917594,        !- Vertex 3 Ycoordinate
    0,                        !- Vertex 3 Zcoordinate
    705491.5217430871,        !- Vertex 4 Xcoordinate
    5711212.037917594,        !- Vertex 4 Ycoordinate
    6;                        !- Vertex 4 Zcoordinate

SHADING:SITE:DETAILED,
    shade_way/635993716_3,    !- Name
    ,                         !- Transmittance Schedule Name
    autocalculate,            !- Number of Vertices
    705491.5217430871,        !- Vertex 1 Xcoordinate
    5711212.037917594,        !- Vertex 1 Ycoordinate
    6,                        !- Vertex 1 Zcoordinate
    705491.5217430871,        !- Vertex 2 Xcoordinate
    5711212.037917594,        !- Vertex 2 Ycoordinate
    0,                        !- Vertex 2 Zcoordinate
    705476.5111095277,        !- Vertex 3 Xcoordinate
    5711211.1292729275,       !- Vertex 3 Ycoordinate
    0,                        !- Vertex 3 Zcoordinate
    705476.5111095277,        !- Vertex 4 Xcoordinate
    5711211.1292729275,       !- Vertex 4 Ycoordinate
    6;                        !- Vertex 4 Zcoordinate

SHADING:SITE:DETAILED,
    shade_way/635993716_4,    !- Name
    ,                         !- Transmittance Schedule Name
    autocalculate,            !- Number of Vertices
    705476.5111095277,        !- Vertex 1 Xcoordinate
    5711211.1292729275,       !- Vertex 1 Ycoordinate
    6,                        !- Vertex 1 Zcoordinate
    705476.5111095277,        !- Vertex 2 Xcoordinate
    5711211.1292729275,       !- Vertex 2 Ycoordinate
    0,                        !- Vertex 2 Zcoordinate
    705476.2252885087,        !- Vertex 3 Xcoordinate
    5711215.850980711,        !- Vertex 3 Ycoordinate
    0,                        !- Vertex 3 Zcoordinate
    705476.2252885087,        !- Vertex 4 Xcoordinate
    5711215.850980711,        !- Vertex 4 Ycoordinate
    6;                        !- Vertex 4 Zcoordinate

SHADING:SITE:DETAILED,
    shade_way/694412122_1,    !- Name
    ,                         !- Transmittance Schedule Name
    autocalculate,            !- Number of Vertices
    705506.9831454509,        !- Vertex 1 Xcoordinate
    5711213.276786098,        !- Vertex 1 Ycoordinate
    6,                        !- Vertex 1 Zcoordinate
    705506.9831454509,        !- Vertex 2 Xcoordinate
    5711213.276786098,        !- Vertex 2 Ycoordinate
    0,                        !- Vertex 2 Zcoordinate
    705501.8558259805,        !- Vertex 3 Xcoordinate
    5711213.091398635,        !- Vertex 3 Ycoordinate
    0,                        !- Vertex 3 Zcoordinate
    705501.8558259805,        !- Vertex 4 Xcoordinate
    5711213.091398635,        !- Vertex 4 Ycoordinate
    6;                        !- Vertex 4 Zcoordinate

SHADING:SITE:DETAILED,
    shade_way/694412122_2,    !- Name
    ,                         !- Transmittance Schedule Name
    autocalculate,            !- Number of Vertices
    705501.8558259805,        !- Vertex 1 Xcoordinate
    5711213.091398635,        !- Vertex 1 Ycoordinate
    6,                        !- Vertex 1 Zcoordinate
    705501.8558259805,        !- Vertex 2 Xcoordinate
    5711213.091398635,        !- Vertex 2 Ycoordinate
    0,                        !- Vertex 2 Zcoordinate
    705501.5011070546,        !- Vertex 3 Xcoordinate
    5711222.899163716,        !- Vertex 3 Ycoordinate
    0,                        !- Vertex 3 Zcoordinate
    705501.5011070546,        !- Vertex 4 Xcoordinate
    5711222.899163716,        !- Vertex 4 Ycoordinate
    6;                        !- Vertex 4 Zcoordinate

SHADING:SITE:DETAILED,
    shade_way/694412122_3,    !- Name
    ,                         !- Transmittance Schedule Name
    autocalculate,            !- Number of Vertices
    705501.5011070546,        !- Vertex 1 Xcoordinate
    5711222.899163716,        !- Vertex 1 Ycoordinate
    6,                        !- Vertex 1 Zcoordinate
    705501.5011070546,        !- Vertex 2 Xcoordinate
    5711222.899163716,        !- Vertex 2 Ycoordinate
    0,                        !- Vertex 2 Zcoordinate
    705506.6284265252,        !- Vertex 3 Xcoordinate
    5711223.084551179,        !- Vertex 3 Ycoordinate
    0,                        !- Vertex 3 Zcoordinate
    705506.6284265252,        !- Vertex 4 Xcoordinate
    5711223.084551179,        !- Vertex 4 Ycoordinate
    6;                        !- Vertex 4 Zcoordinate

SHADING:SITE:DETAILED,
    shade_way/694412122_4,    !- Name
    ,                         !- Transmittance Schedule Name
    autocalculate,            !- Number of Vertices
    705506.6284265252,        !- Vertex 1 Xcoordinate
    5711223.084551179,        !- Vertex 1 Ycoordinate
    6,                        !- Vertex 1 Zcoordinate
    705506.6284265252,        !- Vertex 2 Xcoordinate
    5711223.084551179,        !- Vertex 2 Ycoordinate
    0,                        !- Vertex 2 Zcoordinate
    705506.9831454509,        !- Vertex 3 Xcoordinate
    5711213.276786098,        !- Vertex 3 Ycoordinate
    0,                        !- Vertex 3 Zcoordinate
    705506.9831454509,        !- Vertex 4 Xcoordinate
    5711213.276786098,        !- Vertex 4 Ycoordinate
    6;                        !- Vertex 4 Zcoordinate

SHADING:SITE:DETAILED,
    shade_way/1055232810_1,    !- Name
    ,                         !- Transmittance Schedule Name
    autocalculate,            !- Number of Vertices
    705511.8858196284,        !- Vertex 1 Xcoordinate
    5711223.297528176,        !- Vertex 1 Ycoordinate
    6,                        !- Vertex 1 Zcoordinate
    705511.8858196284,        !- Vertex 2 Xcoordinate
    5711223.297528176,        !- Vertex 2 Ycoordinate
    0,                        !- Vertex 2 Zcoordinate
    705512.1769503332,        !- Vertex 3 Xcoordinate
    5711213.3646452725,       !- Vertex 3 Ycoordinate
    0,                        !- Vertex 3 Zcoordinate
    705512.1769503332,        !- Vertex 4 Xcoordinate
    5711213.3646452725,       !- Vertex 4 Ycoordinate
    6;                        !- Vertex 4 Zcoordinate

SHADING:SITE:DETAILED,
    shade_way/1055232810_2,    !- Name
    ,                         !- Transmittance Schedule Name
    autocalculate,            !- Number of Vertices
    705512.1769503332,        !- Vertex 1 Xcoordinate
    5711213.3646452725,       !- Vertex 1 Ycoordinate
    6,                        !- Vertex 1 Zcoordinate
    705512.1769503332,        !- Vertex 2 Xcoordinate
    5711213.3646452725,       !- Vertex 2 Ycoordinate
    0,                        !- Vertex 2 Zcoordinate
    705506.9168724127,        !- Vertex 3 Xcoordinate
    5711213.21073668,         !- Vertex 3 Ycoordinate
    0,                        !- Vertex 3 Zcoordinate
    705506.9168724127,        !- Vertex 4 Xcoordinate
    5711213.21073668,         !- Vertex 4 Ycoordinate
    6;                        !- Vertex 4 Zcoordinate

SHADING:SITE:DETAILED,
    shade_way/1055232810_3,    !- Name
    ,                         !- Transmittance Schedule Name
    autocalculate,            !- Number of Vertices
    705506.9168724127,        !- Vertex 1 Xcoordinate
    5711213.21073668,         !- Vertex 1 Ycoordinate
    6,                        !- Vertex 1 Zcoordinate
    705506.9168724127,        !- Vertex 2 Xcoordinate
    5711213.21073668,         !- Vertex 2 Ycoordinate
    0,                        !- Vertex 2 Zcoordinate
    705506.6257417076,        !- Vertex 3 Xcoordinate
    5711223.143619583,        !- Vertex 3 Ycoordinate
    0,                        !- Vertex 3 Zcoordinate
    705506.6257417076,        !- Vertex 4 Xcoordinate
    5711223.143619583,        !- Vertex 4 Ycoordinate
    6;                        !- Vertex 4 Zcoordinate

SHADING:SITE:DETAILED,
    shade_way/1055232810_4,    !- Name
    ,                         !- Transmittance Schedule Name
    autocalculate,            !- Number of Vertices
    705506.6257417076,        !- Vertex 1 Xcoordinate
    5711223.143619583,        !- Vertex 1 Ycoordinate
    6,                        !- Vertex 1 Zcoordinate
    705506.6257417076,        !- Vertex 2 Xcoordinate
    5711223.143619583,        !- Vertex 2 Ycoordinate
    0,                        !- Vertex 2 Zcoordinate
    705511.8858196284,        !- Vertex 3 Xcoordinate
    5711223.297528176,        !- Vertex 3 Ycoordinate
    0,                        !- Vertex 3 Zcoordinate
    705511.8858196284,        !- Vertex 4 Xcoordinate
    5711223.297528176,        !- Vertex 4 Ycoordinate
    6;                        !- Vertex 4 Zcoordinate

SHADING:SITE:DETAILED,
    shade_way/1055232811_1,    !- Name
    ,                         !- Transmittance Schedule Name
    autocalculate,            !- Number of Vertices
    705517.0061921363,        !- Vertex 1 Xcoordinate
    5711223.482645068,        !- Vertex 1 Ycoordinate
    6,                        !- Vertex 1 Zcoordinate
    705517.0061921363,        !- Vertex 2 Xcoordinate
    5711223.482645068,        !- Vertex 2 Ycoordinate
    0,                        !- Vertex 2 Zcoordinate
    705517.3468381676,        !- Vertex 3 Xcoordinate
    5711213.532403624,        !- Vertex 3 Ycoordinate
    0,                        !- Vertex 3 Zcoordinate
    705517.3468381676,        !- Vertex 4 Xcoordinate
    5711213.532403624,        !- Vertex 4 Ycoordinate
    6;                        !- Vertex 4 Zcoordinate

SHADING:SITE:DETAILED,
    shade_way/1055232811_2,    !- Name
    ,                         !- Transmittance Schedule Name
    autocalculate,            !- Number of Vertices
    705517.3468381676,        !- Vertex 1 Xcoordinate
    5711213.532403624,        !- Vertex 1 Ycoordinate
    6,                        !- Vertex 1 Zcoordinate
    705517.3468381676,        !- Vertex 2 Xcoordinate
    5711213.532403624,        !- Vertex 2 Ycoordinate
    0,                        !- Vertex 2 Zcoordinate
    705512.1774771695,        !- Vertex 3 Xcoordinate
    5711213.355542711,        !- Vertex 3 Ycoordinate
    0,                        !- Vertex 3 Zcoordinate
    705512.1774771695,        !- Vertex 4 Xcoordinate
    5711213.355542711,        !- Vertex 4 Ycoordinate
    6;                        !- Vertex 4 Zcoordinate

SHADING:SITE:DETAILED,
    shade_way/1055232811_3,    !- Name
    ,                         !- Transmittance Schedule Name
    autocalculate,            !- Number of Vertices
    705512.1774771695,        !- Vertex 1 Xcoordinate
    5711213.355542711,        !- Vertex 1 Ycoordinate
    6,                        !- Vertex 1 Zcoordinate
    705512.1774771695,        !- Vertex 2 Xcoordinate
    5711213.355542711,        !- Vertex 2 Ycoordinate
    0,                        !- Vertex 2 Zcoordinate
    705511.8370500106,        !- Vertex 3 Xcoordinate
    5711223.305682902,        !- Vertex 3 Ycoordinate
    0,                        !- Vertex 3 Zcoordinate
    705511.8370500106,        !- Vertex 4 Xcoordinate
    5711223.305682902,        !- Vertex 4 Ycoordinate
    6;                        !- Vertex 4 Zcoordinate

SHADING:SITE:DETAILED,
    shade_way/1055232811_4,    !- Name
    ,                         !- Transmittance Schedule Name
    autocalculate,            !- Number of Vertices
    705511.8370500106,        !- Vertex 1 Xcoordinate
    5711223.305682902,        !- Vertex 1 Ycoordinate
    6,                        !- Vertex 1 Zcoordinate
    705511.8370500106,        !- Vertex 2 Xcoordinate
    5711223.305682902,        !- Vertex 2 Ycoordinate
    0,                        !- Vertex 2 Zcoordinate
    705517.0061921363,        !- Vertex 3 Xcoordinate
    5711223.482645068,        !- Vertex 3 Ycoordinate
    0,                        !- Vertex 3 Zcoordinate
    705517.0061921363,        !- Vertex 4 Xcoordinate
    5711223.482645068,        !- Vertex 4 Ycoordinate
    6;                        !- Vertex 4 Zcoordinate

SHADING:SITE:DETAILED,
    shade_way/1055232812_1,    !- Name
    ,                         !- Transmittance Schedule Name
    autocalculate,            !- Number of Vertices
    705522.279177593,         !- Vertex 1 Xcoordinate
    5711223.673948621,        !- Vertex 1 Ycoordinate
    6,                        !- Vertex 1 Zcoordinate
    705522.279177593,         !- Vertex 2 Xcoordinate
    5711223.673948621,        !- Vertex 2 Ycoordinate
    0,                        !- Vertex 2 Zcoordinate
    705522.5739312756,        !- Vertex 3 Xcoordinate
    5711213.652121678,        !- Vertex 3 Ycoordinate
    0,                        !- Vertex 3 Zcoordinate
    705522.5739312756,        !- Vertex 4 Xcoordinate
    5711213.652121678,        !- Vertex 4 Ycoordinate
    6;                        !- Vertex 4 Zcoordinate

SHADING:SITE:DETAILED,
    shade_way/1055232812_2,    !- Name
    ,                         !- Transmittance Schedule Name
    autocalculate,            !- Number of Vertices
    705522.5739312756,        !- Vertex 1 Xcoordinate
    5711213.652121678,        !- Vertex 1 Ycoordinate
    6,                        !- Vertex 1 Zcoordinate
    705522.5739312756,        !- Vertex 2 Xcoordinate
    5711213.652121678,        !- Vertex 2 Ycoordinate
    0,                        !- Vertex 2 Zcoordinate
    705517.3002135031,        !- Vertex 3 Xcoordinate
    5711213.496892719,        !- Vertex 3 Ycoordinate
    0,                        !- Vertex 3 Zcoordinate
    705517.3002135031,        !- Vertex 4 Xcoordinate
    5711213.496892719,        !- Vertex 4 Ycoordinate
    6;                        !- Vertex 4 Zcoordinate

SHADING:SITE:DETAILED,
    shade_way/1055232812_3,    !- Name
    ,                         !- Transmittance Schedule Name
    autocalculate,            !- Number of Vertices
    705517.3002135031,        !- Vertex 1 Xcoordinate
    5711213.496892719,        !- Vertex 1 Ycoordinate
    6,                        !- Vertex 1 Zcoordinate
    705517.3002135031,        !- Vertex 2 Xcoordinate
    5711213.496892719,        !- Vertex 2 Ycoordinate
    0,                        !- Vertex 2 Zcoordinate
    705517.005459821,         !- Vertex 3 Xcoordinate
    5711223.518719662,        !- Vertex 3 Ycoordinate
    0,                        !- Vertex 3 Zcoordinate
    705517.005459821,         !- Vertex 4 Xcoordinate
    5711223.518719662,        !- Vertex 4 Ycoordinate
    6;                        !- Vertex 4 Zcoordinate

SHADING:SITE:DETAILED,
    shade_way/1055232812_4,    !- Name
    ,                         !- Transmittance Schedule Name
    autocalculate,            !- Number of Vertices
    705517.005459821,         !- Vertex 1 Xcoordinate
    5711223.518719662,        !- Vertex 1 Ycoordinate
    6,                        !- Vertex 1 Zcoordinate
    705517.005459821,         !- Vertex 2 Xcoordinate
    5711223.518719662,        !- Vertex 2 Ycoordinate
    0,                        !- Vertex 2 Zcoordinate
    705522.279177593,         !- Vertex 3 Xcoordinate
    5711223.673948621,        !- Vertex 3 Ycoordinate
    0,                        !- Vertex 3 Zcoordinate
    705522.279177593,         !- Vertex 4 Xcoordinate
    5711223.673948621,        !- Vertex 4 Ycoordinate
    6;                        !- Vertex 4 Zcoordinate

OTHEREQUIPMENT,
    EU_Step8_InternalGain_dde5e760db1e4c4e_F0_dwelling_0_f000,    !- Name
    Electricity,              !- Fuel Type
    dde5e760db1e4c4e_F0_dwelling_0,    !- Zone or ZoneList or Space or SpaceList Name
    EU_Step8_GainSchedule_dde5e760db1e4c4e_F0_dwelling_0_f000,    !- Schedule Name
    Watts/Area,               !- Design Level Calculation Method
    ,                         !- Design Level
    1,                        !- Power per Zone Floor Area
    ,                         !- Power per Person
    0,                        !- Fraction Latent
    0,                        !- Fraction Radiant
    0,                        !- Fraction Lost
    0,                        !- Carbon Dioxide Generation Rate
    EU_Step8_InternalGains;    !- EndUse Subcategory

ZONEVENTILATION:DESIGNFLOWRATE,
    EU_ConstantAir_dde5e760db1e4c4e_F0_dwelling_0,    !- Name
    dde5e760db1e4c4e_F0_dwelling_0,    !- Zone or ZoneList or Space or SpaceList Name
    EU_AlwaysOn,              !- Schedule Name
    AirChanges/Hour,          !- Design Flow Rate Calculation Method
    ,                         !- Design Flow Rate
    ,                         !- Flow Rate per Floor Area
    ,                         !- Flow Rate per Person
    0.418134938716768,        !- Air Changes per Hour
    Natural,                  !- Ventilation Type
    0,                        !- Fan Pressure Rise
    1,                        !- Fan Total Efficiency
    1,                        !- Constant Term Coefficient
    0,                        !- Temperature Term Coefficient
    0,                        !- Velocity Term Coefficient
    0,                        !- Velocity Squared Term Coefficient
    -100,                     !- Minimum Indoor Temperature
    ,                         !- Minimum Indoor Temperature Schedule Name
    100,                      !- Maximum Indoor Temperature
    ,                         !- Maximum Indoor Temperature Schedule Name
    -100,                     !- Delta Temperature
    ,                         !- Delta Temperature Schedule Name
    -100,                     !- Minimum Outdoor Temperature
    ,                         !- Minimum Outdoor Temperature Schedule Name
    100,                      !- Maximum Outdoor Temperature
    ,                         !- Maximum Outdoor Temperature Schedule Name
    40;                       !- Maximum Wind Speed

HVACTEMPLATE:THERMOSTAT,
    EU_HeatOnly_dde5e760db1e4c4e_F0_dwelling_0,    !- Name
    ,                         !- Heating Setpoint Schedule Name
    20,                       !- Constant Heating Setpoint
    ,                         !- Cooling Setpoint Schedule Name
    50;                       !- Constant Cooling Setpoint

HVACTEMPLATE:ZONE:IDEALLOADSAIRSYSTEM,
    dde5e760db1e4c4e_F0_dwelling_0,    !- Zone Name
    EU_HeatOnly_dde5e760db1e4c4e_F0_dwelling_0,    !- Template Thermostat Name
    EU_AlwaysOn,              !- System Availability Schedule Name
    50,                       !- Maximum Heating Supply Air Temperature
    13,                       !- Minimum Cooling Supply Air Temperature
    0.0156,                   !- Maximum Heating Supply Air Humidity Ratio
    0.0077,                   !- Minimum Cooling Supply Air Humidity Ratio
    NoLimit,                  !- Heating Limit
    ,                         !- Maximum Heating Air Flow Rate
    ,                         !- Maximum Sensible Heating Capacity
    NoLimit,                  !- Cooling Limit
    ,                         !- Maximum Cooling Air Flow Rate
    ,                         !- Maximum Total Cooling Capacity
    EU_AlwaysOn,              !- Heating Availability Schedule Name
    EU_CoolingOff,            !- Cooling Availability Schedule Name
    ConstantSensibleHeatRatio,    !- Dehumidification Control Type
    0.7,                      !- Cooling Sensible Heat Ratio
    60,                       !- Dehumidification Setpoint
    None,                     !- Humidification Control Type
    30,                       !- Humidification Setpoint
    None,                     !- Outdoor Air Method
    0.00944,                  !- Outdoor Air Flow Rate per Person
    0.0,                      !- Outdoor Air Flow Rate per Zone Floor Area
    0,                        !- Outdoor Air Flow Rate per Zone
    ,                         !- Design Specification Outdoor Air Object Name
    None,                     !- Demand Controlled Ventilation Type
    NoEconomizer,             !- Outdoor Air Economizer Type
    None,                     !- Heat Recovery Type
    0.70,                     !- Sensible Heat Recovery Effectiveness
    0.65;                     !- Latent Heat Recovery Effectiveness

SIZING:ZONE,
    dde5e760db1e4c4e_F0_dwelling_0,    !- Zone or ZoneList Name
    SupplyAirTemperature,     !- Zone Cooling Design Supply Air Temperature Input Method
    13,                       !- Zone Cooling Design Supply Air Temperature
    ,                         !- Zone Cooling Design Supply Air Temperature Difference
    SupplyAirTemperature,     !- Zone Heating Design Supply Air Temperature Input Method
    50,                       !- Zone Heating Design Supply Air Temperature
    ,                         !- Zone Heating Design Supply Air Temperature Difference
    0.008,                    !- Zone Cooling Design Supply Air Humidity Ratio
    0.008,                    !- Zone Heating Design Supply Air Humidity Ratio
    ,                         !- Design Specification Outdoor Air Object Name
    ,                         !- Zone Heating Sizing Factor
    ,                         !- Zone Cooling Sizing Factor
    DesignDay,                !- Cooling Design Air Flow Method
    0,                        !- Cooling Design Air Flow Rate
    0.000762,                 !- Cooling Minimum Air Flow per Zone Floor Area
    0,                        !- Cooling Minimum Air Flow
    0.2,                      !- Cooling Minimum Air Flow Fraction
    DesignDay,                !- Heating Design Air Flow Method
    0,                        !- Heating Design Air Flow Rate
    0.002032,                 !- Heating Maximum Air Flow per Zone Floor Area
    0.1415762,                !- Heating Maximum Air Flow
    0.3,                      !- Heating Maximum Air Flow Fraction
    ,                         !- Design Specification Zone Air Distribution Object Name
    No,                       !- Account for Dedicated Outdoor Air System
    NeutralSupplyAir,         !- Dedicated Outdoor Air System Control Strategy
    autosize,                 !- Dedicated Outdoor Air Low Setpoint Temperature for Design
    autosize,                 !- Dedicated Outdoor Air High Setpoint Temperature for Design
    Sensible Load Only No Latent Load,    !- Zone Load Sizing Method
    HumidityRatioDifference,    !- Zone Latent Cooling Design Supply Air Humidity Ratio Input Method
    ,                         !- Zone Dehumidification Design Supply Air Humidity Ratio
    0.005,                    !- Zone Cooling Design Supply Air Humidity Ratio Difference
    HumidityRatioDifference,    !- Zone Latent Heating Design Supply Air Humidity Ratio Input Method
    ,                         !- Zone Humidification Design Supply Air Humidity Ratio
    0.005;                    !- Zone Humidification Design Supply Air Humidity Ratio Difference

OUTPUT:VARIABLE,
    *,                        !- Key Value
    Zone Ideal Loads Zone Total Heating Energy,    !- Variable Name
    Hourly;                   !- Reporting Frequency

OUTPUT:SQLITE,
    SimpleAndTabular,         !- Option Type
    UseOutputControlTableStyle;    !- Unit Conversion for Tabular Data