!- Windows Line endings 

Version,
    23.1;                     !- Version Identifier

SimulationControl,
    Yes,                      !- Do Zone Sizing Calculation
    Yes,                      !- Do System Sizing Calculation
    Yes,                      !- Do Plant Sizing Calculation
    No,                       !- Run Simulation for Sizing Periods
    Yes,                      !- Run Simulation for Weather File Run Periods
    No,                       !- Do HVAC Sizing Simulation for Sizing Periods
    1;                        !- Maximum Number of HVAC Sizing Simulation Passes

Building,
    EU S2 Campaign,           !- Name
    0,                        !- North Axis
    City,                     !- Terrain
    ,                         !- Loads Convergence Tolerance Value
    ,                         !- Temperature Convergence Tolerance Value
    FullExterior,             !- Solar Distribution
    ,                         !- Maximum Number of Warmup Days
    ;                         !- Minimum Number of Warmup Days

ShadowCalculation,
    PolygonClipping,          !- Shading Calculation Method
    Periodic,                 !- Shading Calculation Update Frequency Method
    1;                        !- Shading Calculation Update Frequency

HeatBalanceAlgorithm,
    ConductionTransferFunction,    !- Algorithm
    200,                      !- Surface Temperature Upper Limit
    0.1,                      !- Minimum Surface Convection Heat Transfer Coefficient Value
    10000000;                 !- Maximum Surface Convection Heat Transfer Coefficient Value

Timestep,
    12;                       !- Number of Timesteps per Hour

Site:Location,
    London,                   !- Name
    51.5,                     !- Latitude
    -0.5,                     !- Longitude
    0,                        !- Time Zone
    25;                       !- Elevation

SizingPeriod:WeatherFileDays,
    AnnualSizingPeriod,       !- Name
    1,                        !- Begin Month
    1,                        !- Begin Day of Month
    12,                       !- End Month
    31,                       !- End Day of Month
    Monday,                   !- Day of Week for Start Day
    No,                       !- Use Weather File Daylight Saving Period
    No;                       !- Use Weather File Rain and Snow Indicators

RunPeriod,
    RunPeriod1,               !- Name
    1,                        !- Begin Month
    1,                        !- Begin Day of Month
    ,                         !- Begin Year
    12,                       !- End Month
    31,                       !- End Day of Month
    ,                         !- End Year
    Sunday,                   !- Day of Week for Start Day
    No,                       !- Use Weather File Holidays and Special Days
    No,                       !- Use Weather File Daylight Saving Period
    No,                       !- Apply Weekend Holiday Rule
    Yes,                      !- Use Weather File Rain Indicators
    Yes;                      !- Use Weather File Snow Indicators

ScheduleTypeLimits,
    Any Number;               !- Name

SCHEDULETYPELIMITS,
    EU_Step8_AnyNumber_Wm2,    !- Name
    ,                         !- Lower Limit Value
    ,                         !- Upper Limit Value
    Continuous,               !- Numeric Type
    Dimensionless;            !- Unit Type

SCHEDULE:CONSTANT,
    EU_AlwaysOn,              !- Name
    ,                         !- Schedule Type Limits Name
    1;                        !- Hourly Value

SCHEDULE:CONSTANT,
    EU_CoolingOff,            !- Name
    ,                         !- Schedule Type Limits Name
    0;                        !- Hourly Value

SCHEDULE:FILE,
    EU_Step8_GainSchedule_f7d4223a49638842_F0_dwelling_0_f000,    !- Name
    EU_Step8_AnyNumber_Wm2,    !- Schedule Type Limits Name
    ../../schedules/f7d4223a49638842/f7d4223a49638842_F0_dwelling_0_f000_gain.csv,    !- File Name
    1,                        !- Column Number
    0,                        !- Rows to Skip at Top
    8760,                     !- Number of Hours of Data
    Comma,                    !- Column Separator
    No,                       !- Interpolate to Timestep
    60,                       !- Minutes per Item
    Yes;                      !- Adjust Schedule for Daylight Savings

MATERIAL,
    EU_InternalMass_Material,    !- Name
    MediumRough,              !- Roughness
    0.1,                      !- Thickness
    1,                        !- Conductivity
    1800,                     !- Density
    900,                      !- Specific Heat
    0.9,                      !- Thermal Absorptance
    0.7,                      !- Solar Absorptance
    0.7;                      !- Visible Absorptance

MATERIAL:NOMASS,
    EU_wall_NoMass,           !- Name
    MediumRough,              !- Roughness
    0.7278629942482108,       !- Thermal Resistance
    0.9,                      !- Thermal Absorptance
    0.7,                      !- Solar Absorptance
    0.7;                      !- Visible Absorptance

MATERIAL:NOMASS,
    EU_roof_NoMass,           !- Name
    MediumRough,              !- Roughness
    0.7733544313887238,       !- Thermal Resistance
    0.9,                      !- Thermal Absorptance
    0.7,                      !- Solar Absorptance
    0.7;                      !- Visible Absorptance

MATERIAL:NOMASS,
    EU_floor_NoMass,          !- Name
    MediumRough,              !- Roughness
    1.7932856380028381,       !- Thermal Resistance
    0.9,                      !- Thermal Absorptance
    0.7,                      !- Solar Absorptance
    0.7;                      !- Visible Absorptance

CONSTRUCTION,
    EU_wall_Construction,     !- Name
    EU_wall_NoMass;           !- Outside Layer

CONSTRUCTION,
    EU_roof_Construction,     !- Name
    EU_roof_NoMass;           !- Outside Layer

CONSTRUCTION,
    EU_floor_Construction,    !- Name
    EU_floor_NoMass;          !- Outside Layer

CONSTRUCTION,
    EU_InternalMass_Construction,    !- Name
    EU_InternalMass_Material;    !- Outside Layer

GlobalGeometryRules,
    UpperLeftCorner,          !- Starting Vertex Position
    CounterClockWise,         !- Vertex Entry Direction
    World;                    !- Coordinate System

ZONE,
    f7d4223a49638842_F0_dwelling_0,    !- Name
    0,                        !- Direction of Relative North
    0,                        !- X Origin
    0,                        !- Y Origin
    0,                        !- Z Origin
    1,                        !- Type
    1,                        !- Multiplier
    autocalculate,            !- Ceiling Height
    429.93896484375,          !- Volume
    autocalculate,            !- Floor Area
    ,                         !- Zone Inside Convection Algorithm
    ,                         !- Zone Outside Convection Algorithm
    Yes;                      !- Part of Total Floor Area

BUILDINGSURFACE:DETAILED,
    Block f7d4223a49638842_0 Storey 0 Wall 0001,    !- Name
    wall,                     !- Surface Type
    EU_wall_Construction,     !- Construction Name
    f7d4223a49638842_F0_dwelling_0,    !- Zone Name
    ,                         !- Space Name
    outdoors,                 !- Outside Boundary Condition
    ,                         !- Outside Boundary Condition Object
    SunExposed,               !- Sun Exposure
    WindExposed,              !- Wind Exposure
    autocalculate,            !- View Factor to Ground
    autocalculate,            !- Number of Vertices
    705557.382,               !- Vertex 1 Xcoordinate
    5711444.235,              !- Vertex 1 Ycoordinate
    9,                        !- Vertex 1 Zcoordinate
    705557.382,               !- Vertex 2 Xcoordinate
    5711444.235,              !- Vertex 2 Ycoordinate
    0,                        !- Vertex 2 Zcoordinate
    705562.292,               !- Vertex 3 Xcoordinate
    5711444.122,              !- Vertex 3 Ycoordinate
    0,                        !- Vertex 3 Zcoordinate
    705562.292,               !- Vertex 4 Xcoordinate
    5711444.122,              !- Vertex 4 Ycoordinate
    9;                        !- Vertex 4 Zcoordinate

BUILDINGSURFACE:DETAILED,
    Block f7d4223a49638842_0 Storey 0 Wall 0002,    !- Name
    wall,                     !- Surface Type
    EU_wall_Construction,     !- Construction Name
    f7d4223a49638842_F0_dwelling_0,    !- Zone Name
    ,                         !- Space Name
    Adiabatic,                !- Outside Boundary Condition
    ,                         !- Outside Boundary Condition Object
    NoSun,                    !- Sun Exposure
    NoWind,                   !- Wind Exposure
    autocalculate,            !- View Factor to Ground
    autocalculate,            !- Number of Vertices
    705562.292,               !- Vertex 1 Xcoordinate
    5711444.122,              !- Vertex 1 Ycoordinate
    9,                        !- Vertex 1 Zcoordinate
    705562.292,               !- Vertex 2 Xcoordinate
    5711444.122,              !- Vertex 2 Ycoordinate
    0,                        !- Vertex 2 Zcoordinate
    705561.999,               !- Vertex 3 Xcoordinate
    5711434.377,              !- Vertex 3 Ycoordinate
    0,                        !- Vertex 3 Zcoordinate
    705561.999,               !- Vertex 4 Xcoordinate
    5711434.377,              !- Vertex 4 Ycoordinate
    9;                        !- Vertex 4 Zcoordinate

BUILDINGSURFACE:DETAILED,
    Block f7d4223a49638842_0 Storey 0 Wall 0003,    !- Name
    wall,                     !- Surface Type
    EU_wall_Construction,     !- Construction Name
    f7d4223a49638842_F0_dwelling_0,    !- Zone Name
    ,                         !- Space Name
    outdoors,                 !- Outside Boundary Condition
    ,                         !- Outside Boundary Condition Object
    SunExposed,               !- Sun Exposure
    WindExposed,              !- Wind Exposure
    autocalculate,            !- View Factor to Ground
    autocalculate,            !- Number of Vertices
    705561.999,               !- Vertex 1 Xcoordinate
    5711434.377,              !- Vertex 1 Ycoordinate
    9,                        !- Vertex 1 Zcoordinate
    705561.999,               !- Vertex 2 Xcoordinate
    5711434.377,              !- Vertex 2 Ycoordinate
    0,                        !- Vertex 2 Zcoordinate
    705557.08,                !- Vertex 3 Xcoordinate
    5711434.557,              !- Vertex 3 Ycoordinate
    0,                        !- Vertex 3 Zcoordinate
    705557.08,                !- Vertex 4 Xcoordinate
    5711434.557,              !- Vertex 4 Ycoordinate
    9;                        !- Vertex 4 Zcoordinate

BUILDINGSURFACE:DETAILED,
    Block f7d4223a49638842_0 Storey 0 Wall 0004,    !- Name
    wall,                     !- Surface Type
    EU_wall_Construction,     !- Construction Name
    f7d4223a49638842_F0_dwelling_0,    !- Zone Name
    ,                         !- Space Name
    Adiabatic,                !- Outside Boundary Condition
    ,                         !- Outside Boundary Condition Object
    NoSun,                    !- Sun Exposure
    NoWind,                   !- Wind Exposure
    autocalculate,            !- View Factor to Ground
    autocalculate,            !- Number of Vertices
    705557.08,                !- Vertex 1 Xcoordinate
    5711434.557,              !- Vertex 1 Ycoordinate
    9,                        !- Vertex 1 Zcoordinate
    705557.08,                !- Vertex 2 Xcoordinate
    5711434.557,              !- Vertex 2 Ycoordinate
    0,                        !- Vertex 2 Zcoordinate
    705557.382,               !- Vertex 3 Xcoordinate
    5711444.235,              !- Vertex 3 Ycoordinate
    0,                        !- Vertex 3 Zcoordinate
    705557.382,               !- Vertex 4 Xcoordinate
    5711444.235,              !- Vertex 4 Ycoordinate
    9;                        !- Vertex 4 Zcoordinate

BUILDINGSURFACE:DETAILED,
    Block f7d4223a49638842_0 Storey 0 Floor 0001,    !- Name
    floor,                    !- Surface Type
    EU_floor_Construction,    !- Construction Name
    f7d4223a49638842_F0_dwelling_0,    !- Zone Name
    ,                         !- Space Name
    ground,                   !- Outside Boundary Condition
    ,                         !- Outside Boundary Condition Object
    NoSun,                    !- Sun Exposure
    NoWind,                   !- Wind Exposure
    autocalculate,            !- View Factor to Ground
    autocalculate,            !- Number of Vertices
    705561.999,               !- Vertex 1 Xcoordinate
    5711434.377,              !- Vertex 1 Ycoordinate
    0,                        !- Vertex 1 Zcoordinate
    705562.292,               !- Vertex 2 Xcoordinate
    5711444.122,              !- Vertex 2 Ycoordinate
    0,                        !- Vertex 2 Zcoordinate
    705557.382,               !- Vertex 3 Xcoordinate
    5711444.235,              !- Vertex 3 Ycoordinate
    0,                        !- Vertex 3 Zcoordinate
    705557.08,                !- Vertex 4 Xcoordinate
    5711434.557,              !- Vertex 4 Ycoordinate
    0;                        !- Vertex 4 Zcoordinate

BUILDINGSURFACE:DETAILED,
    Block f7d4223a49638842_0 Storey 0 Roof 0001,    !- Name
    roof,                     !- Surface Type
    EU_roof_Construction,     !- Construction Name
    f7d4223a49638842_F0_dwelling_0,    !- Zone Name
    ,                         !- Space Name
    outdoors,                 !- Outside Boundary Condition
    ,                         !- Outside Boundary Condition Object
    NoSun,                    !- Sun Exposure
    WindExposed,              !- Wind Exposure
    autocalculate,            !- View Factor to Ground
    autocalculate,            !- Number of Vertices
    705562.292,               !- Vertex 1 Xcoordinate
    5711444.122,              !- Vertex 1 Ycoordinate
    9,                        !- Vertex 1 Zcoordinate
    705561.999,               !- Vertex 2 Xcoordinate
    5711434.377,              !- Vertex 2 Ycoordinate
    9,                        !- Vertex 2 Zcoordinate
    705557.08,                !- Vertex 3 Xcoordinate
    5711434.557,              !- Vertex 3 Ycoordinate
    9,                        !- Vertex 3 Zcoordinate
    705557.382,               !- Vertex 4 Xcoordinate
    5711444.235,              !- Vertex 4 Ycoordinate
    9;                        !- Vertex 4 Zcoordinate

INTERNALMASS,
    f7d4223a49638842_F0_dwelling_0_EU_InternalMass,    !- Name
    EU_InternalMass_Construction,    !- Construction Name
    f7d4223a49638842_F0_dwelling_0,    !- Zone or ZoneList Name
    ,                         !- Space or SpaceList Name
    47.77075050110303;        !- Surface Area

SHADING:SITE:DETAILED,
    shade_way/1056456196_1,    !- Name
    ,                         !- Transmittance Schedule Name
    autocalculate,            !- Number of Vertices
    705567.0631732602,        !- Vertex 1 Xcoordinate
    5711434.226224867,        !- Vertex 1 Ycoordinate
    9,                        !- Vertex 1 Zcoordinate
    705567.0631732602,        !- Vertex 2 Xcoordinate
    5711434.226224867,        !- Vertex 2 Ycoordinate
    0,                        !- Vertex 2 Zcoordinate
    705561.9988651953,        !- Vertex 3 Xcoordinate
    5711434.377402866,        !- Vertex 3 Ycoordinate
    0,                        !- Vertex 3 Zcoordinate
    705561.9988651953,        !- Vertex 4 Xcoordinate
    5711434.377402866,        !- Vertex 4 Ycoordinate
    9;                        !- Vertex 4 Zcoordinate

SHADING:SITE:DETAILED,
    shade_way/1056456196_2,    !- Name
    ,                         !- Transmittance Schedule Name
    autocalculate,            !- Number of Vertices
    705561.9988651953,        !- Vertex 1 Xcoordinate
    5711434.377402866,        !- Vertex 1 Ycoordinate
    9,                        !- Vertex 1 Zcoordinate
    705561.9988651953,        !- Vertex 2 Xcoordinate
    5711434.377402866,        !- Vertex 2 Ycoordinate
    0,                        !- Vertex 2 Zcoordinate
    705562.2904842539,        !- Vertex 3 Xcoordinate
    5711444.144169454,        !- Vertex 3 Ycoordinate
    0,                        !- Vertex 3 Zcoordinate
    705562.2904842539,        !- Vertex 4 Xcoordinate
    5711444.144169454,        !- Vertex 4 Ycoordinate
    9;                        !- Vertex 4 Zcoordinate

SHADING:SITE:DETAILED,
    shade_way/1056456196_3,    !- Name
    ,                         !- Transmittance Schedule Name
    autocalculate,            !- Number of Vertices
    705562.2904842539,        !- Vertex 1 Xcoordinate
    5711444.144169454,        !- Vertex 1 Ycoordinate
    9,                        !- Vertex 1 Zcoordinate
    705562.2904842539,        !- Vertex 2 Xcoordinate
    5711444.144169454,        !- Vertex 2 Ycoordinate
    0,                        !- Vertex 2 Zcoordinate
    705567.3547923188,        !- Vertex 3 Xcoordinate
    5711443.992991457,        !- Vertex 3 Ycoordinate
    0,                        !- Vertex 3 Zcoordinate
    705567.3547923188,        !- Vertex 4 Xcoordinate
    5711443.992991457,        !- Vertex 4 Ycoordinate
    9;                        !- Vertex 4 Zcoordinate

SHADING:SITE:DETAILED,
    shade_way/1056456196_4,    !- Name
    ,                         !- Transmittance Schedule Name
    autocalculate,            !- Number of Vertices
    705567.3547923188,        !- Vertex 1 Xcoordinate
    5711443.992991457,        !- Vertex 1 Ycoordinate
    9,                        !- Vertex 1 Zcoordinate
    705567.3547923188,        !- Vertex 2 Xcoordinate
    5711443.992991457,        !- Vertex 2 Ycoordinate
    0,                        !- Vertex 2 Zcoordinate
    705567.0631732602,        !- Vertex 3 Xcoordinate
    5711434.226224867,        !- Vertex 3 Ycoordinate
    0,                        !- Vertex 3 Zcoordinate
    705567.0631732602,        !- Vertex 4 Xcoordinate
    5711434.226224867,        !- Vertex 4 Ycoordinate
    9;                        !- Vertex 4 Zcoordinate

SHADING:SITE:DETAILED,
    shade_way/390799035_1,    !- Name
    ,                         !- Transmittance Schedule Name
    autocalculate,            !- Number of Vertices
    705544.4575093631,        !- Vertex 1 Xcoordinate
    5711436.586187586,        !- Vertex 1 Ycoordinate
    6,                        !- Vertex 1 Zcoordinate
    705544.4575093631,        !- Vertex 2 Xcoordinate
    5711436.586187586,        !- Vertex 2 Ycoordinate
    0,                        !- Vertex 2 Zcoordinate
    705544.269102317,         !- Vertex 3 Xcoordinate
    5711430.0286750635,       !- Vertex 3 Ycoordinate
    0,                        !- Vertex 3 Zcoordinate
    705544.269102317,         !- Vertex 4 Xcoordinate
    5711430.0286750635,       !- Vertex 4 Ycoordinate
    6;                        !- Vertex 4 Zcoordinate

SHADING:SITE:DETAILED,
    shade_way/390799035_2,    !- Name
    ,                         !- Transmittance Schedule Name
    autocalculate,            !- Number of Vertices
    705544.269102317,         !- Vertex 1 Xcoordinate
    5711430.0286750635,       !- Vertex 1 Ycoordinate
    6,                        !- Vertex 1 Zcoordinate
    705544.269102317,         !- Vertex 2 Xcoordinate
    5711430.0286750635,       !- Vertex 2 Ycoordinate
    0,                        !- Vertex 2 Zcoordinate
    705532.0479444185,        !- Vertex 3 Xcoordinate
    5711430.37996723,         !- Vertex 3 Ycoordinate
    0,                        !- Vertex 3 Zcoordinate
    705532.0479444185,        !- Vertex 4 Xcoordinate
    5711430.37996723,         !- Vertex 4 Ycoordinate
    6;                        !- Vertex 4 Zcoordinate

SHADING:SITE:DETAILED,
    shade_way/390799035_3,    !- Name
    ,                         !- Transmittance Schedule Name
    autocalculate,            !- Number of Vertices
    705532.0479444185,        !- Vertex 1 Xcoordinate
    5711430.37996723,         !- Vertex 1 Ycoordinate
    6,                        !- Vertex 1 Zcoordinate
    705532.0479444185,        !- Vertex 2 Xcoordinate
    5711430.37996723,         !- Vertex 2 Ycoordinate
    0,                        !- Vertex 2 Zcoordinate
    705532.2363139436,        !- Vertex 3 Xcoordinate
    5711436.937320632,        !- Vertex 3 Ycoordinate
    0,                        !- Vertex 3 Zcoordinate
    705532.2363139436,        !- Vertex 4 Xcoordinate
    5711436.937320632,        !- Vertex 4 Ycoordinate
    6;                        !- Vertex 4 Zcoordinate

SHADING:SITE:DETAILED,
    shade_way/390799035_4,    !- Name
    ,                         !- Transmittance Schedule Name
    autocalculate,            !- Number of Vertices
    705532.2363139436,        !- Vertex 1 Xcoordinate
    5711436.937320632,        !- Vertex 1 Ycoordinate
    6,                        !- Vertex 1 Zcoordinate
    705532.2363139436,        !- Vertex 2 Xcoordinate
    5711436.937320632,        !- Vertex 2 Ycoordinate
    0,                        !- Vertex 2 Zcoordinate
    705544.4575093631,        !- Vertex 3 Xcoordinate
    5711436.586187586,        !- Vertex 3 Ycoordinate
    0,                        !- Vertex 3 Zcoordinate
    705544.4575093631,        !- Vertex 4 Xcoordinate
    5711436.586187586,        !- Vertex 4 Ycoordinate
    6;                        !- Vertex 4 Zcoordinate

SHADING:SITE:DETAILED,
    shade_way/393510997_1,    !- Name
    ,                         !- Transmittance Schedule Name
    autocalculate,            !- Number of Vertices
    705557.3820146706,        !- Vertex 1 Xcoordinate
    5711444.235264797,        !- Vertex 1 Ycoordinate
    9,                        !- Vertex 1 Zcoordinate
    705557.3820146706,        !- Vertex 2 Xcoordinate
    5711444.235264797,        !- Vertex 2 Ycoordinate
    0,                        !- Vertex 2 Zcoordinate
    705557.0793268911,        !- Vertex 3 Xcoordinate
    5711434.556723607,        !- Vertex 3 Ycoordinate
    0,                        !- Vertex 3 Zcoordinate
    705557.0793268911,        !- Vertex 4 Xcoordinate
    5711434.556723607,        !- Vertex 4 Ycoordinate
    9;                        !- Vertex 4 Zcoordinate

SHADING:SITE:DETAILED,
    shade_way/393510997_2,    !- Name
    ,                         !- Transmittance Schedule Name
    autocalculate,            !- Number of Vertices
    705557.0793268911,        !- Vertex 1 Xcoordinate
    5711434.556723607,        !- Vertex 1 Ycoordinate
    9,                        !- Vertex 1 Zcoordinate
    705557.0793268911,        !- Vertex 2 Xcoordinate
    5711434.556723607,        !- Vertex 2 Ycoordinate
    0,                        !- Vertex 2 Zcoordinate
    705552.2012822351,        !- Vertex 3 Xcoordinate
    5711434.709202034,        !- Vertex 3 Ycoordinate
    0,                        !- Vertex 3 Zcoordinate
    705552.2012822351,        !- Vertex 4 Xcoordinate
    5711434.709202034,        !- Vertex 4 Ycoordinate
    9;                        !- Vertex 4 Zcoordinate

SHADING:SITE:DETAILED,
    shade_way/393510997_3,    !- Name
    ,                         !- Transmittance Schedule Name
    autocalculate,            !- Number of Vertices
    705552.2012822351,        !- Vertex 1 Xcoordinate
    5711434.709202034,        !- Vertex 1 Ycoordinate
    9,                        !- Vertex 1 Zcoordinate
    705552.2012822351,        !- Vertex 2 Xcoordinate
    5711434.709202034,        !- Vertex 2 Ycoordinate
    0,                        !- Vertex 2 Zcoordinate
    705552.5039700145,        !- Vertex 3 Xcoordinate
    5711444.387743224,        !- Vertex 3 Ycoordinate
    0,                        !- Vertex 3 Zcoordinate
    705552.5039700145,        !- Vertex 4 Xcoordinate
    5711444.387743224,        !- Vertex 4 Ycoordinate
    9;                        !- Vertex 4 Zcoordinate

SHADING:SITE:DETAILED,
    shade_way/393510997_4,    !- Name
    ,                         !- Transmittance Schedule Name
    autocalculate,            !- Number of Vertices
    705552.5039700145,        !- Vertex 1 Xcoordinate
    5711444.387743224,        !- Vertex 1 Ycoordinate
    9,                        !- Vertex 1 Zcoordinate
    705552.5039700145,        !- Vertex 2 Xcoordinate
    5711444.387743224,        !- Vertex 2 Ycoordinate
    0,                        !- Vertex 2 Zcoordinate
    705557.3820146706,        !- Vertex 3 Xcoordinate
    5711444.235264797,        !- Vertex 3 Ycoordinate
    0,                        !- Vertex 3 Zcoordinate
    705557.3820146706,        !- Vertex 4 Xcoordinate
    5711444.235264797,        !- Vertex 4 Ycoordinate
    9;                        !- Vertex 4 Zcoordinate

SHADING:SITE:DETAILED,
    shade_way/1058042181_1,    !- Name
    ,                         !- Transmittance Schedule Name
    autocalculate,            !- Number of Vertices
    705540.7449018878,        !- Vertex 1 Xcoordinate
    5711442.968695275,        !- Vertex 1 Ycoordinate
    6,                        !- Vertex 1 Zcoordinate
    705540.7449018878,        !- Vertex 2 Xcoordinate
    5711442.968695275,        !- Vertex 2 Ycoordinate
    0,                        !- Vertex 2 Zcoordinate
    705540.5207682808,        !- Vertex 3 Xcoordinate
    5711436.644367984,        !- Vertex 3 Ycoordinate
    0,                        !- Vertex 3 Zcoordinate
    705540.5207682808,        !- Vertex 4 Xcoordinate
    5711436.644367984,        !- Vertex 4 Ycoordinate
    6;                        !- Vertex 4 Zcoordinate

SHADING:SITE:DETAILED,
    shade_way/1058042181_2,    !- Name
    ,                         !- Transmittance Schedule Name
    autocalculate,            !- Number of Vertices
    705540.5207682808,        !- Vertex 1 Xcoordinate
    5711436.644367984,        !- Vertex 1 Ycoordinate
    6,                        !- Vertex 1 Zcoordinate
    705540.5207682808,        !- Vertex 2 Xcoordinate
    5711436.644367984,        !- Vertex 2 Ycoordinate
    0,                        !- Vertex 2 Zcoordinate
    705532.2617509833,        !- Vertex 3 Xcoordinate
    5711436.936749987,        !- Vertex 3 Ycoordinate
    0,                        !- Vertex 3 Zcoordinate
    705532.2617509833,        !- Vertex 4 Xcoordinate
    5711436.936749987,        !- Vertex 4 Ycoordinate
    6;                        !- Vertex 4 Zcoordinate

SHADING:SITE:DETAILED,
    shade_way/1058042181_3,    !- Name
    ,                         !- Transmittance Schedule Name
    autocalculate,            !- Number of Vertices
    705532.2617509833,        !- Vertex 1 Xcoordinate
    5711436.936749987,        !- Vertex 1 Ycoordinate
    6,                        !- Vertex 1 Zcoordinate
    705532.2617509833,        !- Vertex 2 Xcoordinate
    5711436.936749987,        !- Vertex 2 Ycoordinate
    0,                        !- Vertex 2 Zcoordinate
    705532.4859903571,        !- Vertex 3 Xcoordinate
    5711443.261390374,        !- Vertex 3 Ycoordinate
    0,                        !- Vertex 3 Zcoordinate
    705532.4859903571,        !- Vertex 4 Xcoordinate
    5711443.261390374,        !- Vertex 4 Ycoordinate
    6;                        !- Vertex 4 Zcoordinate

SHADING:SITE:DETAILED,
    shade_way/1058042181_4,    !- Name
    ,                         !- Transmittance Schedule Name
    autocalculate,            !- Number of Vertices
    705532.4859903571,        !- Vertex 1 Xcoordinate
    5711443.261390374,        !- Vertex 1 Ycoordinate
    6,                        !- Vertex 1 Zcoordinate
    705532.4859903571,        !- Vertex 2 Xcoordinate
    5711443.261390374,        !- Vertex 2 Ycoordinate
    0,                        !- Vertex 2 Zcoordinate
    705540.7449018878,        !- Vertex 3 Xcoordinate
    5711442.968695275,        !- Vertex 3 Ycoordinate
    0,                        !- Vertex 3 Zcoordinate
    705540.7449018878,        !- Vertex 4 Xcoordinate
    5711442.968695275,        !- Vertex 4 Ycoordinate
    6;                        !- Vertex 4 Zcoordinate

SHADING:SITE:DETAILED,
    shade_way/1056456200_1,    !- Name
    ,                         !- Transmittance Schedule Name
    autocalculate,            !- Number of Vertices
    705581.9649869383,        !- Vertex 1 Xcoordinate
    5711433.748363482,        !- Vertex 1 Ycoordinate
    9,                        !- Vertex 1 Zcoordinate
    705581.9649869383,        !- Vertex 2 Xcoordinate
    5711433.748363482,        !- Vertex 2 Ycoordinate
    0,                        !- Vertex 2 Zcoordinate
    705582.2282138007,        !- Vertex 3 Xcoordinate
    5711443.549235048,        !- Vertex 3 Ycoordinate
    0,                        !- Vertex 3 Zcoordinate
    705582.2282138007,        !- Vertex 4 Xcoordinate
    5711443.549235048,        !- Vertex 4 Ycoordinate
    9;                        !- Vertex 4 Zcoordinate

SHADING:SITE:DETAILED,
    shade_way/1056456200_2,    !- Name
    ,                         !- Transmittance Schedule Name
    autocalculate,            !- Number of Vertices
    705582.2282138007,        !- Vertex 1 Xcoordinate
    5711443.549235048,        !- Vertex 1 Ycoordinate
    9,                        !- Vertex 1 Zcoordinate
    705582.2282138007,        !- Vertex 2 Xcoordinate
    5711443.549235048,        !- Vertex 2 Ycoordinate
    0,                        !- Vertex 2 Zcoordinate
    705586.9996909992,        !- Vertex 3 Xcoordinate
    5711443.42128093,         !- Vertex 3 Ycoordinate
    0,                        !- Vertex 3 Zcoordinate
    705586.9996909992,        !- Vertex 4 Xcoordinate
    5711443.42128093,         !- Vertex 4 Ycoordinate
    9;                        !- Vertex 4 Zcoordinate

SHADING:SITE:DETAILED,
    shade_way/1056456200_3,    !- Name
    ,                         !- Transmittance Schedule Name
    autocalculate,            !- Number of Vertices
    705586.9996909992,        !- Vertex 1 Xcoordinate
    5711443.42128093,         !- Vertex 1 Ycoordinate
    9,                        !- Vertex 1 Zcoordinate
    705586.9996909992,        !- Vertex 2 Xcoordinate
    5711443.42128093,         !- Vertex 2 Ycoordinate
    0,                        !- Vertex 2 Zcoordinate
    705586.7368306764,        !- Vertex 3 Xcoordinate
    5711433.620189233,        !- Vertex 3 Ycoordinate
    0,                        !- Vertex 3 Zcoordinate
    705586.7368306764,        !- Vertex 4 Xcoordinate
    5711433.620189233,        !- Vertex 4 Ycoordinate
    9;                        !- Vertex 4 Zcoordinate

SHADING:SITE:DETAILED,
    shade_way/1056456200_4,    !- Name
    ,                         !- Transmittance Schedule Name
    autocalculate,            !- Number of Vertices
    705586.7368306764,        !- Vertex 1 Xcoordinate
    5711433.620189233,        !- Vertex 1 Ycoordinate
    9,                        !- Vertex 1 Zcoordinate
    705586.7368306764,        !- Vertex 2 Xcoordinate
    5711433.620189233,        !- Vertex 2 Ycoordinate
    0,                        !- Vertex 2 Zcoordinate
    705581.9649869383,        !- Vertex 3 Xcoordinate
    5711433.748363482,        !- Vertex 3 Ycoordinate
    0,                        !- Vertex 3 Zcoordinate
    705581.9649869383,        !- Vertex 4 Xcoordinate
    5711433.748363482,        !- Vertex 4 Ycoordinate
    9;                        !- Vertex 4 Zcoordinate

SHADING:SITE:DETAILED,
    shade_way/1056456199_1,    !- Name
    ,                         !- Transmittance Schedule Name
    autocalculate,            !- Number of Vertices
    705582.2293955834,        !- Vertex 1 Xcoordinate
    5711443.600206854,        !- Vertex 1 Ycoordinate
    9,                        !- Vertex 1 Zcoordinate
    705582.2293955834,        !- Vertex 2 Xcoordinate
    5711443.600206854,        !- Vertex 2 Ycoordinate
    0,                        !- Vertex 2 Zcoordinate
    705581.9652116715,        !- Vertex 3 Xcoordinate
    5711433.749798345,        !- Vertex 3 Ycoordinate
    0,                        !- Vertex 3 Zcoordinate
    705581.9652116715,        !- Vertex 4 Xcoordinate
    5711433.749798345,        !- Vertex 4 Ycoordinate
    9;                        !- Vertex 4 Zcoordinate

SHADING:SITE:DETAILED,
    shade_way/1056456199_2,    !- Name
    ,                         !- Transmittance Schedule Name
    autocalculate,            !- Number of Vertices
    705581.9652116715,        !- Vertex 1 Xcoordinate
    5711433.749798345,        !- Vertex 1 Ycoordinate
    9,                        !- Vertex 1 Zcoordinate
    705581.9652116715,        !- Vertex 2 Xcoordinate
    5711433.749798345,        !- Vertex 2 Ycoordinate
    0,                        !- Vertex 2 Zcoordinate
    705576.9326949079,        !- Vertex 3 Xcoordinate
    5711433.8849686645,       !- Vertex 3 Ycoordinate
    0,                        !- Vertex 3 Zcoordinate
    705576.9326949079,        !- Vertex 4 Xcoordinate
    5711433.8849686645,       !- Vertex 4 Ycoordinate
    9;                        !- Vertex 4 Zcoordinate

SHADING:SITE:DETAILED,
    shade_way/1056456199_3,    !- Name
    ,                         !- Transmittance Schedule Name
    autocalculate,            !- Number of Vertices
    705576.9326949079,        !- Vertex 1 Xcoordinate
    5711433.8849686645,       !- Vertex 1 Ycoordinate
    9,                        !- Vertex 1 Zcoordinate
    705576.9326949079,        !- Vertex 2 Xcoordinate
    5711433.8849686645,       !- Vertex 2 Ycoordinate
    0,                        !- Vertex 2 Zcoordinate
    705577.1972453593,        !- Vertex 3 Xcoordinate
    5711443.735157044,        !- Vertex 3 Ycoordinate
    0,                        !- Vertex 3 Zcoordinate
    705577.1972453593,        !- Vertex 4 Xcoordinate
    5711443.735157044,        !- Vertex 4 Ycoordinate
    9;                        !- Vertex 4 Zcoordinate

SHADING:SITE:DETAILED,
    shade_way/1056456199_4,    !- Name
    ,                         !- Transmittance Schedule Name
    autocalculate,            !- Number of Vertices
    705577.1972453593,        !- Vertex 1 Xcoordinate
    5711443.735157044,        !- Vertex 1 Ycoordinate
    9,                        !- Vertex 1 Zcoordinate
    705577.1972453593,        !- Vertex 2 Xcoordinate
    5711443.735157044,        !- Vertex 2 Ycoordinate
    0,                        !- Vertex 2 Zcoordinate
    705582.2293955834,        !- Vertex 3 Xcoordinate
    5711443.600206854,        !- Vertex 3 Ycoordinate
    0,                        !- Vertex 3 Zcoordinate
    705582.2293955834,        !- Vertex 4 Xcoordinate
    5711443.600206854,        !- Vertex 4 Ycoordinate
    9;                        !- Vertex 4 Zcoordinate

SHADING:SITE:DETAILED,
    shade_way/1056456198_1,    !- Name
    ,                         !- Transmittance Schedule Name
    autocalculate,            !- Number of Vertices
    705577.1977616511,        !- Vertex 1 Xcoordinate
    5711443.759009415,        !- Vertex 1 Ycoordinate
    9,                        !- Vertex 1 Zcoordinate
    705577.1977616511,        !- Vertex 2 Xcoordinate
    5711443.759009415,        !- Vertex 2 Ycoordinate
    0,                        !- Vertex 2 Zcoordinate
    705576.9554940993,        !- Vertex 3 Xcoordinate
    5711433.925446006,        !- Vertex 3 Ycoordinate
    0,                        !- Vertex 3 Zcoordinate
    705576.9554940993,        !- Vertex 4 Xcoordinate
    5711433.925446006,        !- Vertex 4 Ycoordinate
    9;                        !- Vertex 4 Zcoordinate

SHADING:SITE:DETAILED,
    shade_way/1056456198_2,    !- Name
    ,                         !- Transmittance Schedule Name
    autocalculate,            !- Number of Vertices
    705576.9554940993,        !- Vertex 1 Xcoordinate
    5711433.925446006,        !- Vertex 1 Ycoordinate
    9,                        !- Vertex 1 Zcoordinate
    705576.9554940993,        !- Vertex 2 Xcoordinate
    5711433.925446006,        !- Vertex 2 Ycoordinate
    0,                        !- Vertex 2 Zcoordinate
    705571.8558402552,        !- Vertex 3 Xcoordinate
    5711434.050884679,        !- Vertex 3 Ycoordinate
    0,                        !- Vertex 3 Zcoordinate
    705571.8558402552,        !- Vertex 4 Xcoordinate
    5711434.050884679,        !- Vertex 4 Ycoordinate
    9;                        !- Vertex 4 Zcoordinate

SHADING:SITE:DETAILED,
    shade_way/1056456198_3,    !- Name
    ,                         !- Transmittance Schedule Name
    autocalculate,            !- Number of Vertices
    705571.8558402552,        !- Vertex 1 Xcoordinate
    5711434.050884679,        !- Vertex 1 Ycoordinate
    9,                        !- Vertex 1 Zcoordinate
    705571.8558402552,        !- Vertex 2 Xcoordinate
    5711434.050884679,        !- Vertex 2 Ycoordinate
    0,                        !- Vertex 2 Zcoordinate
    705572.0982624786,        !- Vertex 3 Xcoordinate
    5711443.884919441,        !- Vertex 3 Ycoordinate
    0,                        !- Vertex 3 Zcoordinate
    705572.0982624786,        !- Vertex 4 Xcoordinate
    5711443.884919441,        !- Vertex 4 Ycoordinate
    9;                        !- Vertex 4 Zcoordinate

SHADING:SITE:DETAILED,
    shade_way/1056456198_4,    !- Name
    ,                         !- Transmittance Schedule Name
    autocalculate,            !- Number of Vertices
    705572.0982624786,        !- Vertex 1 Xcoordinate
    5711443.884919441,        !- Vertex 1 Ycoordinate
    9,                        !- Vertex 1 Zcoordinate
    705572.0982624786,        !- Vertex 2 Xcoordinate
    5711443.884919441,        !- Vertex 2 Ycoordinate
    0,                        !- Vertex 2 Zcoordinate
    705577.1977616511,        !- Vertex 3 Xcoordinate
    5711443.759009415,        !- Vertex 3 Ycoordinate
    0,                        !- Vertex 3 Zcoordinate
    705577.1977616511,        !- Vertex 4 Xcoordinate
    5711443.759009415,        !- Vertex 4 Ycoordinate
    9;                        !- Vertex 4 Zcoordinate

SHADING:SITE:DETAILED,
    shade_way/1056456197_1,    !- Name
    ,                         !- Transmittance Schedule Name
    autocalculate,            !- Number of Vertices
    705572.098960823,         !- Vertex 1 Xcoordinate
    5711443.905077205,        !- Vertex 1 Ycoordinate
    9,                        !- Vertex 1 Zcoordinate
    705572.098960823,         !- Vertex 2 Xcoordinate
    5711443.905077205,        !- Vertex 2 Ycoordinate
    0,                        !- Vertex 2 Zcoordinate
    705571.9124452614,        !- Vertex 3 Xcoordinate
    5711434.066339294,        !- Vertex 3 Ycoordinate
    0,                        !- Vertex 3 Zcoordinate
    705571.9124452614,        !- Vertex 4 Xcoordinate
    5711434.066339294,        !- Vertex 4 Ycoordinate
    9;                        !- Vertex 4 Zcoordinate

SHADING:SITE:DETAILED,
    shade_way/1056456197_2,    !- Name
    ,                         !- Transmittance Schedule Name
    autocalculate,            !- Number of Vertices
    705571.9124452614,        !- Vertex 1 Xcoordinate
    5711434.066339294,        !- Vertex 1 Ycoordinate
    9,                        !- Vertex 1 Zcoordinate
    705571.9124452614,        !- Vertex 2 Xcoordinate
    5711434.066339294,        !- Vertex 2 Ycoordinate
    0,                        !- Vertex 2 Zcoordinate
    705567.0024974906,        !- Vertex 3 Xcoordinate
    5711434.159467624,        !- Vertex 3 Ycoordinate
    0,                        !- Vertex 3 Zcoordinate
    705567.0024974906,        !- Vertex 4 Xcoordinate
    5711434.159467624,        !- Vertex 4 Ycoordinate
    9;                        !- Vertex 4 Zcoordinate

SHADING:SITE:DETAILED,
    shade_way/1056456197_3,    !- Name
    ,                         !- Transmittance Schedule Name
    autocalculate,            !- Number of Vertices
    705567.0024974906,        !- Vertex 1 Xcoordinate
    5711434.159467624,        !- Vertex 1 Ycoordinate
    9,                        !- Vertex 1 Zcoordinate
    705567.0024974906,        !- Vertex 2 Xcoordinate
    5711434.159467624,        !- Vertex 2 Ycoordinate
    0,                        !- Vertex 2 Zcoordinate
    705567.1883717219,        !- Vertex 3 Xcoordinate
    5711443.997803124,        !- Vertex 3 Ycoordinate
    0,                        !- Vertex 3 Zcoordinate
    705567.1883717219,        !- Vertex 4 Xcoordinate
    5711443.997803124,        !- Vertex 4 Ycoordinate
    9;                        !- Vertex 4 Zcoordinate

SHADING:SITE:DETAILED,
    shade_way/1056456197_4,    !- Name
    ,                         !- Transmittance Schedule Name
    autocalculate,            !- Number of Vertices
    705567.1883717219,        !- Vertex 1 Xcoordinate
    5711443.997803124,        !- Vertex 1 Ycoordinate
    9,                        !- Vertex 1 Zcoordinate
    705567.1883717219,        !- Vertex 2 Xcoordinate
    5711443.997803124,        !- Vertex 2 Ycoordinate
    0,                        !- Vertex 2 Zcoordinate
    705572.098960823,         !- Vertex 3 Xcoordinate
    5711443.905077205,        !- Vertex 3 Ycoordinate
    0,                        !- Vertex 3 Zcoordinate
    705572.098960823,         !- Vertex 4 Xcoordinate
    5711443.905077205,        !- Vertex 4 Ycoordinate
    9;                        !- Vertex 4 Zcoordinate

SHADING:SITE:DETAILED,
    shade_way/1058042182_1,    !- Name
    ,                         !- Transmittance Schedule Name
    autocalculate,            !- Number of Vertices
    705532.4988874267,        !- Vertex 1 Xcoordinate
    5711443.260616458,        !- Vertex 1 Ycoordinate
    6,                        !- Vertex 1 Zcoordinate
    705532.4988874267,        !- Vertex 2 Xcoordinate
    5711443.260616458,        !- Vertex 2 Ycoordinate
    0,                        !- Vertex 2 Zcoordinate
    705532.7570132664,        !- Vertex 3 Xcoordinate
    5711449.752377256,        !- Vertex 3 Ycoordinate
    0,                        !- Vertex 3 Zcoordinate
    705532.7570132664,        !- Vertex 4 Xcoordinate
    5711449.752377256,        !- Vertex 4 Ycoordinate
    6;                        !- Vertex 4 Zcoordinate

SHADING:SITE:DETAILED,
    shade_way/1058042182_2,    !- Name
    ,                         !- Transmittance Schedule Name
    autocalculate,            !- Number of Vertices
    705532.7570132664,        !- Vertex 1 Xcoordinate
    5711449.752377256,        !- Vertex 1 Ycoordinate
    6,                        !- Vertex 1 Zcoordinate
    705532.7570132664,        !- Vertex 2 Xcoordinate
    5711449.752377256,        !- Vertex 2 Ycoordinate
    0,                        !- Vertex 2 Zcoordinate
    705541.0050365652,        !- Vertex 3 Xcoordinate
    5711449.424632728,        !- Vertex 3 Ycoordinate
    0,                        !- Vertex 3 Zcoordinate
    705541.0050365652,        !- Vertex 4 Xcoordinate
    5711449.424632728,        !- Vertex 4 Ycoordinate
    6;                        !- Vertex 4 Zcoordinate

SHADING:SITE:DETAILED,
    shade_way/1058042182_3,    !- Name
    ,                         !- Transmittance Schedule Name
    autocalculate,            !- Number of Vertices
    705541.0050365652,        !- Vertex 1 Xcoordinate
    5711449.424632728,        !- Vertex 1 Ycoordinate
    6,                        !- Vertex 1 Zcoordinate
    705541.0050365652,        !- Vertex 2 Xcoordinate
    5711449.424632728,        !- Vertex 2 Ycoordinate
    0,                        !- Vertex 2 Zcoordinate
    705540.7469107256,        !- Vertex 3 Xcoordinate
    5711442.93287193,         !- Vertex 3 Ycoordinate
    0,                        !- Vertex 3 Zcoordinate
    705540.7469107256,        !- Vertex 4 Xcoordinate
    5711442.93287193,         !- Vertex 4 Ycoordinate
    6;                        !- Vertex 4 Zcoordinate

SHADING:SITE:DETAILED,
    shade_way/1058042182_4,    !- Name
    ,                         !- Transmittance Schedule Name
    autocalculate,            !- Number of Vertices
    705540.7469107256,        !- Vertex 1 Xcoordinate
    5711442.93287193,         !- Vertex 1 Ycoordinate
    6,                        !- Vertex 1 Zcoordinate
    705540.7469107256,        !- Vertex 2 Xcoordinate
    5711442.93287193,         !- Vertex 2 Ycoordinate
    0,                        !- Vertex 2 Zcoordinate
    705532.4988874267,        !- Vertex 3 Xcoordinate
    5711443.260616458,        !- Vertex 3 Ycoordinate
    0,                        !- Vertex 3 Zcoordinate
    705532.4988874267,        !- Vertex 4 Xcoordinate
    5711443.260616458,        !- Vertex 4 Ycoordinate
    6;                        !- Vertex 4 Zcoordinate

SHADING:SITE:DETAILED,
    shade_way/1058042183_1,    !- Name
    ,                         !- Transmittance Schedule Name
    autocalculate,            !- Number of Vertices
    705532.942075924,         !- Vertex 1 Xcoordinate
    5711455.818000491,        !- Vertex 1 Ycoordinate
    6,                        !- Vertex 1 Zcoordinate
    705532.942075924,         !- Vertex 2 Xcoordinate
    5711455.818000491,        !- Vertex 2 Ycoordinate
    0,                        !- Vertex 2 Zcoordinate
    705541.277388984,         !- Vertex 3 Xcoordinate
    5711455.53203571,         !- Vertex 3 Ycoordinate
    0,                        !- Vertex 3 Zcoordinate
    705541.277388984,         !- Vertex 4 Xcoordinate
    5711455.53203571,         !- Vertex 4 Ycoordinate
    6;                        !- Vertex 4 Zcoordinate

SHADING:SITE:DETAILED,
    shade_way/1058042183_2,    !- Name
    ,                         !- Transmittance Schedule Name
    autocalculate,            !- Number of Vertices
    705541.277388984,         !- Vertex 1 Xcoordinate
    5711455.53203571,         !- Vertex 1 Ycoordinate
    6,                        !- Vertex 1 Zcoordinate
    705541.277388984,         !- Vertex 2 Xcoordinate
    5711455.53203571,         !- Vertex 2 Ycoordinate
    0,                        !- Vertex 2 Zcoordinate
    705541.067125869,         !- Vertex 3 Xcoordinate
    5711449.405024535,        !- Vertex 3 Ycoordinate
    0,                        !- Vertex 3 Zcoordinate
    705541.067125869,         !- Vertex 4 Xcoordinate
    5711449.405024535,        !- Vertex 4 Ycoordinate
    6;                        !- Vertex 4 Zcoordinate

SHADING:SITE:DETAILED,
    shade_way/1058042183_3,    !- Name
    ,                         !- Transmittance Schedule Name
    autocalculate,            !- Number of Vertices
    705541.067125869,         !- Vertex 1 Xcoordinate
    5711449.405024535,        !- Vertex 1 Ycoordinate
    6,                        !- Vertex 1 Zcoordinate
    705541.067125869,         !- Vertex 2 Xcoordinate
    5711449.405024535,        !- Vertex 2 Ycoordinate
    0,                        !- Vertex 2 Zcoordinate
    705532.731812809,         !- Vertex 3 Xcoordinate
    5711449.6909893155,       !- Vertex 3 Ycoordinate
    0,                        !- Vertex 3 Zcoordinate
    705532.731812809,         !- Vertex 4 Xcoordinate
    5711449.6909893155,       !- Vertex 4 Ycoordinate
    6;                        !- Vertex 4 Zcoordinate

SHADING:SITE:DETAILED,
    shade_way/1058042183_4,    !- Name
    ,                         !- Transmittance Schedule Name
    autocalculate,            !- Number of Vertices
    705532.731812809,         !- Vertex 1 Xcoordinate
    5711449.6909893155,       !- Vertex 1 Ycoordinate
    6,                        !- Vertex 1 Zcoordinate
    705532.731812809,         !- Vertex 2 Xcoordinate
    5711449.6909893155,       !- Vertex 2 Ycoordinate
    0,                        !- Vertex 2 Zcoordinate
    705532.942075924,         !- Vertex 3 Xcoordinate
    5711455.818000491,        !- Vertex 3 Ycoordinate
    0,                        !- Vertex 3 Zcoordinate
    705532.942075924,         !- Vertex 4 Xcoordinate
    5711455.818000491,        !- Vertex 4 Ycoordinate
    6;                        !- Vertex 4 Zcoordinate

SHADING:SITE:DETAILED,
    shade_way/1058042184_1,    !- Name
    ,                         !- Transmittance Schedule Name
    autocalculate,            !- Number of Vertices
    705532.942075924,         !- Vertex 1 Xcoordinate
    5711455.818000491,        !- Vertex 1 Ycoordinate
    6,                        !- Vertex 1 Zcoordinate
    705532.942075924,         !- Vertex 2 Xcoordinate
    5711455.818000491,        !- Vertex 2 Ycoordinate
    0,                        !- Vertex 2 Zcoordinate
    705533.138216188,         !- Vertex 3 Xcoordinate
    5711461.438622103,        !- Vertex 3 Ycoordinate
    0,                        !- Vertex 3 Zcoordinate
    705533.138216188,         !- Vertex 4 Xcoordinate
    5711461.438622103,        !- Vertex 4 Ycoordinate
    6;                        !- Vertex 4 Zcoordinate

SHADING:SITE:DETAILED,
    shade_way/1058042184_2,    !- Name
    ,                         !- Transmittance Schedule Name
    autocalculate,            !- Number of Vertices
    705533.138216188,         !- Vertex 1 Xcoordinate
    5711461.438622103,        !- Vertex 1 Ycoordinate
    6,                        !- Vertex 1 Zcoordinate
    705533.138216188,         !- Vertex 2 Xcoordinate
    5711461.438622103,        !- Vertex 2 Ycoordinate
    0,                        !- Vertex 2 Zcoordinate
    705541.4749631708,        !- Vertex 3 Xcoordinate
    5711461.147540995,        !- Vertex 3 Ycoordinate
    0,                        !- Vertex 3 Zcoordinate
    705541.4749631708,        !- Vertex 4 Xcoordinate
    5711461.147540995,        !- Vertex 4 Ycoordinate
    6;                        !- Vertex 4 Zcoordinate

SHADING:SITE:DETAILED,
    shade_way/1058042184_3,    !- Name
    ,                         !- Transmittance Schedule Name
    autocalculate,            !- Number of Vertices
    705541.4749631708,        !- Vertex 1 Xcoordinate
    5711461.147540995,        !- Vertex 1 Ycoordinate
    6,                        !- Vertex 1 Zcoordinate
    705541.4749631708,        !- Vertex 2 Xcoordinate
    5711461.147540995,        !- Vertex 2 Ycoordinate
    0,                        !- Vertex 2 Zcoordinate
    705541.278822907,         !- Vertex 3 Xcoordinate
    5711455.526919384,        !- Vertex 3 Ycoordinate
    0,                        !- Vertex 3 Zcoordinate
    705541.278822907,         !- Vertex 4 Xcoordinate
    5711455.526919384,        !- Vertex 4 Ycoordinate
    6;                        !- Vertex 4 Zcoordinate

SHADING:SITE:DETAILED,
    shade_way/1058042184_4,    !- Name
    ,                         !- Transmittance Schedule Name
    autocalculate,            !- Number of Vertices
    705541.278822907,         !- Vertex 1 Xcoordinate
    5711455.526919384,        !- Vertex 1 Ycoordinate
    6,                        !- Vertex 1 Zcoordinate
    705541.278822907,         !- Vertex 2 Xcoordinate
    5711455.526919384,        !- Vertex 2 Ycoordinate
    0,                        !- Vertex 2 Zcoordinate
    705532.942075924,         !- Vertex 3 Xcoordinate
    5711455.818000491,        !- Vertex 3 Ycoordinate
    0,                        !- Vertex 3 Zcoordinate
    705532.942075924,         !- Vertex 4 Xcoordinate
    5711455.818000491,        !- Vertex 4 Ycoordinate
    6;                        !- Vertex 4 Zcoordinate

OTHEREQUIPMENT,
    EU_Step8_InternalGain_f7d4223a49638842_F0_dwelling_0_f000,    !- Name
    Electricity,              !- Fuel Type
    f7d4223a49638842_F0_dwelling_0,    !- Zone or ZoneList or Space or SpaceList Name
    EU_Step8_GainSchedule_f7d4223a49638842_F0_dwelling_0_f000,    !- Schedule Name
    Watts/Area,               !- Design Level Calculation Method
    ,                         !- Design Level
    1,                        !- Power per Zone Floor Area
    ,                         !- Power per Person
    0,                        !- Fraction Latent
    0,                        !- Fraction Radiant
    0,                        !- Fraction Lost
    0,                        !- Carbon Dioxide Generation Rate
    EU_Step8_InternalGains;    !- EndUse Subcategory

ZONEVENTILATION:DESIGNFLOWRATE,
    EU_ConstantAir_f7d4223a49638842_F0_dwelling_0,    !- Name
    f7d4223a49638842_F0_dwelling_0,    !- Zone or ZoneList or Space or SpaceList Name
    EU_AlwaysOn,              !- Schedule Name
    AirChanges/Hour,          !- Design Flow Rate Calculation Method
    ,                         !- Design Flow Rate
    ,                         !- Flow Rate per Floor Area
    ,                         !- Flow Rate per Person
    4.849006e-01,             !- Air Changes per Hour
    Natural,                  !- Ventilation Type
    0,                        !- Fan Pressure Rise
    1,                        !- Fan Total Efficiency
    1,                        !- Constant Term Coefficient
    0,                        !- Temperature Term Coefficient
    0,                        !- Velocity Term Coefficient
    0,                        !- Velocity Squared Term Coefficient
    -100,                     !- Minimum Indoor Temperature
    ,                         !- Minimum Indoor Temperature Schedule Name
    100,                      !- Maximum Indoor Temperature
    ,                         !- Maximum Indoor Temperature Schedule Name
    -100,                     !- Delta Temperature
    ,                         !- Delta Temperature Schedule Name
    -100,                     !- Minimum Outdoor Temperature
    ,                         !- Minimum Outdoor Temperature Schedule Name
    100,                      !- Maximum Outdoor Temperature
    ,                         !- Maximum Outdoor Temperature Schedule Name
    40;                       !- Maximum Wind Speed

HVACTEMPLATE:THERMOSTAT,
    EU_HeatOnly_f7d4223a49638842_F0_dwelling_0,    !- Name
    ,                         !- Heating Setpoint Schedule Name
    20,                       !- Constant Heating Setpoint
    ,                         !- Cooling Setpoint Schedule Name
    50;                       !- Constant Cooling Setpoint

HVACTEMPLATE:ZONE:IDEALLOADSAIRSYSTEM,
    f7d4223a49638842_F0_dwelling_0,    !- Zone Name
    EU_HeatOnly_f7d4223a49638842_F0_dwelling_0,    !- Template Thermostat Name
    EU_AlwaysOn,              !- System Availability Schedule Name
    50,                       !- Maximum Heating Supply Air Temperature
    13,                       !- Minimum Cooling Supply Air Temperature
    0.0156,                   !- Maximum Heating Supply Air Humidity Ratio
    0.0077,                   !- Minimum Cooling Supply Air Humidity Ratio
    NoLimit,                  !- Heating Limit
    ,                         !- Maximum Heating Air Flow Rate
    ,                         !- Maximum Sensible Heating Capacity
    NoLimit,                  !- Cooling Limit
    ,                         !- Maximum Cooling Air Flow Rate
    ,                         !- Maximum Total Cooling Capacity
    EU_AlwaysOn,              !- Heating Availability Schedule Name
    EU_CoolingOff,            !- Cooling Availability Schedule Name
    ConstantSensibleHeatRatio,    !- Dehumidification Control Type
    0.7,                      !- Cooling Sensible Heat Ratio
    60,                       !- Dehumidification Setpoint
    None,                     !- Humidification Control Type
    30,                       !- Humidification Setpoint
    None,                     !- Outdoor Air Method
    0.00944,                  !- Outdoor Air Flow Rate per Person
    0.0,                      !- Outdoor Air Flow Rate per Zone Floor Area
    0,                        !- Outdoor Air Flow Rate per Zone
    ,                         !- Design Specification Outdoor Air Object Name
    None,                     !- Demand Controlled Ventilation Type
    NoEconomizer,             !- Outdoor Air Economizer Type
    None,                     !- Heat Recovery Type
    0.70,                     !- Sensible Heat Recovery Effectiveness
    0.65;                     !- Latent Heat Recovery Effectiveness

SIZING:ZONE,
    f7d4223a49638842_F0_dwelling_0,    !- Zone or ZoneList Name
    SupplyAirTemperature,     !- Zone Cooling Design Supply Air Temperature Input Method
    13,                       !- Zone Cooling Design Supply Air Temperature
    ,                         !- Zone Cooling Design Supply Air Temperature Difference
    SupplyAirTemperature,     !- Zone Heating Design Supply Air Temperature Input Method
    50,                       !- Zone Heating Design Supply Air Temperature
    ,                         !- Zone Heating Design Supply Air Temperature Difference
    0.008,                    !- Zone Cooling Design Supply Air Humidity Ratio
    0.008,                    !- Zone Heating Design Supply Air Humidity Ratio
    ,                         !- Design Specification Outdoor Air Object Name
    ,                         !- Zone Heating Sizing Factor
    ,                         !- Zone Cooling Sizing Factor
    DesignDay,                !- Cooling Design Air Flow Method
    0,                        !- Cooling Design Air Flow Rate
    0.000762,                 !- Cooling Minimum Air Flow per Zone Floor Area
    0,                        !- Cooling Minimum Air Flow
    0.2,                      !- Cooling Minimum Air Flow Fraction
    DesignDay,                !- Heating Design Air Flow Method
    0,                        !- Heating Design Air Flow Rate
    0.002032,                 !- Heating Maximum Air Flow per Zone Floor Area
    0.1415762,                !- Heating Maximum Air Flow
    0.3,                      !- Heating Maximum Air Flow Fraction
    ,                         !- Design Specification Zone Air Distribution Object Name
    No,                       !- Account for Dedicated Outdoor Air System
    NeutralSupplyAir,         !- Dedicated Outdoor Air System Control Strategy
    autosize,                 !- Dedicated Outdoor Air Low Setpoint Temperature for Design
    autosize,                 !- Dedicated Outdoor Air High Setpoint Temperature for Design
    Sensible Load Only No Latent Load,    !- Zone Load Sizing Method
    HumidityRatioDifference,    !- Zone Latent Cooling Design Supply Air Humidity Ratio Input Method
    ,                         !- Zone Dehumidification Design Supply Air Humidity Ratio
    0.005,                    !- Zone Cooling Design Supply Air Humidity Ratio Difference
    HumidityRatioDifference,    !- Zone Latent Heating Design Supply Air Humidity Ratio Input Method
    ,                         !- Zone Humidification Design Supply Air Humidity Ratio
    0.005;                    !- Zone Humidification Design Supply Air Humidity Ratio Difference

OUTPUT:VARIABLE,
    *,                        !- Key Value
    Zone Ideal Loads Zone Total Heating Energy,    !- Variable Name
    Hourly;                   !- Reporting Frequency

OUTPUT:SQLITE,
    SimpleAndTabular,         !- Option Type
    UseOutputControlTableStyle;    !- Unit Conversion for Tabular Data