!- Windows Line endings 

Version,
    23.1;                     !- Version Identifier

SimulationControl,
    Yes,                      !- Do Zone Sizing Calculation
    Yes,                      !- Do System Sizing Calculation
    Yes,                      !- Do Plant Sizing Calculation
    No,                       !- Run Simulation for Sizing Periods
    Yes,                      !- Run Simulation for Weather File Run Periods
    No,                       !- Do HVAC Sizing Simulation for Sizing Periods
    1;                        !- Maximum Number of HVAC Sizing Simulation Passes

Building,
    EU S2 Campaign,           !- Name
    0,                        !- North Axis
    City,                     !- Terrain
    ,                         !- Loads Convergence Tolerance Value
    ,                         !- Temperature Convergence Tolerance Value
    FullExterior,             !- Solar Distribution
    ,                         !- Maximum Number of Warmup Days
    ;                         !- Minimum Number of Warmup Days

ShadowCalculation,
    PolygonClipping,          !- Shading Calculation Method
    Periodic,                 !- Shading Calculation Update Frequency Method
    1;                        !- Shading Calculation Update Frequency

HeatBalanceAlgorithm,
    ConductionTransferFunction,    !- Algorithm
    200,                      !- Surface Temperature Upper Limit
    0.1,                      !- Minimum Surface Convection Heat Transfer Coefficient Value
    10000000;                 !- Maximum Surface Convection Heat Transfer Coefficient Value

Timestep,
    12;                       !- Number of Timesteps per Hour

Site:Location,
    Bologna,                  !- Name
    44.5,                     !- Latitude
    11.25,                    !- Longitude
    1,                        !- Time Zone
    37;                       !- Elevation

SizingPeriod:WeatherFileDays,
    AnnualSizingPeriod,       !- Name
    1,                        !- Begin Month
    1,                        !- Begin Day of Month
    12,                       !- End Month
    31,                       !- End Day of Month
    Monday,                   !- Day of Week for Start Day
    No,                       !- Use Weather File Daylight Saving Period
    No;                       !- Use Weather File Rain and Snow Indicators

RunPeriod,
    RunPeriod1,               !- Name
    1,                        !- Begin Month
    1,                        !- Begin Day of Month
    ,                         !- Begin Year
    12,                       !- End Month
    31,                       !- End Day of Month
    ,                         !- End Year
    Sunday,                   !- Day of Week for Start Day
    No,                       !- Use Weather File Holidays and Special Days
    No,                       !- Use Weather File Daylight Saving Period
    No,                       !- Apply Weekend Holiday Rule
    Yes,                      !- Use Weather File Rain Indicators
    Yes;                      !- Use Weather File Snow Indicators

ScheduleTypeLimits,
    Any Number;               !- Name

SCHEDULETYPELIMITS,
    EU_Step8_AnyNumber_Wm2,    !- Name
    ,                         !- Lower Limit Value
    ,                         !- Upper Limit Value
    Continuous,               !- Numeric Type
    Dimensionless;            !- Unit Type

SCHEDULE:CONSTANT,
    EU_AlwaysOn,              !- Name
    ,                         !- Schedule Type Limits Name
    1;                        !- Hourly Value

SCHEDULE:CONSTANT,
    EU_CoolingOff,            !- Name
    ,                         !- Schedule Type Limits Name
    0;                        !- Hourly Value

SCHEDULE:FILE,
    EU_Step8_GainSchedule_89ddb942f271fbd8_F0_dwelling_0_f000,    !- Name
    EU_Step8_AnyNumber_Wm2,    !- Schedule Type Limits Name
    ../../schedules/89ddb942f271fbd8/89ddb942f271fbd8_F0_dwelling_0_f000_gain.csv,    !- File Name
    1,                        !- Column Number
    0,                        !- Rows to Skip at Top
    8760,                     !- Number of Hours of Data
    Comma,                    !- Column Separator
    No,                       !- Interpolate to Timestep
    60,                       !- Minutes per Item
    Yes;                      !- Adjust Schedule for Daylight Savings

SCHEDULE:FILE,
    EU_Step8_GainSchedule_89ddb942f271fbd8_F0_dwelling_1_f000,    !- Name
    EU_Step8_AnyNumber_Wm2,    !- Schedule Type Limits Name
    ../../schedules/89ddb942f271fbd8/89ddb942f271fbd8_F0_dwelling_1_f000_gain.csv,    !- File Name
    1,                        !- Column Number
    0,                        !- Rows to Skip at Top
    8760,                     !- Number of Hours of Data
    Comma,                    !- Column Separator
    No,                       !- Interpolate to Timestep
    60,                       !- Minutes per Item
    Yes;                      !- Adjust Schedule for Daylight Savings

SCHEDULE:FILE,
    EU_Step8_GainSchedule_89ddb942f271fbd8_F1_dwelling_0_f000,    !- Name
    EU_Step8_AnyNumber_Wm2,    !- Schedule Type Limits Name
    ../../schedules/89ddb942f271fbd8/89ddb942f271fbd8_F1_dwelling_0_f000_gain.csv,    !- File Name
    1,                        !- Column Number
    0,                        !- Rows to Skip at Top
    8760,                     !- Number of Hours of Data
    Comma,                    !- Column Separator
    No,                       !- Interpolate to Timestep
    60,                       !- Minutes per Item
    Yes;                      !- Adjust Schedule for Daylight Savings

SCHEDULE:FILE,
    EU_Step8_GainSchedule_89ddb942f271fbd8_F2_dwelling_0_f000,    !- Name
    EU_Step8_AnyNumber_Wm2,    !- Schedule Type Limits Name
    ../../schedules/89ddb942f271fbd8/89ddb942f271fbd8_F2_dwelling_0_f000_gain.csv,    !- File Name
    1,                        !- Column Number
    0,                        !- Rows to Skip at Top
    8760,                     !- Number of Hours of Data
    Comma,                    !- Column Separator
    No,                       !- Interpolate to Timestep
    60,                       !- Minutes per Item
    Yes;                      !- Adjust Schedule for Daylight Savings

SCHEDULE:FILE,
    EU_Step8_GainSchedule_89ddb942f271fbd8_F3_dwelling_0_f000,    !- Name
    EU_Step8_AnyNumber_Wm2,    !- Schedule Type Limits Name
    ../../schedules/89ddb942f271fbd8/89ddb942f271fbd8_F3_dwelling_0_f000_gain.csv,    !- File Name
    1,                        !- Column Number
    0,                        !- Rows to Skip at Top
    8760,                     !- Number of Hours of Data
    Comma,                    !- Column Separator
    No,                       !- Interpolate to Timestep
    60,                       !- Minutes per Item
    Yes;                      !- Adjust Schedule for Daylight Savings

MATERIAL,
    EU_InternalMass_Material,    !- Name
    MediumRough,              !- Roughness
    0.1,                      !- Thickness
    1,                        !- Conductivity
    1800,                     !- Density
    900,                      !- Specific Heat
    0.9,                      !- Thermal Absorptance
    0.7,                      !- Solar Absorptance
    0.7;                      !- Visible Absorptance

MATERIAL:NOMASS,
    EU_wall_NoMass,           !- Name
    MediumRough,              !- Roughness
    0.9378813067869615,       !- Thermal Resistance
    0.9,                      !- Thermal Absorptance
    0.7,                      !- Solar Absorptance
    0.7;                      !- Visible Absorptance

MATERIAL:NOMASS,
    EU_roof_NoMass,           !- Name
    MediumRough,              !- Roughness
    0.5485720851018077,       !- Thermal Resistance
    0.9,                      !- Thermal Absorptance
    0.7,                      !- Solar Absorptance
    0.7;                      !- Visible Absorptance

MATERIAL:NOMASS,
    EU_floor_NoMass,          !- Name
    MediumRough,              !- Roughness
    0.7134802579238234,       !- Thermal Resistance
    0.9,                      !- Thermal Absorptance
    0.7,                      !- Solar Absorptance
    0.7;                      !- Visible Absorptance

CONSTRUCTION,
    EU_wall_Construction,     !- Name
    EU_wall_NoMass;           !- Outside Layer

CONSTRUCTION,
    EU_roof_Construction,     !- Name
    EU_roof_NoMass;           !- Outside Layer

CONSTRUCTION,
    EU_floor_Construction,    !- Name
    EU_floor_NoMass;          !- Outside Layer

CONSTRUCTION,
    EU_InternalMass_Construction,    !- Name
    EU_InternalMass_Material;    !- Outside Layer

GlobalGeometryRules,
    UpperLeftCorner,          !- Starting Vertex Position
    CounterClockWise,         !- Vertex Entry Direction
    World;                    !- Coordinate System

ZONE,
    89ddb942f271fbd8_F0_dwelling_0,    !- Name
    0,                        !- Direction of Relative North
    0,                        !- X Origin
    0,                        !- Y Origin
    0,                        !- Z Origin
    1,                        !- Type
    1,                        !- Multiplier
    autocalculate,            !- Ceiling Height
    48.23291015625,           !- Volume
    autocalculate,            !- Floor Area
    ,                         !- Zone Inside Convection Algorithm
    ,                         !- Zone Outside Convection Algorithm
    Yes;                      !- Part of Total Floor Area

ZONE,
    89ddb942f271fbd8_F1_dwelling_0,    !- Name
    0,                        !- Direction of Relative North
    0,                        !- X Origin
    0,                        !- Y Origin
    0,                        !- Z Origin
    1,                        !- Type
    1,                        !- Multiplier
    autocalculate,            !- Ceiling Height
    48.234375,                !- Volume
    autocalculate,            !- Floor Area
    ,                         !- Zone Inside Convection Algorithm
    ,                         !- Zone Outside Convection Algorithm
    Yes;                      !- Part of Total Floor Area

ZONE,
    89ddb942f271fbd8_F2_dwelling_0,    !- Name
    0,                        !- Direction of Relative North
    0,                        !- X Origin
    0,                        !- Y Origin
    0,                        !- Z Origin
    1,                        !- Type
    1,                        !- Multiplier
    autocalculate,            !- Ceiling Height
    48.234375,                !- Volume
    autocalculate,            !- Floor Area
    ,                         !- Zone Inside Convection Algorithm
    ,                         !- Zone Outside Convection Algorithm
    Yes;                      !- Part of Total Floor Area

ZONE,
    89ddb942f271fbd8_F3_dwelling_0,    !- Name
    0,                        !- Direction of Relative North
    0,                        !- X Origin
    0,                        !- Y Origin
    0,                        !- Z Origin
    1,                        !- Type
    1,                        !- Multiplier
    autocalculate,            !- Ceiling Height
    48.234375,                !- Volume
    autocalculate,            !- Floor Area
    ,                         !- Zone Inside Convection Algorithm
    ,                         !- Zone Outside Convection Algorithm
    Yes;                      !- Part of Total Floor Area

ZONE,
    89ddb942f271fbd8_F0_dwelling_1,    !- Name
    0,                        !- Direction of Relative North
    0,                        !- X Origin
    0,                        !- Y Origin
    0,                        !- Z Origin
    1,                        !- Type
    1,                        !- Multiplier
    autocalculate,            !- Ceiling Height
    48.252685546875,          !- Volume
    autocalculate,            !- Floor Area
    ,                         !- Zone Inside Convection Algorithm
    ,                         !- Zone Outside Convection Algorithm
    Yes;                      !- Part of Total Floor Area

BUILDINGSURFACE:DETAILED,
    Block 89ddb942f271fbd8_0 Storey 0 Wall 0001,    !- Name
    wall,                     !- Surface Type
    EU_wall_Construction,     !- Construction Name
    89ddb942f271fbd8_F0_dwelling_0,    !- Zone Name
    ,                         !- Space Name
    Adiabatic,                !- Outside Boundary Condition
    ,                         !- Outside Boundary Condition Object
    NoSun,                    !- Sun Exposure
    NoWind,                   !- Wind Exposure
    autocalculate,            !- View Factor to Ground
    autocalculate,            !- Number of Vertices
    687272.353,               !- Vertex 1 Xcoordinate
    4928884.638,              !- Vertex 1 Ycoordinate
    3,                        !- Vertex 1 Zcoordinate
    687272.353,               !- Vertex 2 Xcoordinate
    4928884.638,              !- Vertex 2 Ycoordinate
    0,                        !- Vertex 2 Zcoordinate
    687274.353,               !- Vertex 3 Xcoordinate
    4928889.958,              !- Vertex 3 Ycoordinate
    0,                        !- Vertex 3 Zcoordinate
    687274.353,               !- Vertex 4 Xcoordinate
    4928889.958,              !- Vertex 4 Ycoordinate
    3;                        !- Vertex 4 Zcoordinate

BUILDINGSURFACE:DETAILED,
    Block 89ddb942f271fbd8_0 Storey 0 Wall 0002,    !- Name
    wall,                     !- Surface Type
    EU_wall_Construction,     !- Construction Name
    89ddb942f271fbd8_F0_dwelling_0,    !- Zone Name
    ,                         !- Space Name
    Adiabatic,                !- Outside Boundary Condition
    ,                         !- Outside Boundary Condition Object
    NoSun,                    !- Sun Exposure
    NoWind,                   !- Wind Exposure
    autocalculate,            !- View Factor to Ground
    autocalculate,            !- Number of Vertices
    687274.353,               !- Vertex 1 Xcoordinate
    4928889.958,              !- Vertex 1 Ycoordinate
    3,                        !- Vertex 1 Zcoordinate
    687274.353,               !- Vertex 2 Xcoordinate
    4928889.958,              !- Vertex 2 Ycoordinate
    0,                        !- Vertex 2 Zcoordinate
    687277.195,               !- Vertex 3 Xcoordinate
    4928888.742,              !- Vertex 3 Ycoordinate
    0,                        !- Vertex 3 Zcoordinate
    687277.195,               !- Vertex 4 Xcoordinate
    4928888.742,              !- Vertex 4 Ycoordinate
    3;                        !- Vertex 4 Zcoordinate

BUILDINGSURFACE:DETAILED,
    Block 89ddb942f271fbd8_0 Storey 0 Wall 0004,    !- Name
    wall,                     !- Surface Type
    EU_wall_Construction,     !- Construction Name
    89ddb942f271fbd8_F0_dwelling_0,    !- Zone Name
    ,                         !- Space Name
    Adiabatic,                !- Outside Boundary Condition
    ,                         !- Outside Boundary Condition Object
    NoSun,                    !- Sun Exposure
    NoWind,                   !- Wind Exposure
    autocalculate,            !- View Factor to Ground
    autocalculate,            !- Number of Vertices
    687274.596,               !- Vertex 1 Xcoordinate
    4928883.523,              !- Vertex 1 Ycoordinate
    3,                        !- Vertex 1 Zcoordinate
    687274.596,               !- Vertex 2 Xcoordinate
    4928883.523,              !- Vertex 2 Ycoordinate
    0,                        !- Vertex 2 Zcoordinate
    687272.353,               !- Vertex 3 Xcoordinate
    4928884.638,              !- Vertex 3 Ycoordinate
    0,                        !- Vertex 3 Zcoordinate
    687272.353,               !- Vertex 4 Xcoordinate
    4928884.638,              !- Vertex 4 Ycoordinate
    3;                        !- Vertex 4 Zcoordinate

BUILDINGSURFACE:DETAILED,
    Block 89ddb942f271fbd8_0 Storey 0 Floor 0001,    !- Name
    floor,                    !- Surface Type
    EU_floor_Construction,    !- Construction Name
    89ddb942f271fbd8_F0_dwelling_0,    !- Zone Name
    ,                         !- Space Name
    ground,                   !- Outside Boundary Condition
    ,                         !- Outside Boundary Condition Object
    NoSun,                    !- Sun Exposure
    NoWind,                   !- Wind Exposure
    autocalculate,            !- View Factor to Ground
    autocalculate,            !- Number of Vertices
    687274.596,               !- Vertex 1 Xcoordinate
    4928883.523,              !- Vertex 1 Ycoordinate
    0,                        !- Vertex 1 Zcoordinate
    687277.195,               !- Vertex 2 Xcoordinate
    4928888.742,              !- Vertex 2 Ycoordinate
    0,                        !- Vertex 2 Zcoordinate
    687274.353,               !- Vertex 3 Xcoordinate
    4928889.958,              !- Vertex 3 Ycoordinate
    0,                        !- Vertex 3 Zcoordinate
    687272.353,               !- Vertex 4 Xcoordinate
    4928884.638,              !- Vertex 4 Ycoordinate
    0;                        !- Vertex 4 Zcoordinate

BUILDINGSURFACE:DETAILED,
    Block 89ddb942f271fbd8_0 Storey 1 Wall 0001,    !- Name
    wall,                     !- Surface Type
    EU_wall_Construction,     !- Construction Name
    89ddb942f271fbd8_F1_dwelling_0,    !- Zone Name
    ,                         !- Space Name
    Adiabatic,                !- Outside Boundary Condition
    ,                         !- Outside Boundary Condition Object
    NoSun,                    !- Sun Exposure
    NoWind,                   !- Wind Exposure
    autocalculate,            !- View Factor to Ground
    autocalculate,            !- Number of Vertices
    687272.353,               !- Vertex 1 Xcoordinate
    4928884.638,              !- Vertex 1 Ycoordinate
    6,                        !- Vertex 1 Zcoordinate
    687272.353,               !- Vertex 2 Xcoordinate
    4928884.638,              !- Vertex 2 Ycoordinate
    3,                        !- Vertex 2 Zcoordinate
    687274.353,               !- Vertex 3 Xcoordinate
    4928889.958,              !- Vertex 3 Ycoordinate
    3,                        !- Vertex 3 Zcoordinate
    687274.353,               !- Vertex 4 Xcoordinate
    4928889.958,              !- Vertex 4 Ycoordinate
    6;                        !- Vertex 4 Zcoordinate

BUILDINGSURFACE:DETAILED,
    Block 89ddb942f271fbd8_0 Storey 1 Wall 0002,    !- Name
    wall,                     !- Surface Type
    EU_wall_Construction,     !- Construction Name
    89ddb942f271fbd8_F1_dwelling_0,    !- Zone Name
    ,                         !- Space Name
    Adiabatic,                !- Outside Boundary Condition
    ,                         !- Outside Boundary Condition Object
    NoSun,                    !- Sun Exposure
    NoWind,                   !- Wind Exposure
    autocalculate,            !- View Factor to Ground
    autocalculate,            !- Number of Vertices
    687274.353,               !- Vertex 1 Xcoordinate
    4928889.958,              !- Vertex 1 Ycoordinate
    6,                        !- Vertex 1 Zcoordinate
    687274.353,               !- Vertex 2 Xcoordinate
    4928889.958,              !- Vertex 2 Ycoordinate
    3,                        !- Vertex 2 Zcoordinate
    687277.195,               !- Vertex 3 Xcoordinate
    4928888.742,              !- Vertex 3 Ycoordinate
    3,                        !- Vertex 3 Zcoordinate
    687277.195,               !- Vertex 4 Xcoordinate
    4928888.742,              !- Vertex 4 Ycoordinate
    6;                        !- Vertex 4 Zcoordinate

BUILDINGSURFACE:DETAILED,
    Block 89ddb942f271fbd8_0 Storey 1 Wall 0003,    !- Name
    wall,                     !- Surface Type
    EU_wall_Construction,     !- Construction Name
    89ddb942f271fbd8_F1_dwelling_0,    !- Zone Name
    ,                         !- Space Name
    Adiabatic,                !- Outside Boundary Condition
    ,                         !- Outside Boundary Condition Object
    NoSun,                    !- Sun Exposure
    NoWind,                   !- Wind Exposure
    autocalculate,            !- View Factor to Ground
    autocalculate,            !- Number of Vertices
    687277.195,               !- Vertex 1 Xcoordinate
    4928888.742,              !- Vertex 1 Ycoordinate
    6,                        !- Vertex 1 Zcoordinate
    687277.195,               !- Vertex 2 Xcoordinate
    4928888.742,              !- Vertex 2 Ycoordinate
    3,                        !- Vertex 2 Zcoordinate
    687274.596,               !- Vertex 3 Xcoordinate
    4928883.523,              !- Vertex 3 Ycoordinate
    3,                        !- Vertex 3 Zcoordinate
    687274.596,               !- Vertex 4 Xcoordinate
    4928883.523,              !- Vertex 4 Ycoordinate
    6;                        !- Vertex 4 Zcoordinate

BUILDINGSURFACE:DETAILED,
    Block 89ddb942f271fbd8_0 Storey 1 Wall 0004,    !- Name
    wall,                     !- Surface Type
    EU_wall_Construction,     !- Construction Name
    89ddb942f271fbd8_F1_dwelling_0,    !- Zone Name
    ,                         !- Space Name
    Adiabatic,                !- Outside Boundary Condition
    ,                         !- Outside Boundary Condition Object
    NoSun,                    !- Sun Exposure
    NoWind,                   !- Wind Exposure
    autocalculate,            !- View Factor to Ground
    autocalculate,            !- Number of Vertices
    687274.596,               !- Vertex 1 Xcoordinate
    4928883.523,              !- Vertex 1 Ycoordinate
    6,                        !- Vertex 1 Zcoordinate
    687274.596,               !- Vertex 2 Xcoordinate
    4928883.523,              !- Vertex 2 Ycoordinate
    3,                        !- Vertex 2 Zcoordinate
    687272.353,               !- Vertex 3 Xcoordinate
    4928884.638,              !- Vertex 3 Ycoordinate
    3,                        !- Vertex 3 Zcoordinate
    687272.353,               !- Vertex 4 Xcoordinate
    4928884.638,              !- Vertex 4 Ycoordinate
    6;                        !- Vertex 4 Zcoordinate

BUILDINGSURFACE:DETAILED,
    Block 89ddb942f271fbd8_0 Storey 2 Wall 0001,    !- Name
    wall,                     !- Surface Type
    EU_wall_Construction,     !- Construction Name
    89ddb942f271fbd8_F2_dwelling_0,    !- Zone Name
    ,                         !- Space Name
    Adiabatic,                !- Outside Boundary Condition
    ,                         !- Outside Boundary Condition Object
    NoSun,                    !- Sun Exposure
    NoWind,                   !- Wind Exposure
    autocalculate,            !- View Factor to Ground
    autocalculate,            !- Number of Vertices
    687272.353,               !- Vertex 1 Xcoordinate
    4928884.638,              !- Vertex 1 Ycoordinate
    9,                        !- Vertex 1 Zcoordinate
    687272.353,               !- Vertex 2 Xcoordinate
    4928884.638,              !- Vertex 2 Ycoordinate
    6,                        !- Vertex 2 Zcoordinate
    687274.353,               !- Vertex 3 Xcoordinate
    4928889.958,              !- Vertex 3 Ycoordinate
    6,                        !- Vertex 3 Zcoordinate
    687274.353,               !- Vertex 4 Xcoordinate
    4928889.958,              !- Vertex 4 Ycoordinate
    9;                        !- Vertex 4 Zcoordinate

BUILDINGSURFACE:DETAILED,
    Block 89ddb942f271fbd8_0 Storey 2 Wall 0002,    !- Name
    wall,                     !- Surface Type
    EU_wall_Construction,     !- Construction Name
    89ddb942f271fbd8_F2_dwelling_0,    !- Zone Name
    ,                         !- Space Name
    Adiabatic,                !- Outside Boundary Condition
    ,                         !- Outside Boundary Condition Object
    NoSun,                    !- Sun Exposure
    NoWind,                   !- Wind Exposure
    autocalculate,            !- View Factor to Ground
    autocalculate,            !- Number of Vertices
    687274.353,               !- Vertex 1 Xcoordinate
    4928889.958,              !- Vertex 1 Ycoordinate
    9,                        !- Vertex 1 Zcoordinate
    687274.353,               !- Vertex 2 Xcoordinate
    4928889.958,              !- Vertex 2 Ycoordinate
    6,                        !- Vertex 2 Zcoordinate
    687277.195,               !- Vertex 3 Xcoordinate
    4928888.742,              !- Vertex 3 Ycoordinate
    6,                        !- Vertex 3 Zcoordinate
    687277.195,               !- Vertex 4 Xcoordinate
    4928888.742,              !- Vertex 4 Ycoordinate
    9;                        !- Vertex 4 Zcoordinate

BUILDINGSURFACE:DETAILED,
    Block 89ddb942f271fbd8_0 Storey 2 Wall 0003,    !- Name
    wall,                     !- Surface Type
    EU_wall_Construction,     !- Construction Name
    89ddb942f271fbd8_F2_dwelling_0,    !- Zone Name
    ,                         !- Space Name
    Adiabatic,                !- Outside Boundary Condition
    ,                         !- Outside Boundary Condition Object
    NoSun,                    !- Sun Exposure
    NoWind,                   !- Wind Exposure
    autocalculate,            !- View Factor to Ground
    autocalculate,            !- Number of Vertices
    687277.195,               !- Vertex 1 Xcoordinate
    4928888.742,              !- Vertex 1 Ycoordinate
    9,                        !- Vertex 1 Zcoordinate
    687277.195,               !- Vertex 2 Xcoordinate
    4928888.742,              !- Vertex 2 Ycoordinate
    6,                        !- Vertex 2 Zcoordinate
    687274.596,               !- Vertex 3 Xcoordinate
    4928883.523,              !- Vertex 3 Ycoordinate
    6,                        !- Vertex 3 Zcoordinate
    687274.596,               !- Vertex 4 Xcoordinate
    4928883.523,              !- Vertex 4 Ycoordinate
    9;                        !- Vertex 4 Zcoordinate

BUILDINGSURFACE:DETAILED,
    Block 89ddb942f271fbd8_0 Storey 2 Wall 0004,    !- Name
    wall,                     !- Surface Type
    EU_wall_Construction,     !- Construction Name
    89ddb942f271fbd8_F2_dwelling_0,    !- Zone Name
    ,                         !- Space Name
    Adiabatic,                !- Outside Boundary Condition
    ,                         !- Outside Boundary Condition Object
    NoSun,                    !- Sun Exposure
    NoWind,                   !- Wind Exposure
    autocalculate,            !- View Factor to Ground
    autocalculate,            !- Number of Vertices
    687274.596,               !- Vertex 1 Xcoordinate
    4928883.523,              !- Vertex 1 Ycoordinate
    9,                        !- Vertex 1 Zcoordinate
    687274.596,               !- Vertex 2 Xcoordinate
    4928883.523,              !- Vertex 2 Ycoordinate
    6,                        !- Vertex 2 Zcoordinate
    687272.353,               !- Vertex 3 Xcoordinate
    4928884.638,              !- Vertex 3 Ycoordinate
    6,                        !- Vertex 3 Zcoordinate
    687272.353,               !- Vertex 4 Xcoordinate
    4928884.638,              !- Vertex 4 Ycoordinate
    9;                        !- Vertex 4 Zcoordinate

BUILDINGSURFACE:DETAILED,
    Block 89ddb942f271fbd8_0 Storey 3 Wall 0001,    !- Name
    wall,                     !- Surface Type
    EU_wall_Construction,     !- Construction Name
    89ddb942f271fbd8_F3_dwelling_0,    !- Zone Name
    ,                         !- Space Name
    Adiabatic,                !- Outside Boundary Condition
    ,                         !- Outside Boundary Condition Object
    NoSun,                    !- Sun Exposure
    NoWind,                   !- Wind Exposure
    autocalculate,            !- View Factor to Ground
    autocalculate,            !- Number of Vertices
    687272.353,               !- Vertex 1 Xcoordinate
    4928884.638,              !- Vertex 1 Ycoordinate
    12,                       !- Vertex 1 Zcoordinate
    687272.353,               !- Vertex 2 Xcoordinate
    4928884.638,              !- Vertex 2 Ycoordinate
    9,                        !- Vertex 2 Zcoordinate
    687274.353,               !- Vertex 3 Xcoordinate
    4928889.958,              !- Vertex 3 Ycoordinate
    9,                        !- Vertex 3 Zcoordinate
    687274.353,               !- Vertex 4 Xcoordinate
    4928889.958,              !- Vertex 4 Ycoordinate
    12;                       !- Vertex 4 Zcoordinate

BUILDINGSURFACE:DETAILED,
    Block 89ddb942f271fbd8_0 Storey 3 Wall 0002,    !- Name
    wall,                     !- Surface Type
    EU_wall_Construction,     !- Construction Name
    89ddb942f271fbd8_F3_dwelling_0,    !- Zone Name
    ,                         !- Space Name
    Adiabatic,                !- Outside Boundary Condition
    ,                         !- Outside Boundary Condition Object
    NoSun,                    !- Sun Exposure
    NoWind,                   !- Wind Exposure
    autocalculate,            !- View Factor to Ground
    autocalculate,            !- Number of Vertices
    687274.353,               !- Vertex 1 Xcoordinate
    4928889.958,              !- Vertex 1 Ycoordinate
    12,                       !- Vertex 1 Zcoordinate
    687274.353,               !- Vertex 2 Xcoordinate
    4928889.958,              !- Vertex 2 Ycoordinate
    9,                        !- Vertex 2 Zcoordinate
    687277.195,               !- Vertex 3 Xcoordinate
    4928888.742,              !- Vertex 3 Ycoordinate
    9,                        !- Vertex 3 Zcoordinate
    687277.195,               !- Vertex 4 Xcoordinate
    4928888.742,              !- Vertex 4 Ycoordinate
    12;                       !- Vertex 4 Zcoordinate

BUILDINGSURFACE:DETAILED,
    Block 89ddb942f271fbd8_0 Storey 3 Wall 0003,    !- Name
    wall,                     !- Surface Type
    EU_wall_Construction,     !- Construction Name
    89ddb942f271fbd8_F3_dwelling_0,    !- Zone Name
    ,                         !- Space Name
    Adiabatic,                !- Outside Boundary Condition
    ,                         !- Outside Boundary Condition Object
    NoSun,                    !- Sun Exposure
    NoWind,                   !- Wind Exposure
    autocalculate,            !- View Factor to Ground
    autocalculate,            !- Number of Vertices
    687277.195,               !- Vertex 1 Xcoordinate
    4928888.742,              !- Vertex 1 Ycoordinate
    12,                       !- Vertex 1 Zcoordinate
    687277.195,               !- Vertex 2 Xcoordinate
    4928888.742,              !- Vertex 2 Ycoordinate
    9,                        !- Vertex 2 Zcoordinate
    687274.596,               !- Vertex 3 Xcoordinate
    4928883.523,              !- Vertex 3 Ycoordinate
    9,                        !- Vertex 3 Zcoordinate
    687274.596,               !- Vertex 4 Xcoordinate
    4928883.523,              !- Vertex 4 Ycoordinate
    12;                       !- Vertex 4 Zcoordinate

BUILDINGSURFACE:DETAILED,
    Block 89ddb942f271fbd8_0 Storey 3 Wall 0004,    !- Name
    wall,                     !- Surface Type
    EU_wall_Construction,     !- Construction Name
    89ddb942f271fbd8_F3_dwelling_0,    !- Zone Name
    ,                         !- Space Name
    Adiabatic,                !- Outside Boundary Condition
    ,                         !- Outside Boundary Condition Object
    NoSun,                    !- Sun Exposure
    NoWind,                   !- Wind Exposure
    autocalculate,            !- View Factor to Ground
    autocalculate,            !- Number of Vertices
    687274.596,               !- Vertex 1 Xcoordinate
    4928883.523,              !- Vertex 1 Ycoordinate
    12,                       !- Vertex 1 Zcoordinate
    687274.596,               !- Vertex 2 Xcoordinate
    4928883.523,              !- Vertex 2 Ycoordinate
    9,                        !- Vertex 2 Zcoordinate
    687272.353,               !- Vertex 3 Xcoordinate
    4928884.638,              !- Vertex 3 Ycoordinate
    9,                        !- Vertex 3 Zcoordinate
    687272.353,               !- Vertex 4 Xcoordinate
    4928884.638,              !- Vertex 4 Ycoordinate
    12;                       !- Vertex 4 Zcoordinate

BUILDINGSURFACE:DETAILED,
    Block 89ddb942f271fbd8_0 Storey 3 Roof 0001,    !- Name
    roof,                     !- Surface Type
    EU_roof_Construction,     !- Construction Name
    89ddb942f271fbd8_F3_dwelling_0,    !- Zone Name
    ,                         !- Space Name
    outdoors,                 !- Outside Boundary Condition
    ,                         !- Outside Boundary Condition Object
    NoSun,                    !- Sun Exposure
    WindExposed,              !- Wind Exposure
    autocalculate,            !- View Factor to Ground
    autocalculate,            !- Number of Vertices
    687277.195,               !- Vertex 1 Xcoordinate
    4928888.742,              !- Vertex 1 Ycoordinate
    12,                       !- Vertex 1 Zcoordinate
    687274.596,               !- Vertex 2 Xcoordinate
    4928883.523,              !- Vertex 2 Ycoordinate
    12,                       !- Vertex 2 Zcoordinate
    687272.353,               !- Vertex 3 Xcoordinate
    4928884.638,              !- Vertex 3 Ycoordinate
    12,                       !- Vertex 3 Zcoordinate
    687274.353,               !- Vertex 4 Xcoordinate
    4928889.958,              !- Vertex 4 Ycoordinate
    12;                       !- Vertex 4 Zcoordinate

BUILDINGSURFACE:DETAILED,
    Block 89ddb942f271fbd8_1 Storey 0 Wall 0002,    !- Name
    wall,                     !- Surface Type
    EU_wall_Construction,     !- Construction Name
    89ddb942f271fbd8_F0_dwelling_1,    !- Zone Name
    ,                         !- Space Name
    Adiabatic,                !- Outside Boundary Condition
    ,                         !- Outside Boundary Condition Object
    NoSun,                    !- Sun Exposure
    NoWind,                   !- Wind Exposure
    autocalculate,            !- View Factor to Ground
    autocalculate,            !- Number of Vertices
    687277.195,               !- Vertex 1 Xcoordinate
    4928888.742,              !- Vertex 1 Ycoordinate
    3,                        !- Vertex 1 Zcoordinate
    687277.195,               !- Vertex 2 Xcoordinate
    4928888.742,              !- Vertex 2 Ycoordinate
    0,                        !- Vertex 2 Zcoordinate
    687279.612,               !- Vertex 3 Xcoordinate
    4928887.707,              !- Vertex 3 Ycoordinate
    0,                        !- Vertex 3 Zcoordinate
    687279.612,               !- Vertex 4 Xcoordinate
    4928887.707,              !- Vertex 4 Ycoordinate
    3;                        !- Vertex 4 Zcoordinate

BUILDINGSURFACE:DETAILED,
    Block 89ddb942f271fbd8_1 Storey 0 Wall 0003,    !- Name
    wall,                     !- Surface Type
    EU_wall_Construction,     !- Construction Name
    89ddb942f271fbd8_F0_dwelling_1,    !- Zone Name
    ,                         !- Space Name
    Adiabatic,                !- Outside Boundary Condition
    ,                         !- Outside Boundary Condition Object
    NoSun,                    !- Sun Exposure
    NoWind,                   !- Wind Exposure
    autocalculate,            !- View Factor to Ground
    autocalculate,            !- Number of Vertices
    687279.612,               !- Vertex 1 Xcoordinate
    4928887.707,              !- Vertex 1 Ycoordinate
    3,                        !- Vertex 1 Zcoordinate
    687279.612,               !- Vertex 2 Xcoordinate
    4928887.707,              !- Vertex 2 Ycoordinate
    0,                        !- Vertex 2 Zcoordinate
    687277.122,               !- Vertex 3 Xcoordinate
    4928882.268,              !- Vertex 3 Ycoordinate
    0,                        !- Vertex 3 Zcoordinate
    687277.122,               !- Vertex 4 Xcoordinate
    4928882.268,              !- Vertex 4 Ycoordinate
    3;                        !- Vertex 4 Zcoordinate

BUILDINGSURFACE:DETAILED,
    Block 89ddb942f271fbd8_1 Storey 0 Wall 0004,    !- Name
    wall,                     !- Surface Type
    EU_wall_Construction,     !- Construction Name
    89ddb942f271fbd8_F0_dwelling_1,    !- Zone Name
    ,                         !- Space Name
    Adiabatic,                !- Outside Boundary Condition
    ,                         !- Outside Boundary Condition Object
    NoSun,                    !- Sun Exposure
    NoWind,                   !- Wind Exposure
    autocalculate,            !- View Factor to Ground
    autocalculate,            !- Number of Vertices
    687277.122,               !- Vertex 1 Xcoordinate
    4928882.268,              !- Vertex 1 Ycoordinate
    3,                        !- Vertex 1 Zcoordinate
    687277.122,               !- Vertex 2 Xcoordinate
    4928882.268,              !- Vertex 2 Ycoordinate
    0,                        !- Vertex 2 Zcoordinate
    687274.596,               !- Vertex 3 Xcoordinate
    4928883.523,              !- Vertex 3 Ycoordinate
    0,                        !- Vertex 3 Zcoordinate
    687274.596,               !- Vertex 4 Xcoordinate
    4928883.523,              !- Vertex 4 Ycoordinate
    3;                        !- Vertex 4 Zcoordinate

BUILDINGSURFACE:DETAILED,
    Block 89ddb942f271fbd8_1 Storey 0 Floor 0001,    !- Name
    floor,                    !- Surface Type
    EU_floor_Construction,    !- Construction Name
    89ddb942f271fbd8_F0_dwelling_1,    !- Zone Name
    ,                         !- Space Name
    ground,                   !- Outside Boundary Condition
    ,                         !- Outside Boundary Condition Object
    NoSun,                    !- Sun Exposure
    NoWind,                   !- Wind Exposure
    autocalculate,            !- View Factor to Ground
    autocalculate,            !- Number of Vertices
    687277.122,               !- Vertex 1 Xcoordinate
    4928882.268,              !- Vertex 1 Ycoordinate
    0,                        !- Vertex 1 Zcoordinate
    687279.612,               !- Vertex 2 Xcoordinate
    4928887.707,              !- Vertex 2 Ycoordinate
    0,                        !- Vertex 2 Zcoordinate
    687277.195,               !- Vertex 3 Xcoordinate
    4928888.742,              !- Vertex 3 Ycoordinate
    0,                        !- Vertex 3 Zcoordinate
    687274.596,               !- Vertex 4 Xcoordinate
    4928883.523,              !- Vertex 4 Ycoordinate
    0;                        !- Vertex 4 Zcoordinate

BUILDINGSURFACE:DETAILED,
    Block 89ddb942f271fbd8_1 Storey 0 Roof 0001,    !- Name
    roof,                     !- Surface Type
    EU_roof_Construction,     !- Construction Name
    89ddb942f271fbd8_F0_dwelling_1,    !- Zone Name
    ,                         !- Space Name
    outdoors,                 !- Outside Boundary Condition
    ,                         !- Outside Boundary Condition Object
    NoSun,                    !- Sun Exposure
    WindExposed,              !- Wind Exposure
    autocalculate,            !- View Factor to Ground
    autocalculate,            !- Number of Vertices
    687279.612,               !- Vertex 1 Xcoordinate
    4928887.707,              !- Vertex 1 Ycoordinate
    3,                        !- Vertex 1 Zcoordinate
    687277.122,               !- Vertex 2 Xcoordinate
    4928882.268,              !- Vertex 2 Ycoordinate
    3,                        !- Vertex 2 Zcoordinate
    687274.596,               !- Vertex 3 Xcoordinate
    4928883.523,              !- Vertex 3 Ycoordinate
    3,                        !- Vertex 3 Zcoordinate
    687277.195,               !- Vertex 4 Xcoordinate
    4928888.742,              !- Vertex 4 Ycoordinate
    3;                        !- Vertex 4 Zcoordinate

BUILDINGSURFACE:DETAILED,
    Block 89ddb942f271fbd8_0 Storey 0 Wall 0003_1,    !- Name
    wall,                     !- Surface Type
    EU_wall_Construction,     !- Construction Name
    89ddb942f271fbd8_F0_dwelling_0,    !- Zone Name
    ,                         !- Space Name
    Adiabatic,                !- Outside Boundary Condition
    ,                         !- Outside Boundary Condition Object
    NoSun,                    !- Sun Exposure
    NoWind,                   !- Wind Exposure
    autocalculate,            !- View Factor to Ground
    autocalculate,            !- Number of Vertices
    687277.1950000001,        !- Vertex 1 Xcoordinate
    4928888.742,              !- Vertex 1 Ycoordinate
    3,                        !- Vertex 1 Zcoordinate
    687277.1950000001,        !- Vertex 2 Xcoordinate
    4928888.742,              !- Vertex 2 Ycoordinate
    0,                        !- Vertex 2 Zcoordinate
    687274.5960000003,        !- Vertex 3 Xcoordinate
    4928883.523,              !- Vertex 3 Ycoordinate
    0,                        !- Vertex 3 Zcoordinate
    687274.5960000003,        !- Vertex 4 Xcoordinate
    4928883.523,              !- Vertex 4 Ycoordinate
    3;                        !- Vertex 4 Zcoordinate

BUILDINGSURFACE:DETAILED,
    Block 89ddb942f271fbd8_1 Storey 0 Wall 0001_1,    !- Name
    wall,                     !- Surface Type
    EU_wall_Construction,     !- Construction Name
    89ddb942f271fbd8_F0_dwelling_1,    !- Zone Name
    ,                         !- Space Name
    Adiabatic,                !- Outside Boundary Condition
    ,                         !- Outside Boundary Condition Object
    NoSun,                    !- Sun Exposure
    NoWind,                   !- Wind Exposure
    autocalculate,            !- View Factor to Ground
    autocalculate,            !- Number of Vertices
    687274.5959999998,        !- Vertex 1 Xcoordinate
    4928883.523,              !- Vertex 1 Ycoordinate
    3,                        !- Vertex 1 Zcoordinate
    687274.5959999998,        !- Vertex 2 Xcoordinate
    4928883.523,              !- Vertex 2 Ycoordinate
    0,                        !- Vertex 2 Zcoordinate
    687277.1949999995,        !- Vertex 3 Xcoordinate
    4928888.742,              !- Vertex 3 Ycoordinate
    0,                        !- Vertex 3 Zcoordinate
    687277.1949999995,        !- Vertex 4 Xcoordinate
    4928888.742,              !- Vertex 4 Ycoordinate
    3;                        !- Vertex 4 Zcoordinate

BUILDINGSURFACE:DETAILED,
    Block 89ddb942f271fbd8_0 Storey 0 Ceiling 0001_1,    !- Name
    ceiling,                  !- Surface Type
    EU_floor_Construction,    !- Construction Name
    89ddb942f271fbd8_F0_dwelling_0,    !- Zone Name
    ,                         !- Space Name
    Surface,                  !- Outside Boundary Condition
    Block 89ddb942f271fbd8_0 Storey 1 Floor 0001_1,    !- Outside Boundary Condition Object
    NoSun,                    !- Sun Exposure
    NoWind,                   !- Wind Exposure
    autocalculate,            !- View Factor to Ground
    autocalculate,            !- Number of Vertices
    687277.1949999998,        !- Vertex 1 Xcoordinate
    4928888.742,              !- Vertex 1 Ycoordinate
    3,                        !- Vertex 1 Zcoordinate
    687274.5959999999,        !- Vertex 2 Xcoordinate
    4928883.523,              !- Vertex 2 Ycoordinate
    3,                        !- Vertex 2 Zcoordinate
    687272.3529999997,        !- Vertex 3 Xcoordinate
    4928884.638,              !- Vertex 3 Ycoordinate
    3,                        !- Vertex 3 Zcoordinate
    687274.3529999997,        !- Vertex 4 Xcoordinate
    4928889.958,              !- Vertex 4 Ycoordinate
    3;                        !- Vertex 4 Zcoordinate

BUILDINGSURFACE:DETAILED,
    Block 89ddb942f271fbd8_0 Storey 1 Floor 0001_1,    !- Name
    floor,                    !- Surface Type
    EU_floor_Construction,    !- Construction Name
    89ddb942f271fbd8_F1_dwelling_0,    !- Zone Name
    ,                         !- Space Name
    Surface,                  !- Outside Boundary Condition
    Block 89ddb942f271fbd8_0 Storey 0 Ceiling 0001_1,    !- Outside Boundary Condition Object
    NoSun,                    !- Sun Exposure
    NoWind,                   !- Wind Exposure
    autocalculate,            !- View Factor to Ground
    autocalculate,            !- Number of Vertices
    687274.5959999999,        !- Vertex 1 Xcoordinate
    4928883.523,              !- Vertex 1 Ycoordinate
    3,                        !- Vertex 1 Zcoordinate
    687277.1949999998,        !- Vertex 2 Xcoordinate
    4928888.742,              !- Vertex 2 Ycoordinate
    3,                        !- Vertex 2 Zcoordinate
    687274.3529999997,        !- Vertex 3 Xcoordinate
    4928889.958,              !- Vertex 3 Ycoordinate
    3,                        !- Vertex 3 Zcoordinate
    687272.3529999997,        !- Vertex 4 Xcoordinate
    4928884.638,              !- Vertex 4 Ycoordinate
    3;                        !- Vertex 4 Zcoordinate

BUILDINGSURFACE:DETAILED,
    Block 89ddb942f271fbd8_0 Storey 1 Ceiling 0001_1,    !- Name
    ceiling,                  !- Surface Type
    EU_floor_Construction,    !- Construction Name
    89ddb942f271fbd8_F1_dwelling_0,    !- Zone Name
    ,                         !- Space Name
    Surface,                  !- Outside Boundary Condition
    Block 89ddb942f271fbd8_0 Storey 2 Floor 0001_1,    !- Outside Boundary Condition Object
    NoSun,                    !- Sun Exposure
    NoWind,                   !- Wind Exposure
    autocalculate,            !- View Factor to Ground
    autocalculate,            !- Number of Vertices
    687277.1949999998,        !- Vertex 1 Xcoordinate
    4928888.742,              !- Vertex 1 Ycoordinate
    6,                        !- Vertex 1 Zcoordinate
    687274.5959999999,        !- Vertex 2 Xcoordinate
    4928883.523,              !- Vertex 2 Ycoordinate
    6,                        !- Vertex 2 Zcoordinate
    687272.3529999997,        !- Vertex 3 Xcoordinate
    4928884.638,              !- Vertex 3 Ycoordinate
    6,                        !- Vertex 3 Zcoordinate
    687274.3529999997,        !- Vertex 4 Xcoordinate
    4928889.958,              !- Vertex 4 Ycoordinate
    6;                        !- Vertex 4 Zcoordinate

BUILDINGSURFACE:DETAILED,
    Block 89ddb942f271fbd8_0 Storey 2 Floor 0001_1,    !- Name
    floor,                    !- Surface Type
    EU_floor_Construction,    !- Construction Name
    89ddb942f271fbd8_F2_dwelling_0,    !- Zone Name
    ,                         !- Space Name
    Surface,                  !- Outside Boundary Condition
    Block 89ddb942f271fbd8_0 Storey 1 Ceiling 0001_1,    !- Outside Boundary Condition Object
    NoSun,                    !- Sun Exposure
    NoWind,                   !- Wind Exposure
    autocalculate,            !- View Factor to Ground
    autocalculate,            !- Number of Vertices
    687274.5959999999,        !- Vertex 1 Xcoordinate
    4928883.523,              !- Vertex 1 Ycoordinate
    6,                        !- Vertex 1 Zcoordinate
    687277.1949999998,        !- Vertex 2 Xcoordinate
    4928888.742,              !- Vertex 2 Ycoordinate
    6,                        !- Vertex 2 Zcoordinate
    687274.3529999997,        !- Vertex 3 Xcoordinate
    4928889.958,              !- Vertex 3 Ycoordinate
    6,                        !- Vertex 3 Zcoordinate
    687272.3529999997,        !- Vertex 4 Xcoordinate
    4928884.638,              !- Vertex 4 Ycoordinate
    6;                        !- Vertex 4 Zcoordinate

BUILDINGSURFACE:DETAILED,
    Block 89ddb942f271fbd8_0 Storey 2 Ceiling 0001_1,    !- Name
    ceiling,                  !- Surface Type
    EU_floor_Construction,    !- Construction Name
    89ddb942f271fbd8_F2_dwelling_0,    !- Zone Name
    ,                         !- Space Name
    Surface,                  !- Outside Boundary Condition
    Block 89ddb942f271fbd8_0 Storey 3 Floor 0001_1,    !- Outside Boundary Condition Object
    NoSun,                    !- Sun Exposure
    NoWind,                   !- Wind Exposure
    autocalculate,            !- View Factor to Ground
    autocalculate,            !- Number of Vertices
    687277.1949999998,        !- Vertex 1 Xcoordinate
    4928888.742,              !- Vertex 1 Ycoordinate
    9,                        !- Vertex 1 Zcoordinate
    687274.5959999999,        !- Vertex 2 Xcoordinate
    4928883.523,              !- Vertex 2 Ycoordinate
    9,                        !- Vertex 2 Zcoordinate
    687272.3529999997,        !- Vertex 3 Xcoordinate
    4928884.638,              !- Vertex 3 Ycoordinate
    9,                        !- Vertex 3 Zcoordinate
    687274.3529999997,        !- Vertex 4 Xcoordinate
    4928889.958,              !- Vertex 4 Ycoordinate
    9;                        !- Vertex 4 Zcoordinate

BUILDINGSURFACE:DETAILED,
    Block 89ddb942f271fbd8_0 Storey 3 Floor 0001_1,    !- Name
    floor,                    !- Surface Type
    EU_floor_Construction,    !- Construction Name
    89ddb942f271fbd8_F3_dwelling_0,    !- Zone Name
    ,                         !- Space Name
    Surface,                  !- Outside Boundary Condition
    Block 89ddb942f271fbd8_0 Storey 2 Ceiling 0001_1,    !- Outside Boundary Condition Object
    NoSun,                    !- Sun Exposure
    NoWind,                   !- Wind Exposure
    autocalculate,            !- View Factor to Ground
    autocalculate,            !- Number of Vertices
    687274.5959999999,        !- Vertex 1 Xcoordinate
    4928883.523,              !- Vertex 1 Ycoordinate
    9,                        !- Vertex 1 Zcoordinate
    687277.1949999998,        !- Vertex 2 Xcoordinate
    4928888.742,              !- Vertex 2 Ycoordinate
    9,                        !- Vertex 2 Zcoordinate
    687274.3529999997,        !- Vertex 3 Xcoordinate
    4928889.958,              !- Vertex 3 Ycoordinate
    9,                        !- Vertex 3 Zcoordinate
    687272.3529999997,        !- Vertex 4 Xcoordinate
    4928884.638,              !- Vertex 4 Ycoordinate
    9;                        !- Vertex 4 Zcoordinate

INTERNALMASS,
    89ddb942f271fbd8_F0_dwelling_0_EU_InternalMass,    !- Name
    EU_InternalMass_Construction,    !- Construction Name
    89ddb942f271fbd8_F0_dwelling_0,    !- Zone or ZoneList Name
    ,                         !- Space or SpaceList Name
    16.07777099855088;        !- Surface Area

INTERNALMASS,
    89ddb942f271fbd8_F0_dwelling_1_EU_InternalMass,    !- Name
    EU_InternalMass_Construction,    !- Construction Name
    89ddb942f271fbd8_F0_dwelling_1,    !- Zone or ZoneList Name
    ,                         !- Space or SpaceList Name
    16.084075998893127;       !- Surface Area

INTERNALMASS,
    89ddb942f271fbd8_F1_dwelling_0_EU_InternalMass,    !- Name
    EU_InternalMass_Construction,    !- Construction Name
    89ddb942f271fbd8_F1_dwelling_0,    !- Zone or ZoneList Name
    ,                         !- Space or SpaceList Name
    32.15988549810162;        !- Surface Area

INTERNALMASS,
    89ddb942f271fbd8_F2_dwelling_0_EU_InternalMass,    !- Name
    EU_InternalMass_Construction,    !- Construction Name
    89ddb942f271fbd8_F2_dwelling_0,    !- Zone or ZoneList Name
    ,                         !- Space or SpaceList Name
    32.15988549810162;        !- Surface Area

INTERNALMASS,
    89ddb942f271fbd8_F3_dwelling_0_EU_InternalMass,    !- Name
    EU_InternalMass_Construction,    !- Construction Name
    89ddb942f271fbd8_F3_dwelling_0,    !- Zone or ZoneList Name
    ,                         !- Space or SpaceList Name
    32.15988549810162;        !- Surface Area

SHADING:SITE:DETAILED,
    shade_30130_1,            !- Name
    ,                         !- Transmittance Schedule Name
    autocalculate,            !- Number of Vertices
    687332.0992919111,        !- Vertex 1 Xcoordinate
    4928845.5783384275,       !- Vertex 1 Ycoordinate
    15,                       !- Vertex 1 Zcoordinate
    687332.0992919111,        !- Vertex 2 Xcoordinate
    4928845.5783384275,       !- Vertex 2 Ycoordinate
    0,                        !- Vertex 2 Zcoordinate
    687277.7355721383,        !- Vertex 3 Xcoordinate
    4928867.54823654,         !- Vertex 3 Ycoordinate
    0,                        !- Vertex 3 Zcoordinate
    687277.7355721383,        !- Vertex 4 Xcoordinate
    4928867.54823654,         !- Vertex 4 Ycoordinate
    15;                       !- Vertex 4 Zcoordinate

SHADING:SITE:DETAILED,
    shade_30130_2,            !- Name
    ,                         !- Transmittance Schedule Name
    autocalculate,            !- Number of Vertices
    687277.7355721383,        !- Vertex 1 Xcoordinate
    4928867.54823654,         !- Vertex 1 Ycoordinate
    15,                       !- Vertex 1 Zcoordinate
    687277.7355721383,        !- Vertex 2 Xcoordinate
    4928867.54823654,         !- Vertex 2 Ycoordinate
    0,                        !- Vertex 2 Zcoordinate
    687296.6665880249,        !- Vertex 3 Xcoordinate
    4928914.392351976,        !- Vertex 3 Ycoordinate
    0,                        !- Vertex 3 Zcoordinate
    687296.6665880249,        !- Vertex 4 Xcoordinate
    4928914.392351976,        !- Vertex 4 Ycoordinate
    15;                       !- Vertex 4 Zcoordinate

SHADING:SITE:DETAILED,
    shade_30130_3,            !- Name
    ,                         !- Transmittance Schedule Name
    autocalculate,            !- Number of Vertices
    687296.6665880249,        !- Vertex 1 Xcoordinate
    4928914.392351976,        !- Vertex 1 Ycoordinate
    15,                       !- Vertex 1 Zcoordinate
    687296.6665880249,        !- Vertex 2 Xcoordinate
    4928914.392351976,        !- Vertex 2 Ycoordinate
    0,                        !- Vertex 2 Zcoordinate
    687351.0303077977,        !- Vertex 3 Xcoordinate
    4928892.422453864,        !- Vertex 3 Ycoordinate
    0,                        !- Vertex 3 Zcoordinate
    687351.0303077977,        !- Vertex 4 Xcoordinate
    4928892.422453864,        !- Vertex 4 Ycoordinate
    15;                       !- Vertex 4 Zcoordinate

SHADING:SITE:DETAILED,
    shade_30130_4,            !- Name
    ,                         !- Transmittance Schedule Name
    autocalculate,            !- Number of Vertices
    687351.0303077977,        !- Vertex 1 Xcoordinate
    4928892.422453864,        !- Vertex 1 Ycoordinate
    15,                       !- Vertex 1 Zcoordinate
    687351.0303077977,        !- Vertex 2 Xcoordinate
    4928892.422453864,        !- Vertex 2 Ycoordinate
    0,                        !- Vertex 2 Zcoordinate
    687332.0992919111,        !- Vertex 3 Xcoordinate
    4928845.5783384275,       !- Vertex 3 Ycoordinate
    0,                        !- Vertex 3 Zcoordinate
    687332.0992919111,        !- Vertex 4 Xcoordinate
    4928845.5783384275,       !- Vertex 4 Ycoordinate
    15;                       !- Vertex 4 Zcoordinate

SHADING:SITE:DETAILED,
    shade_30232_1,            !- Name
    ,                         !- Transmittance Schedule Name
    autocalculate,            !- Number of Vertices
    687277.909048293,         !- Vertex 1 Xcoordinate
    4928867.468263578,        !- Vertex 1 Ycoordinate
    15,                       !- Vertex 1 Zcoordinate
    687277.909048293,         !- Vertex 2 Xcoordinate
    4928867.468263578,        !- Vertex 2 Ycoordinate
    0,                        !- Vertex 2 Zcoordinate
    687241.1029984885,        !- Vertex 3 Xcoordinate
    4928881.987119191,        !- Vertex 3 Ycoordinate
    0,                        !- Vertex 3 Zcoordinate
    687241.1029984885,        !- Vertex 4 Xcoordinate
    4928881.987119191,        !- Vertex 4 Ycoordinate
    15;                       !- Vertex 4 Zcoordinate

SHADING:SITE:DETAILED,
    shade_30232_2,            !- Name
    ,                         !- Transmittance Schedule Name
    autocalculate,            !- Number of Vertices
    687241.1029984885,        !- Vertex 1 Xcoordinate
    4928881.987119191,        !- Vertex 1 Ycoordinate
    15,                       !- Vertex 1 Zcoordinate
    687241.1029984885,        !- Vertex 2 Xcoordinate
    4928881.987119191,        !- Vertex 2 Ycoordinate
    0,                        !- Vertex 2 Zcoordinate
    687248.6117541586,        !- Vertex 3 Xcoordinate
    4928901.020925713,        !- Vertex 3 Ycoordinate
    0,                        !- Vertex 3 Zcoordinate
    687248.6117541586,        !- Vertex 4 Xcoordinate
    4928901.020925713,        !- Vertex 4 Ycoordinate
    15;                       !- Vertex 4 Zcoordinate

SHADING:SITE:DETAILED,
    shade_30232_3,            !- Name
    ,                         !- Transmittance Schedule Name
    autocalculate,            !- Number of Vertices
    687248.6117541586,        !- Vertex 1 Xcoordinate
    4928901.020925713,        !- Vertex 1 Ycoordinate
    15,                       !- Vertex 1 Zcoordinate
    687248.6117541586,        !- Vertex 2 Xcoordinate
    4928901.020925713,        !- Vertex 2 Ycoordinate
    0,                        !- Vertex 2 Zcoordinate
    687285.4173598781,        !- Vertex 3 Xcoordinate
    4928886.502320995,        !- Vertex 3 Ycoordinate
    0,                        !- Vertex 3 Zcoordinate
    687285.4173598781,        !- Vertex 4 Xcoordinate
    4928886.502320995,        !- Vertex 4 Ycoordinate
    15;                       !- Vertex 4 Zcoordinate

SHADING:SITE:DETAILED,
    shade_30232_4,            !- Name
    ,                         !- Transmittance Schedule Name
    autocalculate,            !- Number of Vertices
    687285.4173598781,        !- Vertex 1 Xcoordinate
    4928886.502320995,        !- Vertex 1 Ycoordinate
    15,                       !- Vertex 1 Zcoordinate
    687285.4173598781,        !- Vertex 2 Xcoordinate
    4928886.502320995,        !- Vertex 2 Ycoordinate
    0,                        !- Vertex 2 Zcoordinate
    687277.909048293,         !- Vertex 3 Xcoordinate
    4928867.468263578,        !- Vertex 3 Ycoordinate
    0,                        !- Vertex 3 Zcoordinate
    687277.909048293,         !- Vertex 4 Xcoordinate
    4928867.468263578,        !- Vertex 4 Ycoordinate
    15;                       !- Vertex 4 Zcoordinate

SHADING:SITE:DETAILED,
    shade_30013_1,            !- Name
    ,                         !- Transmittance Schedule Name
    autocalculate,            !- Number of Vertices
    687282.5579644539,        !- Vertex 1 Xcoordinate
    4928886.452256182,        !- Vertex 1 Ycoordinate
    15,                       !- Vertex 1 Zcoordinate
    687282.5579644539,        !- Vertex 2 Xcoordinate
    4928886.452256182,        !- Vertex 2 Ycoordinate
    0,                        !- Vertex 2 Zcoordinate
    687248.6777555797,        !- Vertex 3 Xcoordinate
    4928900.869918132,        !- Vertex 3 Ycoordinate
    0,                        !- Vertex 3 Zcoordinate
    687248.6777555797,        !- Vertex 4 Xcoordinate
    4928900.869918132,        !- Vertex 4 Ycoordinate
    15;                       !- Vertex 4 Zcoordinate

SHADING:SITE:DETAILED,
    shade_30013_2,            !- Name
    ,                         !- Transmittance Schedule Name
    autocalculate,            !- Number of Vertices
    687248.6777555797,        !- Vertex 1 Xcoordinate
    4928900.869918132,        !- Vertex 1 Ycoordinate
    15,                       !- Vertex 1 Zcoordinate
    687248.6777555797,        !- Vertex 2 Xcoordinate
    4928900.869918132,        !- Vertex 2 Ycoordinate
    0,                        !- Vertex 2 Zcoordinate
    687261.4978306106,        !- Vertex 3 Xcoordinate
    4928930.995941448,        !- Vertex 3 Ycoordinate
    0,                        !- Vertex 3 Zcoordinate
    687261.4978306106,        !- Vertex 4 Xcoordinate
    4928930.995941448,        !- Vertex 4 Ycoordinate
    15;                       !- Vertex 4 Zcoordinate

SHADING:SITE:DETAILED,
    shade_30013_3,            !- Name
    ,                         !- Transmittance Schedule Name
    autocalculate,            !- Number of Vertices
    687261.4978306106,        !- Vertex 1 Xcoordinate
    4928930.995941448,        !- Vertex 1 Ycoordinate
    15,                       !- Vertex 1 Zcoordinate
    687261.4978306106,        !- Vertex 2 Xcoordinate
    4928930.995941448,        !- Vertex 2 Ycoordinate
    0,                        !- Vertex 2 Zcoordinate
    687295.378039485,         !- Vertex 3 Xcoordinate
    4928916.578279497,        !- Vertex 3 Ycoordinate
    0,                        !- Vertex 3 Zcoordinate
    687295.378039485,         !- Vertex 4 Xcoordinate
    4928916.578279497,        !- Vertex 4 Ycoordinate
    15;                       !- Vertex 4 Zcoordinate

SHADING:SITE:DETAILED,
    shade_30013_4,            !- Name
    ,                         !- Transmittance Schedule Name
    autocalculate,            !- Number of Vertices
    687295.378039485,         !- Vertex 1 Xcoordinate
    4928916.578279497,        !- Vertex 1 Ycoordinate
    15,                       !- Vertex 1 Zcoordinate
    687295.378039485,         !- Vertex 2 Xcoordinate
    4928916.578279497,        !- Vertex 2 Ycoordinate
    0,                        !- Vertex 2 Zcoordinate
    687282.5579644539,        !- Vertex 3 Xcoordinate
    4928886.452256182,        !- Vertex 3 Ycoordinate
    0,                        !- Vertex 3 Zcoordinate
    687282.5579644539,        !- Vertex 4 Xcoordinate
    4928886.452256182,        !- Vertex 4 Ycoordinate
    15;                       !- Vertex 4 Zcoordinate

OTHEREQUIPMENT,
    EU_Step8_InternalGain_89ddb942f271fbd8_F0_dwelling_0_f000,    !- Name
    Electricity,              !- Fuel Type
    89ddb942f271fbd8_F0_dwelling_0,    !- Zone or ZoneList or Space or SpaceList Name
    EU_Step8_GainSchedule_89ddb942f271fbd8_F0_dwelling_0_f000,    !- Schedule Name
    Watts/Area,               !- Design Level Calculation Method
    ,                         !- Design Level
    1,                        !- Power per Zone Floor Area
    ,                         !- Power per Person
    0,                        !- Fraction Latent
    0,                        !- Fraction Radiant
    0,                        !- Fraction Lost
    0,                        !- Carbon Dioxide Generation Rate
    EU_Step8_InternalGains;    !- EndUse Subcategory

OTHEREQUIPMENT,
    EU_Step8_InternalGain_89ddb942f271fbd8_F0_dwelling_1_f000,    !- Name
    Electricity,              !- Fuel Type
    89ddb942f271fbd8_F0_dwelling_1,    !- Zone or ZoneList or Space or SpaceList Name
    EU_Step8_GainSchedule_89ddb942f271fbd8_F0_dwelling_1_f000,    !- Schedule Name
    Watts/Area,               !- Design Level Calculation Method
    ,                         !- Design Level
    1,                        !- Power per Zone Floor Area
    ,                         !- Power per Person
    0,                        !- Fraction Latent
    0,                        !- Fraction Radiant
    0,                        !- Fraction Lost
    0,                        !- Carbon Dioxide Generation Rate
    EU_Step8_InternalGains;    !- EndUse Subcategory

OTHEREQUIPMENT,
    EU_Step8_InternalGain_89ddb942f271fbd8_F1_dwelling_0_f000,    !- Name
    Electricity,              !- Fuel Type
    89ddb942f271fbd8_F1_dwelling_0,    !- Zone or ZoneList or Space or SpaceList Name
    EU_Step8_GainSchedule_89ddb942f271fbd8_F1_dwelling_0_f000,    !- Schedule Name
    Watts/Area,               !- Design Level Calculation Method
    ,                         !- Design Level
    1,                        !- Power per Zone Floor Area
    ,                         !- Power per Person
    0,                        !- Fraction Latent
    0,                        !- Fraction Radiant
    0,                        !- Fraction Lost
    0,                        !- Carbon Dioxide Generation Rate
    EU_Step8_InternalGains;    !- EndUse Subcategory

OTHEREQUIPMENT,
    EU_Step8_InternalGain_89ddb942f271fbd8_F2_dwelling_0_f000,    !- Name
    Electricity,              !- Fuel Type
    89ddb942f271fbd8_F2_dwelling_0,    !- Zone or ZoneList or Space or SpaceList Name
    EU_Step8_GainSchedule_89ddb942f271fbd8_F2_dwelling_0_f000,    !- Schedule Name
    Watts/Area,               !- Design Level Calculation Method
    ,                         !- Design Level
    1,                        !- Power per Zone Floor Area
    ,                         !- Power per Person
    0,                        !- Fraction Latent
    0,                        !- Fraction Radiant
    0,                        !- Fraction Lost
    0,                        !- Carbon Dioxide Generation Rate
    EU_Step8_InternalGains;    !- EndUse Subcategory

OTHEREQUIPMENT,
    EU_Step8_InternalGain_89ddb942f271fbd8_F3_dwelling_0_f000,    !- Name
    Electricity,              !- Fuel Type
    89ddb942f271fbd8_F3_dwelling_0,    !- Zone or ZoneList or Space or SpaceList Name
    EU_Step8_GainSchedule_89ddb942f271fbd8_F3_dwelling_0_f000,    !- Schedule Name
    Watts/Area,               !- Design Level Calculation Method
    ,                         !- Design Level
    1,                        !- Power per Zone Floor Area
    ,                         !- Power per Person
    0,                        !- Fraction Latent
    0,                        !- Fraction Radiant
    0,                        !- Fraction Lost
    0,                        !- Carbon Dioxide Generation Rate
    EU_Step8_InternalGains;    !- EndUse Subcategory

ZONEVENTILATION:DESIGNFLOWRATE,
    EU_ConstantAir_89ddb942f271fbd8_F0_dwelling_0,    !- Name
    89ddb942f271fbd8_F0_dwelling_0,    !- Zone or ZoneList or Space or SpaceList Name
    EU_AlwaysOn,              !- Schedule Name
    AirChanges/Hour,          !- Design Flow Rate Calculation Method
    ,                         !- Design Flow Rate
    ,                         !- Flow Rate per Floor Area
    ,                         !- Flow Rate per Person
    0.6878922584914343,       !- Air Changes per Hour
    Natural,                  !- Ventilation Type
    0,                        !- Fan Pressure Rise
    1,                        !- Fan Total Efficiency
    1,                        !- Constant Term Coefficient
    0,                        !- Temperature Term Coefficient
    0,                        !- Velocity Term Coefficient
    0,                        !- Velocity Squared Term Coefficient
    -100,                     !- Minimum Indoor Temperature
    ,                         !- Minimum Indoor Temperature Schedule Name
    100,                      !- Maximum Indoor Temperature
    ,                         !- Maximum Indoor Temperature Schedule Name
    -100,                     !- Delta Temperature
    ,                         !- Delta Temperature Schedule Name
    -100,                     !- Minimum Outdoor Temperature
    ,                         !- Minimum Outdoor Temperature Schedule Name
    100,                      !- Maximum Outdoor Temperature
    ,                         !- Maximum Outdoor Temperature Schedule Name
    40;                       !- Maximum Wind Speed

ZONEVENTILATION:DESIGNFLOWRATE,
    EU_ConstantAir_89ddb942f271fbd8_F0_dwelling_1,    !- Name
    89ddb942f271fbd8_F0_dwelling_1,    !- Zone or ZoneList or Space or SpaceList Name
    EU_AlwaysOn,              !- Schedule Name
    AirChanges/Hour,          !- Design Flow Rate Calculation Method
    ,                         !- Design Flow Rate
    ,                         !- Flow Rate per Floor Area
    ,                         !- Flow Rate per Person
    0.6878922584914343,       !- Air Changes per Hour
    Natural,                  !- Ventilation Type
    0,                        !- Fan Pressure Rise
    1,                        !- Fan Total Efficiency
    1,                        !- Constant Term Coefficient
    0,                        !- Temperature Term Coefficient
    0,                        !- Velocity Term Coefficient
    0,                        !- Velocity Squared Term Coefficient
    -100,                     !- Minimum Indoor Temperature
    ,                         !- Minimum Indoor Temperature Schedule Name
    100,                      !- Maximum Indoor Temperature
    ,                         !- Maximum Indoor Temperature Schedule Name
    -100,                     !- Delta Temperature
    ,                         !- Delta Temperature Schedule Name
    -100,                     !- Minimum Outdoor Temperature
    ,                         !- Minimum Outdoor Temperature Schedule Name
    100,                      !- Maximum Outdoor Temperature
    ,                         !- Maximum Outdoor Temperature Schedule Name
    40;                       !- Maximum Wind Speed

ZONEVENTILATION:DESIGNFLOWRATE,
    EU_ConstantAir_89ddb942f271fbd8_F1_dwelling_0,    !- Name
    89ddb942f271fbd8_F1_dwelling_0,    !- Zone or ZoneList or Space or SpaceList Name
    EU_AlwaysOn,              !- Schedule Name
    AirChanges/Hour,          !- Design Flow Rate Calculation Method
    ,                         !- Design Flow Rate
    ,                         !- Flow Rate per Floor Area
    ,                         !- Flow Rate per Person
    0.6878922584914343,       !- Air Changes per Hour
    Natural,                  !- Ventilation Type
    0,                        !- Fan Pressure Rise
    1,                        !- Fan Total Efficiency
    1,                        !- Constant Term Coefficient
    0,                        !- Temperature Term Coefficient
    0,                        !- Velocity Term Coefficient
    0,                        !- Velocity Squared Term Coefficient
    -100,                     !- Minimum Indoor Temperature
    ,                         !- Minimum Indoor Temperature Schedule Name
    100,                      !- Maximum Indoor Temperature
    ,                         !- Maximum Indoor Temperature Schedule Name
    -100,                     !- Delta Temperature
    ,                         !- Delta Temperature Schedule Name
    -100,                     !- Minimum Outdoor Temperature
    ,                         !- Minimum Outdoor Temperature Schedule Name
    100,                      !- Maximum Outdoor Temperature
    ,                         !- Maximum Outdoor Temperature Schedule Name
    40;                       !- Maximum Wind Speed

ZONEVENTILATION:DESIGNFLOWRATE,
    EU_ConstantAir_89ddb942f271fbd8_F2_dwelling_0,    !- Name
    89ddb942f271fbd8_F2_dwelling_0,    !- Zone or ZoneList or Space or SpaceList Name
    EU_AlwaysOn,              !- Schedule Name
    AirChanges/Hour,          !- Design Flow Rate Calculation Method
    ,                         !- Design Flow Rate
    ,                         !- Flow Rate per Floor Area
    ,                         !- Flow Rate per Person
    0.6878922584914343,       !- Air Changes per Hour
    Natural,                  !- Ventilation Type
    0,                        !- Fan Pressure Rise
    1,                        !- Fan Total Efficiency
    1,                        !- Constant Term Coefficient
    0,                        !- Temperature Term Coefficient
    0,                        !- Velocity Term Coefficient
    0,                        !- Velocity Squared Term Coefficient
    -100,                     !- Minimum Indoor Temperature
    ,                         !- Minimum Indoor Temperature Schedule Name
    100,                      !- Maximum Indoor Temperature
    ,                         !- Maximum Indoor Temperature Schedule Name
    -100,                     !- Delta Temperature
    ,                         !- Delta Temperature Schedule Name
    -100,                     !- Minimum Outdoor Temperature
    ,                         !- Minimum Outdoor Temperature Schedule Name
    100,                      !- Maximum Outdoor Temperature
    ,                         !- Maximum Outdoor Temperature Schedule Name
    40;                       !- Maximum Wind Speed

ZONEVENTILATION:DESIGNFLOWRATE,
    EU_ConstantAir_89ddb942f271fbd8_F3_dwelling_0,    !- Name
    89ddb942f271fbd8_F3_dwelling_0,    !- Zone or ZoneList or Space or SpaceList Name
    EU_AlwaysOn,              !- Schedule Name
    AirChanges/Hour,          !- Design Flow Rate Calculation Method
    ,                         !- Design Flow Rate
    ,                         !- Flow Rate per Floor Area
    ,                         !- Flow Rate per Person
    0.6878922584914343,       !- Air Changes per Hour
    Natural,                  !- Ventilation Type
    0,                        !- Fan Pressure Rise
    1,                        !- Fan Total Efficiency
    1,                        !- Constant Term Coefficient
    0,                        !- Temperature Term Coefficient
    0,                        !- Velocity Term Coefficient
    0,                        !- Velocity Squared Term Coefficient
    -100,                     !- Minimum Indoor Temperature
    ,                         !- Minimum Indoor Temperature Schedule Name
    100,                      !- Maximum Indoor Temperature
    ,                         !- Maximum Indoor Temperature Schedule Name
    -100,                     !- Delta Temperature
    ,                         !- Delta Temperature Schedule Name
    -100,                     !- Minimum Outdoor Temperature
    ,                         !- Minimum Outdoor Temperature Schedule Name
    100,                      !- Maximum Outdoor Temperature
    ,                         !- Maximum Outdoor Temperature Schedule Name
    40;                       !- Maximum Wind Speed

HVACTEMPLATE:THERMOSTAT,
    EU_HeatOnly_89ddb942f271fbd8_F0_dwelling_0,    !- Name
    ,                         !- Heating Setpoint Schedule Name
    20,                       !- Constant Heating Setpoint
    ,                         !- Cooling Setpoint Schedule Name
    50;                       !- Constant Cooling Setpoint

HVACTEMPLATE:THERMOSTAT,
    EU_HeatOnly_89ddb942f271fbd8_F0_dwelling_1,    !- Name
    ,                         !- Heating Setpoint Schedule Name
    20,                       !- Constant Heating Setpoint
    ,                         !- Cooling Setpoint Schedule Name
    50;                       !- Constant Cooling Setpoint

HVACTEMPLATE:THERMOSTAT,
    EU_HeatOnly_89ddb942f271fbd8_F1_dwelling_0,    !- Name
    ,                         !- Heating Setpoint Schedule Name
    20,                       !- Constant Heating Setpoint
    ,                         !- Cooling Setpoint Schedule Name
    50;                       !- Constant Cooling Setpoint

HVACTEMPLATE:THERMOSTAT,
    EU_HeatOnly_89ddb942f271fbd8_F2_dwelling_0,    !- Name
    ,                         !- Heating Setpoint Schedule Name
    20,                       !- Constant Heating Setpoint
    ,                         !- Cooling Setpoint Schedule Name
    50;                       !- Constant Cooling Setpoint

HVACTEMPLATE:THERMOSTAT,
    EU_HeatOnly_89ddb942f271fbd8_F3_dwelling_0,    !- Name
    ,                         !- Heating Setpoint Schedule Name
    20,                       !- Constant Heating Setpoint
    ,                         !- Cooling Setpoint Schedule Name
    50;                       !- Constant Cooling Setpoint

HVACTEMPLATE:ZONE:IDEALLOADSAIRSYSTEM,
    89ddb942f271fbd8_F0_dwelling_0,    !- Zone Name
    EU_HeatOnly_89ddb942f271fbd8_F0_dwelling_0,    !- Template Thermostat Name
    EU_AlwaysOn,              !- System Availability Schedule Name
    50,                       !- Maximum Heating Supply Air Temperature
    13,                       !- Minimum Cooling Supply Air Temperature
    0.0156,                   !- Maximum Heating Supply Air Humidity Ratio
    0.0077,                   !- Minimum Cooling Supply Air Humidity Ratio
    NoLimit,                  !- Heating Limit
    ,                         !- Maximum Heating Air Flow Rate
    ,                         !- Maximum Sensible Heating Capacity
    NoLimit,                  !- Cooling Limit
    ,                         !- Maximum Cooling Air Flow Rate
    ,                         !- Maximum Total Cooling Capacity
    EU_AlwaysOn,              !- Heating Availability Schedule Name
    EU_CoolingOff,            !- Cooling Availability Schedule Name
    ConstantSensibleHeatRatio,    !- Dehumidification Control Type
    0.7,                      !- Cooling Sensible Heat Ratio
    60,                       !- Dehumidification Setpoint
    None,                     !- Humidification Control Type
    30,                       !- Humidification Setpoint
    None,                     !- Outdoor Air Method
    0.00944,                  !- Outdoor Air Flow Rate per Person
    0.0,                      !- Outdoor Air Flow Rate per Zone Floor Area
    0,                        !- Outdoor Air Flow Rate per Zone
    ,                         !- Design Specification Outdoor Air Object Name
    None,                     !- Demand Controlled Ventilation Type
    NoEconomizer,             !- Outdoor Air Economizer Type
    None,                     !- Heat Recovery Type
    0.70,                     !- Sensible Heat Recovery Effectiveness
    0.65;                     !- Latent Heat Recovery Effectiveness

HVACTEMPLATE:ZONE:IDEALLOADSAIRSYSTEM,
    89ddb942f271fbd8_F0_dwelling_1,    !- Zone Name
    EU_HeatOnly_89ddb942f271fbd8_F0_dwelling_1,    !- Template Thermostat Name
    EU_AlwaysOn,              !- System Availability Schedule Name
    50,                       !- Maximum Heating Supply Air Temperature
    13,                       !- Minimum Cooling Supply Air Temperature
    0.0156,                   !- Maximum Heating Supply Air Humidity Ratio
    0.0077,                   !- Minimum Cooling Supply Air Humidity Ratio
    NoLimit,                  !- Heating Limit
    ,                         !- Maximum Heating Air Flow Rate
    ,                         !- Maximum Sensible Heating Capacity
    NoLimit,                  !- Cooling Limit
    ,                         !- Maximum Cooling Air Flow Rate
    ,                         !- Maximum Total Cooling Capacity
    EU_AlwaysOn,              !- Heating Availability Schedule Name
    EU_CoolingOff,            !- Cooling Availability Schedule Name
    ConstantSensibleHeatRatio,    !- Dehumidification Control Type
    0.7,                      !- Cooling Sensible Heat Ratio
    60,                       !- Dehumidification Setpoint
    None,                     !- Humidification Control Type
    30,                       !- Humidification Setpoint
    None,                     !- Outdoor Air Method
    0.00944,                  !- Outdoor Air Flow Rate per Person
    0.0,                      !- Outdoor Air Flow Rate per Zone Floor Area
    0,                        !- Outdoor Air Flow Rate per Zone
    ,                         !- Design Specification Outdoor Air Object Name
    None,                     !- Demand Controlled Ventilation Type
    NoEconomizer,             !- Outdoor Air Economizer Type
    None,                     !- Heat Recovery Type
    0.70,                     !- Sensible Heat Recovery Effectiveness
    0.65;                     !- Latent Heat Recovery Effectiveness

HVACTEMPLATE:ZONE:IDEALLOADSAIRSYSTEM,
    89ddb942f271fbd8_F1_dwelling_0,    !- Zone Name
    EU_HeatOnly_89ddb942f271fbd8_F1_dwelling_0,    !- Template Thermostat Name
    EU_AlwaysOn,              !- System Availability Schedule Name
    50,                       !- Maximum Heating Supply Air Temperature
    13,                       !- Minimum Cooling Supply Air Temperature
    0.0156,                   !- Maximum Heating Supply Air Humidity Ratio
    0.0077,                   !- Minimum Cooling Supply Air Humidity Ratio
    NoLimit,                  !- Heating Limit
    ,                         !- Maximum Heating Air Flow Rate
    ,                         !- Maximum Sensible Heating Capacity
    NoLimit,                  !- Cooling Limit
    ,                         !- Maximum Cooling Air Flow Rate
    ,                         !- Maximum Total Cooling Capacity
    EU_AlwaysOn,              !- Heating Availability Schedule Name
    EU_CoolingOff,            !- Cooling Availability Schedule Name
    ConstantSensibleHeatRatio,    !- Dehumidification Control Type
    0.7,                      !- Cooling Sensible Heat Ratio
    60,                       !- Dehumidification Setpoint
    None,                     !- Humidification Control Type
    30,                       !- Humidification Setpoint
    None,                     !- Outdoor Air Method
    0.00944,                  !- Outdoor Air Flow Rate per Person
    0.0,                      !- Outdoor Air Flow Rate per Zone Floor Area
    0,                        !- Outdoor Air Flow Rate per Zone
    ,                         !- Design Specification Outdoor Air Object Name
    None,                     !- Demand Controlled Ventilation Type
    NoEconomizer,             !- Outdoor Air Economizer Type
    None,                     !- Heat Recovery Type
    0.70,                     !- Sensible Heat Recovery Effectiveness
    0.65;                     !- Latent Heat Recovery Effectiveness

HVACTEMPLATE:ZONE:IDEALLOADSAIRSYSTEM,
    89ddb942f271fbd8_F2_dwelling_0,    !- Zone Name
    EU_HeatOnly_89ddb942f271fbd8_F2_dwelling_0,    !- Template Thermostat Name
    EU_AlwaysOn,              !- System Availability Schedule Name
    50,                       !- Maximum Heating Supply Air Temperature
    13,                       !- Minimum Cooling Supply Air Temperature
    0.0156,                   !- Maximum Heating Supply Air Humidity Ratio
    0.0077,                   !- Minimum Cooling Supply Air Humidity Ratio
    NoLimit,                  !- Heating Limit
    ,                         !- Maximum Heating Air Flow Rate
    ,                         !- Maximum Sensible Heating Capacity
    NoLimit,                  !- Cooling Limit
    ,                         !- Maximum Cooling Air Flow Rate
    ,                         !- Maximum Total Cooling Capacity
    EU_AlwaysOn,              !- Heating Availability Schedule Name
    EU_CoolingOff,            !- Cooling Availability Schedule Name
    ConstantSensibleHeatRatio,    !- Dehumidification Control Type
    0.7,                      !- Cooling Sensible Heat Ratio
    60,                       !- Dehumidification Setpoint
    None,                     !- Humidification Control Type
    30,                       !- Humidification Setpoint
    None,                     !- Outdoor Air Method
    0.00944,                  !- Outdoor Air Flow Rate per Person
    0.0,                      !- Outdoor Air Flow Rate per Zone Floor Area
    0,                        !- Outdoor Air Flow Rate per Zone
    ,                         !- Design Specification Outdoor Air Object Name
    None,                     !- Demand Controlled Ventilation Type
    NoEconomizer,             !- Outdoor Air Economizer Type
    None,                     !- Heat Recovery Type
    0.70,                     !- Sensible Heat Recovery Effectiveness
    0.65;                     !- Latent Heat Recovery Effectiveness

HVACTEMPLATE:ZONE:IDEALLOADSAIRSYSTEM,
    89ddb942f271fbd8_F3_dwelling_0,    !- Zone Name
    EU_HeatOnly_89ddb942f271fbd8_F3_dwelling_0,    !- Template Thermostat Name
    EU_AlwaysOn,              !- System Availability Schedule Name
    50,                       !- Maximum Heating Supply Air Temperature
    13,                       !- Minimum Cooling Supply Air Temperature
    0.0156,                   !- Maximum Heating Supply Air Humidity Ratio
    0.0077,                   !- Minimum Cooling Supply Air Humidity Ratio
    NoLimit,                  !- Heating Limit
    ,                         !- Maximum Heating Air Flow Rate
    ,                         !- Maximum Sensible Heating Capacity
    NoLimit,                  !- Cooling Limit
    ,                         !- Maximum Cooling Air Flow Rate
    ,                         !- Maximum Total Cooling Capacity
    EU_AlwaysOn,              !- Heating Availability Schedule Name
    EU_CoolingOff,            !- Cooling Availability Schedule Name
    ConstantSensibleHeatRatio,    !- Dehumidification Control Type
    0.7,                      !- Cooling Sensible Heat Ratio
    60,                       !- Dehumidification Setpoint
    None,                     !- Humidification Control Type
    30,                       !- Humidification Setpoint
    None,                     !- Outdoor Air Method
    0.00944,                  !- Outdoor Air Flow Rate per Person
    0.0,                      !- Outdoor Air Flow Rate per Zone Floor Area
    0,                        !- Outdoor Air Flow Rate per Zone
    ,                         !- Design Specification Outdoor Air Object Name
    None,                     !- Demand Controlled Ventilation Type
    NoEconomizer,             !- Outdoor Air Economizer Type
    None,                     !- Heat Recovery Type
    0.70,                     !- Sensible Heat Recovery Effectiveness
    0.65;                     !- Latent Heat Recovery Effectiveness

SIZING:ZONE,
    89ddb942f271fbd8_F0_dwelling_0,    !- Zone or ZoneList Name
    SupplyAirTemperature,     !- Zone Cooling Design Supply Air Temperature Input Method
    13,                       !- Zone Cooling Design Supply Air Temperature
    ,                         !- Zone Cooling Design Supply Air Temperature Difference
    SupplyAirTemperature,     !- Zone Heating Design Supply Air Temperature Input Method
    50,                       !- Zone Heating Design Supply Air Temperature
    ,                         !- Zone Heating Design Supply Air Temperature Difference
    0.008,                    !- Zone Cooling Design Supply Air Humidity Ratio
    0.008,                    !- Zone Heating Design Supply Air Humidity Ratio
    ,                         !- Design Specification Outdoor Air Object Name
    ,                         !- Zone Heating Sizing Factor
    ,                         !- Zone Cooling Sizing Factor
    DesignDay,                !- Cooling Design Air Flow Method
    0,                        !- Cooling Design Air Flow Rate
    0.000762,                 !- Cooling Minimum Air Flow per Zone Floor Area
    0,                        !- Cooling Minimum Air Flow
    0.2,                      !- Cooling Minimum Air Flow Fraction
    DesignDay,                !- Heating Design Air Flow Method
    0,                        !- Heating Design Air Flow Rate
    0.002032,                 !- Heating Maximum Air Flow per Zone Floor Area
    0.1415762,                !- Heating Maximum Air Flow
    0.3,                      !- Heating Maximum Air Flow Fraction
    ,                         !- Design Specification Zone Air Distribution Object Name
    No,                       !- Account for Dedicated Outdoor Air System
    NeutralSupplyAir,         !- Dedicated Outdoor Air System Control Strategy
    autosize,                 !- Dedicated Outdoor Air Low Setpoint Temperature for Design
    autosize,                 !- Dedicated Outdoor Air High Setpoint Temperature for Design
    Sensible Load Only No Latent Load,    !- Zone Load Sizing Method
    HumidityRatioDifference,    !- Zone Latent Cooling Design Supply Air Humidity Ratio Input Method
    ,                         !- Zone Dehumidification Design Supply Air Humidity Ratio
    0.005,                    !- Zone Cooling Design Supply Air Humidity Ratio Difference
    HumidityRatioDifference,    !- Zone Latent Heating Design Supply Air Humidity Ratio Input Method
    ,                         !- Zone Humidification Design Supply Air Humidity Ratio
    0.005;                    !- Zone Humidification Design Supply Air Humidity Ratio Difference

SIZING:ZONE,
    89ddb942f271fbd8_F0_dwelling_1,    !- Zone or ZoneList Name
    SupplyAirTemperature,     !- Zone Cooling Design Supply Air Temperature Input Method
    13,                       !- Zone Cooling Design Supply Air Temperature
    ,                         !- Zone Cooling Design Supply Air Temperature Difference
    SupplyAirTemperature,     !- Zone Heating Design Supply Air Temperature Input Method
    50,                       !- Zone Heating Design Supply Air Temperature
    ,                         !- Zone Heating Design Supply Air Temperature Difference
    0.008,                    !- Zone Cooling Design Supply Air Humidity Ratio
    0.008,                    !- Zone Heating Design Supply Air Humidity Ratio
    ,                         !- Design Specification Outdoor Air Object Name
    ,                         !- Zone Heating Sizing Factor
    ,                         !- Zone Cooling Sizing Factor
    DesignDay,                !- Cooling Design Air Flow Method
    0,                        !- Cooling Design Air Flow Rate
    0.000762,                 !- Cooling Minimum Air Flow per Zone Floor Area
    0,                        !- Cooling Minimum Air Flow
    0.2,                      !- Cooling Minimum Air Flow Fraction
    DesignDay,                !- Heating Design Air Flow Method
    0,                        !- Heating Design Air Flow Rate
    0.002032,                 !- Heating Maximum Air Flow per Zone Floor Area
    0.1415762,                !- Heating Maximum Air Flow
    0.3,                      !- Heating Maximum Air Flow Fraction
    ,                         !- Design Specification Zone Air Distribution Object Name
    No,                       !- Account for Dedicated Outdoor Air System
    NeutralSupplyAir,         !- Dedicated Outdoor Air System Control Strategy
    autosize,                 !- Dedicated Outdoor Air Low Setpoint Temperature for Design
    autosize,                 !- Dedicated Outdoor Air High Setpoint Temperature for Design
    Sensible Load Only No Latent Load,    !- Zone Load Sizing Method
    HumidityRatioDifference,    !- Zone Latent Cooling Design Supply Air Humidity Ratio Input Method
    ,                         !- Zone Dehumidification Design Supply Air Humidity Ratio
    0.005,                    !- Zone Cooling Design Supply Air Humidity Ratio Difference
    HumidityRatioDifference,    !- Zone Latent Heating Design Supply Air Humidity Ratio Input Method
    ,                         !- Zone Humidification Design Supply Air Humidity Ratio
    0.005;                    !- Zone Humidification Design Supply Air Humidity Ratio Difference

SIZING:ZONE,
    89ddb942f271fbd8_F1_dwelling_0,    !- Zone or ZoneList Name
    SupplyAirTemperature,     !- Zone Cooling Design Supply Air Temperature Input Method
    13,                       !- Zone Cooling Design Supply Air Temperature
    ,                         !- Zone Cooling Design Supply Air Temperature Difference
    SupplyAirTemperature,     !- Zone Heating Design Supply Air Temperature Input Method
    50,                       !- Zone Heating Design Supply Air Temperature
    ,                         !- Zone Heating Design Supply Air Temperature Difference
    0.008,                    !- Zone Cooling Design Supply Air Humidity Ratio
    0.008,                    !- Zone Heating Design Supply Air Humidity Ratio
    ,                         !- Design Specification Outdoor Air Object Name
    ,                         !- Zone Heating Sizing Factor
    ,                         !- Zone Cooling Sizing Factor
    DesignDay,                !- Cooling Design Air Flow Method
    0,                        !- Cooling Design Air Flow Rate
    0.000762,                 !- Cooling Minimum Air Flow per Zone Floor Area
    0,                        !- Cooling Minimum Air Flow
    0.2,                      !- Cooling Minimum Air Flow Fraction
    DesignDay,                !- Heating Design Air Flow Method
    0,                        !- Heating Design Air Flow Rate
    0.002032,                 !- Heating Maximum Air Flow per Zone Floor Area
    0.1415762,                !- Heating Maximum Air Flow
    0.3,                      !- Heating Maximum Air Flow Fraction
    ,                         !- Design Specification Zone Air Distribution Object Name
    No,                       !- Account for Dedicated Outdoor Air System
    NeutralSupplyAir,         !- Dedicated Outdoor Air System Control Strategy
    autosize,                 !- Dedicated Outdoor Air Low Setpoint Temperature for Design
    autosize,                 !- Dedicated Outdoor Air High Setpoint Temperature for Design
    Sensible Load Only No Latent Load,    !- Zone Load Sizing Method
    HumidityRatioDifference,    !- Zone Latent Cooling Design Supply Air Humidity Ratio Input Method
    ,                         !- Zone Dehumidification Design Supply Air Humidity Ratio
    0.005,                    !- Zone Cooling Design Supply Air Humidity Ratio Difference
    HumidityRatioDifference,    !- Zone Latent Heating Design Supply Air Humidity Ratio Input Method
    ,                         !- Zone Humidification Design Supply Air Humidity Ratio
    0.005;                    !- Zone Humidification Design Supply Air Humidity Ratio Difference

SIZING:ZONE,
    89ddb942f271fbd8_F2_dwelling_0,    !- Zone or ZoneList Name
    SupplyAirTemperature,     !- Zone Cooling Design Supply Air Temperature Input Method
    13,                       !- Zone Cooling Design Supply Air Temperature
    ,                         !- Zone Cooling Design Supply Air Temperature Difference
    SupplyAirTemperature,     !- Zone Heating Design Supply Air Temperature Input Method
    50,                       !- Zone Heating Design Supply Air Temperature
    ,                         !- Zone Heating Design Supply Air Temperature Difference
    0.008,                    !- Zone Cooling Design Supply Air Humidity Ratio
    0.008,                    !- Zone Heating Design Supply Air Humidity Ratio
    ,                         !- Design Specification Outdoor Air Object Name
    ,                         !- Zone Heating Sizing Factor
    ,                         !- Zone Cooling Sizing Factor
    DesignDay,                !- Cooling Design Air Flow Method
    0,                        !- Cooling Design Air Flow Rate
    0.000762,                 !- Cooling Minimum Air Flow per Zone Floor Area
    0,                        !- Cooling Minimum Air Flow
    0.2,                      !- Cooling Minimum Air Flow Fraction
    DesignDay,                !- Heating Design Air Flow Method
    0,                        !- Heating Design Air Flow Rate
    0.002032,                 !- Heating Maximum Air Flow per Zone Floor Area
    0.1415762,                !- Heating Maximum Air Flow
    0.3,                      !- Heating Maximum Air Flow Fraction
    ,                         !- Design Specification Zone Air Distribution Object Name
    No,                       !- Account for Dedicated Outdoor Air System
    NeutralSupplyAir,         !- Dedicated Outdoor Air System Control Strategy
    autosize,                 !- Dedicated Outdoor Air Low Setpoint Temperature for Design
    autosize,                 !- Dedicated Outdoor Air High Setpoint Temperature for Design
    Sensible Load Only No Latent Load,    !- Zone Load Sizing Method
    HumidityRatioDifference,    !- Zone Latent Cooling Design Supply Air Humidity Ratio Input Method
    ,                         !- Zone Dehumidification Design Supply Air Humidity Ratio
    0.005,                    !- Zone Cooling Design Supply Air Humidity Ratio Difference
    HumidityRatioDifference,    !- Zone Latent Heating Design Supply Air Humidity Ratio Input Method
    ,                         !- Zone Humidification Design Supply Air Humidity Ratio
    0.005;                    !- Zone Humidification Design Supply Air Humidity Ratio Difference

SIZING:ZONE,
    89ddb942f271fbd8_F3_dwelling_0,    !- Zone or ZoneList Name
    SupplyAirTemperature,     !- Zone Cooling Design Supply Air Temperature Input Method
    13,                       !- Zone Cooling Design Supply Air Temperature
    ,                         !- Zone Cooling Design Supply Air Temperature Difference
    SupplyAirTemperature,     !- Zone Heating Design Supply Air Temperature Input Method
    50,                       !- Zone Heating Design Supply Air Temperature
    ,                         !- Zone Heating Design Supply Air Temperature Difference
    0.008,                    !- Zone Cooling Design Supply Air Humidity Ratio
    0.008,                    !- Zone Heating Design Supply Air Humidity Ratio
    ,                         !- Design Specification Outdoor Air Object Name
    ,                         !- Zone Heating Sizing Factor
    ,                         !- Zone Cooling Sizing Factor
    DesignDay,                !- Cooling Design Air Flow Method
    0,                        !- Cooling Design Air Flow Rate
    0.000762,                 !- Cooling Minimum Air Flow per Zone Floor Area
    0,                        !- Cooling Minimum Air Flow
    0.2,                      !- Cooling Minimum Air Flow Fraction
    DesignDay,                !- Heating Design Air Flow Method
    0,                        !- Heating Design Air Flow Rate
    0.002032,                 !- Heating Maximum Air Flow per Zone Floor Area
    0.1415762,                !- Heating Maximum Air Flow
    0.3,                      !- Heating Maximum Air Flow Fraction
    ,                         !- Design Specification Zone Air Distribution Object Name
    No,                       !- Account for Dedicated Outdoor Air System
    NeutralSupplyAir,         !- Dedicated Outdoor Air System Control Strategy
    autosize,                 !- Dedicated Outdoor Air Low Setpoint Temperature for Design
    autosize,                 !- Dedicated Outdoor Air High Setpoint Temperature for Design
    Sensible Load Only No Latent Load,    !- Zone Load Sizing Method
    HumidityRatioDifference,    !- Zone Latent Cooling Design Supply Air Humidity Ratio Input Method
    ,                         !- Zone Dehumidification Design Supply Air Humidity Ratio
    0.005,                    !- Zone Cooling Design Supply Air Humidity Ratio Difference
    HumidityRatioDifference,    !- Zone Latent Heating Design Supply Air Humidity Ratio Input Method
    ,                         !- Zone Humidification Design Supply Air Humidity Ratio
    0.005;                    !- Zone Humidification Design Supply Air Humidity Ratio Difference

OUTPUT:VARIABLE,
    *,                        !- Key Value
    Zone Ideal Loads Zone Total Heating Energy,    !- Variable Name
    Hourly;                   !- Reporting Frequency

OUTPUT:SQLITE,
    SimpleAndTabular,         !- Option Type
    UseOutputControlTableStyle;    !- Unit Conversion for Tabular Data