!- Windows Line endings 

Version,
    23.1;                     !- Version Identifier

SimulationControl,
    Yes,                      !- Do Zone Sizing Calculation
    Yes,                      !- Do System Sizing Calculation
    Yes,                      !- Do Plant Sizing Calculation
    No,                       !- Run Simulation for Sizing Periods
    Yes,                      !- Run Simulation for Weather File Run Periods
    No,                       !- Do HVAC Sizing Simulation for Sizing Periods
    1;                        !- Maximum Number of HVAC Sizing Simulation Passes

Building,
    EU S2 Campaign,           !- Name
    0,                        !- North Axis
    City,                     !- Terrain
    ,                         !- Loads Convergence Tolerance Value
    ,                         !- Temperature Convergence Tolerance Value
    FullExterior,             !- Solar Distribution
    ,                         !- Maximum Number of Warmup Days
    ;                         !- Minimum Number of Warmup Days

ShadowCalculation,
    PolygonClipping,          !- Shading Calculation Method
    Periodic,                 !- Shading Calculation Update Frequency Method
    1;                        !- Shading Calculation Update Frequency

HeatBalanceAlgorithm,
    ConductionTransferFunction,    !- Algorithm
    200,                      !- Surface Temperature Upper Limit
    0.1,                      !- Minimum Surface Convection Heat Transfer Coefficient Value
    10000000;                 !- Maximum Surface Convection Heat Transfer Coefficient Value

Timestep,
    12;                       !- Number of Timesteps per Hour

Site:Location,
    Bologna,                  !- Name
    44.5,                     !- Latitude
    11.25,                    !- Longitude
    1,                        !- Time Zone
    37;                       !- Elevation

SizingPeriod:WeatherFileDays,
    AnnualSizingPeriod,       !- Name
    1,                        !- Begin Month
    1,                        !- Begin Day of Month
    12,                       !- End Month
    31,                       !- End Day of Month
    Monday,                   !- Day of Week for Start Day
    No,                       !- Use Weather File Daylight Saving Period
    No;                       !- Use Weather File Rain and Snow Indicators

RunPeriod,
    RunPeriod1,               !- Name
    1,                        !- Begin Month
    1,                        !- Begin Day of Month
    ,                         !- Begin Year
    12,                       !- End Month
    31,                       !- End Day of Month
    ,                         !- End Year
    Sunday,                   !- Day of Week for Start Day
    No,                       !- Use Weather File Holidays and Special Days
    No,                       !- Use Weather File Daylight Saving Period
    No,                       !- Apply Weekend Holiday Rule
    Yes,                      !- Use Weather File Rain Indicators
    Yes;                      !- Use Weather File Snow Indicators

ScheduleTypeLimits,
    Any Number;               !- Name

SCHEDULETYPELIMITS,
    EU_Step8_AnyNumber_Wm2,    !- Name
    ,                         !- Lower Limit Value
    ,                         !- Upper Limit Value
    Continuous,               !- Numeric Type
    Dimensionless;            !- Unit Type

SCHEDULE:CONSTANT,
    EU_AlwaysOn,              !- Name
    ,                         !- Schedule Type Limits Name
    1;                        !- Hourly Value

SCHEDULE:CONSTANT,
    EU_CoolingOff,            !- Name
    ,                         !- Schedule Type Limits Name
    0;                        !- Hourly Value

SCHEDULE:FILE,
    EU_Step8_GainSchedule_9abddc3ac015cffa_F0_whole_f000,    !- Name
    EU_Step8_AnyNumber_Wm2,    !- Schedule Type Limits Name
    ../../schedules/9abddc3ac015cffa/9abddc3ac015cffa_F0_whole_f000_gain.csv,    !- File Name
    1,                        !- Column Number
    0,                        !- Rows to Skip at Top
    8760,                     !- Number of Hours of Data
    Comma,                    !- Column Separator
    No,                       !- Interpolate to Timestep
    60,                       !- Minutes per Item
    Yes;                      !- Adjust Schedule for Daylight Savings

SCHEDULE:FILE,
    EU_Step8_GainSchedule_9abddc3ac015cffa_F1_whole_f000,    !- Name
    EU_Step8_AnyNumber_Wm2,    !- Schedule Type Limits Name
    ../../schedules/9abddc3ac015cffa/9abddc3ac015cffa_F1_whole_f000_gain.csv,    !- File Name
    1,                        !- Column Number
    0,                        !- Rows to Skip at Top
    8760,                     !- Number of Hours of Data
    Comma,                    !- Column Separator
    No,                       !- Interpolate to Timestep
    60,                       !- Minutes per Item
    Yes;                      !- Adjust Schedule for Daylight Savings

SCHEDULE:FILE,
    EU_Step8_GainSchedule_9abddc3ac015cffa_F2_whole_f000,    !- Name
    EU_Step8_AnyNumber_Wm2,    !- Schedule Type Limits Name
    ../../schedules/9abddc3ac015cffa/9abddc3ac015cffa_F2_whole_f000_gain.csv,    !- File Name
    1,                        !- Column Number
    0,                        !- Rows to Skip at Top
    8760,                     !- Number of Hours of Data
    Comma,                    !- Column Separator
    No,                       !- Interpolate to Timestep
    60,                       !- Minutes per Item
    Yes;                      !- Adjust Schedule for Daylight Savings

MATERIAL,
    EU_InternalMass_Material,    !- Name
    MediumRough,              !- Roughness
    0.1,                      !- Thickness
    1,                        !- Conductivity
    1800,                     !- Density
    900,                      !- Specific Heat
    0.9,                      !- Thermal Absorptance
    0.7,                      !- Solar Absorptance
    0.7;                      !- Visible Absorptance

MATERIAL:NOMASS,
    EU_wall_NoMass,           !- Name
    MediumRough,              !- Roughness
    0.9378813067869615,       !- Thermal Resistance
    0.9,                      !- Thermal Absorptance
    0.7,                      !- Solar Absorptance
    0.7;                      !- Visible Absorptance

MATERIAL:NOMASS,
    EU_roof_NoMass,           !- Name
    MediumRough,              !- Roughness
    0.5485720851018077,       !- Thermal Resistance
    0.9,                      !- Thermal Absorptance
    0.7,                      !- Solar Absorptance
    0.7;                      !- Visible Absorptance

MATERIAL:NOMASS,
    EU_floor_NoMass,          !- Name
    MediumRough,              !- Roughness
    0.7134802579238234,       !- Thermal Resistance
    0.9,                      !- Thermal Absorptance
    0.7,                      !- Solar Absorptance
    0.7;                      !- Visible Absorptance

CONSTRUCTION,
    EU_wall_Construction,     !- Name
    EU_wall_NoMass;           !- Outside Layer

CONSTRUCTION,
    EU_roof_Construction,     !- Name
    EU_roof_NoMass;           !- Outside Layer

CONSTRUCTION,
    EU_floor_Construction,    !- Name
    EU_floor_NoMass;          !- Outside Layer

CONSTRUCTION,
    EU_InternalMass_Construction,    !- Name
    EU_InternalMass_Material;    !- Outside Layer

GlobalGeometryRules,
    UpperLeftCorner,          !- Starting Vertex Position
    CounterClockWise,         !- Vertex Entry Direction
    World;                    !- Coordinate System

ZONE,
    9abddc3ac015cffa_F0_whole,    !- Name
    0,                        !- Direction of Relative North
    0,                        !- X Origin
    0,                        !- Y Origin
    0,                        !- Z Origin
    1,                        !- Type
    1,                        !- Multiplier
    autocalculate,            !- Ceiling Height
    249.309814453125,         !- Volume
    autocalculate,            !- Floor Area
    ,                         !- Zone Inside Convection Algorithm
    ,                         !- Zone Outside Convection Algorithm
    Yes;                      !- Part of Total Floor Area

ZONE,
    9abddc3ac015cffa_F1_whole,    !- Name
    0,                        !- Direction of Relative North
    0,                        !- X Origin
    0,                        !- Y Origin
    0,                        !- Z Origin
    1,                        !- Type
    1,                        !- Multiplier
    autocalculate,            !- Ceiling Height
    249.310546875,            !- Volume
    autocalculate,            !- Floor Area
    ,                         !- Zone Inside Convection Algorithm
    ,                         !- Zone Outside Convection Algorithm
    Yes;                      !- Part of Total Floor Area

ZONE,
    9abddc3ac015cffa_F2_whole,    !- Name
    0,                        !- Direction of Relative North
    0,                        !- X Origin
    0,                        !- Y Origin
    0,                        !- Z Origin
    1,                        !- Type
    1,                        !- Multiplier
    autocalculate,            !- Ceiling Height
    249.310546875,            !- Volume
    autocalculate,            !- Floor Area
    ,                         !- Zone Inside Convection Algorithm
    ,                         !- Zone Outside Convection Algorithm
    Yes;                      !- Part of Total Floor Area

BUILDINGSURFACE:DETAILED,
    Block 9abddc3ac015cffa_whole Storey 0 Wall 0001,    !- Name
    wall,                     !- Surface Type
    EU_wall_Construction,     !- Construction Name
    9abddc3ac015cffa_F0_whole,    !- Zone Name
    ,                         !- Space Name
    Adiabatic,                !- Outside Boundary Condition
    ,                         !- Outside Boundary Condition Object
    NoSun,                    !- Sun Exposure
    NoWind,                   !- Wind Exposure
    autocalculate,            !- View Factor to Ground
    autocalculate,            !- Number of Vertices
    686914.68,                !- Vertex 1 Xcoordinate
    4928768.35,               !- Vertex 1 Ycoordinate
    3,                        !- Vertex 1 Zcoordinate
    686914.68,                !- Vertex 2 Xcoordinate
    4928768.35,               !- Vertex 2 Ycoordinate
    0,                        !- Vertex 2 Zcoordinate
    686923.585,               !- Vertex 3 Xcoordinate
    4928778.015,              !- Vertex 3 Ycoordinate
    0,                        !- Vertex 3 Zcoordinate
    686923.585,               !- Vertex 4 Xcoordinate
    4928778.015,              !- Vertex 4 Ycoordinate
    3;                        !- Vertex 4 Zcoordinate

BUILDINGSURFACE:DETAILED,
    Block 9abddc3ac015cffa_whole Storey 0 Wall 0002,    !- Name
    wall,                     !- Surface Type
    EU_wall_Construction,     !- Construction Name
    9abddc3ac015cffa_F0_whole,    !- Zone Name
    ,                         !- Space Name
    Adiabatic,                !- Outside Boundary Condition
    ,                         !- Outside Boundary Condition Object
    NoSun,                    !- Sun Exposure
    NoWind,                   !- Wind Exposure
    autocalculate,            !- View Factor to Ground
    autocalculate,            !- Number of Vertices
    686923.585,               !- Vertex 1 Xcoordinate
    4928778.015,              !- Vertex 1 Ycoordinate
    3,                        !- Vertex 1 Zcoordinate
    686923.585,               !- Vertex 2 Xcoordinate
    4928778.015,              !- Vertex 2 Ycoordinate
    0,                        !- Vertex 2 Zcoordinate
    686928.505,               !- Vertex 3 Xcoordinate
    4928774.275,              !- Vertex 3 Ycoordinate
    0,                        !- Vertex 3 Zcoordinate
    686928.505,               !- Vertex 4 Xcoordinate
    4928774.275,              !- Vertex 4 Ycoordinate
    3;                        !- Vertex 4 Zcoordinate

BUILDINGSURFACE:DETAILED,
    Block 9abddc3ac015cffa_whole Storey 0 Wall 0003,    !- Name
    wall,                     !- Surface Type
    EU_wall_Construction,     !- Construction Name
    9abddc3ac015cffa_F0_whole,    !- Zone Name
    ,                         !- Space Name
    Adiabatic,                !- Outside Boundary Condition
    ,                         !- Outside Boundary Condition Object
    NoSun,                    !- Sun Exposure
    NoWind,                   !- Wind Exposure
    autocalculate,            !- View Factor to Ground
    autocalculate,            !- Number of Vertices
    686928.505,               !- Vertex 1 Xcoordinate
    4928774.275,              !- Vertex 1 Ycoordinate
    3,                        !- Vertex 1 Zcoordinate
    686928.505,               !- Vertex 2 Xcoordinate
    4928774.275,              !- Vertex 2 Ycoordinate
    0,                        !- Vertex 2 Zcoordinate
    686926.545,               !- Vertex 3 Xcoordinate
    4928771.905,              !- Vertex 3 Ycoordinate
    0,                        !- Vertex 3 Zcoordinate
    686926.545,               !- Vertex 4 Xcoordinate
    4928771.905,              !- Vertex 4 Ycoordinate
    3;                        !- Vertex 4 Zcoordinate

BUILDINGSURFACE:DETAILED,
    Block 9abddc3ac015cffa_whole Storey 0 Wall 0004,    !- Name
    wall,                     !- Surface Type
    EU_wall_Construction,     !- Construction Name
    9abddc3ac015cffa_F0_whole,    !- Zone Name
    ,                         !- Space Name
    Adiabatic,                !- Outside Boundary Condition
    ,                         !- Outside Boundary Condition Object
    NoSun,                    !- Sun Exposure
    NoWind,                   !- Wind Exposure
    autocalculate,            !- View Factor to Ground
    autocalculate,            !- Number of Vertices
    686926.545,               !- Vertex 1 Xcoordinate
    4928771.905,              !- Vertex 1 Ycoordinate
    3,                        !- Vertex 1 Zcoordinate
    686926.545,               !- Vertex 2 Xcoordinate
    4928771.905,              !- Vertex 2 Ycoordinate
    0,                        !- Vertex 2 Zcoordinate
    686922.485,               !- Vertex 3 Xcoordinate
    4928767.355,              !- Vertex 3 Ycoordinate
    0,                        !- Vertex 3 Zcoordinate
    686922.485,               !- Vertex 4 Xcoordinate
    4928767.355,              !- Vertex 4 Ycoordinate
    3;                        !- Vertex 4 Zcoordinate

BUILDINGSURFACE:DETAILED,
    Block 9abddc3ac015cffa_whole Storey 0 Wall 0005,    !- Name
    wall,                     !- Surface Type
    EU_wall_Construction,     !- Construction Name
    9abddc3ac015cffa_F0_whole,    !- Zone Name
    ,                         !- Space Name
    Adiabatic,                !- Outside Boundary Condition
    ,                         !- Outside Boundary Condition Object
    NoSun,                    !- Sun Exposure
    NoWind,                   !- Wind Exposure
    autocalculate,            !- View Factor to Ground
    autocalculate,            !- Number of Vertices
    686922.485,               !- Vertex 1 Xcoordinate
    4928767.355,              !- Vertex 1 Ycoordinate
    3,                        !- Vertex 1 Zcoordinate
    686922.485,               !- Vertex 2 Xcoordinate
    4928767.355,              !- Vertex 2 Ycoordinate
    0,                        !- Vertex 2 Zcoordinate
    686922.255,               !- Vertex 3 Xcoordinate
    4928767.565,              !- Vertex 3 Ycoordinate
    0,                        !- Vertex 3 Zcoordinate
    686922.255,               !- Vertex 4 Xcoordinate
    4928767.565,              !- Vertex 4 Ycoordinate
    3;                        !- Vertex 4 Zcoordinate

BUILDINGSURFACE:DETAILED,
    Block 9abddc3ac015cffa_whole Storey 0 Wall 0006,    !- Name
    wall,                     !- Surface Type
    EU_wall_Construction,     !- Construction Name
    9abddc3ac015cffa_F0_whole,    !- Zone Name
    ,                         !- Space Name
    Adiabatic,                !- Outside Boundary Condition
    ,                         !- Outside Boundary Condition Object
    NoSun,                    !- Sun Exposure
    NoWind,                   !- Wind Exposure
    autocalculate,            !- View Factor to Ground
    autocalculate,            !- Number of Vertices
    686922.255,               !- Vertex 1 Xcoordinate
    4928767.565,              !- Vertex 1 Ycoordinate
    3,                        !- Vertex 1 Zcoordinate
    686922.255,               !- Vertex 2 Xcoordinate
    4928767.565,              !- Vertex 2 Ycoordinate
    0,                        !- Vertex 2 Zcoordinate
    686919.315,               !- Vertex 3 Xcoordinate
    4928764.43,               !- Vertex 3 Ycoordinate
    0,                        !- Vertex 3 Zcoordinate
    686919.315,               !- Vertex 4 Xcoordinate
    4928764.43,               !- Vertex 4 Ycoordinate
    3;                        !- Vertex 4 Zcoordinate

BUILDINGSURFACE:DETAILED,
    Block 9abddc3ac015cffa_whole Storey 0 Wall 0007,    !- Name
    wall,                     !- Surface Type
    EU_wall_Construction,     !- Construction Name
    9abddc3ac015cffa_F0_whole,    !- Zone Name
    ,                         !- Space Name
    Adiabatic,                !- Outside Boundary Condition
    ,                         !- Outside Boundary Condition Object
    NoSun,                    !- Sun Exposure
    NoWind,                   !- Wind Exposure
    autocalculate,            !- View Factor to Ground
    autocalculate,            !- Number of Vertices
    686919.315,               !- Vertex 1 Xcoordinate
    4928764.43,               !- Vertex 1 Ycoordinate
    3,                        !- Vertex 1 Zcoordinate
    686919.315,               !- Vertex 2 Xcoordinate
    4928764.43,               !- Vertex 2 Ycoordinate
    0,                        !- Vertex 2 Zcoordinate
    686914.68,                !- Vertex 3 Xcoordinate
    4928768.35,               !- Vertex 3 Ycoordinate
    0,                        !- Vertex 3 Zcoordinate
    686914.68,                !- Vertex 4 Xcoordinate
    4928768.35,               !- Vertex 4 Ycoordinate
    3;                        !- Vertex 4 Zcoordinate

BUILDINGSURFACE:DETAILED,
    Block 9abddc3ac015cffa_whole Storey 0 Floor 0001,    !- Name
    floor,                    !- Surface Type
    EU_floor_Construction,    !- Construction Name
    9abddc3ac015cffa_F0_whole,    !- Zone Name
    ,                         !- Space Name
    ground,                   !- Outside Boundary Condition
    ,                         !- Outside Boundary Condition Object
    NoSun,                    !- Sun Exposure
    NoWind,                   !- Wind Exposure
    autocalculate,            !- View Factor to Ground
    autocalculate,            !- Number of Vertices
    686922.485,               !- Vertex 1 Xcoordinate
    4928767.355,              !- Vertex 1 Ycoordinate
    0,                        !- Vertex 1 Zcoordinate
    686926.545,               !- Vertex 2 Xcoordinate
    4928771.905,              !- Vertex 2 Ycoordinate
    0,                        !- Vertex 2 Zcoordinate
    686928.505,               !- Vertex 3 Xcoordinate
    4928774.275,              !- Vertex 3 Ycoordinate
    0,                        !- Vertex 3 Zcoordinate
    686923.585,               !- Vertex 4 Xcoordinate
    4928778.015,              !- Vertex 4 Ycoordinate
    0,                        !- Vertex 4 Zcoordinate
    686914.68,                !- Vertex 5 Xcoordinate
    4928768.35,               !- Vertex 5 Ycoordinate
    0,                        !- Vertex 5 Zcoordinate
    686919.315,               !- Vertex 6 Xcoordinate
    4928764.43,               !- Vertex 6 Ycoordinate
    0,                        !- Vertex 6 Zcoordinate
    686922.255,               !- Vertex 7 Xcoordinate
    4928767.565,              !- Vertex 7 Ycoordinate
    0;                        !- Vertex 7 Zcoordinate

BUILDINGSURFACE:DETAILED,
    Block 9abddc3ac015cffa_whole Storey 1 Wall 0001,    !- Name
    wall,                     !- Surface Type
    EU_wall_Construction,     !- Construction Name
    9abddc3ac015cffa_F1_whole,    !- Zone Name
    ,                         !- Space Name
    Adiabatic,                !- Outside Boundary Condition
    ,                         !- Outside Boundary Condition Object
    NoSun,                    !- Sun Exposure
    NoWind,                   !- Wind Exposure
    autocalculate,            !- View Factor to Ground
    autocalculate,            !- Number of Vertices
    686914.68,                !- Vertex 1 Xcoordinate
    4928768.35,               !- Vertex 1 Ycoordinate
    6,                        !- Vertex 1 Zcoordinate
    686914.68,                !- Vertex 2 Xcoordinate
    4928768.35,               !- Vertex 2 Ycoordinate
    3,                        !- Vertex 2 Zcoordinate
    686923.585,               !- Vertex 3 Xcoordinate
    4928778.015,              !- Vertex 3 Ycoordinate
    3,                        !- Vertex 3 Zcoordinate
    686923.585,               !- Vertex 4 Xcoordinate
    4928778.015,              !- Vertex 4 Ycoordinate
    6;                        !- Vertex 4 Zcoordinate

BUILDINGSURFACE:DETAILED,
    Block 9abddc3ac015cffa_whole Storey 1 Wall 0002,    !- Name
    wall,                     !- Surface Type
    EU_wall_Construction,     !- Construction Name
    9abddc3ac015cffa_F1_whole,    !- Zone Name
    ,                         !- Space Name
    Adiabatic,                !- Outside Boundary Condition
    ,                         !- Outside Boundary Condition Object
    NoSun,                    !- Sun Exposure
    NoWind,                   !- Wind Exposure
    autocalculate,            !- View Factor to Ground
    autocalculate,            !- Number of Vertices
    686923.585,               !- Vertex 1 Xcoordinate
    4928778.015,              !- Vertex 1 Ycoordinate
    6,                        !- Vertex 1 Zcoordinate
    686923.585,               !- Vertex 2 Xcoordinate
    4928778.015,              !- Vertex 2 Ycoordinate
    3,                        !- Vertex 2 Zcoordinate
    686928.505,               !- Vertex 3 Xcoordinate
    4928774.275,              !- Vertex 3 Ycoordinate
    3,                        !- Vertex 3 Zcoordinate
    686928.505,               !- Vertex 4 Xcoordinate
    4928774.275,              !- Vertex 4 Ycoordinate
    6;                        !- Vertex 4 Zcoordinate

BUILDINGSURFACE:DETAILED,
    Block 9abddc3ac015cffa_whole Storey 1 Wall 0003,    !- Name
    wall,                     !- Surface Type
    EU_wall_Construction,     !- Construction Name
    9abddc3ac015cffa_F1_whole,    !- Zone Name
    ,                         !- Space Name
    Adiabatic,                !- Outside Boundary Condition
    ,                         !- Outside Boundary Condition Object
    NoSun,                    !- Sun Exposure
    NoWind,                   !- Wind Exposure
    autocalculate,            !- View Factor to Ground
    autocalculate,            !- Number of Vertices
    686928.505,               !- Vertex 1 Xcoordinate
    4928774.275,              !- Vertex 1 Ycoordinate
    6,                        !- Vertex 1 Zcoordinate
    686928.505,               !- Vertex 2 Xcoordinate
    4928774.275,              !- Vertex 2 Ycoordinate
    3,                        !- Vertex 2 Zcoordinate
    686926.545,               !- Vertex 3 Xcoordinate
    4928771.905,              !- Vertex 3 Ycoordinate
    3,                        !- Vertex 3 Zcoordinate
    686926.545,               !- Vertex 4 Xcoordinate
    4928771.905,              !- Vertex 4 Ycoordinate
    6;                        !- Vertex 4 Zcoordinate

BUILDINGSURFACE:DETAILED,
    Block 9abddc3ac015cffa_whole Storey 1 Wall 0004,    !- Name
    wall,                     !- Surface Type
    EU_wall_Construction,     !- Construction Name
    9abddc3ac015cffa_F1_whole,    !- Zone Name
    ,                         !- Space Name
    Adiabatic,                !- Outside Boundary Condition
    ,                         !- Outside Boundary Condition Object
    NoSun,                    !- Sun Exposure
    NoWind,                   !- Wind Exposure
    autocalculate,            !- View Factor to Ground
    autocalculate,            !- Number of Vertices
    686926.545,               !- Vertex 1 Xcoordinate
    4928771.905,              !- Vertex 1 Ycoordinate
    6,                        !- Vertex 1 Zcoordinate
    686926.545,               !- Vertex 2 Xcoordinate
    4928771.905,              !- Vertex 2 Ycoordinate
    3,                        !- Vertex 2 Zcoordinate
    686922.485,               !- Vertex 3 Xcoordinate
    4928767.355,              !- Vertex 3 Ycoordinate
    3,                        !- Vertex 3 Zcoordinate
    686922.485,               !- Vertex 4 Xcoordinate
    4928767.355,              !- Vertex 4 Ycoordinate
    6;                        !- Vertex 4 Zcoordinate

BUILDINGSURFACE:DETAILED,
    Block 9abddc3ac015cffa_whole Storey 1 Wall 0005,    !- Name
    wall,                     !- Surface Type
    EU_wall_Construction,     !- Construction Name
    9abddc3ac015cffa_F1_whole,    !- Zone Name
    ,                         !- Space Name
    Adiabatic,                !- Outside Boundary Condition
    ,                         !- Outside Boundary Condition Object
    NoSun,                    !- Sun Exposure
    NoWind,                   !- Wind Exposure
    autocalculate,            !- View Factor to Ground
    autocalculate,            !- Number of Vertices
    686922.485,               !- Vertex 1 Xcoordinate
    4928767.355,              !- Vertex 1 Ycoordinate
    6,                        !- Vertex 1 Zcoordinate
    686922.485,               !- Vertex 2 Xcoordinate
    4928767.355,              !- Vertex 2 Ycoordinate
    3,                        !- Vertex 2 Zcoordinate
    686922.255,               !- Vertex 3 Xcoordinate
    4928767.565,              !- Vertex 3 Ycoordinate
    3,                        !- Vertex 3 Zcoordinate
    686922.255,               !- Vertex 4 Xcoordinate
    4928767.565,              !- Vertex 4 Ycoordinate
    6;                        !- Vertex 4 Zcoordinate

BUILDINGSURFACE:DETAILED,
    Block 9abddc3ac015cffa_whole Storey 1 Wall 0006,    !- Name
    wall,                     !- Surface Type
    EU_wall_Construction,     !- Construction Name
    9abddc3ac015cffa_F1_whole,    !- Zone Name
    ,                         !- Space Name
    Adiabatic,                !- Outside Boundary Condition
    ,                         !- Outside Boundary Condition Object
    NoSun,                    !- Sun Exposure
    NoWind,                   !- Wind Exposure
    autocalculate,            !- View Factor to Ground
    autocalculate,            !- Number of Vertices
    686922.255,               !- Vertex 1 Xcoordinate
    4928767.565,              !- Vertex 1 Ycoordinate
    6,                        !- Vertex 1 Zcoordinate
    686922.255,               !- Vertex 2 Xcoordinate
    4928767.565,              !- Vertex 2 Ycoordinate
    3,                        !- Vertex 2 Zcoordinate
    686919.315,               !- Vertex 3 Xcoordinate
    4928764.43,               !- Vertex 3 Ycoordinate
    3,                        !- Vertex 3 Zcoordinate
    686919.315,               !- Vertex 4 Xcoordinate
    4928764.43,               !- Vertex 4 Ycoordinate
    6;                        !- Vertex 4 Zcoordinate

BUILDINGSURFACE:DETAILED,
    Block 9abddc3ac015cffa_whole Storey 1 Wall 0007,    !- Name
    wall,                     !- Surface Type
    EU_wall_Construction,     !- Construction Name
    9abddc3ac015cffa_F1_whole,    !- Zone Name
    ,                         !- Space Name
    Adiabatic,                !- Outside Boundary Condition
    ,                         !- Outside Boundary Condition Object
    NoSun,                    !- Sun Exposure
    NoWind,                   !- Wind Exposure
    autocalculate,            !- View Factor to Ground
    autocalculate,            !- Number of Vertices
    686919.315,               !- Vertex 1 Xcoordinate
    4928764.43,               !- Vertex 1 Ycoordinate
    6,                        !- Vertex 1 Zcoordinate
    686919.315,               !- Vertex 2 Xcoordinate
    4928764.43,               !- Vertex 2 Ycoordinate
    3,                        !- Vertex 2 Zcoordinate
    686914.68,                !- Vertex 3 Xcoordinate
    4928768.35,               !- Vertex 3 Ycoordinate
    3,                        !- Vertex 3 Zcoordinate
    686914.68,                !- Vertex 4 Xcoordinate
    4928768.35,               !- Vertex 4 Ycoordinate
    6;                        !- Vertex 4 Zcoordinate

BUILDINGSURFACE:DETAILED,
    Block 9abddc3ac015cffa_whole Storey 2 Wall 0001,    !- Name
    wall,                     !- Surface Type
    EU_wall_Construction,     !- Construction Name
    9abddc3ac015cffa_F2_whole,    !- Zone Name
    ,                         !- Space Name
    Adiabatic,                !- Outside Boundary Condition
    ,                         !- Outside Boundary Condition Object
    NoSun,                    !- Sun Exposure
    NoWind,                   !- Wind Exposure
    autocalculate,            !- View Factor to Ground
    autocalculate,            !- Number of Vertices
    686914.68,                !- Vertex 1 Xcoordinate
    4928768.35,               !- Vertex 1 Ycoordinate
    9,                        !- Vertex 1 Zcoordinate
    686914.68,                !- Vertex 2 Xcoordinate
    4928768.35,               !- Vertex 2 Ycoordinate
    6,                        !- Vertex 2 Zcoordinate
    686923.585,               !- Vertex 3 Xcoordinate
    4928778.015,              !- Vertex 3 Ycoordinate
    6,                        !- Vertex 3 Zcoordinate
    686923.585,               !- Vertex 4 Xcoordinate
    4928778.015,              !- Vertex 4 Ycoordinate
    9;                        !- Vertex 4 Zcoordinate

BUILDINGSURFACE:DETAILED,
    Block 9abddc3ac015cffa_whole Storey 2 Wall 0002,    !- Name
    wall,                     !- Surface Type
    EU_wall_Construction,     !- Construction Name
    9abddc3ac015cffa_F2_whole,    !- Zone Name
    ,                         !- Space Name
    Adiabatic,                !- Outside Boundary Condition
    ,                         !- Outside Boundary Condition Object
    NoSun,                    !- Sun Exposure
    NoWind,                   !- Wind Exposure
    autocalculate,            !- View Factor to Ground
    autocalculate,            !- Number of Vertices
    686923.585,               !- Vertex 1 Xcoordinate
    4928778.015,              !- Vertex 1 Ycoordinate
    9,                        !- Vertex 1 Zcoordinate
    686923.585,               !- Vertex 2 Xcoordinate
    4928778.015,              !- Vertex 2 Ycoordinate
    6,                        !- Vertex 2 Zcoordinate
    686928.505,               !- Vertex 3 Xcoordinate
    4928774.275,              !- Vertex 3 Ycoordinate
    6,                        !- Vertex 3 Zcoordinate
    686928.505,               !- Vertex 4 Xcoordinate
    4928774.275,              !- Vertex 4 Ycoordinate
    9;                        !- Vertex 4 Zcoordinate

BUILDINGSURFACE:DETAILED,
    Block 9abddc3ac015cffa_whole Storey 2 Wall 0003,    !- Name
    wall,                     !- Surface Type
    EU_wall_Construction,     !- Construction Name
    9abddc3ac015cffa_F2_whole,    !- Zone Name
    ,                         !- Space Name
    Adiabatic,                !- Outside Boundary Condition
    ,                         !- Outside Boundary Condition Object
    NoSun,                    !- Sun Exposure
    NoWind,                   !- Wind Exposure
    autocalculate,            !- View Factor to Ground
    autocalculate,            !- Number of Vertices
    686928.505,               !- Vertex 1 Xcoordinate
    4928774.275,              !- Vertex 1 Ycoordinate
    9,                        !- Vertex 1 Zcoordinate
    686928.505,               !- Vertex 2 Xcoordinate
    4928774.275,              !- Vertex 2 Ycoordinate
    6,                        !- Vertex 2 Zcoordinate
    686926.545,               !- Vertex 3 Xcoordinate
    4928771.905,              !- Vertex 3 Ycoordinate
    6,                        !- Vertex 3 Zcoordinate
    686926.545,               !- Vertex 4 Xcoordinate
    4928771.905,              !- Vertex 4 Ycoordinate
    9;                        !- Vertex 4 Zcoordinate

BUILDINGSURFACE:DETAILED,
    Block 9abddc3ac015cffa_whole Storey 2 Wall 0004,    !- Name
    wall,                     !- Surface Type
    EU_wall_Construction,     !- Construction Name
    9abddc3ac015cffa_F2_whole,    !- Zone Name
    ,                         !- Space Name
    Adiabatic,                !- Outside Boundary Condition
    ,                         !- Outside Boundary Condition Object
    NoSun,                    !- Sun Exposure
    NoWind,                   !- Wind Exposure
    autocalculate,            !- View Factor to Ground
    autocalculate,            !- Number of Vertices
    686926.545,               !- Vertex 1 Xcoordinate
    4928771.905,              !- Vertex 1 Ycoordinate
    9,                        !- Vertex 1 Zcoordinate
    686926.545,               !- Vertex 2 Xcoordinate
    4928771.905,              !- Vertex 2 Ycoordinate
    6,                        !- Vertex 2 Zcoordinate
    686922.485,               !- Vertex 3 Xcoordinate
    4928767.355,              !- Vertex 3 Ycoordinate
    6,                        !- Vertex 3 Zcoordinate
    686922.485,               !- Vertex 4 Xcoordinate
    4928767.355,              !- Vertex 4 Ycoordinate
    9;                        !- Vertex 4 Zcoordinate

BUILDINGSURFACE:DETAILED,
    Block 9abddc3ac015cffa_whole Storey 2 Wall 0005,    !- Name
    wall,                     !- Surface Type
    EU_wall_Construction,     !- Construction Name
    9abddc3ac015cffa_F2_whole,    !- Zone Name
    ,                         !- Space Name
    Adiabatic,                !- Outside Boundary Condition
    ,                         !- Outside Boundary Condition Object
    NoSun,                    !- Sun Exposure
    NoWind,                   !- Wind Exposure
    autocalculate,            !- View Factor to Ground
    autocalculate,            !- Number of Vertices
    686922.485,               !- Vertex 1 Xcoordinate
    4928767.355,              !- Vertex 1 Ycoordinate
    9,                        !- Vertex 1 Zcoordinate
    686922.485,               !- Vertex 2 Xcoordinate
    4928767.355,              !- Vertex 2 Ycoordinate
    6,                        !- Vertex 2 Zcoordinate
    686922.255,               !- Vertex 3 Xcoordinate
    4928767.565,              !- Vertex 3 Ycoordinate
    6,                        !- Vertex 3 Zcoordinate
    686922.255,               !- Vertex 4 Xcoordinate
    4928767.565,              !- Vertex 4 Ycoordinate
    9;                        !- Vertex 4 Zcoordinate

BUILDINGSURFACE:DETAILED,
    Block 9abddc3ac015cffa_whole Storey 2 Wall 0006,    !- Name
    wall,                     !- Surface Type
    EU_wall_Construction,     !- Construction Name
    9abddc3ac015cffa_F2_whole,    !- Zone Name
    ,                         !- Space Name
    Adiabatic,                !- Outside Boundary Condition
    ,                         !- Outside Boundary Condition Object
    NoSun,                    !- Sun Exposure
    NoWind,                   !- Wind Exposure
    autocalculate,            !- View Factor to Ground
    autocalculate,            !- Number of Vertices
    686922.255,               !- Vertex 1 Xcoordinate
    4928767.565,              !- Vertex 1 Ycoordinate
    9,                        !- Vertex 1 Zcoordinate
    686922.255,               !- Vertex 2 Xcoordinate
    4928767.565,              !- Vertex 2 Ycoordinate
    6,                        !- Vertex 2 Zcoordinate
    686919.315,               !- Vertex 3 Xcoordinate
    4928764.43,               !- Vertex 3 Ycoordinate
    6,                        !- Vertex 3 Zcoordinate
    686919.315,               !- Vertex 4 Xcoordinate
    4928764.43,               !- Vertex 4 Ycoordinate
    9;                        !- Vertex 4 Zcoordinate

BUILDINGSURFACE:DETAILED,
    Block 9abddc3ac015cffa_whole Storey 2 Wall 0007,    !- Name
    wall,                     !- Surface Type
    EU_wall_Construction,     !- Construction Name
    9abddc3ac015cffa_F2_whole,    !- Zone Name
    ,                         !- Space Name
    Adiabatic,                !- Outside Boundary Condition
    ,                         !- Outside Boundary Condition Object
    NoSun,                    !- Sun Exposure
    NoWind,                   !- Wind Exposure
    autocalculate,            !- View Factor to Ground
    autocalculate,            !- Number of Vertices
    686919.315,               !- Vertex 1 Xcoordinate
    4928764.43,               !- Vertex 1 Ycoordinate
    9,                        !- Vertex 1 Zcoordinate
    686919.315,               !- Vertex 2 Xcoordinate
    4928764.43,               !- Vertex 2 Ycoordinate
    6,                        !- Vertex 2 Zcoordinate
    686914.68,                !- Vertex 3 Xcoordinate
    4928768.35,               !- Vertex 3 Ycoordinate
    6,                        !- Vertex 3 Zcoordinate
    686914.68,                !- Vertex 4 Xcoordinate
    4928768.35,               !- Vertex 4 Ycoordinate
    9;                        !- Vertex 4 Zcoordinate

BUILDINGSURFACE:DETAILED,
    Block 9abddc3ac015cffa_whole Storey 2 Roof 0001,    !- Name
    roof,                     !- Surface Type
    EU_roof_Construction,     !- Construction Name
    9abddc3ac015cffa_F2_whole,    !- Zone Name
    ,                         !- Space Name
    outdoors,                 !- Outside Boundary Condition
    ,                         !- Outside Boundary Condition Object
    NoSun,                    !- Sun Exposure
    WindExposed,              !- Wind Exposure
    autocalculate,            !- View Factor to Ground
    autocalculate,            !- Number of Vertices
    686928.505,               !- Vertex 1 Xcoordinate
    4928774.275,              !- Vertex 1 Ycoordinate
    9,                        !- Vertex 1 Zcoordinate
    686926.545,               !- Vertex 2 Xcoordinate
    4928771.905,              !- Vertex 2 Ycoordinate
    9,                        !- Vertex 2 Zcoordinate
    686922.485,               !- Vertex 3 Xcoordinate
    4928767.355,              !- Vertex 3 Ycoordinate
    9,                        !- Vertex 3 Zcoordinate
    686922.255,               !- Vertex 4 Xcoordinate
    4928767.565,              !- Vertex 4 Ycoordinate
    9,                        !- Vertex 4 Zcoordinate
    686919.315,               !- Vertex 5 Xcoordinate
    4928764.43,               !- Vertex 5 Ycoordinate
    9,                        !- Vertex 5 Zcoordinate
    686914.68,                !- Vertex 6 Xcoordinate
    4928768.35,               !- Vertex 6 Ycoordinate
    9,                        !- Vertex 6 Zcoordinate
    686923.585,               !- Vertex 7 Xcoordinate
    4928778.015,              !- Vertex 7 Ycoordinate
    9;                        !- Vertex 7 Zcoordinate

BUILDINGSURFACE:DETAILED,
    Block 9abddc3ac015cffa_whole Storey 0 Ceiling 0001_1,    !- Name
    ceiling,                  !- Surface Type
    EU_floor_Construction,    !- Construction Name
    9abddc3ac015cffa_F0_whole,    !- Zone Name
    ,                         !- Space Name
    Surface,                  !- Outside Boundary Condition
    Block 9abddc3ac015cffa_whole Storey 1 Floor 0001_1,    !- Outside Boundary Condition Object
    NoSun,                    !- Sun Exposure
    NoWind,                   !- Wind Exposure
    autocalculate,            !- View Factor to Ground
    autocalculate,            !- Number of Vertices
    686928.5049999999,        !- Vertex 1 Xcoordinate
    4928774.275,              !- Vertex 1 Ycoordinate
    3,                        !- Vertex 1 Zcoordinate
    686926.5449999999,        !- Vertex 2 Xcoordinate
    4928771.905,              !- Vertex 2 Ycoordinate
    3,                        !- Vertex 2 Zcoordinate
    686922.4849999999,        !- Vertex 3 Xcoordinate
    4928767.355,              !- Vertex 3 Ycoordinate
    3,                        !- Vertex 3 Zcoordinate
    686922.2549999999,        !- Vertex 4 Xcoordinate
    4928767.565,              !- Vertex 4 Ycoordinate
    3,                        !- Vertex 4 Zcoordinate
    686919.315,               !- Vertex 5 Xcoordinate
    4928764.43,               !- Vertex 5 Ycoordinate
    3,                        !- Vertex 5 Zcoordinate
    686914.6799999997,        !- Vertex 6 Xcoordinate
    4928768.35,               !- Vertex 6 Ycoordinate
    3,                        !- Vertex 6 Zcoordinate
    686923.585,               !- Vertex 7 Xcoordinate
    4928778.015,              !- Vertex 7 Ycoordinate
    3;                        !- Vertex 7 Zcoordinate

BUILDINGSURFACE:DETAILED,
    Block 9abddc3ac015cffa_whole Storey 1 Floor 0001_1,    !- Name
    floor,                    !- Surface Type
    EU_floor_Construction,    !- Construction Name
    9abddc3ac015cffa_F1_whole,    !- Zone Name
    ,                         !- Space Name
    Surface,                  !- Outside Boundary Condition
    Block 9abddc3ac015cffa_whole Storey 0 Ceiling 0001_1,    !- Outside Boundary Condition Object
    NoSun,                    !- Sun Exposure
    NoWind,                   !- Wind Exposure
    autocalculate,            !- View Factor to Ground
    autocalculate,            !- Number of Vertices
    686922.4849999999,        !- Vertex 1 Xcoordinate
    4928767.355,              !- Vertex 1 Ycoordinate
    3,                        !- Vertex 1 Zcoordinate
    686926.5449999999,        !- Vertex 2 Xcoordinate
    4928771.905,              !- Vertex 2 Ycoordinate
    3,                        !- Vertex 2 Zcoordinate
    686928.5049999999,        !- Vertex 3 Xcoordinate
    4928774.275,              !- Vertex 3 Ycoordinate
    3,                        !- Vertex 3 Zcoordinate
    686923.585,               !- Vertex 4 Xcoordinate
    4928778.015,              !- Vertex 4 Ycoordinate
    3,                        !- Vertex 4 Zcoordinate
    686914.6799999997,        !- Vertex 5 Xcoordinate
    4928768.35,               !- Vertex 5 Ycoordinate
    3,                        !- Vertex 5 Zcoordinate
    686919.315,               !- Vertex 6 Xcoordinate
    4928764.43,               !- Vertex 6 Ycoordinate
    3,                        !- Vertex 6 Zcoordinate
    686922.2549999999,        !- Vertex 7 Xcoordinate
    4928767.565,              !- Vertex 7 Ycoordinate
    3;                        !- Vertex 7 Zcoordinate

BUILDINGSURFACE:DETAILED,
    Block 9abddc3ac015cffa_whole Storey 1 Ceiling 0001_1,    !- Name
    ceiling,                  !- Surface Type
    EU_floor_Construction,    !- Construction Name
    9abddc3ac015cffa_F1_whole,    !- Zone Name
    ,                         !- Space Name
    Surface,                  !- Outside Boundary Condition
    Block 9abddc3ac015cffa_whole Storey 2 Floor 0001_1,    !- Outside Boundary Condition Object
    NoSun,                    !- Sun Exposure
    NoWind,                   !- Wind Exposure
    autocalculate,            !- View Factor to Ground
    autocalculate,            !- Number of Vertices
    686928.5049999999,        !- Vertex 1 Xcoordinate
    4928774.275,              !- Vertex 1 Ycoordinate
    6,                        !- Vertex 1 Zcoordinate
    686926.5449999999,        !- Vertex 2 Xcoordinate
    4928771.905,              !- Vertex 2 Ycoordinate
    6,                        !- Vertex 2 Zcoordinate
    686922.4849999999,        !- Vertex 3 Xcoordinate
    4928767.355,              !- Vertex 3 Ycoordinate
    6,                        !- Vertex 3 Zcoordinate
    686922.2549999999,        !- Vertex 4 Xcoordinate
    4928767.565,              !- Vertex 4 Ycoordinate
    6,                        !- Vertex 4 Zcoordinate
    686919.315,               !- Vertex 5 Xcoordinate
    4928764.43,               !- Vertex 5 Ycoordinate
    6,                        !- Vertex 5 Zcoordinate
    686914.6799999997,        !- Vertex 6 Xcoordinate
    4928768.35,               !- Vertex 6 Ycoordinate
    6,                        !- Vertex 6 Zcoordinate
    686923.585,               !- Vertex 7 Xcoordinate
    4928778.015,              !- Vertex 7 Ycoordinate
    6;                        !- Vertex 7 Zcoordinate

BUILDINGSURFACE:DETAILED,
    Block 9abddc3ac015cffa_whole Storey 2 Floor 0001_1,    !- Name
    floor,                    !- Surface Type
    EU_floor_Construction,    !- Construction Name
    9abddc3ac015cffa_F2_whole,    !- Zone Name
    ,                         !- Space Name
    Surface,                  !- Outside Boundary Condition
    Block 9abddc3ac015cffa_whole Storey 1 Ceiling 0001_1,    !- Outside Boundary Condition Object
    NoSun,                    !- Sun Exposure
    NoWind,                   !- Wind Exposure
    autocalculate,            !- View Factor to Ground
    autocalculate,            !- Number of Vertices
    686922.4849999999,        !- Vertex 1 Xcoordinate
    4928767.355,              !- Vertex 1 Ycoordinate
    6,                        !- Vertex 1 Zcoordinate
    686926.5449999999,        !- Vertex 2 Xcoordinate
    4928771.905,              !- Vertex 2 Ycoordinate
    6,                        !- Vertex 2 Zcoordinate
    686928.5049999999,        !- Vertex 3 Xcoordinate
    4928774.275,              !- Vertex 3 Ycoordinate
    6,                        !- Vertex 3 Zcoordinate
    686923.585,               !- Vertex 4 Xcoordinate
    4928778.015,              !- Vertex 4 Ycoordinate
    6,                        !- Vertex 4 Zcoordinate
    686914.6799999997,        !- Vertex 5 Xcoordinate
    4928768.35,               !- Vertex 5 Ycoordinate
    6,                        !- Vertex 5 Zcoordinate
    686919.315,               !- Vertex 6 Xcoordinate
    4928764.43,               !- Vertex 6 Ycoordinate
    6,                        !- Vertex 6 Zcoordinate
    686922.2549999999,        !- Vertex 7 Xcoordinate
    4928767.565,              !- Vertex 7 Ycoordinate
    6;                        !- Vertex 7 Zcoordinate

INTERNALMASS,
    9abddc3ac015cffa_F0_whole_EU_InternalMass,    !- Name
    EU_InternalMass_Construction,    !- Construction Name
    9abddc3ac015cffa_F0_whole,    !- Zone or ZoneList Name
    ,                         !- Space or SpaceList Name
    83.10326249609393;        !- Surface Area

INTERNALMASS,
    9abddc3ac015cffa_F1_whole_EU_InternalMass,    !- Name
    EU_InternalMass_Construction,    !- Construction Name
    9abddc3ac015cffa_F1_whole,    !- Zone or ZoneList Name
    ,                         !- Space or SpaceList Name
    83.10326249609393;        !- Surface Area

INTERNALMASS,
    9abddc3ac015cffa_F2_whole_EU_InternalMass,    !- Name
    EU_InternalMass_Construction,    !- Construction Name
    9abddc3ac015cffa_F2_whole,    !- Zone or ZoneList Name
    ,                         !- Space or SpaceList Name
    83.10326249609393;        !- Surface Area

SHADING:SITE:DETAILED,
    shade_31414_1,            !- Name
    ,                         !- Transmittance Schedule Name
    autocalculate,            !- Number of Vertices
    686930.8769984911,        !- Vertex 1 Xcoordinate
    4928750.5671191905,       !- Vertex 1 Ycoordinate
    15,                       !- Vertex 1 Zcoordinate
    686930.8769984911,        !- Vertex 2 Xcoordinate
    4928750.5671191905,       !- Vertex 2 Ycoordinate
    0,                        !- Vertex 2 Zcoordinate
    686945.8673661888,        !- Vertex 3 Xcoordinate
    4928738.146488339,        !- Vertex 3 Ycoordinate
    0,                        !- Vertex 3 Zcoordinate
    686945.8673661888,        !- Vertex 4 Xcoordinate
    4928738.146488339,        !- Vertex 4 Ycoordinate
    15;                       !- Vertex 4 Zcoordinate

SHADING:SITE:DETAILED,
    shade_31414_2,            !- Name
    ,                         !- Transmittance Schedule Name
    autocalculate,            !- Number of Vertices
    686945.8673661888,        !- Vertex 1 Xcoordinate
    4928738.146488339,        !- Vertex 1 Ycoordinate
    15,                       !- Vertex 1 Zcoordinate
    686945.8673661888,        !- Vertex 2 Xcoordinate
    4928738.146488339,        !- Vertex 2 Ycoordinate
    0,                        !- Vertex 2 Zcoordinate
    686940.6917224333,        !- Vertex 3 Xcoordinate
    4928731.900021737,        !- Vertex 3 Ycoordinate
    0,                        !- Vertex 3 Zcoordinate
    686940.6917224333,        !- Vertex 4 Xcoordinate
    4928731.900021737,        !- Vertex 4 Ycoordinate
    15;                       !- Vertex 4 Zcoordinate

SHADING:SITE:DETAILED,
    shade_31414_3,            !- Name
    ,                         !- Transmittance Schedule Name
    autocalculate,            !- Number of Vertices
    686940.6917224333,        !- Vertex 1 Xcoordinate
    4928731.900021737,        !- Vertex 1 Ycoordinate
    15,                       !- Vertex 1 Zcoordinate
    686940.6917224333,        !- Vertex 2 Xcoordinate
    4928731.900021737,        !- Vertex 2 Ycoordinate
    0,                        !- Vertex 2 Zcoordinate
    686925.7015070417,        !- Vertex 3 Xcoordinate
    4928744.320485919,        !- Vertex 3 Ycoordinate
    0,                        !- Vertex 3 Zcoordinate
    686925.7015070417,        !- Vertex 4 Xcoordinate
    4928744.320485919,        !- Vertex 4 Ycoordinate
    15;                       !- Vertex 4 Zcoordinate

SHADING:SITE:DETAILED,
    shade_31414_4,            !- Name
    ,                         !- Transmittance Schedule Name
    autocalculate,            !- Number of Vertices
    686925.7015070417,        !- Vertex 1 Xcoordinate
    4928744.320485919,        !- Vertex 1 Ycoordinate
    15,                       !- Vertex 1 Zcoordinate
    686925.7015070417,        !- Vertex 2 Xcoordinate
    4928744.320485919,        !- Vertex 2 Ycoordinate
    0,                        !- Vertex 2 Zcoordinate
    686930.8769984911,        !- Vertex 3 Xcoordinate
    4928750.5671191905,       !- Vertex 3 Ycoordinate
    0,                        !- Vertex 3 Zcoordinate
    686930.8769984911,        !- Vertex 4 Xcoordinate
    4928750.5671191905,       !- Vertex 4 Ycoordinate
    15;                       !- Vertex 4 Zcoordinate

SHADING:SITE:DETAILED,
    shade_31361_1,            !- Name
    ,                         !- Transmittance Schedule Name
    autocalculate,            !- Number of Vertices
    686945.8082429033,        !- Vertex 1 Xcoordinate
    4928737.875329031,        !- Vertex 1 Ycoordinate
    15,                       !- Vertex 1 Zcoordinate
    686945.8082429033,        !- Vertex 2 Xcoordinate
    4928737.875329031,        !- Vertex 2 Ycoordinate
    0,                        !- Vertex 2 Zcoordinate
    686930.6294720715,        !- Vertex 3 Xcoordinate
    4928750.777386565,        !- Vertex 3 Ycoordinate
    0,                        !- Vertex 3 Zcoordinate
    686930.6294720715,        !- Vertex 4 Xcoordinate
    4928750.777386565,        !- Vertex 4 Ycoordinate
    15;                       !- Vertex 4 Zcoordinate

SHADING:SITE:DETAILED,
    shade_31361_2,            !- Name
    ,                         !- Transmittance Schedule Name
    autocalculate,            !- Number of Vertices
    686930.6294720715,        !- Vertex 1 Xcoordinate
    4928750.777386565,        !- Vertex 1 Ycoordinate
    15,                       !- Vertex 1 Zcoordinate
    686930.6294720715,        !- Vertex 2 Xcoordinate
    4928750.777386565,        !- Vertex 2 Ycoordinate
    0,                        !- Vertex 2 Zcoordinate
    686936.8911448704,        !- Vertex 3 Xcoordinate
    4928758.14400202,         !- Vertex 3 Ycoordinate
    0,                        !- Vertex 3 Zcoordinate
    686936.8911448704,        !- Vertex 4 Xcoordinate
    4928758.14400202,         !- Vertex 4 Ycoordinate
    15;                       !- Vertex 4 Zcoordinate

SHADING:SITE:DETAILED,
    shade_31361_3,            !- Name
    ,                         !- Transmittance Schedule Name
    autocalculate,            !- Number of Vertices
    686936.8911448704,        !- Vertex 1 Xcoordinate
    4928758.14400202,         !- Vertex 1 Ycoordinate
    15,                       !- Vertex 1 Zcoordinate
    686936.8911448704,        !- Vertex 2 Xcoordinate
    4928758.14400202,         !- Vertex 2 Ycoordinate
    0,                        !- Vertex 2 Zcoordinate
    686952.0699157022,        !- Vertex 3 Xcoordinate
    4928745.241944485,        !- Vertex 3 Ycoordinate
    0,                        !- Vertex 3 Zcoordinate
    686952.0699157022,        !- Vertex 4 Xcoordinate
    4928745.241944485,        !- Vertex 4 Ycoordinate
    15;                       !- Vertex 4 Zcoordinate

SHADING:SITE:DETAILED,
    shade_31361_4,            !- Name
    ,                         !- Transmittance Schedule Name
    autocalculate,            !- Number of Vertices
    686952.0699157022,        !- Vertex 1 Xcoordinate
    4928745.241944485,        !- Vertex 1 Ycoordinate
    15,                       !- Vertex 1 Zcoordinate
    686952.0699157022,        !- Vertex 2 Xcoordinate
    4928745.241944485,        !- Vertex 2 Ycoordinate
    0,                        !- Vertex 2 Zcoordinate
    686945.8082429033,        !- Vertex 3 Xcoordinate
    4928737.875329031,        !- Vertex 3 Ycoordinate
    0,                        !- Vertex 3 Zcoordinate
    686945.8082429033,        !- Vertex 4 Xcoordinate
    4928737.875329031,        !- Vertex 4 Ycoordinate
    15;                       !- Vertex 4 Zcoordinate

SHADING:SITE:DETAILED,
    shade_31326_1,            !- Name
    ,                         !- Transmittance Schedule Name
    autocalculate,            !- Number of Vertices
    686910.9570243267,        !- Vertex 1 Xcoordinate
    4928765.171628084,        !- Vertex 1 Ycoordinate
    15,                       !- Vertex 1 Zcoordinate
    686910.9570243267,        !- Vertex 2 Xcoordinate
    4928765.171628084,        !- Vertex 2 Ycoordinate
    0,                        !- Vertex 2 Zcoordinate
    686927.4738920009,        !- Vertex 3 Xcoordinate
    4928751.83943158,         !- Vertex 3 Ycoordinate
    0,                        !- Vertex 3 Zcoordinate
    686927.4738920009,        !- Vertex 4 Xcoordinate
    4928751.83943158,         !- Vertex 4 Ycoordinate
    15;                       !- Vertex 4 Zcoordinate

SHADING:SITE:DETAILED,
    shade_31326_2,            !- Name
    ,                         !- Transmittance Schedule Name
    autocalculate,            !- Number of Vertices
    686927.4738920009,        !- Vertex 1 Xcoordinate
    4928751.83943158,         !- Vertex 1 Ycoordinate
    15,                       !- Vertex 1 Zcoordinate
    686927.4738920009,        !- Vertex 2 Xcoordinate
    4928751.83943158,         !- Vertex 2 Ycoordinate
    0,                        !- Vertex 2 Zcoordinate
    686915.9389183251,        !- Vertex 3 Xcoordinate
    4928737.549090625,        !- Vertex 3 Ycoordinate
    0,                        !- Vertex 3 Zcoordinate
    686915.9389183251,        !- Vertex 4 Xcoordinate
    4928737.549090625,        !- Vertex 4 Ycoordinate
    15;                       !- Vertex 4 Zcoordinate

SHADING:SITE:DETAILED,
    shade_31326_3,            !- Name
    ,                         !- Transmittance Schedule Name
    autocalculate,            !- Number of Vertices
    686915.9389183251,        !- Vertex 1 Xcoordinate
    4928737.549090625,        !- Vertex 1 Ycoordinate
    15,                       !- Vertex 1 Zcoordinate
    686915.9389183251,        !- Vertex 2 Xcoordinate
    4928737.549090625,        !- Vertex 2 Ycoordinate
    0,                        !- Vertex 2 Zcoordinate
    686899.4220506509,        !- Vertex 3 Xcoordinate
    4928750.881287129,        !- Vertex 3 Ycoordinate
    0,                        !- Vertex 3 Zcoordinate
    686899.4220506509,        !- Vertex 4 Xcoordinate
    4928750.881287129,        !- Vertex 4 Ycoordinate
    15;                       !- Vertex 4 Zcoordinate

SHADING:SITE:DETAILED,
    shade_31326_4,            !- Name
    ,                         !- Transmittance Schedule Name
    autocalculate,            !- Number of Vertices
    686899.4220506509,        !- Vertex 1 Xcoordinate
    4928750.881287129,        !- Vertex 1 Ycoordinate
    15,                       !- Vertex 1 Zcoordinate
    686899.4220506509,        !- Vertex 2 Xcoordinate
    4928750.881287129,        !- Vertex 2 Ycoordinate
    0,                        !- Vertex 2 Zcoordinate
    686910.9570243267,        !- Vertex 3 Xcoordinate
    4928765.171628084,        !- Vertex 3 Ycoordinate
    0,                        !- Vertex 3 Zcoordinate
    686910.9570243267,        !- Vertex 4 Xcoordinate
    4928765.171628084,        !- Vertex 4 Ycoordinate
    15;                       !- Vertex 4 Zcoordinate

SHADING:SITE:DETAILED,
    shade_31192_1,            !- Name
    ,                         !- Transmittance Schedule Name
    autocalculate,            !- Number of Vertices
    686942.8289984908,        !- Vertex 1 Xcoordinate
    4928772.135119191,        !- Vertex 1 Ycoordinate
    15,                       !- Vertex 1 Zcoordinate
    686942.8289984908,        !- Vertex 2 Xcoordinate
    4928772.135119191,        !- Vertex 2 Ycoordinate
    0,                        !- Vertex 2 Zcoordinate
    686926.856998491,         !- Vertex 3 Xcoordinate
    4928752.337119191,        !- Vertex 3 Ycoordinate
    0,                        !- Vertex 3 Zcoordinate
    686926.856998491,         !- Vertex 4 Xcoordinate
    4928752.337119191,        !- Vertex 4 Ycoordinate
    15;                       !- Vertex 4 Zcoordinate

SHADING:SITE:DETAILED,
    shade_31192_2,            !- Name
    ,                         !- Transmittance Schedule Name
    autocalculate,            !- Number of Vertices
    686926.856998491,         !- Vertex 1 Xcoordinate
    4928752.337119191,        !- Vertex 1 Ycoordinate
    15,                       !- Vertex 1 Zcoordinate
    686926.856998491,         !- Vertex 2 Xcoordinate
    4928752.337119191,        !- Vertex 2 Ycoordinate
    0,                        !- Vertex 2 Zcoordinate
    686911.6558638521,        !- Vertex 3 Xcoordinate
    4928764.600550394,        !- Vertex 3 Ycoordinate
    0,                        !- Vertex 3 Zcoordinate
    686911.6558638521,        !- Vertex 4 Xcoordinate
    4928764.600550394,        !- Vertex 4 Ycoordinate
    15;                       !- Vertex 4 Zcoordinate

SHADING:SITE:DETAILED,
    shade_31192_3,            !- Name
    ,                         !- Transmittance Schedule Name
    autocalculate,            !- Number of Vertices
    686911.6558638521,        !- Vertex 1 Xcoordinate
    4928764.600550394,        !- Vertex 1 Ycoordinate
    15,                       !- Vertex 1 Zcoordinate
    686911.6558638521,        !- Vertex 2 Xcoordinate
    4928764.600550394,        !- Vertex 2 Ycoordinate
    0,                        !- Vertex 2 Zcoordinate
    686927.627863852,         !- Vertex 3 Xcoordinate
    4928784.398550392,        !- Vertex 3 Ycoordinate
    0,                        !- Vertex 3 Zcoordinate
    686927.627863852,         !- Vertex 4 Xcoordinate
    4928784.398550392,        !- Vertex 4 Ycoordinate
    15;                       !- Vertex 4 Zcoordinate

SHADING:SITE:DETAILED,
    shade_31192_4,            !- Name
    ,                         !- Transmittance Schedule Name
    autocalculate,            !- Number of Vertices
    686927.627863852,         !- Vertex 1 Xcoordinate
    4928784.398550392,        !- Vertex 1 Ycoordinate
    15,                       !- Vertex 1 Zcoordinate
    686927.627863852,         !- Vertex 2 Xcoordinate
    4928784.398550392,        !- Vertex 2 Ycoordinate
    0,                        !- Vertex 2 Zcoordinate
    686942.8289984908,        !- Vertex 3 Xcoordinate
    4928772.135119191,        !- Vertex 3 Ycoordinate
    0,                        !- Vertex 3 Zcoordinate
    686942.8289984908,        !- Vertex 4 Xcoordinate
    4928772.135119191,        !- Vertex 4 Ycoordinate
    15;                       !- Vertex 4 Zcoordinate

SHADING:SITE:DETAILED,
    shade_31035_1,            !- Name
    ,                         !- Transmittance Schedule Name
    autocalculate,            !- Number of Vertices
    686961.4144062045,        !- Vertex 1 Xcoordinate
    4928795.019661193,        !- Vertex 1 Ycoordinate
    15,                       !- Vertex 1 Zcoordinate
    686961.4144062045,        !- Vertex 2 Xcoordinate
    4928795.019661193,        !- Vertex 2 Ycoordinate
    0,                        !- Vertex 2 Zcoordinate
    686942.784668826,         !- Vertex 3 Xcoordinate
    4928772.080425771,        !- Vertex 3 Ycoordinate
    0,                        !- Vertex 3 Zcoordinate
    686942.784668826,         !- Vertex 4 Xcoordinate
    4928772.080425771,        !- Vertex 4 Ycoordinate
    15;                       !- Vertex 4 Zcoordinate

SHADING:SITE:DETAILED,
    shade_31035_2,            !- Name
    ,                         !- Transmittance Schedule Name
    autocalculate,            !- Number of Vertices
    686942.784668826,         !- Vertex 1 Xcoordinate
    4928772.080425771,        !- Vertex 1 Ycoordinate
    15,                       !- Vertex 1 Zcoordinate
    686942.784668826,         !- Vertex 2 Xcoordinate
    4928772.080425771,        !- Vertex 2 Ycoordinate
    0,                        !- Vertex 2 Zcoordinate
    686929.1011408631,        !- Vertex 3 Xcoordinate
    4928783.193286663,        !- Vertex 3 Ycoordinate
    0,                        !- Vertex 3 Zcoordinate
    686929.1011408631,        !- Vertex 4 Xcoordinate
    4928783.193286663,        !- Vertex 4 Ycoordinate
    15;                       !- Vertex 4 Zcoordinate

SHADING:SITE:DETAILED,
    shade_31035_3,            !- Name
    ,                         !- Transmittance Schedule Name
    autocalculate,            !- Number of Vertices
    686929.1011408631,        !- Vertex 1 Xcoordinate
    4928783.193286663,        !- Vertex 1 Ycoordinate
    15,                       !- Vertex 1 Zcoordinate
    686929.1011408631,        !- Vertex 2 Xcoordinate
    4928783.193286663,        !- Vertex 2 Ycoordinate
    0,                        !- Vertex 2 Zcoordinate
    686947.7308782415,        !- Vertex 3 Xcoordinate
    4928806.132522085,        !- Vertex 3 Ycoordinate
    0,                        !- Vertex 3 Zcoordinate
    686947.7308782415,        !- Vertex 4 Xcoordinate
    4928806.132522085,        !- Vertex 4 Ycoordinate
    15;                       !- Vertex 4 Zcoordinate

SHADING:SITE:DETAILED,
    shade_31035_4,            !- Name
    ,                         !- Transmittance Schedule Name
    autocalculate,            !- Number of Vertices
    686947.7308782415,        !- Vertex 1 Xcoordinate
    4928806.132522085,        !- Vertex 1 Ycoordinate
    15,                       !- Vertex 1 Zcoordinate
    686947.7308782415,        !- Vertex 2 Xcoordinate
    4928806.132522085,        !- Vertex 2 Ycoordinate
    0,                        !- Vertex 2 Zcoordinate
    686961.4144062045,        !- Vertex 3 Xcoordinate
    4928795.019661193,        !- Vertex 3 Ycoordinate
    0,                        !- Vertex 3 Zcoordinate
    686961.4144062045,        !- Vertex 4 Xcoordinate
    4928795.019661193,        !- Vertex 4 Ycoordinate
    15;                       !- Vertex 4 Zcoordinate

OTHEREQUIPMENT,
    EU_Step8_InternalGain_9abddc3ac015cffa_F0_whole_f000,    !- Name
    Electricity,              !- Fuel Type
    9abddc3ac015cffa_F0_whole,    !- Zone or ZoneList or Space or SpaceList Name
    EU_Step8_GainSchedule_9abddc3ac015cffa_F0_whole_f000,    !- Schedule Name
    Watts/Area,               !- Design Level Calculation Method
    ,                         !- Design Level
    1,                        !- Power per Zone Floor Area
    ,                         !- Power per Person
    0,                        !- Fraction Latent
    0,                        !- Fraction Radiant
    0,                        !- Fraction Lost
    0,                        !- Carbon Dioxide Generation Rate
    EU_Step8_InternalGains;    !- EndUse Subcategory

OTHEREQUIPMENT,
    EU_Step8_InternalGain_9abddc3ac015cffa_F1_whole_f000,    !- Name
    Electricity,              !- Fuel Type
    9abddc3ac015cffa_F1_whole,    !- Zone or ZoneList or Space or SpaceList Name
    EU_Step8_GainSchedule_9abddc3ac015cffa_F1_whole_f000,    !- Schedule Name
    Watts/Area,               !- Design Level Calculation Method
    ,                         !- Design Level
    1,                        !- Power per Zone Floor Area
    ,                         !- Power per Person
    0,                        !- Fraction Latent
    0,                        !- Fraction Radiant
    0,                        !- Fraction Lost
    0,                        !- Carbon Dioxide Generation Rate
    EU_Step8_InternalGains;    !- EndUse Subcategory

OTHEREQUIPMENT,
    EU_Step8_InternalGain_9abddc3ac015cffa_F2_whole_f000,    !- Name
    Electricity,              !- Fuel Type
    9abddc3ac015cffa_F2_whole,    !- Zone or ZoneList or Space or SpaceList Name
    EU_Step8_GainSchedule_9abddc3ac015cffa_F2_whole_f000,    !- Schedule Name
    Watts/Area,               !- Design Level Calculation Method
    ,                         !- Design Level
    1,                        !- Power per Zone Floor Area
    ,                         !- Power per Person
    0,                        !- Fraction Latent
    0,                        !- Fraction Radiant
    0,                        !- Fraction Lost
    0,                        !- Carbon Dioxide Generation Rate
    EU_Step8_InternalGains;    !- EndUse Subcategory

ZONEVENTILATION:DESIGNFLOWRATE,
    EU_ConstantAir_9abddc3ac015cffa_F0_whole,    !- Name
    9abddc3ac015cffa_F0_whole,    !- Zone or ZoneList or Space or SpaceList Name
    EU_AlwaysOn,              !- Schedule Name
    AirChanges/Hour,          !- Design Flow Rate Calculation Method
    ,                         !- Design Flow Rate
    ,                         !- Flow Rate per Floor Area
    ,                         !- Flow Rate per Person
    0.6878922584914343,       !- Air Changes per Hour
    Natural,                  !- Ventilation Type
    0,                        !- Fan Pressure Rise
    1,                        !- Fan Total Efficiency
    1,                        !- Constant Term Coefficient
    0,                        !- Temperature Term Coefficient
    0,                        !- Velocity Term Coefficient
    0,                        !- Velocity Squared Term Coefficient
    -100,                     !- Minimum Indoor Temperature
    ,                         !- Minimum Indoor Temperature Schedule Name
    100,                      !- Maximum Indoor Temperature
    ,                         !- Maximum Indoor Temperature Schedule Name
    -100,                     !- Delta Temperature
    ,                         !- Delta Temperature Schedule Name
    -100,                     !- Minimum Outdoor Temperature
    ,                         !- Minimum Outdoor Temperature Schedule Name
    100,                      !- Maximum Outdoor Temperature
    ,                         !- Maximum Outdoor Temperature Schedule Name
    40;                       !- Maximum Wind Speed

ZONEVENTILATION:DESIGNFLOWRATE,
    EU_ConstantAir_9abddc3ac015cffa_F1_whole,    !- Name
    9abddc3ac015cffa_F1_whole,    !- Zone or ZoneList or Space or SpaceList Name
    EU_AlwaysOn,              !- Schedule Name
    AirChanges/Hour,          !- Design Flow Rate Calculation Method
    ,                         !- Design Flow Rate
    ,                         !- Flow Rate per Floor Area
    ,                         !- Flow Rate per Person
    0.6878922584914343,       !- Air Changes per Hour
    Natural,                  !- Ventilation Type
    0,                        !- Fan Pressure Rise
    1,                        !- Fan Total Efficiency
    1,                        !- Constant Term Coefficient
    0,                        !- Temperature Term Coefficient
    0,                        !- Velocity Term Coefficient
    0,                        !- Velocity Squared Term Coefficient
    -100,                     !- Minimum Indoor Temperature
    ,                         !- Minimum Indoor Temperature Schedule Name
    100,                      !- Maximum Indoor Temperature
    ,                         !- Maximum Indoor Temperature Schedule Name
    -100,                     !- Delta Temperature
    ,                         !- Delta Temperature Schedule Name
    -100,                     !- Minimum Outdoor Temperature
    ,                         !- Minimum Outdoor Temperature Schedule Name
    100,                      !- Maximum Outdoor Temperature
    ,                         !- Maximum Outdoor Temperature Schedule Name
    40;                       !- Maximum Wind Speed

ZONEVENTILATION:DESIGNFLOWRATE,
    EU_ConstantAir_9abddc3ac015cffa_F2_whole,    !- Name
    9abddc3ac015cffa_F2_whole,    !- Zone or ZoneList or Space or SpaceList Name
    EU_AlwaysOn,              !- Schedule Name
    AirChanges/Hour,          !- Design Flow Rate Calculation Method
    ,                         !- Design Flow Rate
    ,                         !- Flow Rate per Floor Area
    ,                         !- Flow Rate per Person
    0.6878922584914343,       !- Air Changes per Hour
    Natural,                  !- Ventilation Type
    0,                        !- Fan Pressure Rise
    1,                        !- Fan Total Efficiency
    1,                        !- Constant Term Coefficient
    0,                        !- Temperature Term Coefficient
    0,                        !- Velocity Term Coefficient
    0,                        !- Velocity Squared Term Coefficient
    -100,                     !- Minimum Indoor Temperature
    ,                         !- Minimum Indoor Temperature Schedule Name
    100,                      !- Maximum Indoor Temperature
    ,                         !- Maximum Indoor Temperature Schedule Name
    -100,                     !- Delta Temperature
    ,                         !- Delta Temperature Schedule Name
    -100,                     !- Minimum Outdoor Temperature
    ,                         !- Minimum Outdoor Temperature Schedule Name
    100,                      !- Maximum Outdoor Temperature
    ,                         !- Maximum Outdoor Temperature Schedule Name
    40;                       !- Maximum Wind Speed

HVACTEMPLATE:THERMOSTAT,
    EU_HeatOnly_9abddc3ac015cffa_F0_whole,    !- Name
    ,                         !- Heating Setpoint Schedule Name
    20,                       !- Constant Heating Setpoint
    ,                         !- Cooling Setpoint Schedule Name
    50;                       !- Constant Cooling Setpoint

HVACTEMPLATE:THERMOSTAT,
    EU_HeatOnly_9abddc3ac015cffa_F1_whole,    !- Name
    ,                         !- Heating Setpoint Schedule Name
    20,                       !- Constant Heating Setpoint
    ,                         !- Cooling Setpoint Schedule Name
    50;                       !- Constant Cooling Setpoint

HVACTEMPLATE:THERMOSTAT,
    EU_HeatOnly_9abddc3ac015cffa_F2_whole,    !- Name
    ,                         !- Heating Setpoint Schedule Name
    20,                       !- Constant Heating Setpoint
    ,                         !- Cooling Setpoint Schedule Name
    50;                       !- Constant Cooling Setpoint

HVACTEMPLATE:ZONE:IDEALLOADSAIRSYSTEM,
    9abddc3ac015cffa_F0_whole,    !- Zone Name
    EU_HeatOnly_9abddc3ac015cffa_F0_whole,    !- Template Thermostat Name
    EU_AlwaysOn,              !- System Availability Schedule Name
    50,                       !- Maximum Heating Supply Air Temperature
    13,                       !- Minimum Cooling Supply Air Temperature
    0.0156,                   !- Maximum Heating Supply Air Humidity Ratio
    0.0077,                   !- Minimum Cooling Supply Air Humidity Ratio
    NoLimit,                  !- Heating Limit
    ,                         !- Maximum Heating Air Flow Rate
    ,                         !- Maximum Sensible Heating Capacity
    NoLimit,                  !- Cooling Limit
    ,                         !- Maximum Cooling Air Flow Rate
    ,                         !- Maximum Total Cooling Capacity
    EU_AlwaysOn,              !- Heating Availability Schedule Name
    EU_CoolingOff,            !- Cooling Availability Schedule Name
    ConstantSensibleHeatRatio,    !- Dehumidification Control Type
    0.7,                      !- Cooling Sensible Heat Ratio
    60,                       !- Dehumidification Setpoint
    None,                     !- Humidification Control Type
    30,                       !- Humidification Setpoint
    None,                     !- Outdoor Air Method
    0.00944,                  !- Outdoor Air Flow Rate per Person
    0.0,                      !- Outdoor Air Flow Rate per Zone Floor Area
    0,                        !- Outdoor Air Flow Rate per Zone
    ,                         !- Design Specification Outdoor Air Object Name
    None,                     !- Demand Controlled Ventilation Type
    NoEconomizer,             !- Outdoor Air Economizer Type
    None,                     !- Heat Recovery Type
    0.70,                     !- Sensible Heat Recovery Effectiveness
    0.65;                     !- Latent Heat Recovery Effectiveness

HVACTEMPLATE:ZONE:IDEALLOADSAIRSYSTEM,
    9abddc3ac015cffa_F1_whole,    !- Zone Name
    EU_HeatOnly_9abddc3ac015cffa_F1_whole,    !- Template Thermostat Name
    EU_AlwaysOn,              !- System Availability Schedule Name
    50,                       !- Maximum Heating Supply Air Temperature
    13,                       !- Minimum Cooling Supply Air Temperature
    0.0156,                   !- Maximum Heating Supply Air Humidity Ratio
    0.0077,                   !- Minimum Cooling Supply Air Humidity Ratio
    NoLimit,                  !- Heating Limit
    ,                         !- Maximum Heating Air Flow Rate
    ,                         !- Maximum Sensible Heating Capacity
    NoLimit,                  !- Cooling Limit
    ,                         !- Maximum Cooling Air Flow Rate
    ,                         !- Maximum Total Cooling Capacity
    EU_AlwaysOn,              !- Heating Availability Schedule Name
    EU_CoolingOff,            !- Cooling Availability Schedule Name
    ConstantSensibleHeatRatio,    !- Dehumidification Control Type
    0.7,                      !- Cooling Sensible Heat Ratio
    60,                       !- Dehumidification Setpoint
    None,                     !- Humidification Control Type
    30,                       !- Humidification Setpoint
    None,                     !- Outdoor Air Method
    0.00944,                  !- Outdoor Air Flow Rate per Person
    0.0,                      !- Outdoor Air Flow Rate per Zone Floor Area
    0,                        !- Outdoor Air Flow Rate per Zone
    ,                         !- Design Specification Outdoor Air Object Name
    None,                     !- Demand Controlled Ventilation Type
    NoEconomizer,             !- Outdoor Air Economizer Type
    None,                     !- Heat Recovery Type
    0.70,                     !- Sensible Heat Recovery Effectiveness
    0.65;                     !- Latent Heat Recovery Effectiveness

HVACTEMPLATE:ZONE:IDEALLOADSAIRSYSTEM,
    9abddc3ac015cffa_F2_whole,    !- Zone Name
    EU_HeatOnly_9abddc3ac015cffa_F2_whole,    !- Template Thermostat Name
    EU_AlwaysOn,              !- System Availability Schedule Name
    50,                       !- Maximum Heating Supply Air Temperature
    13,                       !- Minimum Cooling Supply Air Temperature
    0.0156,                   !- Maximum Heating Supply Air Humidity Ratio
    0.0077,                   !- Minimum Cooling Supply Air Humidity Ratio
    NoLimit,                  !- Heating Limit
    ,                         !- Maximum Heating Air Flow Rate
    ,                         !- Maximum Sensible Heating Capacity
    NoLimit,                  !- Cooling Limit
    ,                         !- Maximum Cooling Air Flow Rate
    ,                         !- Maximum Total Cooling Capacity
    EU_AlwaysOn,              !- Heating Availability Schedule Name
    EU_CoolingOff,            !- Cooling Availability Schedule Name
    ConstantSensibleHeatRatio,    !- Dehumidification Control Type
    0.7,                      !- Cooling Sensible Heat Ratio
    60,                       !- Dehumidification Setpoint
    None,                     !- Humidification Control Type
    30,                       !- Humidification Setpoint
    None,                     !- Outdoor Air Method
    0.00944,                  !- Outdoor Air Flow Rate per Person
    0.0,                      !- Outdoor Air Flow Rate per Zone Floor Area
    0,                        !- Outdoor Air Flow Rate per Zone
    ,                         !- Design Specification Outdoor Air Object Name
    None,                     !- Demand Controlled Ventilation Type
    NoEconomizer,             !- Outdoor Air Economizer Type
    None,                     !- Heat Recovery Type
    0.70,                     !- Sensible Heat Recovery Effectiveness
    0.65;                     !- Latent Heat Recovery Effectiveness

SIZING:ZONE,
    9abddc3ac015cffa_F0_whole,    !- Zone or ZoneList Name
    SupplyAirTemperature,     !- Zone Cooling Design Supply Air Temperature Input Method
    13,                       !- Zone Cooling Design Supply Air Temperature
    ,                         !- Zone Cooling Design Supply Air Temperature Difference
    SupplyAirTemperature,     !- Zone Heating Design Supply Air Temperature Input Method
    50,                       !- Zone Heating Design Supply Air Temperature
    ,                         !- Zone Heating Design Supply Air Temperature Difference
    0.008,                    !- Zone Cooling Design Supply Air Humidity Ratio
    0.008,                    !- Zone Heating Design Supply Air Humidity Ratio
    ,                         !- Design Specification Outdoor Air Object Name
    ,                         !- Zone Heating Sizing Factor
    ,                         !- Zone Cooling Sizing Factor
    DesignDay,                !- Cooling Design Air Flow Method
    0,                        !- Cooling Design Air Flow Rate
    0.000762,                 !- Cooling Minimum Air Flow per Zone Floor Area
    0,                        !- Cooling Minimum Air Flow
    0.2,                      !- Cooling Minimum Air Flow Fraction
    DesignDay,                !- Heating Design Air Flow Method
    0,                        !- Heating Design Air Flow Rate
    0.002032,                 !- Heating Maximum Air Flow per Zone Floor Area
    0.1415762,                !- Heating Maximum Air Flow
    0.3,                      !- Heating Maximum Air Flow Fraction
    ,                         !- Design Specification Zone Air Distribution Object Name
    No,                       !- Account for Dedicated Outdoor Air System
    NeutralSupplyAir,         !- Dedicated Outdoor Air System Control Strategy
    autosize,                 !- Dedicated Outdoor Air Low Setpoint Temperature for Design
    autosize,                 !- Dedicated Outdoor Air High Setpoint Temperature for Design
    Sensible Load Only No Latent Load,    !- Zone Load Sizing Method
    HumidityRatioDifference,    !- Zone Latent Cooling Design Supply Air Humidity Ratio Input Method
    ,                         !- Zone Dehumidification Design Supply Air Humidity Ratio
    0.005,                    !- Zone Cooling Design Supply Air Humidity Ratio Difference
    HumidityRatioDifference,    !- Zone Latent Heating Design Supply Air Humidity Ratio Input Method
    ,                         !- Zone Humidification Design Supply Air Humidity Ratio
    0.005;                    !- Zone Humidification Design Supply Air Humidity Ratio Difference

SIZING:ZONE,
    9abddc3ac015cffa_F1_whole,    !- Zone or ZoneList Name
    SupplyAirTemperature,     !- Zone Cooling Design Supply Air Temperature Input Method
    13,                       !- Zone Cooling Design Supply Air Temperature
    ,                         !- Zone Cooling Design Supply Air Temperature Difference
    SupplyAirTemperature,     !- Zone Heating Design Supply Air Temperature Input Method
    50,                       !- Zone Heating Design Supply Air Temperature
    ,                         !- Zone Heating Design Supply Air Temperature Difference
    0.008,                    !- Zone Cooling Design Supply Air Humidity Ratio
    0.008,                    !- Zone Heating Design Supply Air Humidity Ratio
    ,                         !- Design Specification Outdoor Air Object Name
    ,                         !- Zone Heating Sizing Factor
    ,                         !- Zone Cooling Sizing Factor
    DesignDay,                !- Cooling Design Air Flow Method
    0,                        !- Cooling Design Air Flow Rate
    0.000762,                 !- Cooling Minimum Air Flow per Zone Floor Area
    0,                        !- Cooling Minimum Air Flow
    0.2,                      !- Cooling Minimum Air Flow Fraction
    DesignDay,                !- Heating Design Air Flow Method
    0,                        !- Heating Design Air Flow Rate
    0.002032,                 !- Heating Maximum Air Flow per Zone Floor Area
    0.1415762,                !- Heating Maximum Air Flow
    0.3,                      !- Heating Maximum Air Flow Fraction
    ,                         !- Design Specification Zone Air Distribution Object Name
    No,                       !- Account for Dedicated Outdoor Air System
    NeutralSupplyAir,         !- Dedicated Outdoor Air System Control Strategy
    autosize,                 !- Dedicated Outdoor Air Low Setpoint Temperature for Design
    autosize,                 !- Dedicated Outdoor Air High Setpoint Temperature for Design
    Sensible Load Only No Latent Load,    !- Zone Load Sizing Method
    HumidityRatioDifference,    !- Zone Latent Cooling Design Supply Air Humidity Ratio Input Method
    ,                         !- Zone Dehumidification Design Supply Air Humidity Ratio
    0.005,                    !- Zone Cooling Design Supply Air Humidity Ratio Difference
    HumidityRatioDifference,    !- Zone Latent Heating Design Supply Air Humidity Ratio Input Method
    ,                         !- Zone Humidification Design Supply Air Humidity Ratio
    0.005;                    !- Zone Humidification Design Supply Air Humidity Ratio Difference

SIZING:ZONE,
    9abddc3ac015cffa_F2_whole,    !- Zone or ZoneList Name
    SupplyAirTemperature,     !- Zone Cooling Design Supply Air Temperature Input Method
    13,                       !- Zone Cooling Design Supply Air Temperature
    ,                         !- Zone Cooling Design Supply Air Temperature Difference
    SupplyAirTemperature,     !- Zone Heating Design Supply Air Temperature Input Method
    50,                       !- Zone Heating Design Supply Air Temperature
    ,                         !- Zone Heating Design Supply Air Temperature Difference
    0.008,                    !- Zone Cooling Design Supply Air Humidity Ratio
    0.008,                    !- Zone Heating Design Supply Air Humidity Ratio
    ,                         !- Design Specification Outdoor Air Object Name
    ,                         !- Zone Heating Sizing Factor
    ,                         !- Zone Cooling Sizing Factor
    DesignDay,                !- Cooling Design Air Flow Method
    0,                        !- Cooling Design Air Flow Rate
    0.000762,                 !- Cooling Minimum Air Flow per Zone Floor Area
    0,                        !- Cooling Minimum Air Flow
    0.2,                      !- Cooling Minimum Air Flow Fraction
    DesignDay,                !- Heating Design Air Flow Method
    0,                        !- Heating Design Air Flow Rate
    0.002032,                 !- Heating Maximum Air Flow per Zone Floor Area
    0.1415762,                !- Heating Maximum Air Flow
    0.3,                      !- Heating Maximum Air Flow Fraction
    ,                         !- Design Specification Zone Air Distribution Object Name
    No,                       !- Account for Dedicated Outdoor Air System
    NeutralSupplyAir,         !- Dedicated Outdoor Air System Control Strategy
    autosize,                 !- Dedicated Outdoor Air Low Setpoint Temperature for Design
    autosize,                 !- Dedicated Outdoor Air High Setpoint Temperature for Design
    Sensible Load Only No Latent Load,    !- Zone Load Sizing Method
    HumidityRatioDifference,    !- Zone Latent Cooling Design Supply Air Humidity Ratio Input Method
    ,                         !- Zone Dehumidification Design Supply Air Humidity Ratio
    0.005,                    !- Zone Cooling Design Supply Air Humidity Ratio Difference
    HumidityRatioDifference,    !- Zone Latent Heating Design Supply Air Humidity Ratio Input Method
    ,                         !- Zone Humidification Design Supply Air Humidity Ratio
    0.005;                    !- Zone Humidification Design Supply Air Humidity Ratio Difference

OUTPUT:VARIABLE,
    *,                        !- Key Value
    Zone Ideal Loads Zone Total Heating Energy,    !- Variable Name
    Hourly;                   !- Reporting Frequency

OUTPUT:SQLITE,
    SimpleAndTabular,         !- Option Type
    UseOutputControlTableStyle;    !- Unit Conversion for Tabular Data