!- Windows Line endings 

Version,
    23.1;                     !- Version Identifier

SimulationControl,
    Yes,                      !- Do Zone Sizing Calculation
    Yes,                      !- Do System Sizing Calculation
    Yes,                      !- Do Plant Sizing Calculation
    No,                       !- Run Simulation for Sizing Periods
    Yes,                      !- Run Simulation for Weather File Run Periods
    No,                       !- Do HVAC Sizing Simulation for Sizing Periods
    1;                        !- Maximum Number of HVAC Sizing Simulation Passes

Building,
    EU S2 Campaign,           !- Name
    0,                        !- North Axis
    City,                     !- Terrain
    ,                         !- Loads Convergence Tolerance Value
    ,                         !- Temperature Convergence Tolerance Value
    FullExterior,             !- Solar Distribution
    ,                         !- Maximum Number of Warmup Days
    ;                         !- Minimum Number of Warmup Days

ShadowCalculation,
    PolygonClipping,          !- Shading Calculation Method
    Periodic,                 !- Shading Calculation Update Frequency Method
    1;                        !- Shading Calculation Update Frequency

HeatBalanceAlgorithm,
    ConductionTransferFunction,    !- Algorithm
    200,                      !- Surface Temperature Upper Limit
    0.1,                      !- Minimum Surface Convection Heat Transfer Coefficient Value
    10000000;                 !- Maximum Surface Convection Heat Transfer Coefficient Value

Timestep,
    12;                       !- Number of Timesteps per Hour

Site:Location,
    Bologna,                  !- Name
    44.5,                     !- Latitude
    11.25,                    !- Longitude
    1,                        !- Time Zone
    37;                       !- Elevation

SizingPeriod:WeatherFileDays,
    AnnualSizingPeriod,       !- Name
    1,                        !- Begin Month
    1,                        !- Begin Day of Month
    12,                       !- End Month
    31,                       !- End Day of Month
    Monday,                   !- Day of Week for Start Day
    No,                       !- Use Weather File Daylight Saving Period
    No;                       !- Use Weather File Rain and Snow Indicators

RunPeriod,
    RunPeriod1,               !- Name
    1,                        !- Begin Month
    1,                        !- Begin Day of Month
    ,                         !- Begin Year
    12,                       !- End Month
    31,                       !- End Day of Month
    ,                         !- End Year
    Sunday,                   !- Day of Week for Start Day
    No,                       !- Use Weather File Holidays and Special Days
    No,                       !- Use Weather File Daylight Saving Period
    No,                       !- Apply Weekend Holiday Rule
    Yes,                      !- Use Weather File Rain Indicators
    Yes;                      !- Use Weather File Snow Indicators

ScheduleTypeLimits,
    Any Number;               !- Name

SCHEDULETYPELIMITS,
    EU_Step8_AnyNumber_Wm2,    !- Name
    ,                         !- Lower Limit Value
    ,                         !- Upper Limit Value
    Continuous,               !- Numeric Type
    Dimensionless;            !- Unit Type

SCHEDULE:CONSTANT,
    EU_AlwaysOn,              !- Name
    ,                         !- Schedule Type Limits Name
    1;                        !- Hourly Value

SCHEDULE:CONSTANT,
    EU_CoolingOff,            !- Name
    ,                         !- Schedule Type Limits Name
    0;                        !- Hourly Value

SCHEDULE:FILE,
    EU_Step8_GainSchedule_19da1493f901936e_F0_dwelling_0_f000,    !- Name
    EU_Step8_AnyNumber_Wm2,    !- Schedule Type Limits Name
    ../../schedules/19da1493f901936e/19da1493f901936e_F0_dwelling_0_f000_gain.csv,    !- File Name
    1,                        !- Column Number
    0,                        !- Rows to Skip at Top
    8760,                     !- Number of Hours of Data
    Comma,                    !- Column Separator
    No,                       !- Interpolate to Timestep
    60,                       !- Minutes per Item
    Yes;                      !- Adjust Schedule for Daylight Savings

SCHEDULE:FILE,
    EU_Step8_GainSchedule_19da1493f901936e_F0_dwelling_1_f000,    !- Name
    EU_Step8_AnyNumber_Wm2,    !- Schedule Type Limits Name
    ../../schedules/19da1493f901936e/19da1493f901936e_F0_dwelling_1_f000_gain.csv,    !- File Name
    1,                        !- Column Number
    0,                        !- Rows to Skip at Top
    8760,                     !- Number of Hours of Data
    Comma,                    !- Column Separator
    No,                       !- Interpolate to Timestep
    60,                       !- Minutes per Item
    Yes;                      !- Adjust Schedule for Daylight Savings

SCHEDULE:FILE,
    EU_Step8_GainSchedule_19da1493f901936e_F1_dwelling_0_f000,    !- Name
    EU_Step8_AnyNumber_Wm2,    !- Schedule Type Limits Name
    ../../schedules/19da1493f901936e/19da1493f901936e_F1_dwelling_0_f000_gain.csv,    !- File Name
    1,                        !- Column Number
    0,                        !- Rows to Skip at Top
    8760,                     !- Number of Hours of Data
    Comma,                    !- Column Separator
    No,                       !- Interpolate to Timestep
    60,                       !- Minutes per Item
    Yes;                      !- Adjust Schedule for Daylight Savings

SCHEDULE:FILE,
    EU_Step8_GainSchedule_19da1493f901936e_F1_dwelling_1_f000,    !- Name
    EU_Step8_AnyNumber_Wm2,    !- Schedule Type Limits Name
    ../../schedules/19da1493f901936e/19da1493f901936e_F1_dwelling_1_f000_gain.csv,    !- File Name
    1,                        !- Column Number
    0,                        !- Rows to Skip at Top
    8760,                     !- Number of Hours of Data
    Comma,                    !- Column Separator
    No,                       !- Interpolate to Timestep
    60,                       !- Minutes per Item
    Yes;                      !- Adjust Schedule for Daylight Savings

SCHEDULE:FILE,
    EU_Step8_GainSchedule_19da1493f901936e_F2_dwelling_0_f000,    !- Name
    EU_Step8_AnyNumber_Wm2,    !- Schedule Type Limits Name
    ../../schedules/19da1493f901936e/19da1493f901936e_F2_dwelling_0_f000_gain.csv,    !- File Name
    1,                        !- Column Number
    0,                        !- Rows to Skip at Top
    8760,                     !- Number of Hours of Data
    Comma,                    !- Column Separator
    No,                       !- Interpolate to Timestep
    60,                       !- Minutes per Item
    Yes;                      !- Adjust Schedule for Daylight Savings

SCHEDULE:FILE,
    EU_Step8_GainSchedule_19da1493f901936e_F2_dwelling_1_f000,    !- Name
    EU_Step8_AnyNumber_Wm2,    !- Schedule Type Limits Name
    ../../schedules/19da1493f901936e/19da1493f901936e_F2_dwelling_1_f000_gain.csv,    !- File Name
    1,                        !- Column Number
    0,                        !- Rows to Skip at Top
    8760,                     !- Number of Hours of Data
    Comma,                    !- Column Separator
    No,                       !- Interpolate to Timestep
    60,                       !- Minutes per Item
    Yes;                      !- Adjust Schedule for Daylight Savings

SCHEDULE:FILE,
    EU_Step8_GainSchedule_19da1493f901936e_F3_dwelling_0_f000,    !- Name
    EU_Step8_AnyNumber_Wm2,    !- Schedule Type Limits Name
    ../../schedules/19da1493f901936e/19da1493f901936e_F3_dwelling_0_f000_gain.csv,    !- File Name
    1,                        !- Column Number
    0,                        !- Rows to Skip at Top
    8760,                     !- Number of Hours of Data
    Comma,                    !- Column Separator
    No,                       !- Interpolate to Timestep
    60,                       !- Minutes per Item
    Yes;                      !- Adjust Schedule for Daylight Savings

SCHEDULE:FILE,
    EU_Step8_GainSchedule_19da1493f901936e_F3_dwelling_1_f000,    !- Name
    EU_Step8_AnyNumber_Wm2,    !- Schedule Type Limits Name
    ../../schedules/19da1493f901936e/19da1493f901936e_F3_dwelling_1_f000_gain.csv,    !- File Name
    1,                        !- Column Number
    0,                        !- Rows to Skip at Top
    8760,                     !- Number of Hours of Data
    Comma,                    !- Column Separator
    No,                       !- Interpolate to Timestep
    60,                       !- Minutes per Item
    Yes;                      !- Adjust Schedule for Daylight Savings

SCHEDULE:FILE,
    EU_Step8_GainSchedule_19da1493f901936e_F4_dwelling_0_f000,    !- Name
    EU_Step8_AnyNumber_Wm2,    !- Schedule Type Limits Name
    ../../schedules/19da1493f901936e/19da1493f901936e_F4_dwelling_0_f000_gain.csv,    !- File Name
    1,                        !- Column Number
    0,                        !- Rows to Skip at Top
    8760,                     !- Number of Hours of Data
    Comma,                    !- Column Separator
    No,                       !- Interpolate to Timestep
    60,                       !- Minutes per Item
    Yes;                      !- Adjust Schedule for Daylight Savings

SCHEDULE:FILE,
    EU_Step8_GainSchedule_19da1493f901936e_F4_dwelling_1_f000,    !- Name
    EU_Step8_AnyNumber_Wm2,    !- Schedule Type Limits Name
    ../../schedules/19da1493f901936e/19da1493f901936e_F4_dwelling_1_f000_gain.csv,    !- File Name
    1,                        !- Column Number
    0,                        !- Rows to Skip at Top
    8760,                     !- Number of Hours of Data
    Comma,                    !- Column Separator
    No,                       !- Interpolate to Timestep
    60,                       !- Minutes per Item
    Yes;                      !- Adjust Schedule for Daylight Savings

SCHEDULE:FILE,
    EU_Step8_GainSchedule_19da1493f901936e_F5_dwelling_0_f000,    !- Name
    EU_Step8_AnyNumber_Wm2,    !- Schedule Type Limits Name
    ../../schedules/19da1493f901936e/19da1493f901936e_F5_dwelling_0_f000_gain.csv,    !- File Name
    1,                        !- Column Number
    0,                        !- Rows to Skip at Top
    8760,                     !- Number of Hours of Data
    Comma,                    !- Column Separator
    No,                       !- Interpolate to Timestep
    60,                       !- Minutes per Item
    Yes;                      !- Adjust Schedule for Daylight Savings

SCHEDULE:FILE,
    EU_Step8_GainSchedule_19da1493f901936e_F5_dwelling_1_f000,    !- Name
    EU_Step8_AnyNumber_Wm2,    !- Schedule Type Limits Name
    ../../schedules/19da1493f901936e/19da1493f901936e_F5_dwelling_1_f000_gain.csv,    !- File Name
    1,                        !- Column Number
    0,                        !- Rows to Skip at Top
    8760,                     !- Number of Hours of Data
    Comma,                    !- Column Separator
    No,                       !- Interpolate to Timestep
    60,                       !- Minutes per Item
    Yes;                      !- Adjust Schedule for Daylight Savings

SCHEDULE:FILE,
    EU_Step8_GainSchedule_19da1493f901936e_F6_dwelling_0_f000,    !- Name
    EU_Step8_AnyNumber_Wm2,    !- Schedule Type Limits Name
    ../../schedules/19da1493f901936e/19da1493f901936e_F6_dwelling_0_f000_gain.csv,    !- File Name
    1,                        !- Column Number
    0,                        !- Rows to Skip at Top
    8760,                     !- Number of Hours of Data
    Comma,                    !- Column Separator
    No,                       !- Interpolate to Timestep
    60,                       !- Minutes per Item
    Yes;                      !- Adjust Schedule for Daylight Savings

SCHEDULE:FILE,
    EU_Step8_GainSchedule_19da1493f901936e_F6_dwelling_1_f000,    !- Name
    EU_Step8_AnyNumber_Wm2,    !- Schedule Type Limits Name
    ../../schedules/19da1493f901936e/19da1493f901936e_F6_dwelling_1_f000_gain.csv,    !- File Name
    1,                        !- Column Number
    0,                        !- Rows to Skip at Top
    8760,                     !- Number of Hours of Data
    Comma,                    !- Column Separator
    No,                       !- Interpolate to Timestep
    60,                       !- Minutes per Item
    Yes;                      !- Adjust Schedule for Daylight Savings

SCHEDULE:FILE,
    EU_Step8_GainSchedule_19da1493f901936e_F7_dwelling_0_f000,    !- Name
    EU_Step8_AnyNumber_Wm2,    !- Schedule Type Limits Name
    ../../schedules/19da1493f901936e/19da1493f901936e_F7_dwelling_0_f000_gain.csv,    !- File Name
    1,                        !- Column Number
    0,                        !- Rows to Skip at Top
    8760,                     !- Number of Hours of Data
    Comma,                    !- Column Separator
    No,                       !- Interpolate to Timestep
    60,                       !- Minutes per Item
    Yes;                      !- Adjust Schedule for Daylight Savings

SCHEDULE:FILE,
    EU_Step8_GainSchedule_19da1493f901936e_F7_dwelling_1_f000,    !- Name
    EU_Step8_AnyNumber_Wm2,    !- Schedule Type Limits Name
    ../../schedules/19da1493f901936e/19da1493f901936e_F7_dwelling_1_f000_gain.csv,    !- File Name
    1,                        !- Column Number
    0,                        !- Rows to Skip at Top
    8760,                     !- Number of Hours of Data
    Comma,                    !- Column Separator
    No,                       !- Interpolate to Timestep
    60,                       !- Minutes per Item
    Yes;                      !- Adjust Schedule for Daylight Savings

MATERIAL,
    EU_InternalMass_Material,    !- Name
    MediumRough,              !- Roughness
    0.1,                      !- Thickness
    1,                        !- Conductivity
    1800,                     !- Density
    900,                      !- Specific Heat
    0.9,                      !- Thermal Absorptance
    0.7,                      !- Solar Absorptance
    0.7;                      !- Visible Absorptance

MATERIAL:NOMASS,
    EU_wall_NoMass,           !- Name
    MediumRough,              !- Roughness
    0.9058281353670552,       !- Thermal Resistance
    0.9,                      !- Thermal Absorptance
    0.7,                      !- Solar Absorptance
    0.7;                      !- Visible Absorptance

MATERIAL:NOMASS,
    EU_roof_NoMass,           !- Name
    MediumRough,              !- Roughness
    3.759304e-01,             !- Thermal Resistance
    0.9,                      !- Thermal Absorptance
    0.7,                      !- Solar Absorptance
    0.7;                      !- Visible Absorptance

MATERIAL:NOMASS,
    EU_floor_NoMass,          !- Name
    MediumRough,              !- Roughness
    0.6711395814079611,       !- Thermal Resistance
    0.9,                      !- Thermal Absorptance
    0.7,                      !- Solar Absorptance
    0.7;                      !- Visible Absorptance

CONSTRUCTION,
    EU_wall_Construction,     !- Name
    EU_wall_NoMass;           !- Outside Layer

CONSTRUCTION,
    EU_roof_Construction,     !- Name
    EU_roof_NoMass;           !- Outside Layer

CONSTRUCTION,
    EU_floor_Construction,    !- Name
    EU_floor_NoMass;          !- Outside Layer

CONSTRUCTION,
    EU_InternalMass_Construction,    !- Name
    EU_InternalMass_Material;    !- Outside Layer

GlobalGeometryRules,
    UpperLeftCorner,          !- Starting Vertex Position
    CounterClockWise,         !- Vertex Entry Direction
    World;                    !- Coordinate System

ZONE,
    19da1493f901936e_F0_dwelling_0,    !- Name
    0,                        !- Direction of Relative North
    0,                        !- X Origin
    0,                        !- Y Origin
    0,                        !- Z Origin
    1,                        !- Type
    1,                        !- Multiplier
    autocalculate,            !- Ceiling Height
    2804.096923828125,        !- Volume
    autocalculate,            !- Floor Area
    ,                         !- Zone Inside Convection Algorithm
    ,                         !- Zone Outside Convection Algorithm
    Yes;                      !- Part of Total Floor Area

ZONE,
    19da1493f901936e_F1_dwelling_0,    !- Name
    0,                        !- Direction of Relative North
    0,                        !- X Origin
    0,                        !- Y Origin
    0,                        !- Z Origin
    1,                        !- Type
    1,                        !- Multiplier
    autocalculate,            !- Ceiling Height
    2804.09619140625,         !- Volume
    autocalculate,            !- Floor Area
    ,                         !- Zone Inside Convection Algorithm
    ,                         !- Zone Outside Convection Algorithm
    Yes;                      !- Part of Total Floor Area

ZONE,
    19da1493f901936e_F2_dwelling_0,    !- Name
    0,                        !- Direction of Relative North
    0,                        !- X Origin
    0,                        !- Y Origin
    0,                        !- Z Origin
    1,                        !- Type
    1,                        !- Multiplier
    autocalculate,            !- Ceiling Height
    2804.09619140625,         !- Volume
    autocalculate,            !- Floor Area
    ,                         !- Zone Inside Convection Algorithm
    ,                         !- Zone Outside Convection Algorithm
    Yes;                      !- Part of Total Floor Area

ZONE,
    19da1493f901936e_F3_dwelling_0,    !- Name
    0,                        !- Direction of Relative North
    0,                        !- X Origin
    0,                        !- Y Origin
    0,                        !- Z Origin
    1,                        !- Type
    1,                        !- Multiplier
    autocalculate,            !- Ceiling Height
    2804.09619140625,         !- Volume
    autocalculate,            !- Floor Area
    ,                         !- Zone Inside Convection Algorithm
    ,                         !- Zone Outside Convection Algorithm
    Yes;                      !- Part of Total Floor Area

ZONE,
    19da1493f901936e_F4_dwelling_0,    !- Name
    0,                        !- Direction of Relative North
    0,                        !- X Origin
    0,                        !- Y Origin
    0,                        !- Z Origin
    1,                        !- Type
    1,                        !- Multiplier
    autocalculate,            !- Ceiling Height
    2804.09619140625,         !- Volume
    autocalculate,            !- Floor Area
    ,                         !- Zone Inside Convection Algorithm
    ,                         !- Zone Outside Convection Algorithm
    Yes;                      !- Part of Total Floor Area

ZONE,
    19da1493f901936e_F5_dwelling_0,    !- Name
    0,                        !- Direction of Relative North
    0,                        !- X Origin
    0,                        !- Y Origin
    0,                        !- Z Origin
    1,                        !- Type
    1,                        !- Multiplier
    autocalculate,            !- Ceiling Height
    2804.09619140625,         !- Volume
    autocalculate,            !- Floor Area
    ,                         !- Zone Inside Convection Algorithm
    ,                         !- Zone Outside Convection Algorithm
    Yes;                      !- Part of Total Floor Area

ZONE,
    19da1493f901936e_F6_dwelling_0,    !- Name
    0,                        !- Direction of Relative North
    0,                        !- X Origin
    0,                        !- Y Origin
    0,                        !- Z Origin
    1,                        !- Type
    1,                        !- Multiplier
    autocalculate,            !- Ceiling Height
    2804.09619140625,         !- Volume
    autocalculate,            !- Floor Area
    ,                         !- Zone Inside Convection Algorithm
    ,                         !- Zone Outside Convection Algorithm
    Yes;                      !- Part of Total Floor Area

ZONE,
    19da1493f901936e_F7_dwelling_0,    !- Name
    0,                        !- Direction of Relative North
    0,                        !- X Origin
    0,                        !- Y Origin
    0,                        !- Z Origin
    1,                        !- Type
    1,                        !- Multiplier
    autocalculate,            !- Ceiling Height
    2804.09619140625,         !- Volume
    autocalculate,            !- Floor Area
    ,                         !- Zone Inside Convection Algorithm
    ,                         !- Zone Outside Convection Algorithm
    Yes;                      !- Part of Total Floor Area

ZONE,
    19da1493f901936e_F0_dwelling_1,    !- Name
    0,                        !- Direction of Relative North
    0,                        !- X Origin
    0,                        !- Y Origin
    0,                        !- Z Origin
    1,                        !- Type
    1,                        !- Multiplier
    autocalculate,            !- Ceiling Height
    2804.044921875,           !- Volume
    autocalculate,            !- Floor Area
    ,                         !- Zone Inside Convection Algorithm
    ,                         !- Zone Outside Convection Algorithm
    Yes;                      !- Part of Total Floor Area

ZONE,
    19da1493f901936e_F1_dwelling_1,    !- Name
    0,                        !- Direction of Relative North
    0,                        !- X Origin
    0,                        !- Y Origin
    0,                        !- Z Origin
    1,                        !- Type
    1,                        !- Multiplier
    autocalculate,            !- Ceiling Height
    2804.044921875,           !- Volume
    autocalculate,            !- Floor Area
    ,                         !- Zone Inside Convection Algorithm
    ,                         !- Zone Outside Convection Algorithm
    Yes;                      !- Part of Total Floor Area

ZONE,
    19da1493f901936e_F2_dwelling_1,    !- Name
    0,                        !- Direction of Relative North
    0,                        !- X Origin
    0,                        !- Y Origin
    0,                        !- Z Origin
    1,                        !- Type
    1,                        !- Multiplier
    autocalculate,            !- Ceiling Height
    2804.044921875,           !- Volume
    autocalculate,            !- Floor Area
    ,                         !- Zone Inside Convection Algorithm
    ,                         !- Zone Outside Convection Algorithm
    Yes;                      !- Part of Total Floor Area

ZONE,
    19da1493f901936e_F3_dwelling_1,    !- Name
    0,                        !- Direction of Relative North
    0,                        !- X Origin
    0,                        !- Y Origin
    0,                        !- Z Origin
    1,                        !- Type
    1,                        !- Multiplier
    autocalculate,            !- Ceiling Height
    2804.044921875,           !- Volume
    autocalculate,            !- Floor Area
    ,                         !- Zone Inside Convection Algorithm
    ,                         !- Zone Outside Convection Algorithm
    Yes;                      !- Part of Total Floor Area

ZONE,
    19da1493f901936e_F4_dwelling_1,    !- Name
    0,                        !- Direction of Relative North
    0,                        !- X Origin
    0,                        !- Y Origin
    0,                        !- Z Origin
    1,                        !- Type
    1,                        !- Multiplier
    autocalculate,            !- Ceiling Height
    2804.044921875,           !- Volume
    autocalculate,            !- Floor Area
    ,                         !- Zone Inside Convection Algorithm
    ,                         !- Zone Outside Convection Algorithm
    Yes;                      !- Part of Total Floor Area

ZONE,
    19da1493f901936e_F5_dwelling_1,    !- Name
    0,                        !- Direction of Relative North
    0,                        !- X Origin
    0,                        !- Y Origin
    0,                        !- Z Origin
    1,                        !- Type
    1,                        !- Multiplier
    autocalculate,            !- Ceiling Height
    2804.044921875,           !- Volume
    autocalculate,            !- Floor Area
    ,                         !- Zone Inside Convection Algorithm
    ,                         !- Zone Outside Convection Algorithm
    Yes;                      !- Part of Total Floor Area

ZONE,
    19da1493f901936e_F6_dwelling_1,    !- Name
    0,                        !- Direction of Relative North
    0,                        !- X Origin
    0,                        !- Y Origin
    0,                        !- Z Origin
    1,                        !- Type
    1,                        !- Multiplier
    autocalculate,            !- Ceiling Height
    2804.044921875,           !- Volume
    autocalculate,            !- Floor Area
    ,                         !- Zone Inside Convection Algorithm
    ,                         !- Zone Outside Convection Algorithm
    Yes;                      !- Part of Total Floor Area

ZONE,
    19da1493f901936e_F7_dwelling_1,    !- Name
    0,                        !- Direction of Relative North
    0,                        !- X Origin
    0,                        !- Y Origin
    0,                        !- Z Origin
    1,                        !- Type
    1,                        !- Multiplier
    autocalculate,            !- Ceiling Height
    2804.044921875,           !- Volume
    autocalculate,            !- Floor Area
    ,                         !- Zone Inside Convection Algorithm
    ,                         !- Zone Outside Convection Algorithm
    Yes;                      !- Part of Total Floor Area

BUILDINGSURFACE:DETAILED,
    Block 19da1493f901936e_0 Storey 0 Wall 0002,    !- Name
    wall,                     !- Surface Type
    EU_wall_Construction,     !- Construction Name
    19da1493f901936e_F0_dwelling_0,    !- Zone Name
    ,                         !- Space Name
    outdoors,                 !- Outside Boundary Condition
    ,                         !- Outside Boundary Condition Object
    SunExposed,               !- Sun Exposure
    WindExposed,              !- Wind Exposure
    autocalculate,            !- View Factor to Ground
    autocalculate,            !- Number of Vertices
    686755.905,               !- Vertex 1 Xcoordinate
    4928950.639,              !- Vertex 1 Ycoordinate
    3,                        !- Vertex 1 Zcoordinate
    686755.905,               !- Vertex 2 Xcoordinate
    4928950.639,              !- Vertex 2 Ycoordinate
    0,                        !- Vertex 2 Zcoordinate
    686765.792,               !- Vertex 3 Xcoordinate
    4928947.095,              !- Vertex 3 Ycoordinate
    0,                        !- Vertex 3 Zcoordinate
    686765.792,               !- Vertex 4 Xcoordinate
    4928947.095,              !- Vertex 4 Ycoordinate
    3;                        !- Vertex 4 Zcoordinate

BUILDINGSURFACE:DETAILED,
    Block 19da1493f901936e_0 Storey 0 Wall 0003,    !- Name
    wall,                     !- Surface Type
    EU_wall_Construction,     !- Construction Name
    19da1493f901936e_F0_dwelling_0,    !- Zone Name
    ,                         !- Space Name
    outdoors,                 !- Outside Boundary Condition
    ,                         !- Outside Boundary Condition Object
    SunExposed,               !- Sun Exposure
    WindExposed,              !- Wind Exposure
    autocalculate,            !- View Factor to Ground
    autocalculate,            !- Number of Vertices
    686765.792,               !- Vertex 1 Xcoordinate
    4928947.095,              !- Vertex 1 Ycoordinate
    3,                        !- Vertex 1 Zcoordinate
    686765.792,               !- Vertex 2 Xcoordinate
    4928947.095,              !- Vertex 2 Ycoordinate
    0,                        !- Vertex 2 Zcoordinate
    686771.932,               !- Vertex 3 Xcoordinate
    4928964.195,              !- Vertex 3 Ycoordinate
    0,                        !- Vertex 3 Zcoordinate
    686771.932,               !- Vertex 4 Xcoordinate
    4928964.195,              !- Vertex 4 Ycoordinate
    3;                        !- Vertex 4 Zcoordinate

BUILDINGSURFACE:DETAILED,
    Block 19da1493f901936e_0 Storey 0 Wall 0004,    !- Name
    wall,                     !- Surface Type
    EU_wall_Construction,     !- Construction Name
    19da1493f901936e_F0_dwelling_0,    !- Zone Name
    ,                         !- Space Name
    outdoors,                 !- Outside Boundary Condition
    ,                         !- Outside Boundary Condition Object
    SunExposed,               !- Sun Exposure
    WindExposed,              !- Wind Exposure
    autocalculate,            !- View Factor to Ground
    autocalculate,            !- Number of Vertices
    686771.932,               !- Vertex 1 Xcoordinate
    4928964.195,              !- Vertex 1 Ycoordinate
    3,                        !- Vertex 1 Zcoordinate
    686771.932,               !- Vertex 2 Xcoordinate
    4928964.195,              !- Vertex 2 Ycoordinate
    0,                        !- Vertex 2 Zcoordinate
    686766.921,               !- Vertex 3 Xcoordinate
    4928966.138,              !- Vertex 3 Ycoordinate
    0,                        !- Vertex 3 Zcoordinate
    686766.921,               !- Vertex 4 Xcoordinate
    4928966.138,              !- Vertex 4 Ycoordinate
    3;                        !- Vertex 4 Zcoordinate

BUILDINGSURFACE:DETAILED,
    Block 19da1493f901936e_0 Storey 0 Wall 0006,    !- Name
    wall,                     !- Surface Type
    EU_wall_Construction,     !- Construction Name
    19da1493f901936e_F0_dwelling_0,    !- Zone Name
    ,                         !- Space Name
    outdoors,                 !- Outside Boundary Condition
    ,                         !- Outside Boundary Condition Object
    SunExposed,               !- Sun Exposure
    WindExposed,              !- Wind Exposure
    autocalculate,            !- View Factor to Ground
    autocalculate,            !- Number of Vertices
    686774.932,               !- Vertex 1 Xcoordinate
    4928977.41,               !- Vertex 1 Ycoordinate
    3,                        !- Vertex 1 Zcoordinate
    686774.932,               !- Vertex 2 Xcoordinate
    4928977.41,               !- Vertex 2 Ycoordinate
    0,                        !- Vertex 2 Zcoordinate
    686797.571,               !- Vertex 3 Xcoordinate
    4928969.124,              !- Vertex 3 Ycoordinate
    0,                        !- Vertex 3 Zcoordinate
    686797.571,               !- Vertex 4 Xcoordinate
    4928969.124,              !- Vertex 4 Ycoordinate
    3;                        !- Vertex 4 Zcoordinate

BUILDINGSURFACE:DETAILED,
    Block 19da1493f901936e_0 Storey 0 Wall 0007,    !- Name
    wall,                     !- Surface Type
    EU_wall_Construction,     !- Construction Name
    19da1493f901936e_F0_dwelling_0,    !- Zone Name
    ,                         !- Space Name
    outdoors,                 !- Outside Boundary Condition
    ,                         !- Outside Boundary Condition Object
    SunExposed,               !- Sun Exposure
    WindExposed,              !- Wind Exposure
    autocalculate,            !- View Factor to Ground
    autocalculate,            !- Number of Vertices
    686797.571,               !- Vertex 1 Xcoordinate
    4928969.124,              !- Vertex 1 Ycoordinate
    3,                        !- Vertex 1 Zcoordinate
    686797.571,               !- Vertex 2 Xcoordinate
    4928969.124,              !- Vertex 2 Ycoordinate
    0,                        !- Vertex 2 Zcoordinate
    686777.751,               !- Vertex 3 Xcoordinate
    4928941.285,              !- Vertex 3 Ycoordinate
    0,                        !- Vertex 3 Zcoordinate
    686777.751,               !- Vertex 4 Xcoordinate
    4928941.285,              !- Vertex 4 Ycoordinate
    3;                        !- Vertex 4 Zcoordinate

BUILDINGSURFACE:DETAILED,
    Block 19da1493f901936e_0 Storey 0 Wall 0008,    !- Name
    wall,                     !- Surface Type
    EU_wall_Construction,     !- Construction Name
    19da1493f901936e_F0_dwelling_0,    !- Zone Name
    ,                         !- Space Name
    outdoors,                 !- Outside Boundary Condition
    ,                         !- Outside Boundary Condition Object
    SunExposed,               !- Sun Exposure
    WindExposed,              !- Wind Exposure
    autocalculate,            !- View Factor to Ground
    autocalculate,            !- Number of Vertices
    686777.751,               !- Vertex 1 Xcoordinate
    4928941.285,              !- Vertex 1 Ycoordinate
    3,                        !- Vertex 1 Zcoordinate
    686777.751,               !- Vertex 2 Xcoordinate
    4928941.285,              !- Vertex 2 Ycoordinate
    0,                        !- Vertex 2 Zcoordinate
    686770.131,               !- Vertex 3 Xcoordinate
    4928931.375,              !- Vertex 3 Ycoordinate
    0,                        !- Vertex 3 Zcoordinate
    686770.131,               !- Vertex 4 Xcoordinate
    4928931.375,              !- Vertex 4 Ycoordinate
    3;                        !- Vertex 4 Zcoordinate

BUILDINGSURFACE:DETAILED,
    Block 19da1493f901936e_0 Storey 0 Wall 0009,    !- Name
    wall,                     !- Surface Type
    EU_wall_Construction,     !- Construction Name
    19da1493f901936e_F0_dwelling_0,    !- Zone Name
    ,                         !- Space Name
    outdoors,                 !- Outside Boundary Condition
    ,                         !- Outside Boundary Condition Object
    SunExposed,               !- Sun Exposure
    WindExposed,              !- Wind Exposure
    autocalculate,            !- View Factor to Ground
    autocalculate,            !- Number of Vertices
    686770.131,               !- Vertex 1 Xcoordinate
    4928931.375,              !- Vertex 1 Ycoordinate
    3,                        !- Vertex 1 Zcoordinate
    686770.131,               !- Vertex 2 Xcoordinate
    4928931.375,              !- Vertex 2 Ycoordinate
    0,                        !- Vertex 2 Zcoordinate
    686747.905,               !- Vertex 3 Xcoordinate
    4928939.383,              !- Vertex 3 Ycoordinate
    0,                        !- Vertex 3 Zcoordinate
    686747.905,               !- Vertex 4 Xcoordinate
    4928939.383,              !- Vertex 4 Ycoordinate
    3;                        !- Vertex 4 Zcoordinate

BUILDINGSURFACE:DETAILED,
    Block 19da1493f901936e_0 Storey 0 Floor 0001,    !- Name
    floor,                    !- Surface Type
    EU_floor_Construction,    !- Construction Name
    19da1493f901936e_F0_dwelling_0,    !- Zone Name
    ,                         !- Space Name
    ground,                   !- Outside Boundary Condition
    ,                         !- Outside Boundary Condition Object
    NoSun,                    !- Sun Exposure
    NoWind,                   !- Wind Exposure
    autocalculate,            !- View Factor to Ground
    autocalculate,            !- Number of Vertices
    686777.751,               !- Vertex 1 Xcoordinate
    4928941.285,              !- Vertex 1 Ycoordinate
    0,                        !- Vertex 1 Zcoordinate
    686797.571,               !- Vertex 2 Xcoordinate
    4928969.124,              !- Vertex 2 Ycoordinate
    0,                        !- Vertex 2 Zcoordinate
    686774.932,               !- Vertex 3 Xcoordinate
    4928977.41,               !- Vertex 3 Ycoordinate
    0,                        !- Vertex 3 Zcoordinate
    686766.921,               !- Vertex 4 Xcoordinate
    4928966.138,              !- Vertex 4 Ycoordinate
    0,                        !- Vertex 4 Zcoordinate
    686771.932,               !- Vertex 5 Xcoordinate
    4928964.195,              !- Vertex 5 Ycoordinate
    0,                        !- Vertex 5 Zcoordinate
    686765.792,               !- Vertex 6 Xcoordinate
    4928947.095,              !- Vertex 6 Ycoordinate
    0,                        !- Vertex 6 Zcoordinate
    686755.905,               !- Vertex 7 Xcoordinate
    4928950.639,              !- Vertex 7 Ycoordinate
    0,                        !- Vertex 7 Zcoordinate
    686747.905,               !- Vertex 8 Xcoordinate
    4928939.383,              !- Vertex 8 Ycoordinate
    0,                        !- Vertex 8 Zcoordinate
    686770.131,               !- Vertex 9 Xcoordinate
    4928931.375,              !- Vertex 9 Ycoordinate
    0;                        !- Vertex 9 Zcoordinate

BUILDINGSURFACE:DETAILED,
    Block 19da1493f901936e_0 Storey 1 Wall 0002,    !- Name
    wall,                     !- Surface Type
    EU_wall_Construction,     !- Construction Name
    19da1493f901936e_F1_dwelling_0,    !- Zone Name
    ,                         !- Space Name
    outdoors,                 !- Outside Boundary Condition
    ,                         !- Outside Boundary Condition Object
    SunExposed,               !- Sun Exposure
    WindExposed,              !- Wind Exposure
    autocalculate,            !- View Factor to Ground
    autocalculate,            !- Number of Vertices
    686755.905,               !- Vertex 1 Xcoordinate
    4928950.639,              !- Vertex 1 Ycoordinate
    6,                        !- Vertex 1 Zcoordinate
    686755.905,               !- Vertex 2 Xcoordinate
    4928950.639,              !- Vertex 2 Ycoordinate
    3,                        !- Vertex 2 Zcoordinate
    686765.792,               !- Vertex 3 Xcoordinate
    4928947.095,              !- Vertex 3 Ycoordinate
    3,                        !- Vertex 3 Zcoordinate
    686765.792,               !- Vertex 4 Xcoordinate
    4928947.095,              !- Vertex 4 Ycoordinate
    6;                        !- Vertex 4 Zcoordinate

BUILDINGSURFACE:DETAILED,
    Block 19da1493f901936e_0 Storey 1 Wall 0003,    !- Name
    wall,                     !- Surface Type
    EU_wall_Construction,     !- Construction Name
    19da1493f901936e_F1_dwelling_0,    !- Zone Name
    ,                         !- Space Name
    outdoors,                 !- Outside Boundary Condition
    ,                         !- Outside Boundary Condition Object
    SunExposed,               !- Sun Exposure
    WindExposed,              !- Wind Exposure
    autocalculate,            !- View Factor to Ground
    autocalculate,            !- Number of Vertices
    686765.792,               !- Vertex 1 Xcoordinate
    4928947.095,              !- Vertex 1 Ycoordinate
    6,                        !- Vertex 1 Zcoordinate
    686765.792,               !- Vertex 2 Xcoordinate
    4928947.095,              !- Vertex 2 Ycoordinate
    3,                        !- Vertex 2 Zcoordinate
    686771.932,               !- Vertex 3 Xcoordinate
    4928964.195,              !- Vertex 3 Ycoordinate
    3,                        !- Vertex 3 Zcoordinate
    686771.932,               !- Vertex 4 Xcoordinate
    4928964.195,              !- Vertex 4 Ycoordinate
    6;                        !- Vertex 4 Zcoordinate

BUILDINGSURFACE:DETAILED,
    Block 19da1493f901936e_0 Storey 1 Wall 0004,    !- Name
    wall,                     !- Surface Type
    EU_wall_Construction,     !- Construction Name
    19da1493f901936e_F1_dwelling_0,    !- Zone Name
    ,                         !- Space Name
    outdoors,                 !- Outside Boundary Condition
    ,                         !- Outside Boundary Condition Object
    SunExposed,               !- Sun Exposure
    WindExposed,              !- Wind Exposure
    autocalculate,            !- View Factor to Ground
    autocalculate,            !- Number of Vertices
    686771.932,               !- Vertex 1 Xcoordinate
    4928964.195,              !- Vertex 1 Ycoordinate
    6,                        !- Vertex 1 Zcoordinate
    686771.932,               !- Vertex 2 Xcoordinate
    4928964.195,              !- Vertex 2 Ycoordinate
    3,                        !- Vertex 2 Zcoordinate
    686766.921,               !- Vertex 3 Xcoordinate
    4928966.138,              !- Vertex 3 Ycoordinate
    3,                        !- Vertex 3 Zcoordinate
    686766.921,               !- Vertex 4 Xcoordinate
    4928966.138,              !- Vertex 4 Ycoordinate
    6;                        !- Vertex 4 Zcoordinate

BUILDINGSURFACE:DETAILED,
    Block 19da1493f901936e_0 Storey 1 Wall 0006,    !- Name
    wall,                     !- Surface Type
    EU_wall_Construction,     !- Construction Name
    19da1493f901936e_F1_dwelling_0,    !- Zone Name
    ,                         !- Space Name
    outdoors,                 !- Outside Boundary Condition
    ,                         !- Outside Boundary Condition Object
    SunExposed,               !- Sun Exposure
    WindExposed,              !- Wind Exposure
    autocalculate,            !- View Factor to Ground
    autocalculate,            !- Number of Vertices
    686774.932,               !- Vertex 1 Xcoordinate
    4928977.41,               !- Vertex 1 Ycoordinate
    6,                        !- Vertex 1 Zcoordinate
    686774.932,               !- Vertex 2 Xcoordinate
    4928977.41,               !- Vertex 2 Ycoordinate
    3,                        !- Vertex 2 Zcoordinate
    686797.571,               !- Vertex 3 Xcoordinate
    4928969.124,              !- Vertex 3 Ycoordinate
    3,                        !- Vertex 3 Zcoordinate
    686797.571,               !- Vertex 4 Xcoordinate
    4928969.124,              !- Vertex 4 Ycoordinate
    6;                        !- Vertex 4 Zcoordinate

BUILDINGSURFACE:DETAILED,
    Block 19da1493f901936e_0 Storey 1 Wall 0007,    !- Name
    wall,                     !- Surface Type
    EU_wall_Construction,     !- Construction Name
    19da1493f901936e_F1_dwelling_0,    !- Zone Name
    ,                         !- Space Name
    outdoors,                 !- Outside Boundary Condition
    ,                         !- Outside Boundary Condition Object
    SunExposed,               !- Sun Exposure
    WindExposed,              !- Wind Exposure
    autocalculate,            !- View Factor to Ground
    autocalculate,            !- Number of Vertices
    686797.571,               !- Vertex 1 Xcoordinate
    4928969.124,              !- Vertex 1 Ycoordinate
    6,                        !- Vertex 1 Zcoordinate
    686797.571,               !- Vertex 2 Xcoordinate
    4928969.124,              !- Vertex 2 Ycoordinate
    3,                        !- Vertex 2 Zcoordinate
    686777.751,               !- Vertex 3 Xcoordinate
    4928941.285,              !- Vertex 3 Ycoordinate
    3,                        !- Vertex 3 Zcoordinate
    686777.751,               !- Vertex 4 Xcoordinate
    4928941.285,              !- Vertex 4 Ycoordinate
    6;                        !- Vertex 4 Zcoordinate

BUILDINGSURFACE:DETAILED,
    Block 19da1493f901936e_0 Storey 1 Wall 0008,    !- Name
    wall,                     !- Surface Type
    EU_wall_Construction,     !- Construction Name
    19da1493f901936e_F1_dwelling_0,    !- Zone Name
    ,                         !- Space Name
    outdoors,                 !- Outside Boundary Condition
    ,                         !- Outside Boundary Condition Object
    SunExposed,               !- Sun Exposure
    WindExposed,              !- Wind Exposure
    autocalculate,            !- View Factor to Ground
    autocalculate,            !- Number of Vertices
    686777.751,               !- Vertex 1 Xcoordinate
    4928941.285,              !- Vertex 1 Ycoordinate
    6,                        !- Vertex 1 Zcoordinate
    686777.751,               !- Vertex 2 Xcoordinate
    4928941.285,              !- Vertex 2 Ycoordinate
    3,                        !- Vertex 2 Zcoordinate
    686770.131,               !- Vertex 3 Xcoordinate
    4928931.375,              !- Vertex 3 Ycoordinate
    3,                        !- Vertex 3 Zcoordinate
    686770.131,               !- Vertex 4 Xcoordinate
    4928931.375,              !- Vertex 4 Ycoordinate
    6;                        !- Vertex 4 Zcoordinate

BUILDINGSURFACE:DETAILED,
    Block 19da1493f901936e_0 Storey 1 Wall 0009,    !- Name
    wall,                     !- Surface Type
    EU_wall_Construction,     !- Construction Name
    19da1493f901936e_F1_dwelling_0,    !- Zone Name
    ,                         !- Space Name
    outdoors,                 !- Outside Boundary Condition
    ,                         !- Outside Boundary Condition Object
    SunExposed,               !- Sun Exposure
    WindExposed,              !- Wind Exposure
    autocalculate,            !- View Factor to Ground
    autocalculate,            !- Number of Vertices
    686770.131,               !- Vertex 1 Xcoordinate
    4928931.375,              !- Vertex 1 Ycoordinate
    6,                        !- Vertex 1 Zcoordinate
    686770.131,               !- Vertex 2 Xcoordinate
    4928931.375,              !- Vertex 2 Ycoordinate
    3,                        !- Vertex 2 Zcoordinate
    686747.905,               !- Vertex 3 Xcoordinate
    4928939.383,              !- Vertex 3 Ycoordinate
    3,                        !- Vertex 3 Zcoordinate
    686747.905,               !- Vertex 4 Xcoordinate
    4928939.383,              !- Vertex 4 Ycoordinate
    6;                        !- Vertex 4 Zcoordinate

BUILDINGSURFACE:DETAILED,
    Block 19da1493f901936e_0 Storey 2 Wall 0002,    !- Name
    wall,                     !- Surface Type
    EU_wall_Construction,     !- Construction Name
    19da1493f901936e_F2_dwelling_0,    !- Zone Name
    ,                         !- Space Name
    outdoors,                 !- Outside Boundary Condition
    ,                         !- Outside Boundary Condition Object
    SunExposed,               !- Sun Exposure
    WindExposed,              !- Wind Exposure
    autocalculate,            !- View Factor to Ground
    autocalculate,            !- Number of Vertices
    686755.905,               !- Vertex 1 Xcoordinate
    4928950.639,              !- Vertex 1 Ycoordinate
    9,                        !- Vertex 1 Zcoordinate
    686755.905,               !- Vertex 2 Xcoordinate
    4928950.639,              !- Vertex 2 Ycoordinate
    6,                        !- Vertex 2 Zcoordinate
    686765.792,               !- Vertex 3 Xcoordinate
    4928947.095,              !- Vertex 3 Ycoordinate
    6,                        !- Vertex 3 Zcoordinate
    686765.792,               !- Vertex 4 Xcoordinate
    4928947.095,              !- Vertex 4 Ycoordinate
    9;                        !- Vertex 4 Zcoordinate

BUILDINGSURFACE:DETAILED,
    Block 19da1493f901936e_0 Storey 2 Wall 0003,    !- Name
    wall,                     !- Surface Type
    EU_wall_Construction,     !- Construction Name
    19da1493f901936e_F2_dwelling_0,    !- Zone Name
    ,                         !- Space Name
    outdoors,                 !- Outside Boundary Condition
    ,                         !- Outside Boundary Condition Object
    SunExposed,               !- Sun Exposure
    WindExposed,              !- Wind Exposure
    autocalculate,            !- View Factor to Ground
    autocalculate,            !- Number of Vertices
    686765.792,               !- Vertex 1 Xcoordinate
    4928947.095,              !- Vertex 1 Ycoordinate
    9,                        !- Vertex 1 Zcoordinate
    686765.792,               !- Vertex 2 Xcoordinate
    4928947.095,              !- Vertex 2 Ycoordinate
    6,                        !- Vertex 2 Zcoordinate
    686771.932,               !- Vertex 3 Xcoordinate
    4928964.195,              !- Vertex 3 Ycoordinate
    6,                        !- Vertex 3 Zcoordinate
    686771.932,               !- Vertex 4 Xcoordinate
    4928964.195,              !- Vertex 4 Ycoordinate
    9;                        !- Vertex 4 Zcoordinate

BUILDINGSURFACE:DETAILED,
    Block 19da1493f901936e_0 Storey 2 Wall 0004,    !- Name
    wall,                     !- Surface Type
    EU_wall_Construction,     !- Construction Name
    19da1493f901936e_F2_dwelling_0,    !- Zone Name
    ,                         !- Space Name
    outdoors,                 !- Outside Boundary Condition
    ,                         !- Outside Boundary Condition Object
    SunExposed,               !- Sun Exposure
    WindExposed,              !- Wind Exposure
    autocalculate,            !- View Factor to Ground
    autocalculate,            !- Number of Vertices
    686771.932,               !- Vertex 1 Xcoordinate
    4928964.195,              !- Vertex 1 Ycoordinate
    9,                        !- Vertex 1 Zcoordinate
    686771.932,               !- Vertex 2 Xcoordinate
    4928964.195,              !- Vertex 2 Ycoordinate
    6,                        !- Vertex 2 Zcoordinate
    686766.921,               !- Vertex 3 Xcoordinate
    4928966.138,              !- Vertex 3 Ycoordinate
    6,                        !- Vertex 3 Zcoordinate
    686766.921,               !- Vertex 4 Xcoordinate
    4928966.138,              !- Vertex 4 Ycoordinate
    9;                        !- Vertex 4 Zcoordinate

BUILDINGSURFACE:DETAILED,
    Block 19da1493f901936e_0 Storey 2 Wall 0006,    !- Name
    wall,                     !- Surface Type
    EU_wall_Construction,     !- Construction Name
    19da1493f901936e_F2_dwelling_0,    !- Zone Name
    ,                         !- Space Name
    outdoors,                 !- Outside Boundary Condition
    ,                         !- Outside Boundary Condition Object
    SunExposed,               !- Sun Exposure
    WindExposed,              !- Wind Exposure
    autocalculate,            !- View Factor to Ground
    autocalculate,            !- Number of Vertices
    686774.932,               !- Vertex 1 Xcoordinate
    4928977.41,               !- Vertex 1 Ycoordinate
    9,                        !- Vertex 1 Zcoordinate
    686774.932,               !- Vertex 2 Xcoordinate
    4928977.41,               !- Vertex 2 Ycoordinate
    6,                        !- Vertex 2 Zcoordinate
    686797.571,               !- Vertex 3 Xcoordinate
    4928969.124,              !- Vertex 3 Ycoordinate
    6,                        !- Vertex 3 Zcoordinate
    686797.571,               !- Vertex 4 Xcoordinate
    4928969.124,              !- Vertex 4 Ycoordinate
    9;                        !- Vertex 4 Zcoordinate

BUILDINGSURFACE:DETAILED,
    Block 19da1493f901936e_0 Storey 2 Wall 0007,    !- Name
    wall,                     !- Surface Type
    EU_wall_Construction,     !- Construction Name
    19da1493f901936e_F2_dwelling_0,    !- Zone Name
    ,                         !- Space Name
    outdoors,                 !- Outside Boundary Condition
    ,                         !- Outside Boundary Condition Object
    SunExposed,               !- Sun Exposure
    WindExposed,              !- Wind Exposure
    autocalculate,            !- View Factor to Ground
    autocalculate,            !- Number of Vertices
    686797.571,               !- Vertex 1 Xcoordinate
    4928969.124,              !- Vertex 1 Ycoordinate
    9,                        !- Vertex 1 Zcoordinate
    686797.571,               !- Vertex 2 Xcoordinate
    4928969.124,              !- Vertex 2 Ycoordinate
    6,                        !- Vertex 2 Zcoordinate
    686777.751,               !- Vertex 3 Xcoordinate
    4928941.285,              !- Vertex 3 Ycoordinate
    6,                        !- Vertex 3 Zcoordinate
    686777.751,               !- Vertex 4 Xcoordinate
    4928941.285,              !- Vertex 4 Ycoordinate
    9;                        !- Vertex 4 Zcoordinate

BUILDINGSURFACE:DETAILED,
    Block 19da1493f901936e_0 Storey 2 Wall 0008,    !- Name
    wall,                     !- Surface Type
    EU_wall_Construction,     !- Construction Name
    19da1493f901936e_F2_dwelling_0,    !- Zone Name
    ,                         !- Space Name
    outdoors,                 !- Outside Boundary Condition
    ,                         !- Outside Boundary Condition Object
    SunExposed,               !- Sun Exposure
    WindExposed,              !- Wind Exposure
    autocalculate,            !- View Factor to Ground
    autocalculate,            !- Number of Vertices
    686777.751,               !- Vertex 1 Xcoordinate
    4928941.285,              !- Vertex 1 Ycoordinate
    9,                        !- Vertex 1 Zcoordinate
    686777.751,               !- Vertex 2 Xcoordinate
    4928941.285,              !- Vertex 2 Ycoordinate
    6,                        !- Vertex 2 Zcoordinate
    686770.131,               !- Vertex 3 Xcoordinate
    4928931.375,              !- Vertex 3 Ycoordinate
    6,                        !- Vertex 3 Zcoordinate
    686770.131,               !- Vertex 4 Xcoordinate
    4928931.375,              !- Vertex 4 Ycoordinate
    9;                        !- Vertex 4 Zcoordinate

BUILDINGSURFACE:DETAILED,
    Block 19da1493f901936e_0 Storey 2 Wall 0009,    !- Name
    wall,                     !- Surface Type
    EU_wall_Construction,     !- Construction Name
    19da1493f901936e_F2_dwelling_0,    !- Zone Name
    ,                         !- Space Name
    outdoors,                 !- Outside Boundary Condition
    ,                         !- Outside Boundary Condition Object
    SunExposed,               !- Sun Exposure
    WindExposed,              !- Wind Exposure
    autocalculate,            !- View Factor to Ground
    autocalculate,            !- Number of Vertices
    686770.131,               !- Vertex 1 Xcoordinate
    4928931.375,              !- Vertex 1 Ycoordinate
    9,                        !- Vertex 1 Zcoordinate
    686770.131,               !- Vertex 2 Xcoordinate
    4928931.375,              !- Vertex 2 Ycoordinate
    6,                        !- Vertex 2 Zcoordinate
    686747.905,               !- Vertex 3 Xcoordinate
    4928939.383,              !- Vertex 3 Ycoordinate
    6,                        !- Vertex 3 Zcoordinate
    686747.905,               !- Vertex 4 Xcoordinate
    4928939.383,              !- Vertex 4 Ycoordinate
    9;                        !- Vertex 4 Zcoordinate

BUILDINGSURFACE:DETAILED,
    Block 19da1493f901936e_0 Storey 3 Wall 0002,    !- Name
    wall,                     !- Surface Type
    EU_wall_Construction,     !- Construction Name
    19da1493f901936e_F3_dwelling_0,    !- Zone Name
    ,                         !- Space Name
    outdoors,                 !- Outside Boundary Condition
    ,                         !- Outside Boundary Condition Object
    SunExposed,               !- Sun Exposure
    WindExposed,              !- Wind Exposure
    autocalculate,            !- View Factor to Ground
    autocalculate,            !- Number of Vertices
    686755.905,               !- Vertex 1 Xcoordinate
    4928950.639,              !- Vertex 1 Ycoordinate
    12,                       !- Vertex 1 Zcoordinate
    686755.905,               !- Vertex 2 Xcoordinate
    4928950.639,              !- Vertex 2 Ycoordinate
    9,                        !- Vertex 2 Zcoordinate
    686765.792,               !- Vertex 3 Xcoordinate
    4928947.095,              !- Vertex 3 Ycoordinate
    9,                        !- Vertex 3 Zcoordinate
    686765.792,               !- Vertex 4 Xcoordinate
    4928947.095,              !- Vertex 4 Ycoordinate
    12;                       !- Vertex 4 Zcoordinate

BUILDINGSURFACE:DETAILED,
    Block 19da1493f901936e_0 Storey 3 Wall 0003,    !- Name
    wall,                     !- Surface Type
    EU_wall_Construction,     !- Construction Name
    19da1493f901936e_F3_dwelling_0,    !- Zone Name
    ,                         !- Space Name
    outdoors,                 !- Outside Boundary Condition
    ,                         !- Outside Boundary Condition Object
    SunExposed,               !- Sun Exposure
    WindExposed,              !- Wind Exposure
    autocalculate,            !- View Factor to Ground
    autocalculate,            !- Number of Vertices
    686765.792,               !- Vertex 1 Xcoordinate
    4928947.095,              !- Vertex 1 Ycoordinate
    12,                       !- Vertex 1 Zcoordinate
    686765.792,               !- Vertex 2 Xcoordinate
    4928947.095,              !- Vertex 2 Ycoordinate
    9,                        !- Vertex 2 Zcoordinate
    686771.932,               !- Vertex 3 Xcoordinate
    4928964.195,              !- Vertex 3 Ycoordinate
    9,                        !- Vertex 3 Zcoordinate
    686771.932,               !- Vertex 4 Xcoordinate
    4928964.195,              !- Vertex 4 Ycoordinate
    12;                       !- Vertex 4 Zcoordinate

BUILDINGSURFACE:DETAILED,
    Block 19da1493f901936e_0 Storey 3 Wall 0004,    !- Name
    wall,                     !- Surface Type
    EU_wall_Construction,     !- Construction Name
    19da1493f901936e_F3_dwelling_0,    !- Zone Name
    ,                         !- Space Name
    outdoors,                 !- Outside Boundary Condition
    ,                         !- Outside Boundary Condition Object
    SunExposed,               !- Sun Exposure
    WindExposed,              !- Wind Exposure
    autocalculate,            !- View Factor to Ground
    autocalculate,            !- Number of Vertices
    686771.932,               !- Vertex 1 Xcoordinate
    4928964.195,              !- Vertex 1 Ycoordinate
    12,                       !- Vertex 1 Zcoordinate
    686771.932,               !- Vertex 2 Xcoordinate
    4928964.195,              !- Vertex 2 Ycoordinate
    9,                        !- Vertex 2 Zcoordinate
    686766.921,               !- Vertex 3 Xcoordinate
    4928966.138,              !- Vertex 3 Ycoordinate
    9,                        !- Vertex 3 Zcoordinate
    686766.921,               !- Vertex 4 Xcoordinate
    4928966.138,              !- Vertex 4 Ycoordinate
    12;                       !- Vertex 4 Zcoordinate

BUILDINGSURFACE:DETAILED,
    Block 19da1493f901936e_0 Storey 3 Wall 0006,    !- Name
    wall,                     !- Surface Type
    EU_wall_Construction,     !- Construction Name
    19da1493f901936e_F3_dwelling_0,    !- Zone Name
    ,                         !- Space Name
    outdoors,                 !- Outside Boundary Condition
    ,                         !- Outside Boundary Condition Object
    SunExposed,               !- Sun Exposure
    WindExposed,              !- Wind Exposure
    autocalculate,            !- View Factor to Ground
    autocalculate,            !- Number of Vertices
    686774.932,               !- Vertex 1 Xcoordinate
    4928977.41,               !- Vertex 1 Ycoordinate
    12,                       !- Vertex 1 Zcoordinate
    686774.932,               !- Vertex 2 Xcoordinate
    4928977.41,               !- Vertex 2 Ycoordinate
    9,                        !- Vertex 2 Zcoordinate
    686797.571,               !- Vertex 3 Xcoordinate
    4928969.124,              !- Vertex 3 Ycoordinate
    9,                        !- Vertex 3 Zcoordinate
    686797.571,               !- Vertex 4 Xcoordinate
    4928969.124,              !- Vertex 4 Ycoordinate
    12;                       !- Vertex 4 Zcoordinate

BUILDINGSURFACE:DETAILED,
    Block 19da1493f901936e_0 Storey 3 Wall 0007,    !- Name
    wall,                     !- Surface Type
    EU_wall_Construction,     !- Construction Name
    19da1493f901936e_F3_dwelling_0,    !- Zone Name
    ,                         !- Space Name
    outdoors,                 !- Outside Boundary Condition
    ,                         !- Outside Boundary Condition Object
    SunExposed,               !- Sun Exposure
    WindExposed,              !- Wind Exposure
    autocalculate,            !- View Factor to Ground
    autocalculate,            !- Number of Vertices
    686797.571,               !- Vertex 1 Xcoordinate
    4928969.124,              !- Vertex 1 Ycoordinate
    12,                       !- Vertex 1 Zcoordinate
    686797.571,               !- Vertex 2 Xcoordinate
    4928969.124,              !- Vertex 2 Ycoordinate
    9,                        !- Vertex 2 Zcoordinate
    686777.751,               !- Vertex 3 Xcoordinate
    4928941.285,              !- Vertex 3 Ycoordinate
    9,                        !- Vertex 3 Zcoordinate
    686777.751,               !- Vertex 4 Xcoordinate
    4928941.285,              !- Vertex 4 Ycoordinate
    12;                       !- Vertex 4 Zcoordinate

BUILDINGSURFACE:DETAILED,
    Block 19da1493f901936e_0 Storey 3 Wall 0008,    !- Name
    wall,                     !- Surface Type
    EU_wall_Construction,     !- Construction Name
    19da1493f901936e_F3_dwelling_0,    !- Zone Name
    ,                         !- Space Name
    outdoors,                 !- Outside Boundary Condition
    ,                         !- Outside Boundary Condition Object
    SunExposed,               !- Sun Exposure
    WindExposed,              !- Wind Exposure
    autocalculate,            !- View Factor to Ground
    autocalculate,            !- Number of Vertices
    686777.751,               !- Vertex 1 Xcoordinate
    4928941.285,              !- Vertex 1 Ycoordinate
    12,                       !- Vertex 1 Zcoordinate
    686777.751,               !- Vertex 2 Xcoordinate
    4928941.285,              !- Vertex 2 Ycoordinate
    9,                        !- Vertex 2 Zcoordinate
    686770.131,               !- Vertex 3 Xcoordinate
    4928931.375,              !- Vertex 3 Ycoordinate
    9,                        !- Vertex 3 Zcoordinate
    686770.131,               !- Vertex 4 Xcoordinate
    4928931.375,              !- Vertex 4 Ycoordinate
    12;                       !- Vertex 4 Zcoordinate

BUILDINGSURFACE:DETAILED,
    Block 19da1493f901936e_0 Storey 3 Wall 0009,    !- Name
    wall,                     !- Surface Type
    EU_wall_Construction,     !- Construction Name
    19da1493f901936e_F3_dwelling_0,    !- Zone Name
    ,                         !- Space Name
    outdoors,                 !- Outside Boundary Condition
    ,                         !- Outside Boundary Condition Object
    SunExposed,               !- Sun Exposure
    WindExposed,              !- Wind Exposure
    autocalculate,            !- View Factor to Ground
    autocalculate,            !- Number of Vertices
    686770.131,               !- Vertex 1 Xcoordinate
    4928931.375,              !- Vertex 1 Ycoordinate
    12,                       !- Vertex 1 Zcoordinate
    686770.131,               !- Vertex 2 Xcoordinate
    4928931.375,              !- Vertex 2 Ycoordinate
    9,                        !- Vertex 2 Zcoordinate
    686747.905,               !- Vertex 3 Xcoordinate
    4928939.383,              !- Vertex 3 Ycoordinate
    9,                        !- Vertex 3 Zcoordinate
    686747.905,               !- Vertex 4 Xcoordinate
    4928939.383,              !- Vertex 4 Ycoordinate
    12;                       !- Vertex 4 Zcoordinate

BUILDINGSURFACE:DETAILED,
    Block 19da1493f901936e_0 Storey 4 Wall 0002,    !- Name
    wall,                     !- Surface Type
    EU_wall_Construction,     !- Construction Name
    19da1493f901936e_F4_dwelling_0,    !- Zone Name
    ,                         !- Space Name
    outdoors,                 !- Outside Boundary Condition
    ,                         !- Outside Boundary Condition Object
    SunExposed,               !- Sun Exposure
    WindExposed,              !- Wind Exposure
    autocalculate,            !- View Factor to Ground
    autocalculate,            !- Number of Vertices
    686755.905,               !- Vertex 1 Xcoordinate
    4928950.639,              !- Vertex 1 Ycoordinate
    15,                       !- Vertex 1 Zcoordinate
    686755.905,               !- Vertex 2 Xcoordinate
    4928950.639,              !- Vertex 2 Ycoordinate
    12,                       !- Vertex 2 Zcoordinate
    686765.792,               !- Vertex 3 Xcoordinate
    4928947.095,              !- Vertex 3 Ycoordinate
    12,                       !- Vertex 3 Zcoordinate
    686765.792,               !- Vertex 4 Xcoordinate
    4928947.095,              !- Vertex 4 Ycoordinate
    15;                       !- Vertex 4 Zcoordinate

BUILDINGSURFACE:DETAILED,
    Block 19da1493f901936e_0 Storey 4 Wall 0003,    !- Name
    wall,                     !- Surface Type
    EU_wall_Construction,     !- Construction Name
    19da1493f901936e_F4_dwelling_0,    !- Zone Name
    ,                         !- Space Name
    outdoors,                 !- Outside Boundary Condition
    ,                         !- Outside Boundary Condition Object
    SunExposed,               !- Sun Exposure
    WindExposed,              !- Wind Exposure
    autocalculate,            !- View Factor to Ground
    autocalculate,            !- Number of Vertices
    686765.792,               !- Vertex 1 Xcoordinate
    4928947.095,              !- Vertex 1 Ycoordinate
    15,                       !- Vertex 1 Zcoordinate
    686765.792,               !- Vertex 2 Xcoordinate
    4928947.095,              !- Vertex 2 Ycoordinate
    12,                       !- Vertex 2 Zcoordinate
    686771.932,               !- Vertex 3 Xcoordinate
    4928964.195,              !- Vertex 3 Ycoordinate
    12,                       !- Vertex 3 Zcoordinate
    686771.932,               !- Vertex 4 Xcoordinate
    4928964.195,              !- Vertex 4 Ycoordinate
    15;                       !- Vertex 4 Zcoordinate

BUILDINGSURFACE:DETAILED,
    Block 19da1493f901936e_0 Storey 4 Wall 0004,    !- Name
    wall,                     !- Surface Type
    EU_wall_Construction,     !- Construction Name
    19da1493f901936e_F4_dwelling_0,    !- Zone Name
    ,                         !- Space Name
    outdoors,                 !- Outside Boundary Condition
    ,                         !- Outside Boundary Condition Object
    SunExposed,               !- Sun Exposure
    WindExposed,              !- Wind Exposure
    autocalculate,            !- View Factor to Ground
    autocalculate,            !- Number of Vertices
    686771.932,               !- Vertex 1 Xcoordinate
    4928964.195,              !- Vertex 1 Ycoordinate
    15,                       !- Vertex 1 Zcoordinate
    686771.932,               !- Vertex 2 Xcoordinate
    4928964.195,              !- Vertex 2 Ycoordinate
    12,                       !- Vertex 2 Zcoordinate
    686766.921,               !- Vertex 3 Xcoordinate
    4928966.138,              !- Vertex 3 Ycoordinate
    12,                       !- Vertex 3 Zcoordinate
    686766.921,               !- Vertex 4 Xcoordinate
    4928966.138,              !- Vertex 4 Ycoordinate
    15;                       !- Vertex 4 Zcoordinate

BUILDINGSURFACE:DETAILED,
    Block 19da1493f901936e_0 Storey 4 Wall 0006,    !- Name
    wall,                     !- Surface Type
    EU_wall_Construction,     !- Construction Name
    19da1493f901936e_F4_dwelling_0,    !- Zone Name
    ,                         !- Space Name
    outdoors,                 !- Outside Boundary Condition
    ,                         !- Outside Boundary Condition Object
    SunExposed,               !- Sun Exposure
    WindExposed,              !- Wind Exposure
    autocalculate,            !- View Factor to Ground
    autocalculate,            !- Number of Vertices
    686774.932,               !- Vertex 1 Xcoordinate
    4928977.41,               !- Vertex 1 Ycoordinate
    15,                       !- Vertex 1 Zcoordinate
    686774.932,               !- Vertex 2 Xcoordinate
    4928977.41,               !- Vertex 2 Ycoordinate
    12,                       !- Vertex 2 Zcoordinate
    686797.571,               !- Vertex 3 Xcoordinate
    4928969.124,              !- Vertex 3 Ycoordinate
    12,                       !- Vertex 3 Zcoordinate
    686797.571,               !- Vertex 4 Xcoordinate
    4928969.124,              !- Vertex 4 Ycoordinate
    15;                       !- Vertex 4 Zcoordinate

BUILDINGSURFACE:DETAILED,
    Block 19da1493f901936e_0 Storey 4 Wall 0007,    !- Name
    wall,                     !- Surface Type
    EU_wall_Construction,     !- Construction Name
    19da1493f901936e_F4_dwelling_0,    !- Zone Name
    ,                         !- Space Name
    outdoors,                 !- Outside Boundary Condition
    ,                         !- Outside Boundary Condition Object
    SunExposed,               !- Sun Exposure
    WindExposed,              !- Wind Exposure
    autocalculate,            !- View Factor to Ground
    autocalculate,            !- Number of Vertices
    686797.571,               !- Vertex 1 Xcoordinate
    4928969.124,              !- Vertex 1 Ycoordinate
    15,                       !- Vertex 1 Zcoordinate
    686797.571,               !- Vertex 2 Xcoordinate
    4928969.124,              !- Vertex 2 Ycoordinate
    12,                       !- Vertex 2 Zcoordinate
    686777.751,               !- Vertex 3 Xcoordinate
    4928941.285,              !- Vertex 3 Ycoordinate
    12,                       !- Vertex 3 Zcoordinate
    686777.751,               !- Vertex 4 Xcoordinate
    4928941.285,              !- Vertex 4 Ycoordinate
    15;                       !- Vertex 4 Zcoordinate

BUILDINGSURFACE:DETAILED,
    Block 19da1493f901936e_0 Storey 4 Wall 0008,    !- Name
    wall,                     !- Surface Type
    EU_wall_Construction,     !- Construction Name
    19da1493f901936e_F4_dwelling_0,    !- Zone Name
    ,                         !- Space Name
    outdoors,                 !- Outside Boundary Condition
    ,                         !- Outside Boundary Condition Object
    SunExposed,               !- Sun Exposure
    WindExposed,              !- Wind Exposure
    autocalculate,            !- View Factor to Ground
    autocalculate,            !- Number of Vertices
    686777.751,               !- Vertex 1 Xcoordinate
    4928941.285,              !- Vertex 1 Ycoordinate
    15,                       !- Vertex 1 Zcoordinate
    686777.751,               !- Vertex 2 Xcoordinate
    4928941.285,              !- Vertex 2 Ycoordinate
    12,                       !- Vertex 2 Zcoordinate
    686770.131,               !- Vertex 3 Xcoordinate
    4928931.375,              !- Vertex 3 Ycoordinate
    12,                       !- Vertex 3 Zcoordinate
    686770.131,               !- Vertex 4 Xcoordinate
    4928931.375,              !- Vertex 4 Ycoordinate
    15;                       !- Vertex 4 Zcoordinate

BUILDINGSURFACE:DETAILED,
    Block 19da1493f901936e_0 Storey 4 Wall 0009,    !- Name
    wall,                     !- Surface Type
    EU_wall_Construction,     !- Construction Name
    19da1493f901936e_F4_dwelling_0,    !- Zone Name
    ,                         !- Space Name
    outdoors,                 !- Outside Boundary Condition
    ,                         !- Outside Boundary Condition Object
    SunExposed,               !- Sun Exposure
    WindExposed,              !- Wind Exposure
    autocalculate,            !- View Factor to Ground
    autocalculate,            !- Number of Vertices
    686770.131,               !- Vertex 1 Xcoordinate
    4928931.375,              !- Vertex 1 Ycoordinate
    15,                       !- Vertex 1 Zcoordinate
    686770.131,               !- Vertex 2 Xcoordinate
    4928931.375,              !- Vertex 2 Ycoordinate
    12,                       !- Vertex 2 Zcoordinate
    686747.905,               !- Vertex 3 Xcoordinate
    4928939.383,              !- Vertex 3 Ycoordinate
    12,                       !- Vertex 3 Zcoordinate
    686747.905,               !- Vertex 4 Xcoordinate
    4928939.383,              !- Vertex 4 Ycoordinate
    15;                       !- Vertex 4 Zcoordinate

BUILDINGSURFACE:DETAILED,
    Block 19da1493f901936e_0 Storey 5 Wall 0002,    !- Name
    wall,                     !- Surface Type
    EU_wall_Construction,     !- Construction Name
    19da1493f901936e_F5_dwelling_0,    !- Zone Name
    ,                         !- Space Name
    outdoors,                 !- Outside Boundary Condition
    ,                         !- Outside Boundary Condition Object
    SunExposed,               !- Sun Exposure
    WindExposed,              !- Wind Exposure
    autocalculate,            !- View Factor to Ground
    autocalculate,            !- Number of Vertices
    686755.905,               !- Vertex 1 Xcoordinate
    4928950.639,              !- Vertex 1 Ycoordinate
    18,                       !- Vertex 1 Zcoordinate
    686755.905,               !- Vertex 2 Xcoordinate
    4928950.639,              !- Vertex 2 Ycoordinate
    15,                       !- Vertex 2 Zcoordinate
    686765.792,               !- Vertex 3 Xcoordinate
    4928947.095,              !- Vertex 3 Ycoordinate
    15,                       !- Vertex 3 Zcoordinate
    686765.792,               !- Vertex 4 Xcoordinate
    4928947.095,              !- Vertex 4 Ycoordinate
    18;                       !- Vertex 4 Zcoordinate

BUILDINGSURFACE:DETAILED,
    Block 19da1493f901936e_0 Storey 5 Wall 0003,    !- Name
    wall,                     !- Surface Type
    EU_wall_Construction,     !- Construction Name
    19da1493f901936e_F5_dwelling_0,    !- Zone Name
    ,                         !- Space Name
    outdoors,                 !- Outside Boundary Condition
    ,                         !- Outside Boundary Condition Object
    SunExposed,               !- Sun Exposure
    WindExposed,              !- Wind Exposure
    autocalculate,            !- View Factor to Ground
    autocalculate,            !- Number of Vertices
    686765.792,               !- Vertex 1 Xcoordinate
    4928947.095,              !- Vertex 1 Ycoordinate
    18,                       !- Vertex 1 Zcoordinate
    686765.792,               !- Vertex 2 Xcoordinate
    4928947.095,              !- Vertex 2 Ycoordinate
    15,                       !- Vertex 2 Zcoordinate
    686771.932,               !- Vertex 3 Xcoordinate
    4928964.195,              !- Vertex 3 Ycoordinate
    15,                       !- Vertex 3 Zcoordinate
    686771.932,               !- Vertex 4 Xcoordinate
    4928964.195,              !- Vertex 4 Ycoordinate
    18;                       !- Vertex 4 Zcoordinate

BUILDINGSURFACE:DETAILED,
    Block 19da1493f901936e_0 Storey 5 Wall 0004,    !- Name
    wall,                     !- Surface Type
    EU_wall_Construction,     !- Construction Name
    19da1493f901936e_F5_dwelling_0,    !- Zone Name
    ,                         !- Space Name
    outdoors,                 !- Outside Boundary Condition
    ,                         !- Outside Boundary Condition Object
    SunExposed,               !- Sun Exposure
    WindExposed,              !- Wind Exposure
    autocalculate,            !- View Factor to Ground
    autocalculate,            !- Number of Vertices
    686771.932,               !- Vertex 1 Xcoordinate
    4928964.195,              !- Vertex 1 Ycoordinate
    18,                       !- Vertex 1 Zcoordinate
    686771.932,               !- Vertex 2 Xcoordinate
    4928964.195,              !- Vertex 2 Ycoordinate
    15,                       !- Vertex 2 Zcoordinate
    686766.921,               !- Vertex 3 Xcoordinate
    4928966.138,              !- Vertex 3 Ycoordinate
    15,                       !- Vertex 3 Zcoordinate
    686766.921,               !- Vertex 4 Xcoordinate
    4928966.138,              !- Vertex 4 Ycoordinate
    18;                       !- Vertex 4 Zcoordinate

BUILDINGSURFACE:DETAILED,
    Block 19da1493f901936e_0 Storey 5 Wall 0006,    !- Name
    wall,                     !- Surface Type
    EU_wall_Construction,     !- Construction Name
    19da1493f901936e_F5_dwelling_0,    !- Zone Name
    ,                         !- Space Name
    outdoors,                 !- Outside Boundary Condition
    ,                         !- Outside Boundary Condition Object
    SunExposed,               !- Sun Exposure
    WindExposed,              !- Wind Exposure
    autocalculate,            !- View Factor to Ground
    autocalculate,            !- Number of Vertices
    686774.932,               !- Vertex 1 Xcoordinate
    4928977.41,               !- Vertex 1 Ycoordinate
    18,                       !- Vertex 1 Zcoordinate
    686774.932,               !- Vertex 2 Xcoordinate
    4928977.41,               !- Vertex 2 Ycoordinate
    15,                       !- Vertex 2 Zcoordinate
    686797.571,               !- Vertex 3 Xcoordinate
    4928969.124,              !- Vertex 3 Ycoordinate
    15,                       !- Vertex 3 Zcoordinate
    686797.571,               !- Vertex 4 Xcoordinate
    4928969.124,              !- Vertex 4 Ycoordinate
    18;                       !- Vertex 4 Zcoordinate

BUILDINGSURFACE:DETAILED,
    Block 19da1493f901936e_0 Storey 5 Wall 0007,    !- Name
    wall,                     !- Surface Type
    EU_wall_Construction,     !- Construction Name
    19da1493f901936e_F5_dwelling_0,    !- Zone Name
    ,                         !- Space Name
    outdoors,                 !- Outside Boundary Condition
    ,                         !- Outside Boundary Condition Object
    SunExposed,               !- Sun Exposure
    WindExposed,              !- Wind Exposure
    autocalculate,            !- View Factor to Ground
    autocalculate,            !- Number of Vertices
    686797.571,               !- Vertex 1 Xcoordinate
    4928969.124,              !- Vertex 1 Ycoordinate
    18,                       !- Vertex 1 Zcoordinate
    686797.571,               !- Vertex 2 Xcoordinate
    4928969.124,              !- Vertex 2 Ycoordinate
    15,                       !- Vertex 2 Zcoordinate
    686777.751,               !- Vertex 3 Xcoordinate
    4928941.285,              !- Vertex 3 Ycoordinate
    15,                       !- Vertex 3 Zcoordinate
    686777.751,               !- Vertex 4 Xcoordinate
    4928941.285,              !- Vertex 4 Ycoordinate
    18;                       !- Vertex 4 Zcoordinate

BUILDINGSURFACE:DETAILED,
    Block 19da1493f901936e_0 Storey 5 Wall 0008,    !- Name
    wall,                     !- Surface Type
    EU_wall_Construction,     !- Construction Name
    19da1493f901936e_F5_dwelling_0,    !- Zone Name
    ,                         !- Space Name
    outdoors,                 !- Outside Boundary Condition
    ,                         !- Outside Boundary Condition Object
    SunExposed,               !- Sun Exposure
    WindExposed,              !- Wind Exposure
    autocalculate,            !- View Factor to Ground
    autocalculate,            !- Number of Vertices
    686777.751,               !- Vertex 1 Xcoordinate
    4928941.285,              !- Vertex 1 Ycoordinate
    18,                       !- Vertex 1 Zcoordinate
    686777.751,               !- Vertex 2 Xcoordinate
    4928941.285,              !- Vertex 2 Ycoordinate
    15,                       !- Vertex 2 Zcoordinate
    686770.131,               !- Vertex 3 Xcoordinate
    4928931.375,              !- Vertex 3 Ycoordinate
    15,                       !- Vertex 3 Zcoordinate
    686770.131,               !- Vertex 4 Xcoordinate
    4928931.375,              !- Vertex 4 Ycoordinate
    18;                       !- Vertex 4 Zcoordinate

BUILDINGSURFACE:DETAILED,
    Block 19da1493f901936e_0 Storey 5 Wall 0009,    !- Name
    wall,                     !- Surface Type
    EU_wall_Construction,     !- Construction Name
    19da1493f901936e_F5_dwelling_0,    !- Zone Name
    ,                         !- Space Name
    outdoors,                 !- Outside Boundary Condition
    ,                         !- Outside Boundary Condition Object
    SunExposed,               !- Sun Exposure
    WindExposed,              !- Wind Exposure
    autocalculate,            !- View Factor to Ground
    autocalculate,            !- Number of Vertices
    686770.131,               !- Vertex 1 Xcoordinate
    4928931.375,              !- Vertex 1 Ycoordinate
    18,                       !- Vertex 1 Zcoordinate
    686770.131,               !- Vertex 2 Xcoordinate
    4928931.375,              !- Vertex 2 Ycoordinate
    15,                       !- Vertex 2 Zcoordinate
    686747.905,               !- Vertex 3 Xcoordinate
    4928939.383,              !- Vertex 3 Ycoordinate
    15,                       !- Vertex 3 Zcoordinate
    686747.905,               !- Vertex 4 Xcoordinate
    4928939.383,              !- Vertex 4 Ycoordinate
    18;                       !- Vertex 4 Zcoordinate

BUILDINGSURFACE:DETAILED,
    Block 19da1493f901936e_0 Storey 6 Wall 0002,    !- Name
    wall,                     !- Surface Type
    EU_wall_Construction,     !- Construction Name
    19da1493f901936e_F6_dwelling_0,    !- Zone Name
    ,                         !- Space Name
    outdoors,                 !- Outside Boundary Condition
    ,                         !- Outside Boundary Condition Object
    SunExposed,               !- Sun Exposure
    WindExposed,              !- Wind Exposure
    autocalculate,            !- View Factor to Ground
    autocalculate,            !- Number of Vertices
    686755.905,               !- Vertex 1 Xcoordinate
    4928950.639,              !- Vertex 1 Ycoordinate
    21,                       !- Vertex 1 Zcoordinate
    686755.905,               !- Vertex 2 Xcoordinate
    4928950.639,              !- Vertex 2 Ycoordinate
    18,                       !- Vertex 2 Zcoordinate
    686765.792,               !- Vertex 3 Xcoordinate
    4928947.095,              !- Vertex 3 Ycoordinate
    18,                       !- Vertex 3 Zcoordinate
    686765.792,               !- Vertex 4 Xcoordinate
    4928947.095,              !- Vertex 4 Ycoordinate
    21;                       !- Vertex 4 Zcoordinate

BUILDINGSURFACE:DETAILED,
    Block 19da1493f901936e_0 Storey 6 Wall 0003,    !- Name
    wall,                     !- Surface Type
    EU_wall_Construction,     !- Construction Name
    19da1493f901936e_F6_dwelling_0,    !- Zone Name
    ,                         !- Space Name
    outdoors,                 !- Outside Boundary Condition
    ,                         !- Outside Boundary Condition Object
    SunExposed,               !- Sun Exposure
    WindExposed,              !- Wind Exposure
    autocalculate,            !- View Factor to Ground
    autocalculate,            !- Number of Vertices
    686765.792,               !- Vertex 1 Xcoordinate
    4928947.095,              !- Vertex 1 Ycoordinate
    21,                       !- Vertex 1 Zcoordinate
    686765.792,               !- Vertex 2 Xcoordinate
    4928947.095,              !- Vertex 2 Ycoordinate
    18,                       !- Vertex 2 Zcoordinate
    686771.932,               !- Vertex 3 Xcoordinate
    4928964.195,              !- Vertex 3 Ycoordinate
    18,                       !- Vertex 3 Zcoordinate
    686771.932,               !- Vertex 4 Xcoordinate
    4928964.195,              !- Vertex 4 Ycoordinate
    21;                       !- Vertex 4 Zcoordinate

BUILDINGSURFACE:DETAILED,
    Block 19da1493f901936e_0 Storey 6 Wall 0004,    !- Name
    wall,                     !- Surface Type
    EU_wall_Construction,     !- Construction Name
    19da1493f901936e_F6_dwelling_0,    !- Zone Name
    ,                         !- Space Name
    outdoors,                 !- Outside Boundary Condition
    ,                         !- Outside Boundary Condition Object
    SunExposed,               !- Sun Exposure
    WindExposed,              !- Wind Exposure
    autocalculate,            !- View Factor to Ground
    autocalculate,            !- Number of Vertices
    686771.932,               !- Vertex 1 Xcoordinate
    4928964.195,              !- Vertex 1 Ycoordinate
    21,                       !- Vertex 1 Zcoordinate
    686771.932,               !- Vertex 2 Xcoordinate
    4928964.195,              !- Vertex 2 Ycoordinate
    18,                       !- Vertex 2 Zcoordinate
    686766.921,               !- Vertex 3 Xcoordinate
    4928966.138,              !- Vertex 3 Ycoordinate
    18,                       !- Vertex 3 Zcoordinate
    686766.921,               !- Vertex 4 Xcoordinate
    4928966.138,              !- Vertex 4 Ycoordinate
    21;                       !- Vertex 4 Zcoordinate

BUILDINGSURFACE:DETAILED,
    Block 19da1493f901936e_0 Storey 6 Wall 0006,    !- Name
    wall,                     !- Surface Type
    EU_wall_Construction,     !- Construction Name
    19da1493f901936e_F6_dwelling_0,    !- Zone Name
    ,                         !- Space Name
    outdoors,                 !- Outside Boundary Condition
    ,                         !- Outside Boundary Condition Object
    SunExposed,               !- Sun Exposure
    WindExposed,              !- Wind Exposure
    autocalculate,            !- View Factor to Ground
    autocalculate,            !- Number of Vertices
    686774.932,               !- Vertex 1 Xcoordinate
    4928977.41,               !- Vertex 1 Ycoordinate
    21,                       !- Vertex 1 Zcoordinate
    686774.932,               !- Vertex 2 Xcoordinate
    4928977.41,               !- Vertex 2 Ycoordinate
    18,                       !- Vertex 2 Zcoordinate
    686797.571,               !- Vertex 3 Xcoordinate
    4928969.124,              !- Vertex 3 Ycoordinate
    18,                       !- Vertex 3 Zcoordinate
    686797.571,               !- Vertex 4 Xcoordinate
    4928969.124,              !- Vertex 4 Ycoordinate
    21;                       !- Vertex 4 Zcoordinate

BUILDINGSURFACE:DETAILED,
    Block 19da1493f901936e_0 Storey 6 Wall 0007,    !- Name
    wall,                     !- Surface Type
    EU_wall_Construction,     !- Construction Name
    19da1493f901936e_F6_dwelling_0,    !- Zone Name
    ,                         !- Space Name
    outdoors,                 !- Outside Boundary Condition
    ,                         !- Outside Boundary Condition Object
    SunExposed,               !- Sun Exposure
    WindExposed,              !- Wind Exposure
    autocalculate,            !- View Factor to Ground
    autocalculate,            !- Number of Vertices
    686797.571,               !- Vertex 1 Xcoordinate
    4928969.124,              !- Vertex 1 Ycoordinate
    21,                       !- Vertex 1 Zcoordinate
    686797.571,               !- Vertex 2 Xcoordinate
    4928969.124,              !- Vertex 2 Ycoordinate
    18,                       !- Vertex 2 Zcoordinate
    686777.751,               !- Vertex 3 Xcoordinate
    4928941.285,              !- Vertex 3 Ycoordinate
    18,                       !- Vertex 3 Zcoordinate
    686777.751,               !- Vertex 4 Xcoordinate
    4928941.285,              !- Vertex 4 Ycoordinate
    21;                       !- Vertex 4 Zcoordinate

BUILDINGSURFACE:DETAILED,
    Block 19da1493f901936e_0 Storey 6 Wall 0008,    !- Name
    wall,                     !- Surface Type
    EU_wall_Construction,     !- Construction Name
    19da1493f901936e_F6_dwelling_0,    !- Zone Name
    ,                         !- Space Name
    outdoors,                 !- Outside Boundary Condition
    ,                         !- Outside Boundary Condition Object
    SunExposed,               !- Sun Exposure
    WindExposed,              !- Wind Exposure
    autocalculate,            !- View Factor to Ground
    autocalculate,            !- Number of Vertices
    686777.751,               !- Vertex 1 Xcoordinate
    4928941.285,              !- Vertex 1 Ycoordinate
    21,                       !- Vertex 1 Zcoordinate
    686777.751,               !- Vertex 2 Xcoordinate
    4928941.285,              !- Vertex 2 Ycoordinate
    18,                       !- Vertex 2 Zcoordinate
    686770.131,               !- Vertex 3 Xcoordinate
    4928931.375,              !- Vertex 3 Ycoordinate
    18,                       !- Vertex 3 Zcoordinate
    686770.131,               !- Vertex 4 Xcoordinate
    4928931.375,              !- Vertex 4 Ycoordinate
    21;                       !- Vertex 4 Zcoordinate

BUILDINGSURFACE:DETAILED,
    Block 19da1493f901936e_0 Storey 6 Wall 0009,    !- Name
    wall,                     !- Surface Type
    EU_wall_Construction,     !- Construction Name
    19da1493f901936e_F6_dwelling_0,    !- Zone Name
    ,                         !- Space Name
    outdoors,                 !- Outside Boundary Condition
    ,                         !- Outside Boundary Condition Object
    SunExposed,               !- Sun Exposure
    WindExposed,              !- Wind Exposure
    autocalculate,            !- View Factor to Ground
    autocalculate,            !- Number of Vertices
    686770.131,               !- Vertex 1 Xcoordinate
    4928931.375,              !- Vertex 1 Ycoordinate
    21,                       !- Vertex 1 Zcoordinate
    686770.131,               !- Vertex 2 Xcoordinate
    4928931.375,              !- Vertex 2 Ycoordinate
    18,                       !- Vertex 2 Zcoordinate
    686747.905,               !- Vertex 3 Xcoordinate
    4928939.383,              !- Vertex 3 Ycoordinate
    18,                       !- Vertex 3 Zcoordinate
    686747.905,               !- Vertex 4 Xcoordinate
    4928939.383,              !- Vertex 4 Ycoordinate
    21;                       !- Vertex 4 Zcoordinate

BUILDINGSURFACE:DETAILED,
    Block 19da1493f901936e_0 Storey 7 Wall 0002,    !- Name
    wall,                     !- Surface Type
    EU_wall_Construction,     !- Construction Name
    19da1493f901936e_F7_dwelling_0,    !- Zone Name
    ,                         !- Space Name
    outdoors,                 !- Outside Boundary Condition
    ,                         !- Outside Boundary Condition Object
    SunExposed,               !- Sun Exposure
    WindExposed,              !- Wind Exposure
    autocalculate,            !- View Factor to Ground
    autocalculate,            !- Number of Vertices
    686755.905,               !- Vertex 1 Xcoordinate
    4928950.639,              !- Vertex 1 Ycoordinate
    24,                       !- Vertex 1 Zcoordinate
    686755.905,               !- Vertex 2 Xcoordinate
    4928950.639,              !- Vertex 2 Ycoordinate
    21,                       !- Vertex 2 Zcoordinate
    686765.792,               !- Vertex 3 Xcoordinate
    4928947.095,              !- Vertex 3 Ycoordinate
    21,                       !- Vertex 3 Zcoordinate
    686765.792,               !- Vertex 4 Xcoordinate
    4928947.095,              !- Vertex 4 Ycoordinate
    24;                       !- Vertex 4 Zcoordinate

BUILDINGSURFACE:DETAILED,
    Block 19da1493f901936e_0 Storey 7 Wall 0003,    !- Name
    wall,                     !- Surface Type
    EU_wall_Construction,     !- Construction Name
    19da1493f901936e_F7_dwelling_0,    !- Zone Name
    ,                         !- Space Name
    outdoors,                 !- Outside Boundary Condition
    ,                         !- Outside Boundary Condition Object
    SunExposed,               !- Sun Exposure
    WindExposed,              !- Wind Exposure
    autocalculate,            !- View Factor to Ground
    autocalculate,            !- Number of Vertices
    686765.792,               !- Vertex 1 Xcoordinate
    4928947.095,              !- Vertex 1 Ycoordinate
    24,                       !- Vertex 1 Zcoordinate
    686765.792,               !- Vertex 2 Xcoordinate
    4928947.095,              !- Vertex 2 Ycoordinate
    21,                       !- Vertex 2 Zcoordinate
    686771.932,               !- Vertex 3 Xcoordinate
    4928964.195,              !- Vertex 3 Ycoordinate
    21,                       !- Vertex 3 Zcoordinate
    686771.932,               !- Vertex 4 Xcoordinate
    4928964.195,              !- Vertex 4 Ycoordinate
    24;                       !- Vertex 4 Zcoordinate

BUILDINGSURFACE:DETAILED,
    Block 19da1493f901936e_0 Storey 7 Wall 0004,    !- Name
    wall,                     !- Surface Type
    EU_wall_Construction,     !- Construction Name
    19da1493f901936e_F7_dwelling_0,    !- Zone Name
    ,                         !- Space Name
    outdoors,                 !- Outside Boundary Condition
    ,                         !- Outside Boundary Condition Object
    SunExposed,               !- Sun Exposure
    WindExposed,              !- Wind Exposure
    autocalculate,            !- View Factor to Ground
    autocalculate,            !- Number of Vertices
    686771.932,               !- Vertex 1 Xcoordinate
    4928964.195,              !- Vertex 1 Ycoordinate
    24,                       !- Vertex 1 Zcoordinate
    686771.932,               !- Vertex 2 Xcoordinate
    4928964.195,              !- Vertex 2 Ycoordinate
    21,                       !- Vertex 2 Zcoordinate
    686766.921,               !- Vertex 3 Xcoordinate
    4928966.138,              !- Vertex 3 Ycoordinate
    21,                       !- Vertex 3 Zcoordinate
    686766.921,               !- Vertex 4 Xcoordinate
    4928966.138,              !- Vertex 4 Ycoordinate
    24;                       !- Vertex 4 Zcoordinate

BUILDINGSURFACE:DETAILED,
    Block 19da1493f901936e_0 Storey 7 Wall 0006,    !- Name
    wall,                     !- Surface Type
    EU_wall_Construction,     !- Construction Name
    19da1493f901936e_F7_dwelling_0,    !- Zone Name
    ,                         !- Space Name
    outdoors,                 !- Outside Boundary Condition
    ,                         !- Outside Boundary Condition Object
    SunExposed,               !- Sun Exposure
    WindExposed,              !- Wind Exposure
    autocalculate,            !- View Factor to Ground
    autocalculate,            !- Number of Vertices
    686774.932,               !- Vertex 1 Xcoordinate
    4928977.41,               !- Vertex 1 Ycoordinate
    24,                       !- Vertex 1 Zcoordinate
    686774.932,               !- Vertex 2 Xcoordinate
    4928977.41,               !- Vertex 2 Ycoordinate
    21,                       !- Vertex 2 Zcoordinate
    686797.571,               !- Vertex 3 Xcoordinate
    4928969.124,              !- Vertex 3 Ycoordinate
    21,                       !- Vertex 3 Zcoordinate
    686797.571,               !- Vertex 4 Xcoordinate
    4928969.124,              !- Vertex 4 Ycoordinate
    24;                       !- Vertex 4 Zcoordinate

BUILDINGSURFACE:DETAILED,
    Block 19da1493f901936e_0 Storey 7 Wall 0007,    !- Name
    wall,                     !- Surface Type
    EU_wall_Construction,     !- Construction Name
    19da1493f901936e_F7_dwelling_0,    !- Zone Name
    ,                         !- Space Name
    outdoors,                 !- Outside Boundary Condition
    ,                         !- Outside Boundary Condition Object
    SunExposed,               !- Sun Exposure
    WindExposed,              !- Wind Exposure
    autocalculate,            !- View Factor to Ground
    autocalculate,            !- Number of Vertices
    686797.571,               !- Vertex 1 Xcoordinate
    4928969.124,              !- Vertex 1 Ycoordinate
    24,                       !- Vertex 1 Zcoordinate
    686797.571,               !- Vertex 2 Xcoordinate
    4928969.124,              !- Vertex 2 Ycoordinate
    21,                       !- Vertex 2 Zcoordinate
    686777.751,               !- Vertex 3 Xcoordinate
    4928941.285,              !- Vertex 3 Ycoordinate
    21,                       !- Vertex 3 Zcoordinate
    686777.751,               !- Vertex 4 Xcoordinate
    4928941.285,              !- Vertex 4 Ycoordinate
    24;                       !- Vertex 4 Zcoordinate

BUILDINGSURFACE:DETAILED,
    Block 19da1493f901936e_0 Storey 7 Wall 0008,    !- Name
    wall,                     !- Surface Type
    EU_wall_Construction,     !- Construction Name
    19da1493f901936e_F7_dwelling_0,    !- Zone Name
    ,                         !- Space Name
    outdoors,                 !- Outside Boundary Condition
    ,                         !- Outside Boundary Condition Object
    SunExposed,               !- Sun Exposure
    WindExposed,              !- Wind Exposure
    autocalculate,            !- View Factor to Ground
    autocalculate,            !- Number of Vertices
    686777.751,               !- Vertex 1 Xcoordinate
    4928941.285,              !- Vertex 1 Ycoordinate
    24,                       !- Vertex 1 Zcoordinate
    686777.751,               !- Vertex 2 Xcoordinate
    4928941.285,              !- Vertex 2 Ycoordinate
    21,                       !- Vertex 2 Zcoordinate
    686770.131,               !- Vertex 3 Xcoordinate
    4928931.375,              !- Vertex 3 Ycoordinate
    21,                       !- Vertex 3 Zcoordinate
    686770.131,               !- Vertex 4 Xcoordinate
    4928931.375,              !- Vertex 4 Ycoordinate
    24;                       !- Vertex 4 Zcoordinate

BUILDINGSURFACE:DETAILED,
    Block 19da1493f901936e_0 Storey 7 Wall 0009,    !- Name
    wall,                     !- Surface Type
    EU_wall_Construction,     !- Construction Name
    19da1493f901936e_F7_dwelling_0,    !- Zone Name
    ,                         !- Space Name
    outdoors,                 !- Outside Boundary Condition
    ,                         !- Outside Boundary Condition Object
    SunExposed,               !- Sun Exposure
    WindExposed,              !- Wind Exposure
    autocalculate,            !- View Factor to Ground
    autocalculate,            !- Number of Vertices
    686770.131,               !- Vertex 1 Xcoordinate
    4928931.375,              !- Vertex 1 Ycoordinate
    24,                       !- Vertex 1 Zcoordinate
    686770.131,               !- Vertex 2 Xcoordinate
    4928931.375,              !- Vertex 2 Ycoordinate
    21,                       !- Vertex 2 Zcoordinate
    686747.905,               !- Vertex 3 Xcoordinate
    4928939.383,              !- Vertex 3 Ycoordinate
    21,                       !- Vertex 3 Zcoordinate
    686747.905,               !- Vertex 4 Xcoordinate
    4928939.383,              !- Vertex 4 Ycoordinate
    24;                       !- Vertex 4 Zcoordinate

BUILDINGSURFACE:DETAILED,
    Block 19da1493f901936e_0 Storey 7 Roof 0001,    !- Name
    roof,                     !- Surface Type
    EU_roof_Construction,     !- Construction Name
    19da1493f901936e_F7_dwelling_0,    !- Zone Name
    ,                         !- Space Name
    outdoors,                 !- Outside Boundary Condition
    ,                         !- Outside Boundary Condition Object
    NoSun,                    !- Sun Exposure
    WindExposed,              !- Wind Exposure
    autocalculate,            !- View Factor to Ground
    autocalculate,            !- Number of Vertices
    686797.571,               !- Vertex 1 Xcoordinate
    4928969.124,              !- Vertex 1 Ycoordinate
    24,                       !- Vertex 1 Zcoordinate
    686777.751,               !- Vertex 2 Xcoordinate
    4928941.285,              !- Vertex 2 Ycoordinate
    24,                       !- Vertex 2 Zcoordinate
    686770.131,               !- Vertex 3 Xcoordinate
    4928931.375,              !- Vertex 3 Ycoordinate
    24,                       !- Vertex 3 Zcoordinate
    686747.905,               !- Vertex 4 Xcoordinate
    4928939.383,              !- Vertex 4 Ycoordinate
    24,                       !- Vertex 4 Zcoordinate
    686755.905,               !- Vertex 5 Xcoordinate
    4928950.639,              !- Vertex 5 Ycoordinate
    24,                       !- Vertex 5 Zcoordinate
    686765.792,               !- Vertex 6 Xcoordinate
    4928947.095,              !- Vertex 6 Ycoordinate
    24,                       !- Vertex 6 Zcoordinate
    686771.932,               !- Vertex 7 Xcoordinate
    4928964.195,              !- Vertex 7 Ycoordinate
    24,                       !- Vertex 7 Zcoordinate
    686766.921,               !- Vertex 8 Xcoordinate
    4928966.138,              !- Vertex 8 Ycoordinate
    24,                       !- Vertex 8 Zcoordinate
    686774.932,               !- Vertex 9 Xcoordinate
    4928977.41,               !- Vertex 9 Ycoordinate
    24;                       !- Vertex 9 Zcoordinate

BUILDINGSURFACE:DETAILED,
    Block 19da1493f901936e_1 Storey 0 Wall 0001,    !- Name
    wall,                     !- Surface Type
    EU_wall_Construction,     !- Construction Name
    19da1493f901936e_F0_dwelling_1,    !- Zone Name
    ,                         !- Space Name
    outdoors,                 !- Outside Boundary Condition
    ,                         !- Outside Boundary Condition Object
    SunExposed,               !- Sun Exposure
    WindExposed,              !- Wind Exposure
    autocalculate,            !- View Factor to Ground
    autocalculate,            !- Number of Vertices
    686742.232,               !- Vertex 1 Xcoordinate
    4928980.695,              !- Vertex 1 Ycoordinate
    3,                        !- Vertex 1 Zcoordinate
    686742.232,               !- Vertex 2 Xcoordinate
    4928980.695,              !- Vertex 2 Ycoordinate
    0,                        !- Vertex 2 Zcoordinate
    686746.202,               !- Vertex 3 Xcoordinate
    4928987.925,              !- Vertex 3 Ycoordinate
    0,                        !- Vertex 3 Zcoordinate
    686746.202,               !- Vertex 4 Xcoordinate
    4928987.925,              !- Vertex 4 Ycoordinate
    3;                        !- Vertex 4 Zcoordinate

BUILDINGSURFACE:DETAILED,
    Block 19da1493f901936e_1 Storey 0 Wall 0002,    !- Name
    wall,                     !- Surface Type
    EU_wall_Construction,     !- Construction Name
    19da1493f901936e_F0_dwelling_1,    !- Zone Name
    ,                         !- Space Name
    outdoors,                 !- Outside Boundary Condition
    ,                         !- Outside Boundary Condition Object
    SunExposed,               !- Sun Exposure
    WindExposed,              !- Wind Exposure
    autocalculate,            !- View Factor to Ground
    autocalculate,            !- Number of Vertices
    686746.202,               !- Vertex 1 Xcoordinate
    4928987.925,              !- Vertex 1 Ycoordinate
    3,                        !- Vertex 1 Zcoordinate
    686746.202,               !- Vertex 2 Xcoordinate
    4928987.925,              !- Vertex 2 Ycoordinate
    0,                        !- Vertex 2 Zcoordinate
    686774.932,               !- Vertex 3 Xcoordinate
    4928977.41,               !- Vertex 3 Ycoordinate
    0,                        !- Vertex 3 Zcoordinate
    686774.932,               !- Vertex 4 Xcoordinate
    4928977.41,               !- Vertex 4 Ycoordinate
    3;                        !- Vertex 4 Zcoordinate

BUILDINGSURFACE:DETAILED,
    Block 19da1493f901936e_1 Storey 0 Wall 0004,    !- Name
    wall,                     !- Surface Type
    EU_wall_Construction,     !- Construction Name
    19da1493f901936e_F0_dwelling_1,    !- Zone Name
    ,                         !- Space Name
    outdoors,                 !- Outside Boundary Condition
    ,                         !- Outside Boundary Condition Object
    SunExposed,               !- Sun Exposure
    WindExposed,              !- Wind Exposure
    autocalculate,            !- View Factor to Ground
    autocalculate,            !- Number of Vertices
    686766.921,               !- Vertex 1 Xcoordinate
    4928966.138,              !- Vertex 1 Ycoordinate
    3,                        !- Vertex 1 Zcoordinate
    686766.921,               !- Vertex 2 Xcoordinate
    4928966.138,              !- Vertex 2 Ycoordinate
    0,                        !- Vertex 2 Zcoordinate
    686748.332,               !- Vertex 3 Xcoordinate
    4928973.345,              !- Vertex 3 Ycoordinate
    0,                        !- Vertex 3 Zcoordinate
    686748.332,               !- Vertex 4 Xcoordinate
    4928973.345,              !- Vertex 4 Ycoordinate
    3;                        !- Vertex 4 Zcoordinate

BUILDINGSURFACE:DETAILED,
    Block 19da1493f901936e_1 Storey 0 Wall 0005,    !- Name
    wall,                     !- Surface Type
    EU_wall_Construction,     !- Construction Name
    19da1493f901936e_F0_dwelling_1,    !- Zone Name
    ,                         !- Space Name
    outdoors,                 !- Outside Boundary Condition
    ,                         !- Outside Boundary Condition Object
    SunExposed,               !- Sun Exposure
    WindExposed,              !- Wind Exposure
    autocalculate,            !- View Factor to Ground
    autocalculate,            !- Number of Vertices
    686748.332,               !- Vertex 1 Xcoordinate
    4928973.345,              !- Vertex 1 Ycoordinate
    3,                        !- Vertex 1 Zcoordinate
    686748.332,               !- Vertex 2 Xcoordinate
    4928973.345,              !- Vertex 2 Ycoordinate
    0,                        !- Vertex 2 Zcoordinate
    686747.352,               !- Vertex 3 Xcoordinate
    4928970.545,              !- Vertex 3 Ycoordinate
    0,                        !- Vertex 3 Zcoordinate
    686747.352,               !- Vertex 4 Xcoordinate
    4928970.545,              !- Vertex 4 Ycoordinate
    3;                        !- Vertex 4 Zcoordinate

BUILDINGSURFACE:DETAILED,
    Block 19da1493f901936e_1 Storey 0 Wall 0006,    !- Name
    wall,                     !- Surface Type
    EU_wall_Construction,     !- Construction Name
    19da1493f901936e_F0_dwelling_1,    !- Zone Name
    ,                         !- Space Name
    outdoors,                 !- Outside Boundary Condition
    ,                         !- Outside Boundary Condition Object
    SunExposed,               !- Sun Exposure
    WindExposed,              !- Wind Exposure
    autocalculate,            !- View Factor to Ground
    autocalculate,            !- Number of Vertices
    686747.352,               !- Vertex 1 Xcoordinate
    4928970.545,              !- Vertex 1 Ycoordinate
    3,                        !- Vertex 1 Zcoordinate
    686747.352,               !- Vertex 2 Xcoordinate
    4928970.545,              !- Vertex 2 Ycoordinate
    0,                        !- Vertex 2 Zcoordinate
    686742.872,               !- Vertex 3 Xcoordinate
    4928958.945,              !- Vertex 3 Ycoordinate
    0,                        !- Vertex 3 Zcoordinate
    686742.872,               !- Vertex 4 Xcoordinate
    4928958.945,              !- Vertex 4 Ycoordinate
    3;                        !- Vertex 4 Zcoordinate

BUILDINGSURFACE:DETAILED,
    Block 19da1493f901936e_1 Storey 0 Wall 0007,    !- Name
    wall,                     !- Surface Type
    EU_wall_Construction,     !- Construction Name
    19da1493f901936e_F0_dwelling_1,    !- Zone Name
    ,                         !- Space Name
    outdoors,                 !- Outside Boundary Condition
    ,                         !- Outside Boundary Condition Object
    SunExposed,               !- Sun Exposure
    WindExposed,              !- Wind Exposure
    autocalculate,            !- View Factor to Ground
    autocalculate,            !- Number of Vertices
    686742.872,               !- Vertex 1 Xcoordinate
    4928958.945,              !- Vertex 1 Ycoordinate
    3,                        !- Vertex 1 Zcoordinate
    686742.872,               !- Vertex 2 Xcoordinate
    4928958.945,              !- Vertex 2 Ycoordinate
    0,                        !- Vertex 2 Zcoordinate
    686741.662,               !- Vertex 3 Xcoordinate
    4928955.745,              !- Vertex 3 Ycoordinate
    0,                        !- Vertex 3 Zcoordinate
    686741.662,               !- Vertex 4 Xcoordinate
    4928955.745,              !- Vertex 4 Ycoordinate
    3;                        !- Vertex 4 Zcoordinate

BUILDINGSURFACE:DETAILED,
    Block 19da1493f901936e_1 Storey 0 Wall 0008,    !- Name
    wall,                     !- Surface Type
    EU_wall_Construction,     !- Construction Name
    19da1493f901936e_F0_dwelling_1,    !- Zone Name
    ,                         !- Space Name
    outdoors,                 !- Outside Boundary Condition
    ,                         !- Outside Boundary Condition Object
    SunExposed,               !- Sun Exposure
    WindExposed,              !- Wind Exposure
    autocalculate,            !- View Factor to Ground
    autocalculate,            !- Number of Vertices
    686741.662,               !- Vertex 1 Xcoordinate
    4928955.745,              !- Vertex 1 Ycoordinate
    3,                        !- Vertex 1 Zcoordinate
    686741.662,               !- Vertex 2 Xcoordinate
    4928955.745,              !- Vertex 2 Ycoordinate
    0,                        !- Vertex 2 Zcoordinate
    686755.905,               !- Vertex 3 Xcoordinate
    4928950.639,              !- Vertex 3 Ycoordinate
    0,                        !- Vertex 3 Zcoordinate
    686755.905,               !- Vertex 4 Xcoordinate
    4928950.639,              !- Vertex 4 Ycoordinate
    3;                        !- Vertex 4 Zcoordinate

BUILDINGSURFACE:DETAILED,
    Block 19da1493f901936e_1 Storey 0 Wall 0010,    !- Name
    wall,                     !- Surface Type
    EU_wall_Construction,     !- Construction Name
    19da1493f901936e_F0_dwelling_1,    !- Zone Name
    ,                         !- Space Name
    outdoors,                 !- Outside Boundary Condition
    ,                         !- Outside Boundary Condition Object
    SunExposed,               !- Sun Exposure
    WindExposed,              !- Wind Exposure
    autocalculate,            !- View Factor to Ground
    autocalculate,            !- Number of Vertices
    686747.905,               !- Vertex 1 Xcoordinate
    4928939.383,              !- Vertex 1 Ycoordinate
    3,                        !- Vertex 1 Zcoordinate
    686747.905,               !- Vertex 2 Xcoordinate
    4928939.383,              !- Vertex 2 Ycoordinate
    0,                        !- Vertex 2 Zcoordinate
    686726.082,               !- Vertex 3 Xcoordinate
    4928947.246,              !- Vertex 3 Ycoordinate
    0,                        !- Vertex 3 Zcoordinate
    686726.082,               !- Vertex 4 Xcoordinate
    4928947.246,              !- Vertex 4 Ycoordinate
    3;                        !- Vertex 4 Zcoordinate

BUILDINGSURFACE:DETAILED,
    Block 19da1493f901936e_1 Storey 0 Wall 0011,    !- Name
    wall,                     !- Surface Type
    EU_wall_Construction,     !- Construction Name
    19da1493f901936e_F0_dwelling_1,    !- Zone Name
    ,                         !- Space Name
    outdoors,                 !- Outside Boundary Condition
    ,                         !- Outside Boundary Condition Object
    SunExposed,               !- Sun Exposure
    WindExposed,              !- Wind Exposure
    autocalculate,            !- View Factor to Ground
    autocalculate,            !- Number of Vertices
    686726.082,               !- Vertex 1 Xcoordinate
    4928947.246,              !- Vertex 1 Ycoordinate
    3,                        !- Vertex 1 Zcoordinate
    686726.082,               !- Vertex 2 Xcoordinate
    4928947.246,              !- Vertex 2 Ycoordinate
    0,                        !- Vertex 2 Zcoordinate
    686732.222,               !- Vertex 3 Xcoordinate
    4928962.766,              !- Vertex 3 Ycoordinate
    0,                        !- Vertex 3 Zcoordinate
    686732.222,               !- Vertex 4 Xcoordinate
    4928962.766,              !- Vertex 4 Ycoordinate
    3;                        !- Vertex 4 Zcoordinate

BUILDINGSURFACE:DETAILED,
    Block 19da1493f901936e_1 Storey 0 Wall 0012,    !- Name
    wall,                     !- Surface Type
    EU_wall_Construction,     !- Construction Name
    19da1493f901936e_F0_dwelling_1,    !- Zone Name
    ,                         !- Space Name
    outdoors,                 !- Outside Boundary Condition
    ,                         !- Outside Boundary Condition Object
    SunExposed,               !- Sun Exposure
    WindExposed,              !- Wind Exposure
    autocalculate,            !- View Factor to Ground
    autocalculate,            !- Number of Vertices
    686732.222,               !- Vertex 1 Xcoordinate
    4928962.766,              !- Vertex 1 Ycoordinate
    3,                        !- Vertex 1 Zcoordinate
    686732.222,               !- Vertex 2 Xcoordinate
    4928962.766,              !- Vertex 2 Ycoordinate
    0,                        !- Vertex 2 Zcoordinate
    686737.112,               !- Vertex 3 Xcoordinate
    4928974.555,              !- Vertex 3 Ycoordinate
    0,                        !- Vertex 3 Zcoordinate
    686737.112,               !- Vertex 4 Xcoordinate
    4928974.555,              !- Vertex 4 Ycoordinate
    3;                        !- Vertex 4 Zcoordinate

BUILDINGSURFACE:DETAILED,
    Block 19da1493f901936e_1 Storey 0 Wall 0013,    !- Name
    wall,                     !- Surface Type
    EU_wall_Construction,     !- Construction Name
    19da1493f901936e_F0_dwelling_1,    !- Zone Name
    ,                         !- Space Name
    outdoors,                 !- Outside Boundary Condition
    ,                         !- Outside Boundary Condition Object
    SunExposed,               !- Sun Exposure
    WindExposed,              !- Wind Exposure
    autocalculate,            !- View Factor to Ground
    autocalculate,            !- Number of Vertices
    686737.112,               !- Vertex 1 Xcoordinate
    4928974.555,              !- Vertex 1 Ycoordinate
    3,                        !- Vertex 1 Zcoordinate
    686737.112,               !- Vertex 2 Xcoordinate
    4928974.555,              !- Vertex 2 Ycoordinate
    0,                        !- Vertex 2 Zcoordinate
    686737.942,               !- Vertex 3 Xcoordinate
    4928974.225,              !- Vertex 3 Ycoordinate
    0,                        !- Vertex 3 Zcoordinate
    686737.942,               !- Vertex 4 Xcoordinate
    4928974.225,              !- Vertex 4 Ycoordinate
    3;                        !- Vertex 4 Zcoordinate

BUILDINGSURFACE:DETAILED,
    Block 19da1493f901936e_1 Storey 0 Wall 0014,    !- Name
    wall,                     !- Surface Type
    EU_wall_Construction,     !- Construction Name
    19da1493f901936e_F0_dwelling_1,    !- Zone Name
    ,                         !- Space Name
    outdoors,                 !- Outside Boundary Condition
    ,                         !- Outside Boundary Condition Object
    SunExposed,               !- Sun Exposure
    WindExposed,              !- Wind Exposure
    autocalculate,            !- View Factor to Ground
    autocalculate,            !- Number of Vertices
    686737.942,               !- Vertex 1 Xcoordinate
    4928974.225,              !- Vertex 1 Ycoordinate
    3,                        !- Vertex 1 Zcoordinate
    686737.942,               !- Vertex 2 Xcoordinate
    4928974.225,              !- Vertex 2 Ycoordinate
    0,                        !- Vertex 2 Zcoordinate
    686740.632,               !- Vertex 3 Xcoordinate
    4928981.305,              !- Vertex 3 Ycoordinate
    0,                        !- Vertex 3 Zcoordinate
    686740.632,               !- Vertex 4 Xcoordinate
    4928981.305,              !- Vertex 4 Ycoordinate
    3;                        !- Vertex 4 Zcoordinate

BUILDINGSURFACE:DETAILED,
    Block 19da1493f901936e_1 Storey 0 Wall 0015,    !- Name
    wall,                     !- Surface Type
    EU_wall_Construction,     !- Construction Name
    19da1493f901936e_F0_dwelling_1,    !- Zone Name
    ,                         !- Space Name
    outdoors,                 !- Outside Boundary Condition
    ,                         !- Outside Boundary Condition Object
    SunExposed,               !- Sun Exposure
    WindExposed,              !- Wind Exposure
    autocalculate,            !- View Factor to Ground
    autocalculate,            !- Number of Vertices
    686740.632,               !- Vertex 1 Xcoordinate
    4928981.305,              !- Vertex 1 Ycoordinate
    3,                        !- Vertex 1 Zcoordinate
    686740.632,               !- Vertex 2 Xcoordinate
    4928981.305,              !- Vertex 2 Ycoordinate
    0,                        !- Vertex 2 Zcoordinate
    686742.232,               !- Vertex 3 Xcoordinate
    4928980.695,              !- Vertex 3 Ycoordinate
    0,                        !- Vertex 3 Zcoordinate
    686742.232,               !- Vertex 4 Xcoordinate
    4928980.695,              !- Vertex 4 Ycoordinate
    3;                        !- Vertex 4 Zcoordinate

BUILDINGSURFACE:DETAILED,
    Block 19da1493f901936e_1 Storey 0 Floor 0001,    !- Name
    floor,                    !- Surface Type
    EU_floor_Construction,    !- Construction Name
    19da1493f901936e_F0_dwelling_1,    !- Zone Name
    ,                         !- Space Name
    ground,                   !- Outside Boundary Condition
    ,                         !- Outside Boundary Condition Object
    NoSun,                    !- Sun Exposure
    NoWind,                   !- Wind Exposure
    autocalculate,            !- View Factor to Ground
    autocalculate,            !- Number of Vertices
    686755.905,               !- Vertex 1 Xcoordinate
    4928950.639,              !- Vertex 1 Ycoordinate
    0,                        !- Vertex 1 Zcoordinate
    686741.662,               !- Vertex 2 Xcoordinate
    4928955.745,              !- Vertex 2 Ycoordinate
    0,                        !- Vertex 2 Zcoordinate
    686742.872,               !- Vertex 3 Xcoordinate
    4928958.945,              !- Vertex 3 Ycoordinate
    0,                        !- Vertex 3 Zcoordinate
    686747.352,               !- Vertex 4 Xcoordinate
    4928970.545,              !- Vertex 4 Ycoordinate
    0,                        !- Vertex 4 Zcoordinate
    686748.332,               !- Vertex 5 Xcoordinate
    4928973.345,              !- Vertex 5 Ycoordinate
    0,                        !- Vertex 5 Zcoordinate
    686766.921,               !- Vertex 6 Xcoordinate
    4928966.138,              !- Vertex 6 Ycoordinate
    0,                        !- Vertex 6 Zcoordinate
    686774.932,               !- Vertex 7 Xcoordinate
    4928977.41,               !- Vertex 7 Ycoordinate
    0,                        !- Vertex 7 Zcoordinate
    686746.202,               !- Vertex 8 Xcoordinate
    4928987.925,              !- Vertex 8 Ycoordinate
    0,                        !- Vertex 8 Zcoordinate
    686742.232,               !- Vertex 9 Xcoordinate
    4928980.695,              !- Vertex 9 Ycoordinate
    0,                        !- Vertex 9 Zcoordinate
    686740.632,               !- Vertex 10 Xcoordinate
    4928981.305,              !- Vertex 10 Ycoordinate
    0,                        !- Vertex 10 Zcoordinate
    686737.942,               !- Vertex 11 Xcoordinate
    4928974.225,              !- Vertex 11 Ycoordinate
    0,                        !- Vertex 11 Zcoordinate
    686737.112,               !- Vertex 12 Xcoordinate
    4928974.555,              !- Vertex 12 Ycoordinate
    0,                        !- Vertex 12 Zcoordinate
    686732.222,               !- Vertex 13 Xcoordinate
    4928962.766,              !- Vertex 13 Ycoordinate
    0,                        !- Vertex 13 Zcoordinate
    686726.082,               !- Vertex 14 Xcoordinate
    4928947.246,              !- Vertex 14 Ycoordinate
    0,                        !- Vertex 14 Zcoordinate
    686747.905,               !- Vertex 15 Xcoordinate
    4928939.383,              !- Vertex 15 Ycoordinate
    0;                        !- Vertex 15 Zcoordinate

BUILDINGSURFACE:DETAILED,
    Block 19da1493f901936e_1 Storey 1 Wall 0001,    !- Name
    wall,                     !- Surface Type
    EU_wall_Construction,     !- Construction Name
    19da1493f901936e_F1_dwelling_1,    !- Zone Name
    ,                         !- Space Name
    outdoors,                 !- Outside Boundary Condition
    ,                         !- Outside Boundary Condition Object
    SunExposed,               !- Sun Exposure
    WindExposed,              !- Wind Exposure
    autocalculate,            !- View Factor to Ground
    autocalculate,            !- Number of Vertices
    686742.232,               !- Vertex 1 Xcoordinate
    4928980.695,              !- Vertex 1 Ycoordinate
    6,                        !- Vertex 1 Zcoordinate
    686742.232,               !- Vertex 2 Xcoordinate
    4928980.695,              !- Vertex 2 Ycoordinate
    3,                        !- Vertex 2 Zcoordinate
    686746.202,               !- Vertex 3 Xcoordinate
    4928987.925,              !- Vertex 3 Ycoordinate
    3,                        !- Vertex 3 Zcoordinate
    686746.202,               !- Vertex 4 Xcoordinate
    4928987.925,              !- Vertex 4 Ycoordinate
    6;                        !- Vertex 4 Zcoordinate

BUILDINGSURFACE:DETAILED,
    Block 19da1493f901936e_1 Storey 1 Wall 0002,    !- Name
    wall,                     !- Surface Type
    EU_wall_Construction,     !- Construction Name
    19da1493f901936e_F1_dwelling_1,    !- Zone Name
    ,                         !- Space Name
    outdoors,                 !- Outside Boundary Condition
    ,                         !- Outside Boundary Condition Object
    SunExposed,               !- Sun Exposure
    WindExposed,              !- Wind Exposure
    autocalculate,            !- View Factor to Ground
    autocalculate,            !- Number of Vertices
    686746.202,               !- Vertex 1 Xcoordinate
    4928987.925,              !- Vertex 1 Ycoordinate
    6,                        !- Vertex 1 Zcoordinate
    686746.202,               !- Vertex 2 Xcoordinate
    4928987.925,              !- Vertex 2 Ycoordinate
    3,                        !- Vertex 2 Zcoordinate
    686774.932,               !- Vertex 3 Xcoordinate
    4928977.41,               !- Vertex 3 Ycoordinate
    3,                        !- Vertex 3 Zcoordinate
    686774.932,               !- Vertex 4 Xcoordinate
    4928977.41,               !- Vertex 4 Ycoordinate
    6;                        !- Vertex 4 Zcoordinate

BUILDINGSURFACE:DETAILED,
    Block 19da1493f901936e_1 Storey 1 Wall 0004,    !- Name
    wall,                     !- Surface Type
    EU_wall_Construction,     !- Construction Name
    19da1493f901936e_F1_dwelling_1,    !- Zone Name
    ,                         !- Space Name
    outdoors,                 !- Outside Boundary Condition
    ,                         !- Outside Boundary Condition Object
    SunExposed,               !- Sun Exposure
    WindExposed,              !- Wind Exposure
    autocalculate,            !- View Factor to Ground
    autocalculate,            !- Number of Vertices
    686766.921,               !- Vertex 1 Xcoordinate
    4928966.138,              !- Vertex 1 Ycoordinate
    6,                        !- Vertex 1 Zcoordinate
    686766.921,               !- Vertex 2 Xcoordinate
    4928966.138,              !- Vertex 2 Ycoordinate
    3,                        !- Vertex 2 Zcoordinate
    686748.332,               !- Vertex 3 Xcoordinate
    4928973.345,              !- Vertex 3 Ycoordinate
    3,                        !- Vertex 3 Zcoordinate
    686748.332,               !- Vertex 4 Xcoordinate
    4928973.345,              !- Vertex 4 Ycoordinate
    6;                        !- Vertex 4 Zcoordinate

BUILDINGSURFACE:DETAILED,
    Block 19da1493f901936e_1 Storey 1 Wall 0005,    !- Name
    wall,                     !- Surface Type
    EU_wall_Construction,     !- Construction Name
    19da1493f901936e_F1_dwelling_1,    !- Zone Name
    ,                         !- Space Name
    outdoors,                 !- Outside Boundary Condition
    ,                         !- Outside Boundary Condition Object
    SunExposed,               !- Sun Exposure
    WindExposed,              !- Wind Exposure
    autocalculate,            !- View Factor to Ground
    autocalculate,            !- Number of Vertices
    686748.332,               !- Vertex 1 Xcoordinate
    4928973.345,              !- Vertex 1 Ycoordinate
    6,                        !- Vertex 1 Zcoordinate
    686748.332,               !- Vertex 2 Xcoordinate
    4928973.345,              !- Vertex 2 Ycoordinate
    3,                        !- Vertex 2 Zcoordinate
    686747.352,               !- Vertex 3 Xcoordinate
    4928970.545,              !- Vertex 3 Ycoordinate
    3,                        !- Vertex 3 Zcoordinate
    686747.352,               !- Vertex 4 Xcoordinate
    4928970.545,              !- Vertex 4 Ycoordinate
    6;                        !- Vertex 4 Zcoordinate

BUILDINGSURFACE:DETAILED,
    Block 19da1493f901936e_1 Storey 1 Wall 0006,    !- Name
    wall,                     !- Surface Type
    EU_wall_Construction,     !- Construction Name
    19da1493f901936e_F1_dwelling_1,    !- Zone Name
    ,                         !- Space Name
    outdoors,                 !- Outside Boundary Condition
    ,                         !- Outside Boundary Condition Object
    SunExposed,               !- Sun Exposure
    WindExposed,              !- Wind Exposure
    autocalculate,            !- View Factor to Ground
    autocalculate,            !- Number of Vertices
    686747.352,               !- Vertex 1 Xcoordinate
    4928970.545,              !- Vertex 1 Ycoordinate
    6,                        !- Vertex 1 Zcoordinate
    686747.352,               !- Vertex 2 Xcoordinate
    4928970.545,              !- Vertex 2 Ycoordinate
    3,                        !- Vertex 2 Zcoordinate
    686742.872,               !- Vertex 3 Xcoordinate
    4928958.945,              !- Vertex 3 Ycoordinate
    3,                        !- Vertex 3 Zcoordinate
    686742.872,               !- Vertex 4 Xcoordinate
    4928958.945,              !- Vertex 4 Ycoordinate
    6;                        !- Vertex 4 Zcoordinate

BUILDINGSURFACE:DETAILED,
    Block 19da1493f901936e_1 Storey 1 Wall 0007,    !- Name
    wall,                     !- Surface Type
    EU_wall_Construction,     !- Construction Name
    19da1493f901936e_F1_dwelling_1,    !- Zone Name
    ,                         !- Space Name
    outdoors,                 !- Outside Boundary Condition
    ,                         !- Outside Boundary Condition Object
    SunExposed,               !- Sun Exposure
    WindExposed,              !- Wind Exposure
    autocalculate,            !- View Factor to Ground
    autocalculate,            !- Number of Vertices
    686742.872,               !- Vertex 1 Xcoordinate
    4928958.945,              !- Vertex 1 Ycoordinate
    6,                        !- Vertex 1 Zcoordinate
    686742.872,               !- Vertex 2 Xcoordinate
    4928958.945,              !- Vertex 2 Ycoordinate
    3,                        !- Vertex 2 Zcoordinate
    686741.662,               !- Vertex 3 Xcoordinate
    4928955.745,              !- Vertex 3 Ycoordinate
    3,                        !- Vertex 3 Zcoordinate
    686741.662,               !- Vertex 4 Xcoordinate
    4928955.745,              !- Vertex 4 Ycoordinate
    6;                        !- Vertex 4 Zcoordinate

BUILDINGSURFACE:DETAILED,
    Block 19da1493f901936e_1 Storey 1 Wall 0008,    !- Name
    wall,                     !- Surface Type
    EU_wall_Construction,     !- Construction Name
    19da1493f901936e_F1_dwelling_1,    !- Zone Name
    ,                         !- Space Name
    outdoors,                 !- Outside Boundary Condition
    ,                         !- Outside Boundary Condition Object
    SunExposed,               !- Sun Exposure
    WindExposed,              !- Wind Exposure
    autocalculate,            !- View Factor to Ground
    autocalculate,            !- Number of Vertices
    686741.662,               !- Vertex 1 Xcoordinate
    4928955.745,              !- Vertex 1 Ycoordinate
    6,                        !- Vertex 1 Zcoordinate
    686741.662,               !- Vertex 2 Xcoordinate
    4928955.745,              !- Vertex 2 Ycoordinate
    3,                        !- Vertex 2 Zcoordinate
    686755.905,               !- Vertex 3 Xcoordinate
    4928950.639,              !- Vertex 3 Ycoordinate
    3,                        !- Vertex 3 Zcoordinate
    686755.905,               !- Vertex 4 Xcoordinate
    4928950.639,              !- Vertex 4 Ycoordinate
    6;                        !- Vertex 4 Zcoordinate

BUILDINGSURFACE:DETAILED,
    Block 19da1493f901936e_1 Storey 1 Wall 0010,    !- Name
    wall,                     !- Surface Type
    EU_wall_Construction,     !- Construction Name
    19da1493f901936e_F1_dwelling_1,    !- Zone Name
    ,                         !- Space Name
    outdoors,                 !- Outside Boundary Condition
    ,                         !- Outside Boundary Condition Object
    SunExposed,               !- Sun Exposure
    WindExposed,              !- Wind Exposure
    autocalculate,            !- View Factor to Ground
    autocalculate,            !- Number of Vertices
    686747.905,               !- Vertex 1 Xcoordinate
    4928939.383,              !- Vertex 1 Ycoordinate
    6,                        !- Vertex 1 Zcoordinate
    686747.905,               !- Vertex 2 Xcoordinate
    4928939.383,              !- Vertex 2 Ycoordinate
    3,                        !- Vertex 2 Zcoordinate
    686726.082,               !- Vertex 3 Xcoordinate
    4928947.246,              !- Vertex 3 Ycoordinate
    3,                        !- Vertex 3 Zcoordinate
    686726.082,               !- Vertex 4 Xcoordinate
    4928947.246,              !- Vertex 4 Ycoordinate
    6;                        !- Vertex 4 Zcoordinate

BUILDINGSURFACE:DETAILED,
    Block 19da1493f901936e_1 Storey 1 Wall 0011,    !- Name
    wall,                     !- Surface Type
    EU_wall_Construction,     !- Construction Name
    19da1493f901936e_F1_dwelling_1,    !- Zone Name
    ,                         !- Space Name
    outdoors,                 !- Outside Boundary Condition
    ,                         !- Outside Boundary Condition Object
    SunExposed,               !- Sun Exposure
    WindExposed,              !- Wind Exposure
    autocalculate,            !- View Factor to Ground
    autocalculate,            !- Number of Vertices
    686726.082,               !- Vertex 1 Xcoordinate
    4928947.246,              !- Vertex 1 Ycoordinate
    6,                        !- Vertex 1 Zcoordinate
    686726.082,               !- Vertex 2 Xcoordinate
    4928947.246,              !- Vertex 2 Ycoordinate
    3,                        !- Vertex 2 Zcoordinate
    686732.222,               !- Vertex 3 Xcoordinate
    4928962.766,              !- Vertex 3 Ycoordinate
    3,                        !- Vertex 3 Zcoordinate
    686732.222,               !- Vertex 4 Xcoordinate
    4928962.766,              !- Vertex 4 Ycoordinate
    6;                        !- Vertex 4 Zcoordinate

BUILDINGSURFACE:DETAILED,
    Block 19da1493f901936e_1 Storey 1 Wall 0012,    !- Name
    wall,                     !- Surface Type
    EU_wall_Construction,     !- Construction Name
    19da1493f901936e_F1_dwelling_1,    !- Zone Name
    ,                         !- Space Name
    outdoors,                 !- Outside Boundary Condition
    ,                         !- Outside Boundary Condition Object
    SunExposed,               !- Sun Exposure
    WindExposed,              !- Wind Exposure
    autocalculate,            !- View Factor to Ground
    autocalculate,            !- Number of Vertices
    686732.222,               !- Vertex 1 Xcoordinate
    4928962.766,              !- Vertex 1 Ycoordinate
    6,                        !- Vertex 1 Zcoordinate
    686732.222,               !- Vertex 2 Xcoordinate
    4928962.766,              !- Vertex 2 Ycoordinate
    3,                        !- Vertex 2 Zcoordinate
    686737.112,               !- Vertex 3 Xcoordinate
    4928974.555,              !- Vertex 3 Ycoordinate
    3,                        !- Vertex 3 Zcoordinate
    686737.112,               !- Vertex 4 Xcoordinate
    4928974.555,              !- Vertex 4 Ycoordinate
    6;                        !- Vertex 4 Zcoordinate

BUILDINGSURFACE:DETAILED,
    Block 19da1493f901936e_1 Storey 1 Wall 0013,    !- Name
    wall,                     !- Surface Type
    EU_wall_Construction,     !- Construction Name
    19da1493f901936e_F1_dwelling_1,    !- Zone Name
    ,                         !- Space Name
    outdoors,                 !- Outside Boundary Condition
    ,                         !- Outside Boundary Condition Object
    SunExposed,               !- Sun Exposure
    WindExposed,              !- Wind Exposure
    autocalculate,            !- View Factor to Ground
    autocalculate,            !- Number of Vertices
    686737.112,               !- Vertex 1 Xcoordinate
    4928974.555,              !- Vertex 1 Ycoordinate
    6,                        !- Vertex 1 Zcoordinate
    686737.112,               !- Vertex 2 Xcoordinate
    4928974.555,              !- Vertex 2 Ycoordinate
    3,                        !- Vertex 2 Zcoordinate
    686737.942,               !- Vertex 3 Xcoordinate
    4928974.225,              !- Vertex 3 Ycoordinate
    3,                        !- Vertex 3 Zcoordinate
    686737.942,               !- Vertex 4 Xcoordinate
    4928974.225,              !- Vertex 4 Ycoordinate
    6;                        !- Vertex 4 Zcoordinate

BUILDINGSURFACE:DETAILED,
    Block 19da1493f901936e_1 Storey 1 Wall 0014,    !- Name
    wall,                     !- Surface Type
    EU_wall_Construction,     !- Construction Name
    19da1493f901936e_F1_dwelling_1,    !- Zone Name
    ,                         !- Space Name
    outdoors,                 !- Outside Boundary Condition
    ,                         !- Outside Boundary Condition Object
    SunExposed,               !- Sun Exposure
    WindExposed,              !- Wind Exposure
    autocalculate,            !- View Factor to Ground
    autocalculate,            !- Number of Vertices
    686737.942,               !- Vertex 1 Xcoordinate
    4928974.225,              !- Vertex 1 Ycoordinate
    6,                        !- Vertex 1 Zcoordinate
    686737.942,               !- Vertex 2 Xcoordinate
    4928974.225,              !- Vertex 2 Ycoordinate
    3,                        !- Vertex 2 Zcoordinate
    686740.632,               !- Vertex 3 Xcoordinate
    4928981.305,              !- Vertex 3 Ycoordinate
    3,                        !- Vertex 3 Zcoordinate
    686740.632,               !- Vertex 4 Xcoordinate
    4928981.305,              !- Vertex 4 Ycoordinate
    6;                        !- Vertex 4 Zcoordinate

BUILDINGSURFACE:DETAILED,
    Block 19da1493f901936e_1 Storey 1 Wall 0015,    !- Name
    wall,                     !- Surface Type
    EU_wall_Construction,     !- Construction Name
    19da1493f901936e_F1_dwelling_1,    !- Zone Name
    ,                         !- Space Name
    outdoors,                 !- Outside Boundary Condition
    ,                         !- Outside Boundary Condition Object
    SunExposed,               !- Sun Exposure
    WindExposed,              !- Wind Exposure
    autocalculate,            !- View Factor to Ground
    autocalculate,            !- Number of Vertices
    686740.632,               !- Vertex 1 Xcoordinate
    4928981.305,              !- Vertex 1 Ycoordinate
    6,                        !- Vertex 1 Zcoordinate
    686740.632,               !- Vertex 2 Xcoordinate
    4928981.305,              !- Vertex 2 Ycoordinate
    3,                        !- Vertex 2 Zcoordinate
    686742.232,               !- Vertex 3 Xcoordinate
    4928980.695,              !- Vertex 3 Ycoordinate
    3,                        !- Vertex 3 Zcoordinate
    686742.232,               !- Vertex 4 Xcoordinate
    4928980.695,              !- Vertex 4 Ycoordinate
    6;                        !- Vertex 4 Zcoordinate

BUILDINGSURFACE:DETAILED,
    Block 19da1493f901936e_1 Storey 2 Wall 0001,    !- Name
    wall,                     !- Surface Type
    EU_wall_Construction,     !- Construction Name
    19da1493f901936e_F2_dwelling_1,    !- Zone Name
    ,                         !- Space Name
    outdoors,                 !- Outside Boundary Condition
    ,                         !- Outside Boundary Condition Object
    SunExposed,               !- Sun Exposure
    WindExposed,              !- Wind Exposure
    autocalculate,            !- View Factor to Ground
    autocalculate,            !- Number of Vertices
    686742.232,               !- Vertex 1 Xcoordinate
    4928980.695,              !- Vertex 1 Ycoordinate
    9,                        !- Vertex 1 Zcoordinate
    686742.232,               !- Vertex 2 Xcoordinate
    4928980.695,              !- Vertex 2 Ycoordinate
    6,                        !- Vertex 2 Zcoordinate
    686746.202,               !- Vertex 3 Xcoordinate
    4928987.925,              !- Vertex 3 Ycoordinate
    6,                        !- Vertex 3 Zcoordinate
    686746.202,               !- Vertex 4 Xcoordinate
    4928987.925,              !- Vertex 4 Ycoordinate
    9;                        !- Vertex 4 Zcoordinate

BUILDINGSURFACE:DETAILED,
    Block 19da1493f901936e_1 Storey 2 Wall 0002,    !- Name
    wall,                     !- Surface Type
    EU_wall_Construction,     !- Construction Name
    19da1493f901936e_F2_dwelling_1,    !- Zone Name
    ,                         !- Space Name
    outdoors,                 !- Outside Boundary Condition
    ,                         !- Outside Boundary Condition Object
    SunExposed,               !- Sun Exposure
    WindExposed,              !- Wind Exposure
    autocalculate,            !- View Factor to Ground
    autocalculate,            !- Number of Vertices
    686746.202,               !- Vertex 1 Xcoordinate
    4928987.925,              !- Vertex 1 Ycoordinate
    9,                        !- Vertex 1 Zcoordinate
    686746.202,               !- Vertex 2 Xcoordinate
    4928987.925,              !- Vertex 2 Ycoordinate
    6,                        !- Vertex 2 Zcoordinate
    686774.932,               !- Vertex 3 Xcoordinate
    4928977.41,               !- Vertex 3 Ycoordinate
    6,                        !- Vertex 3 Zcoordinate
    686774.932,               !- Vertex 4 Xcoordinate
    4928977.41,               !- Vertex 4 Ycoordinate
    9;                        !- Vertex 4 Zcoordinate

BUILDINGSURFACE:DETAILED,
    Block 19da1493f901936e_1 Storey 2 Wall 0004,    !- Name
    wall,                     !- Surface Type
    EU_wall_Construction,     !- Construction Name
    19da1493f901936e_F2_dwelling_1,    !- Zone Name
    ,                         !- Space Name
    outdoors,                 !- Outside Boundary Condition
    ,                         !- Outside Boundary Condition Object
    SunExposed,               !- Sun Exposure
    WindExposed,              !- Wind Exposure
    autocalculate,            !- View Factor to Ground
    autocalculate,            !- Number of Vertices
    686766.921,               !- Vertex 1 Xcoordinate
    4928966.138,              !- Vertex 1 Ycoordinate
    9,                        !- Vertex 1 Zcoordinate
    686766.921,               !- Vertex 2 Xcoordinate
    4928966.138,              !- Vertex 2 Ycoordinate
    6,                        !- Vertex 2 Zcoordinate
    686748.332,               !- Vertex 3 Xcoordinate
    4928973.345,              !- Vertex 3 Ycoordinate
    6,                        !- Vertex 3 Zcoordinate
    686748.332,               !- Vertex 4 Xcoordinate
    4928973.345,              !- Vertex 4 Ycoordinate
    9;                        !- Vertex 4 Zcoordinate

BUILDINGSURFACE:DETAILED,
    Block 19da1493f901936e_1 Storey 2 Wall 0005,    !- Name
    wall,                     !- Surface Type
    EU_wall_Construction,     !- Construction Name
    19da1493f901936e_F2_dwelling_1,    !- Zone Name
    ,                         !- Space Name
    outdoors,                 !- Outside Boundary Condition
    ,                         !- Outside Boundary Condition Object
    SunExposed,               !- Sun Exposure
    WindExposed,              !- Wind Exposure
    autocalculate,            !- View Factor to Ground
    autocalculate,            !- Number of Vertices
    686748.332,               !- Vertex 1 Xcoordinate
    4928973.345,              !- Vertex 1 Ycoordinate
    9,                        !- Vertex 1 Zcoordinate
    686748.332,               !- Vertex 2 Xcoordinate
    4928973.345,              !- Vertex 2 Ycoordinate
    6,                        !- Vertex 2 Zcoordinate
    686747.352,               !- Vertex 3 Xcoordinate
    4928970.545,              !- Vertex 3 Ycoordinate
    6,                        !- Vertex 3 Zcoordinate
    686747.352,               !- Vertex 4 Xcoordinate
    4928970.545,              !- Vertex 4 Ycoordinate
    9;                        !- Vertex 4 Zcoordinate

BUILDINGSURFACE:DETAILED,
    Block 19da1493f901936e_1 Storey 2 Wall 0006,    !- Name
    wall,                     !- Surface Type
    EU_wall_Construction,     !- Construction Name
    19da1493f901936e_F2_dwelling_1,    !- Zone Name
    ,                         !- Space Name
    outdoors,                 !- Outside Boundary Condition
    ,                         !- Outside Boundary Condition Object
    SunExposed,               !- Sun Exposure
    WindExposed,              !- Wind Exposure
    autocalculate,            !- View Factor to Ground
    autocalculate,            !- Number of Vertices
    686747.352,               !- Vertex 1 Xcoordinate
    4928970.545,              !- Vertex 1 Ycoordinate
    9,                        !- Vertex 1 Zcoordinate
    686747.352,               !- Vertex 2 Xcoordinate
    4928970.545,              !- Vertex 2 Ycoordinate
    6,                        !- Vertex 2 Zcoordinate
    686742.872,               !- Vertex 3 Xcoordinate
    4928958.945,              !- Vertex 3 Ycoordinate
    6,                        !- Vertex 3 Zcoordinate
    686742.872,               !- Vertex 4 Xcoordinate
    4928958.945,              !- Vertex 4 Ycoordinate
    9;                        !- Vertex 4 Zcoordinate

BUILDINGSURFACE:DETAILED,
    Block 19da1493f901936e_1 Storey 2 Wall 0007,    !- Name
    wall,                     !- Surface Type
    EU_wall_Construction,     !- Construction Name
    19da1493f901936e_F2_dwelling_1,    !- Zone Name
    ,                         !- Space Name
    outdoors,                 !- Outside Boundary Condition
    ,                         !- Outside Boundary Condition Object
    SunExposed,               !- Sun Exposure
    WindExposed,              !- Wind Exposure
    autocalculate,            !- View Factor to Ground
    autocalculate,            !- Number of Vertices
    686742.872,               !- Vertex 1 Xcoordinate
    4928958.945,              !- Vertex 1 Ycoordinate
    9,                        !- Vertex 1 Zcoordinate
    686742.872,               !- Vertex 2 Xcoordinate
    4928958.945,              !- Vertex 2 Ycoordinate
    6,                        !- Vertex 2 Zcoordinate
    686741.662,               !- Vertex 3 Xcoordinate
    4928955.745,              !- Vertex 3 Ycoordinate
    6,                        !- Vertex 3 Zcoordinate
    686741.662,               !- Vertex 4 Xcoordinate
    4928955.745,              !- Vertex 4 Ycoordinate
    9;                        !- Vertex 4 Zcoordinate

BUILDINGSURFACE:DETAILED,
    Block 19da1493f901936e_1 Storey 2 Wall 0008,    !- Name
    wall,                     !- Surface Type
    EU_wall_Construction,     !- Construction Name
    19da1493f901936e_F2_dwelling_1,    !- Zone Name
    ,                         !- Space Name
    outdoors,                 !- Outside Boundary Condition
    ,                         !- Outside Boundary Condition Object
    SunExposed,               !- Sun Exposure
    WindExposed,              !- Wind Exposure
    autocalculate,            !- View Factor to Ground
    autocalculate,            !- Number of Vertices
    686741.662,               !- Vertex 1 Xcoordinate
    4928955.745,              !- Vertex 1 Ycoordinate
    9,                        !- Vertex 1 Zcoordinate
    686741.662,               !- Vertex 2 Xcoordinate
    4928955.745,              !- Vertex 2 Ycoordinate
    6,                        !- Vertex 2 Zcoordinate
    686755.905,               !- Vertex 3 Xcoordinate
    4928950.639,              !- Vertex 3 Ycoordinate
    6,                        !- Vertex 3 Zcoordinate
    686755.905,               !- Vertex 4 Xcoordinate
    4928950.639,              !- Vertex 4 Ycoordinate
    9;                        !- Vertex 4 Zcoordinate

BUILDINGSURFACE:DETAILED,
    Block 19da1493f901936e_1 Storey 2 Wall 0010,    !- Name
    wall,                     !- Surface Type
    EU_wall_Construction,     !- Construction Name
    19da1493f901936e_F2_dwelling_1,    !- Zone Name
    ,                         !- Space Name
    outdoors,                 !- Outside Boundary Condition
    ,                         !- Outside Boundary Condition Object
    SunExposed,               !- Sun Exposure
    WindExposed,              !- Wind Exposure
    autocalculate,            !- View Factor to Ground
    autocalculate,            !- Number of Vertices
    686747.905,               !- Vertex 1 Xcoordinate
    4928939.383,              !- Vertex 1 Ycoordinate
    9,                        !- Vertex 1 Zcoordinate
    686747.905,               !- Vertex 2 Xcoordinate
    4928939.383,              !- Vertex 2 Ycoordinate
    6,                        !- Vertex 2 Zcoordinate
    686726.082,               !- Vertex 3 Xcoordinate
    4928947.246,              !- Vertex 3 Ycoordinate
    6,                        !- Vertex 3 Zcoordinate
    686726.082,               !- Vertex 4 Xcoordinate
    4928947.246,              !- Vertex 4 Ycoordinate
    9;                        !- Vertex 4 Zcoordinate

BUILDINGSURFACE:DETAILED,
    Block 19da1493f901936e_1 Storey 2 Wall 0011,    !- Name
    wall,                     !- Surface Type
    EU_wall_Construction,     !- Construction Name
    19da1493f901936e_F2_dwelling_1,    !- Zone Name
    ,                         !- Space Name
    outdoors,                 !- Outside Boundary Condition
    ,                         !- Outside Boundary Condition Object
    SunExposed,               !- Sun Exposure
    WindExposed,              !- Wind Exposure
    autocalculate,            !- View Factor to Ground
    autocalculate,            !- Number of Vertices
    686726.082,               !- Vertex 1 Xcoordinate
    4928947.246,              !- Vertex 1 Ycoordinate
    9,                        !- Vertex 1 Zcoordinate
    686726.082,               !- Vertex 2 Xcoordinate
    4928947.246,              !- Vertex 2 Ycoordinate
    6,                        !- Vertex 2 Zcoordinate
    686732.222,               !- Vertex 3 Xcoordinate
    4928962.766,              !- Vertex 3 Ycoordinate
    6,                        !- Vertex 3 Zcoordinate
    686732.222,               !- Vertex 4 Xcoordinate
    4928962.766,              !- Vertex 4 Ycoordinate
    9;                        !- Vertex 4 Zcoordinate

BUILDINGSURFACE:DETAILED,
    Block 19da1493f901936e_1 Storey 2 Wall 0012,    !- Name
    wall,                     !- Surface Type
    EU_wall_Construction,     !- Construction Name
    19da1493f901936e_F2_dwelling_1,    !- Zone Name
    ,                         !- Space Name
    outdoors,                 !- Outside Boundary Condition
    ,                         !- Outside Boundary Condition Object
    SunExposed,               !- Sun Exposure
    WindExposed,              !- Wind Exposure
    autocalculate,            !- View Factor to Ground
    autocalculate,            !- Number of Vertices
    686732.222,               !- Vertex 1 Xcoordinate
    4928962.766,              !- Vertex 1 Ycoordinate
    9,                        !- Vertex 1 Zcoordinate
    686732.222,               !- Vertex 2 Xcoordinate
    4928962.766,              !- Vertex 2 Ycoordinate
    6,                        !- Vertex 2 Zcoordinate
    686737.112,               !- Vertex 3 Xcoordinate
    4928974.555,              !- Vertex 3 Ycoordinate
    6,                        !- Vertex 3 Zcoordinate
    686737.112,               !- Vertex 4 Xcoordinate
    4928974.555,              !- Vertex 4 Ycoordinate
    9;                        !- Vertex 4 Zcoordinate

BUILDINGSURFACE:DETAILED,
    Block 19da1493f901936e_1 Storey 2 Wall 0013,    !- Name
    wall,                     !- Surface Type
    EU_wall_Construction,     !- Construction Name
    19da1493f901936e_F2_dwelling_1,    !- Zone Name
    ,                         !- Space Name
    outdoors,                 !- Outside Boundary Condition
    ,                         !- Outside Boundary Condition Object
    SunExposed,               !- Sun Exposure
    WindExposed,              !- Wind Exposure
    autocalculate,            !- View Factor to Ground
    autocalculate,            !- Number of Vertices
    686737.112,               !- Vertex 1 Xcoordinate
    4928974.555,              !- Vertex 1 Ycoordinate
    9,                        !- Vertex 1 Zcoordinate
    686737.112,               !- Vertex 2 Xcoordinate
    4928974.555,              !- Vertex 2 Ycoordinate
    6,                        !- Vertex 2 Zcoordinate
    686737.942,               !- Vertex 3 Xcoordinate
    4928974.225,              !- Vertex 3 Ycoordinate
    6,                        !- Vertex 3 Zcoordinate
    686737.942,               !- Vertex 4 Xcoordinate
    4928974.225,              !- Vertex 4 Ycoordinate
    9;                        !- Vertex 4 Zcoordinate

BUILDINGSURFACE:DETAILED,
    Block 19da1493f901936e_1 Storey 2 Wall 0014,    !- Name
    wall,                     !- Surface Type
    EU_wall_Construction,     !- Construction Name
    19da1493f901936e_F2_dwelling_1,    !- Zone Name
    ,                         !- Space Name
    outdoors,                 !- Outside Boundary Condition
    ,                         !- Outside Boundary Condition Object
    SunExposed,               !- Sun Exposure
    WindExposed,              !- Wind Exposure
    autocalculate,            !- View Factor to Ground
    autocalculate,            !- Number of Vertices
    686737.942,               !- Vertex 1 Xcoordinate
    4928974.225,              !- Vertex 1 Ycoordinate
    9,                        !- Vertex 1 Zcoordinate
    686737.942,               !- Vertex 2 Xcoordinate
    4928974.225,              !- Vertex 2 Ycoordinate
    6,                        !- Vertex 2 Zcoordinate
    686740.632,               !- Vertex 3 Xcoordinate
    4928981.305,              !- Vertex 3 Ycoordinate
    6,                        !- Vertex 3 Zcoordinate
    686740.632,               !- Vertex 4 Xcoordinate
    4928981.305,              !- Vertex 4 Ycoordinate
    9;                        !- Vertex 4 Zcoordinate

BUILDINGSURFACE:DETAILED,
    Block 19da1493f901936e_1 Storey 2 Wall 0015,    !- Name
    wall,                     !- Surface Type
    EU_wall_Construction,     !- Construction Name
    19da1493f901936e_F2_dwelling_1,    !- Zone Name
    ,                         !- Space Name
    outdoors,                 !- Outside Boundary Condition
    ,                         !- Outside Boundary Condition Object
    SunExposed,               !- Sun Exposure
    WindExposed,              !- Wind Exposure
    autocalculate,            !- View Factor to Ground
    autocalculate,            !- Number of Vertices
    686740.632,               !- Vertex 1 Xcoordinate
    4928981.305,              !- Vertex 1 Ycoordinate
    9,                        !- Vertex 1 Zcoordinate
    686740.632,               !- Vertex 2 Xcoordinate
    4928981.305,              !- Vertex 2 Ycoordinate
    6,                        !- Vertex 2 Zcoordinate
    686742.232,               !- Vertex 3 Xcoordinate
    4928980.695,              !- Vertex 3 Ycoordinate
    6,                        !- Vertex 3 Zcoordinate
    686742.232,               !- Vertex 4 Xcoordinate
    4928980.695,              !- Vertex 4 Ycoordinate
    9;                        !- Vertex 4 Zcoordinate

BUILDINGSURFACE:DETAILED,
    Block 19da1493f901936e_1 Storey 3 Wall 0001,    !- Name
    wall,                     !- Surface Type
    EU_wall_Construction,     !- Construction Name
    19da1493f901936e_F3_dwelling_1,    !- Zone Name
    ,                         !- Space Name
    outdoors,                 !- Outside Boundary Condition
    ,                         !- Outside Boundary Condition Object
    SunExposed,               !- Sun Exposure
    WindExposed,              !- Wind Exposure
    autocalculate,            !- View Factor to Ground
    autocalculate,            !- Number of Vertices
    686742.232,               !- Vertex 1 Xcoordinate
    4928980.695,              !- Vertex 1 Ycoordinate
    12,                       !- Vertex 1 Zcoordinate
    686742.232,               !- Vertex 2 Xcoordinate
    4928980.695,              !- Vertex 2 Ycoordinate
    9,                        !- Vertex 2 Zcoordinate
    686746.202,               !- Vertex 3 Xcoordinate
    4928987.925,              !- Vertex 3 Ycoordinate
    9,                        !- Vertex 3 Zcoordinate
    686746.202,               !- Vertex 4 Xcoordinate
    4928987.925,              !- Vertex 4 Ycoordinate
    12;                       !- Vertex 4 Zcoordinate

BUILDINGSURFACE:DETAILED,
    Block 19da1493f901936e_1 Storey 3 Wall 0002,    !- Name
    wall,                     !- Surface Type
    EU_wall_Construction,     !- Construction Name
    19da1493f901936e_F3_dwelling_1,    !- Zone Name
    ,                         !- Space Name
    outdoors,                 !- Outside Boundary Condition
    ,                         !- Outside Boundary Condition Object
    SunExposed,               !- Sun Exposure
    WindExposed,              !- Wind Exposure
    autocalculate,            !- View Factor to Ground
    autocalculate,            !- Number of Vertices
    686746.202,               !- Vertex 1 Xcoordinate
    4928987.925,              !- Vertex 1 Ycoordinate
    12,                       !- Vertex 1 Zcoordinate
    686746.202,               !- Vertex 2 Xcoordinate
    4928987.925,              !- Vertex 2 Ycoordinate
    9,                        !- Vertex 2 Zcoordinate
    686774.932,               !- Vertex 3 Xcoordinate
    4928977.41,               !- Vertex 3 Ycoordinate
    9,                        !- Vertex 3 Zcoordinate
    686774.932,               !- Vertex 4 Xcoordinate
    4928977.41,               !- Vertex 4 Ycoordinate
    12;                       !- Vertex 4 Zcoordinate

BUILDINGSURFACE:DETAILED,
    Block 19da1493f901936e_1 Storey 3 Wall 0004,    !- Name
    wall,                     !- Surface Type
    EU_wall_Construction,     !- Construction Name
    19da1493f901936e_F3_dwelling_1,    !- Zone Name
    ,                         !- Space Name
    outdoors,                 !- Outside Boundary Condition
    ,                         !- Outside Boundary Condition Object
    SunExposed,               !- Sun Exposure
    WindExposed,              !- Wind Exposure
    autocalculate,            !- View Factor to Ground
    autocalculate,            !- Number of Vertices
    686766.921,               !- Vertex 1 Xcoordinate
    4928966.138,              !- Vertex 1 Ycoordinate
    12,                       !- Vertex 1 Zcoordinate
    686766.921,               !- Vertex 2 Xcoordinate
    4928966.138,              !- Vertex 2 Ycoordinate
    9,                        !- Vertex 2 Zcoordinate
    686748.332,               !- Vertex 3 Xcoordinate
    4928973.345,              !- Vertex 3 Ycoordinate
    9,                        !- Vertex 3 Zcoordinate
    686748.332,               !- Vertex 4 Xcoordinate
    4928973.345,              !- Vertex 4 Ycoordinate
    12;                       !- Vertex 4 Zcoordinate

BUILDINGSURFACE:DETAILED,
    Block 19da1493f901936e_1 Storey 3 Wall 0005,    !- Name
    wall,                     !- Surface Type
    EU_wall_Construction,     !- Construction Name
    19da1493f901936e_F3_dwelling_1,    !- Zone Name
    ,                         !- Space Name
    outdoors,                 !- Outside Boundary Condition
    ,                         !- Outside Boundary Condition Object
    SunExposed,               !- Sun Exposure
    WindExposed,              !- Wind Exposure
    autocalculate,            !- View Factor to Ground
    autocalculate,            !- Number of Vertices
    686748.332,               !- Vertex 1 Xcoordinate
    4928973.345,              !- Vertex 1 Ycoordinate
    12,                       !- Vertex 1 Zcoordinate
    686748.332,               !- Vertex 2 Xcoordinate
    4928973.345,              !- Vertex 2 Ycoordinate
    9,                        !- Vertex 2 Zcoordinate
    686747.352,               !- Vertex 3 Xcoordinate
    4928970.545,              !- Vertex 3 Ycoordinate
    9,                        !- Vertex 3 Zcoordinate
    686747.352,               !- Vertex 4 Xcoordinate
    4928970.545,              !- Vertex 4 Ycoordinate
    12;                       !- Vertex 4 Zcoordinate

BUILDINGSURFACE:DETAILED,
    Block 19da1493f901936e_1 Storey 3 Wall 0006,    !- Name
    wall,                     !- Surface Type
    EU_wall_Construction,     !- Construction Name
    19da1493f901936e_F3_dwelling_1,    !- Zone Name
    ,                         !- Space Name
    outdoors,                 !- Outside Boundary Condition
    ,                         !- Outside Boundary Condition Object
    SunExposed,               !- Sun Exposure
    WindExposed,              !- Wind Exposure
    autocalculate,            !- View Factor to Ground
    autocalculate,            !- Number of Vertices
    686747.352,               !- Vertex 1 Xcoordinate
    4928970.545,              !- Vertex 1 Ycoordinate
    12,                       !- Vertex 1 Zcoordinate
    686747.352,               !- Vertex 2 Xcoordinate
    4928970.545,              !- Vertex 2 Ycoordinate
    9,                        !- Vertex 2 Zcoordinate
    686742.872,               !- Vertex 3 Xcoordinate
    4928958.945,              !- Vertex 3 Ycoordinate
    9,                        !- Vertex 3 Zcoordinate
    686742.872,               !- Vertex 4 Xcoordinate
    4928958.945,              !- Vertex 4 Ycoordinate
    12;                       !- Vertex 4 Zcoordinate

BUILDINGSURFACE:DETAILED,
    Block 19da1493f901936e_1 Storey 3 Wall 0007,    !- Name
    wall,                     !- Surface Type
    EU_wall_Construction,     !- Construction Name
    19da1493f901936e_F3_dwelling_1,    !- Zone Name
    ,                         !- Space Name
    outdoors,                 !- Outside Boundary Condition
    ,                         !- Outside Boundary Condition Object
    SunExposed,               !- Sun Exposure
    WindExposed,              !- Wind Exposure
    autocalculate,            !- View Factor to Ground
    autocalculate,            !- Number of Vertices
    686742.872,               !- Vertex 1 Xcoordinate
    4928958.945,              !- Vertex 1 Ycoordinate
    12,                       !- Vertex 1 Zcoordinate
    686742.872,               !- Vertex 2 Xcoordinate
    4928958.945,              !- Vertex 2 Ycoordinate
    9,                        !- Vertex 2 Zcoordinate
    686741.662,               !- Vertex 3 Xcoordinate
    4928955.745,              !- Vertex 3 Ycoordinate
    9,                        !- Vertex 3 Zcoordinate
    686741.662,               !- Vertex 4 Xcoordinate
    4928955.745,              !- Vertex 4 Ycoordinate
    12;                       !- Vertex 4 Zcoordinate

BUILDINGSURFACE:DETAILED,
    Block 19da1493f901936e_1 Storey 3 Wall 0008,    !- Name
    wall,                     !- Surface Type
    EU_wall_Construction,     !- Construction Name
    19da1493f901936e_F3_dwelling_1,    !- Zone Name
    ,                         !- Space Name
    outdoors,                 !- Outside Boundary Condition
    ,                         !- Outside Boundary Condition Object
    SunExposed,               !- Sun Exposure
    WindExposed,              !- Wind Exposure
    autocalculate,            !- View Factor to Ground
    autocalculate,            !- Number of Vertices
    686741.662,               !- Vertex 1 Xcoordinate
    4928955.745,              !- Vertex 1 Ycoordinate
    12,                       !- Vertex 1 Zcoordinate
    686741.662,               !- Vertex 2 Xcoordinate
    4928955.745,              !- Vertex 2 Ycoordinate
    9,                        !- Vertex 2 Zcoordinate
    686755.905,               !- Vertex 3 Xcoordinate
    4928950.639,              !- Vertex 3 Ycoordinate
    9,                        !- Vertex 3 Zcoordinate
    686755.905,               !- Vertex 4 Xcoordinate
    4928950.639,              !- Vertex 4 Ycoordinate
    12;                       !- Vertex 4 Zcoordinate

BUILDINGSURFACE:DETAILED,
    Block 19da1493f901936e_1 Storey 3 Wall 0010,    !- Name
    wall,                     !- Surface Type
    EU_wall_Construction,     !- Construction Name
    19da1493f901936e_F3_dwelling_1,    !- Zone Name
    ,                         !- Space Name
    outdoors,                 !- Outside Boundary Condition
    ,                         !- Outside Boundary Condition Object
    SunExposed,               !- Sun Exposure
    WindExposed,              !- Wind Exposure
    autocalculate,            !- View Factor to Ground
    autocalculate,            !- Number of Vertices
    686747.905,               !- Vertex 1 Xcoordinate
    4928939.383,              !- Vertex 1 Ycoordinate
    12,                       !- Vertex 1 Zcoordinate
    686747.905,               !- Vertex 2 Xcoordinate
    4928939.383,              !- Vertex 2 Ycoordinate
    9,                        !- Vertex 2 Zcoordinate
    686726.082,               !- Vertex 3 Xcoordinate
    4928947.246,              !- Vertex 3 Ycoordinate
    9,                        !- Vertex 3 Zcoordinate
    686726.082,               !- Vertex 4 Xcoordinate
    4928947.246,              !- Vertex 4 Ycoordinate
    12;                       !- Vertex 4 Zcoordinate

BUILDINGSURFACE:DETAILED,
    Block 19da1493f901936e_1 Storey 3 Wall 0011,    !- Name
    wall,                     !- Surface Type
    EU_wall_Construction,     !- Construction Name
    19da1493f901936e_F3_dwelling_1,    !- Zone Name
    ,                         !- Space Name
    outdoors,                 !- Outside Boundary Condition
    ,                         !- Outside Boundary Condition Object
    SunExposed,               !- Sun Exposure
    WindExposed,              !- Wind Exposure
    autocalculate,            !- View Factor to Ground
    autocalculate,            !- Number of Vertices
    686726.082,               !- Vertex 1 Xcoordinate
    4928947.246,              !- Vertex 1 Ycoordinate
    12,                       !- Vertex 1 Zcoordinate
    686726.082,               !- Vertex 2 Xcoordinate
    4928947.246,              !- Vertex 2 Ycoordinate
    9,                        !- Vertex 2 Zcoordinate
    686732.222,               !- Vertex 3 Xcoordinate
    4928962.766,              !- Vertex 3 Ycoordinate
    9,                        !- Vertex 3 Zcoordinate
    686732.222,               !- Vertex 4 Xcoordinate
    4928962.766,              !- Vertex 4 Ycoordinate
    12;                       !- Vertex 4 Zcoordinate

BUILDINGSURFACE:DETAILED,
    Block 19da1493f901936e_1 Storey 3 Wall 0012,    !- Name
    wall,                     !- Surface Type
    EU_wall_Construction,     !- Construction Name
    19da1493f901936e_F3_dwelling_1,    !- Zone Name
    ,                         !- Space Name
    outdoors,                 !- Outside Boundary Condition
    ,                         !- Outside Boundary Condition Object
    SunExposed,               !- Sun Exposure
    WindExposed,              !- Wind Exposure
    autocalculate,            !- View Factor to Ground
    autocalculate,            !- Number of Vertices
    686732.222,               !- Vertex 1 Xcoordinate
    4928962.766,              !- Vertex 1 Ycoordinate
    12,                       !- Vertex 1 Zcoordinate
    686732.222,               !- Vertex 2 Xcoordinate
    4928962.766,              !- Vertex 2 Ycoordinate
    9,                        !- Vertex 2 Zcoordinate
    686737.112,               !- Vertex 3 Xcoordinate
    4928974.555,              !- Vertex 3 Ycoordinate
    9,                        !- Vertex 3 Zcoordinate
    686737.112,               !- Vertex 4 Xcoordinate
    4928974.555,              !- Vertex 4 Ycoordinate
    12;                       !- Vertex 4 Zcoordinate

BUILDINGSURFACE:DETAILED,
    Block 19da1493f901936e_1 Storey 3 Wall 0013,    !- Name
    wall,                     !- Surface Type
    EU_wall_Construction,     !- Construction Name
    19da1493f901936e_F3_dwelling_1,    !- Zone Name
    ,                         !- Space Name
    outdoors,                 !- Outside Boundary Condition
    ,                         !- Outside Boundary Condition Object
    SunExposed,               !- Sun Exposure
    WindExposed,              !- Wind Exposure
    autocalculate,            !- View Factor to Ground
    autocalculate,            !- Number of Vertices
    686737.112,               !- Vertex 1 Xcoordinate
    4928974.555,              !- Vertex 1 Ycoordinate
    12,                       !- Vertex 1 Zcoordinate
    686737.112,               !- Vertex 2 Xcoordinate
    4928974.555,              !- Vertex 2 Ycoordinate
    9,                        !- Vertex 2 Zcoordinate
    686737.942,               !- Vertex 3 Xcoordinate
    4928974.225,              !- Vertex 3 Ycoordinate
    9,                        !- Vertex 3 Zcoordinate
    686737.942,               !- Vertex 4 Xcoordinate
    4928974.225,              !- Vertex 4 Ycoordinate
    12;                       !- Vertex 4 Zcoordinate

BUILDINGSURFACE:DETAILED,
    Block 19da1493f901936e_1 Storey 3 Wall 0014,    !- Name
    wall,                     !- Surface Type
    EU_wall_Construction,     !- Construction Name
    19da1493f901936e_F3_dwelling_1,    !- Zone Name
    ,                         !- Space Name
    outdoors,                 !- Outside Boundary Condition
    ,                         !- Outside Boundary Condition Object
    SunExposed,               !- Sun Exposure
    WindExposed,              !- Wind Exposure
    autocalculate,            !- View Factor to Ground
    autocalculate,            !- Number of Vertices
    686737.942,               !- Vertex 1 Xcoordinate
    4928974.225,              !- Vertex 1 Ycoordinate
    12,                       !- Vertex 1 Zcoordinate
    686737.942,               !- Vertex 2 Xcoordinate
    4928974.225,              !- Vertex 2 Ycoordinate
    9,                        !- Vertex 2 Zcoordinate
    686740.632,               !- Vertex 3 Xcoordinate
    4928981.305,              !- Vertex 3 Ycoordinate
    9,                        !- Vertex 3 Zcoordinate
    686740.632,               !- Vertex 4 Xcoordinate
    4928981.305,              !- Vertex 4 Ycoordinate
    12;                       !- Vertex 4 Zcoordinate

BUILDINGSURFACE:DETAILED,
    Block 19da1493f901936e_1 Storey 3 Wall 0015,    !- Name
    wall,                     !- Surface Type
    EU_wall_Construction,     !- Construction Name
    19da1493f901936e_F3_dwelling_1,    !- Zone Name
    ,                         !- Space Name
    outdoors,                 !- Outside Boundary Condition
    ,                         !- Outside Boundary Condition Object
    SunExposed,               !- Sun Exposure
    WindExposed,              !- Wind Exposure
    autocalculate,            !- View Factor to Ground
    autocalculate,            !- Number of Vertices
    686740.632,               !- Vertex 1 Xcoordinate
    4928981.305,              !- Vertex 1 Ycoordinate
    12,                       !- Vertex 1 Zcoordinate
    686740.632,               !- Vertex 2 Xcoordinate
    4928981.305,              !- Vertex 2 Ycoordinate
    9,                        !- Vertex 2 Zcoordinate
    686742.232,               !- Vertex 3 Xcoordinate
    4928980.695,              !- Vertex 3 Ycoordinate
    9,                        !- Vertex 3 Zcoordinate
    686742.232,               !- Vertex 4 Xcoordinate
    4928980.695,              !- Vertex 4 Ycoordinate
    12;                       !- Vertex 4 Zcoordinate

BUILDINGSURFACE:DETAILED,
    Block 19da1493f901936e_1 Storey 4 Wall 0001,    !- Name
    wall,                     !- Surface Type
    EU_wall_Construction,     !- Construction Name
    19da1493f901936e_F4_dwelling_1,    !- Zone Name
    ,                         !- Space Name
    outdoors,                 !- Outside Boundary Condition
    ,                         !- Outside Boundary Condition Object
    SunExposed,               !- Sun Exposure
    WindExposed,              !- Wind Exposure
    autocalculate,            !- View Factor to Ground
    autocalculate,            !- Number of Vertices
    686742.232,               !- Vertex 1 Xcoordinate
    4928980.695,              !- Vertex 1 Ycoordinate
    15,                       !- Vertex 1 Zcoordinate
    686742.232,               !- Vertex 2 Xcoordinate
    4928980.695,              !- Vertex 2 Ycoordinate
    12,                       !- Vertex 2 Zcoordinate
    686746.202,               !- Vertex 3 Xcoordinate
    4928987.925,              !- Vertex 3 Ycoordinate
    12,                       !- Vertex 3 Zcoordinate
    686746.202,               !- Vertex 4 Xcoordinate
    4928987.925,              !- Vertex 4 Ycoordinate
    15;                       !- Vertex 4 Zcoordinate

BUILDINGSURFACE:DETAILED,
    Block 19da1493f901936e_1 Storey 4 Wall 0002,    !- Name
    wall,                     !- Surface Type
    EU_wall_Construction,     !- Construction Name
    19da1493f901936e_F4_dwelling_1,    !- Zone Name
    ,                         !- Space Name
    outdoors,                 !- Outside Boundary Condition
    ,                         !- Outside Boundary Condition Object
    SunExposed,               !- Sun Exposure
    WindExposed,              !- Wind Exposure
    autocalculate,            !- View Factor to Ground
    autocalculate,            !- Number of Vertices
    686746.202,               !- Vertex 1 Xcoordinate
    4928987.925,              !- Vertex 1 Ycoordinate
    15,                       !- Vertex 1 Zcoordinate
    686746.202,               !- Vertex 2 Xcoordinate
    4928987.925,              !- Vertex 2 Ycoordinate
    12,                       !- Vertex 2 Zcoordinate
    686774.932,               !- Vertex 3 Xcoordinate
    4928977.41,               !- Vertex 3 Ycoordinate
    12,                       !- Vertex 3 Zcoordinate
    686774.932,               !- Vertex 4 Xcoordinate
    4928977.41,               !- Vertex 4 Ycoordinate
    15;                       !- Vertex 4 Zcoordinate

BUILDINGSURFACE:DETAILED,
    Block 19da1493f901936e_1 Storey 4 Wall 0004,    !- Name
    wall,                     !- Surface Type
    EU_wall_Construction,     !- Construction Name
    19da1493f901936e_F4_dwelling_1,    !- Zone Name
    ,                         !- Space Name
    outdoors,                 !- Outside Boundary Condition
    ,                         !- Outside Boundary Condition Object
    SunExposed,               !- Sun Exposure
    WindExposed,              !- Wind Exposure
    autocalculate,            !- View Factor to Ground
    autocalculate,            !- Number of Vertices
    686766.921,               !- Vertex 1 Xcoordinate
    4928966.138,              !- Vertex 1 Ycoordinate
    15,                       !- Vertex 1 Zcoordinate
    686766.921,               !- Vertex 2 Xcoordinate
    4928966.138,              !- Vertex 2 Ycoordinate
    12,                       !- Vertex 2 Zcoordinate
    686748.332,               !- Vertex 3 Xcoordinate
    4928973.345,              !- Vertex 3 Ycoordinate
    12,                       !- Vertex 3 Zcoordinate
    686748.332,               !- Vertex 4 Xcoordinate
    4928973.345,              !- Vertex 4 Ycoordinate
    15;                       !- Vertex 4 Zcoordinate

BUILDINGSURFACE:DETAILED,
    Block 19da1493f901936e_1 Storey 4 Wall 0005,    !- Name
    wall,                     !- Surface Type
    EU_wall_Construction,     !- Construction Name
    19da1493f901936e_F4_dwelling_1,    !- Zone Name
    ,                         !- Space Name
    outdoors,                 !- Outside Boundary Condition
    ,                         !- Outside Boundary Condition Object
    SunExposed,               !- Sun Exposure
    WindExposed,              !- Wind Exposure
    autocalculate,            !- View Factor to Ground
    autocalculate,            !- Number of Vertices
    686748.332,               !- Vertex 1 Xcoordinate
    4928973.345,              !- Vertex 1 Ycoordinate
    15,                       !- Vertex 1 Zcoordinate
    686748.332,               !- Vertex 2 Xcoordinate
    4928973.345,              !- Vertex 2 Ycoordinate
    12,                       !- Vertex 2 Zcoordinate
    686747.352,               !- Vertex 3 Xcoordinate
    4928970.545,              !- Vertex 3 Ycoordinate
    12,                       !- Vertex 3 Zcoordinate
    686747.352,               !- Vertex 4 Xcoordinate
    4928970.545,              !- Vertex 4 Ycoordinate
    15;                       !- Vertex 4 Zcoordinate

BUILDINGSURFACE:DETAILED,
    Block 19da1493f901936e_1 Storey 4 Wall 0006,    !- Name
    wall,                     !- Surface Type
    EU_wall_Construction,     !- Construction Name
    19da1493f901936e_F4_dwelling_1,    !- Zone Name
    ,                         !- Space Name
    outdoors,                 !- Outside Boundary Condition
    ,                         !- Outside Boundary Condition Object
    SunExposed,               !- Sun Exposure
    WindExposed,              !- Wind Exposure
    autocalculate,            !- View Factor to Ground
    autocalculate,            !- Number of Vertices
    686747.352,               !- Vertex 1 Xcoordinate
    4928970.545,              !- Vertex 1 Ycoordinate
    15,                       !- Vertex 1 Zcoordinate
    686747.352,               !- Vertex 2 Xcoordinate
    4928970.545,              !- Vertex 2 Ycoordinate
    12,                       !- Vertex 2 Zcoordinate
    686742.872,               !- Vertex 3 Xcoordinate
    4928958.945,              !- Vertex 3 Ycoordinate
    12,                       !- Vertex 3 Zcoordinate
    686742.872,               !- Vertex 4 Xcoordinate
    4928958.945,              !- Vertex 4 Ycoordinate
    15;                       !- Vertex 4 Zcoordinate

BUILDINGSURFACE:DETAILED,
    Block 19da1493f901936e_1 Storey 4 Wall 0007,    !- Name
    wall,                     !- Surface Type
    EU_wall_Construction,     !- Construction Name
    19da1493f901936e_F4_dwelling_1,    !- Zone Name
    ,                         !- Space Name
    outdoors,                 !- Outside Boundary Condition
    ,                         !- Outside Boundary Condition Object
    SunExposed,               !- Sun Exposure
    WindExposed,              !- Wind Exposure
    autocalculate,            !- View Factor to Ground
    autocalculate,            !- Number of Vertices
    686742.872,               !- Vertex 1 Xcoordinate
    4928958.945,              !- Vertex 1 Ycoordinate
    15,                       !- Vertex 1 Zcoordinate
    686742.872,               !- Vertex 2 Xcoordinate
    4928958.945,              !- Vertex 2 Ycoordinate
    12,                       !- Vertex 2 Zcoordinate
    686741.662,               !- Vertex 3 Xcoordinate
    4928955.745,              !- Vertex 3 Ycoordinate
    12,                       !- Vertex 3 Zcoordinate
    686741.662,               !- Vertex 4 Xcoordinate
    4928955.745,              !- Vertex 4 Ycoordinate
    15;                       !- Vertex 4 Zcoordinate

BUILDINGSURFACE:DETAILED,
    Block 19da1493f901936e_1 Storey 4 Wall 0008,    !- Name
    wall,                     !- Surface Type
    EU_wall_Construction,     !- Construction Name
    19da1493f901936e_F4_dwelling_1,    !- Zone Name
    ,                         !- Space Name
    outdoors,                 !- Outside Boundary Condition
    ,                         !- Outside Boundary Condition Object
    SunExposed,               !- Sun Exposure
    WindExposed,              !- Wind Exposure
    autocalculate,            !- View Factor to Ground
    autocalculate,            !- Number of Vertices
    686741.662,               !- Vertex 1 Xcoordinate
    4928955.745,              !- Vertex 1 Ycoordinate
    15,                       !- Vertex 1 Zcoordinate
    686741.662,               !- Vertex 2 Xcoordinate
    4928955.745,              !- Vertex 2 Ycoordinate
    12,                       !- Vertex 2 Zcoordinate
    686755.905,               !- Vertex 3 Xcoordinate
    4928950.639,              !- Vertex 3 Ycoordinate
    12,                       !- Vertex 3 Zcoordinate
    686755.905,               !- Vertex 4 Xcoordinate
    4928950.639,              !- Vertex 4 Ycoordinate
    15;                       !- Vertex 4 Zcoordinate

BUILDINGSURFACE:DETAILED,
    Block 19da1493f901936e_1 Storey 4 Wall 0010,    !- Name
    wall,                     !- Surface Type
    EU_wall_Construction,     !- Construction Name
    19da1493f901936e_F4_dwelling_1,    !- Zone Name
    ,                         !- Space Name
    outdoors,                 !- Outside Boundary Condition
    ,                         !- Outside Boundary Condition Object
    SunExposed,               !- Sun Exposure
    WindExposed,              !- Wind Exposure
    autocalculate,            !- View Factor to Ground
    autocalculate,            !- Number of Vertices
    686747.905,               !- Vertex 1 Xcoordinate
    4928939.383,              !- Vertex 1 Ycoordinate
    15,                       !- Vertex 1 Zcoordinate
    686747.905,               !- Vertex 2 Xcoordinate
    4928939.383,              !- Vertex 2 Ycoordinate
    12,                       !- Vertex 2 Zcoordinate
    686726.082,               !- Vertex 3 Xcoordinate
    4928947.246,              !- Vertex 3 Ycoordinate
    12,                       !- Vertex 3 Zcoordinate
    686726.082,               !- Vertex 4 Xcoordinate
    4928947.246,              !- Vertex 4 Ycoordinate
    15;                       !- Vertex 4 Zcoordinate

BUILDINGSURFACE:DETAILED,
    Block 19da1493f901936e_1 Storey 4 Wall 0011,    !- Name
    wall,                     !- Surface Type
    EU_wall_Construction,     !- Construction Name
    19da1493f901936e_F4_dwelling_1,    !- Zone Name
    ,                         !- Space Name
    outdoors,                 !- Outside Boundary Condition
    ,                         !- Outside Boundary Condition Object
    SunExposed,               !- Sun Exposure
    WindExposed,              !- Wind Exposure
    autocalculate,            !- View Factor to Ground
    autocalculate,            !- Number of Vertices
    686726.082,               !- Vertex 1 Xcoordinate
    4928947.246,              !- Vertex 1 Ycoordinate
    15,                       !- Vertex 1 Zcoordinate
    686726.082,               !- Vertex 2 Xcoordinate
    4928947.246,              !- Vertex 2 Ycoordinate
    12,                       !- Vertex 2 Zcoordinate
    686732.222,               !- Vertex 3 Xcoordinate
    4928962.766,              !- Vertex 3 Ycoordinate
    12,                       !- Vertex 3 Zcoordinate
    686732.222,               !- Vertex 4 Xcoordinate
    4928962.766,              !- Vertex 4 Ycoordinate
    15;                       !- Vertex 4 Zcoordinate

BUILDINGSURFACE:DETAILED,
    Block 19da1493f901936e_1 Storey 4 Wall 0012,    !- Name
    wall,                     !- Surface Type
    EU_wall_Construction,     !- Construction Name
    19da1493f901936e_F4_dwelling_1,    !- Zone Name
    ,                         !- Space Name
    outdoors,                 !- Outside Boundary Condition
    ,                         !- Outside Boundary Condition Object
    SunExposed,               !- Sun Exposure
    WindExposed,              !- Wind Exposure
    autocalculate,            !- View Factor to Ground
    autocalculate,            !- Number of Vertices
    686732.222,               !- Vertex 1 Xcoordinate
    4928962.766,              !- Vertex 1 Ycoordinate
    15,                       !- Vertex 1 Zcoordinate
    686732.222,               !- Vertex 2 Xcoordinate
    4928962.766,              !- Vertex 2 Ycoordinate
    12,                       !- Vertex 2 Zcoordinate
    686737.112,               !- Vertex 3 Xcoordinate
    4928974.555,              !- Vertex 3 Ycoordinate
    12,                       !- Vertex 3 Zcoordinate
    686737.112,               !- Vertex 4 Xcoordinate
    4928974.555,              !- Vertex 4 Ycoordinate
    15;                       !- Vertex 4 Zcoordinate

BUILDINGSURFACE:DETAILED,
    Block 19da1493f901936e_1 Storey 4 Wall 0013,    !- Name
    wall,                     !- Surface Type
    EU_wall_Construction,     !- Construction Name
    19da1493f901936e_F4_dwelling_1,    !- Zone Name
    ,                         !- Space Name
    outdoors,                 !- Outside Boundary Condition
    ,                         !- Outside Boundary Condition Object
    SunExposed,               !- Sun Exposure
    WindExposed,              !- Wind Exposure
    autocalculate,            !- View Factor to Ground
    autocalculate,            !- Number of Vertices
    686737.112,               !- Vertex 1 Xcoordinate
    4928974.555,              !- Vertex 1 Ycoordinate
    15,                       !- Vertex 1 Zcoordinate
    686737.112,               !- Vertex 2 Xcoordinate
    4928974.555,              !- Vertex 2 Ycoordinate
    12,                       !- Vertex 2 Zcoordinate
    686737.942,               !- Vertex 3 Xcoordinate
    4928974.225,              !- Vertex 3 Ycoordinate
    12,                       !- Vertex 3 Zcoordinate
    686737.942,               !- Vertex 4 Xcoordinate
    4928974.225,              !- Vertex 4 Ycoordinate
    15;                       !- Vertex 4 Zcoordinate

BUILDINGSURFACE:DETAILED,
    Block 19da1493f901936e_1 Storey 4 Wall 0014,    !- Name
    wall,                     !- Surface Type
    EU_wall_Construction,     !- Construction Name
    19da1493f901936e_F4_dwelling_1,    !- Zone Name
    ,                         !- Space Name
    outdoors,                 !- Outside Boundary Condition
    ,                         !- Outside Boundary Condition Object
    SunExposed,               !- Sun Exposure
    WindExposed,              !- Wind Exposure
    autocalculate,            !- View Factor to Ground
    autocalculate,            !- Number of Vertices
    686737.942,               !- Vertex 1 Xcoordinate
    4928974.225,              !- Vertex 1 Ycoordinate
    15,                       !- Vertex 1 Zcoordinate
    686737.942,               !- Vertex 2 Xcoordinate
    4928974.225,              !- Vertex 2 Ycoordinate
    12,                       !- Vertex 2 Zcoordinate
    686740.632,               !- Vertex 3 Xcoordinate
    4928981.305,              !- Vertex 3 Ycoordinate
    12,                       !- Vertex 3 Zcoordinate
    686740.632,               !- Vertex 4 Xcoordinate
    4928981.305,              !- Vertex 4 Ycoordinate
    15;                       !- Vertex 4 Zcoordinate

BUILDINGSURFACE:DETAILED,
    Block 19da1493f901936e_1 Storey 4 Wall 0015,    !- Name
    wall,                     !- Surface Type
    EU_wall_Construction,     !- Construction Name
    19da1493f901936e_F4_dwelling_1,    !- Zone Name
    ,                         !- Space Name
    outdoors,                 !- Outside Boundary Condition
    ,                         !- Outside Boundary Condition Object
    SunExposed,               !- Sun Exposure
    WindExposed,              !- Wind Exposure
    autocalculate,            !- View Factor to Ground
    autocalculate,            !- Number of Vertices
    686740.632,               !- Vertex 1 Xcoordinate
    4928981.305,              !- Vertex 1 Ycoordinate
    15,                       !- Vertex 1 Zcoordinate
    686740.632,               !- Vertex 2 Xcoordinate
    4928981.305,              !- Vertex 2 Ycoordinate
    12,                       !- Vertex 2 Zcoordinate
    686742.232,               !- Vertex 3 Xcoordinate
    4928980.695,              !- Vertex 3 Ycoordinate
    12,                       !- Vertex 3 Zcoordinate
    686742.232,               !- Vertex 4 Xcoordinate
    4928980.695,              !- Vertex 4 Ycoordinate
    15;                       !- Vertex 4 Zcoordinate

BUILDINGSURFACE:DETAILED,
    Block 19da1493f901936e_1 Storey 5 Wall 0001,    !- Name
    wall,                     !- Surface Type
    EU_wall_Construction,     !- Construction Name
    19da1493f901936e_F5_dwelling_1,    !- Zone Name
    ,                         !- Space Name
    outdoors,                 !- Outside Boundary Condition
    ,                         !- Outside Boundary Condition Object
    SunExposed,               !- Sun Exposure
    WindExposed,              !- Wind Exposure
    autocalculate,            !- View Factor to Ground
    autocalculate,            !- Number of Vertices
    686742.232,               !- Vertex 1 Xcoordinate
    4928980.695,              !- Vertex 1 Ycoordinate
    18,                       !- Vertex 1 Zcoordinate
    686742.232,               !- Vertex 2 Xcoordinate
    4928980.695,              !- Vertex 2 Ycoordinate
    15,                       !- Vertex 2 Zcoordinate
    686746.202,               !- Vertex 3 Xcoordinate
    4928987.925,              !- Vertex 3 Ycoordinate
    15,                       !- Vertex 3 Zcoordinate
    686746.202,               !- Vertex 4 Xcoordinate
    4928987.925,              !- Vertex 4 Ycoordinate
    18;                       !- Vertex 4 Zcoordinate

BUILDINGSURFACE:DETAILED,
    Block 19da1493f901936e_1 Storey 5 Wall 0002,    !- Name
    wall,                     !- Surface Type
    EU_wall_Construction,     !- Construction Name
    19da1493f901936e_F5_dwelling_1,    !- Zone Name
    ,                         !- Space Name
    outdoors,                 !- Outside Boundary Condition
    ,                         !- Outside Boundary Condition Object
    SunExposed,               !- Sun Exposure
    WindExposed,              !- Wind Exposure
    autocalculate,            !- View Factor to Ground
    autocalculate,            !- Number of Vertices
    686746.202,               !- Vertex 1 Xcoordinate
    4928987.925,              !- Vertex 1 Ycoordinate
    18,                       !- Vertex 1 Zcoordinate
    686746.202,               !- Vertex 2 Xcoordinate
    4928987.925,              !- Vertex 2 Ycoordinate
    15,                       !- Vertex 2 Zcoordinate
    686774.932,               !- Vertex 3 Xcoordinate
    4928977.41,               !- Vertex 3 Ycoordinate
    15,                       !- Vertex 3 Zcoordinate
    686774.932,               !- Vertex 4 Xcoordinate
    4928977.41,               !- Vertex 4 Ycoordinate
    18;                       !- Vertex 4 Zcoordinate

BUILDINGSURFACE:DETAILED,
    Block 19da1493f901936e_1 Storey 5 Wall 0004,    !- Name
    wall,                     !- Surface Type
    EU_wall_Construction,     !- Construction Name
    19da1493f901936e_F5_dwelling_1,    !- Zone Name
    ,                         !- Space Name
    outdoors,                 !- Outside Boundary Condition
    ,                         !- Outside Boundary Condition Object
    SunExposed,               !- Sun Exposure
    WindExposed,              !- Wind Exposure
    autocalculate,            !- View Factor to Ground
    autocalculate,            !- Number of Vertices
    686766.921,               !- Vertex 1 Xcoordinate
    4928966.138,              !- Vertex 1 Ycoordinate
    18,                       !- Vertex 1 Zcoordinate
    686766.921,               !- Vertex 2 Xcoordinate
    4928966.138,              !- Vertex 2 Ycoordinate
    15,                       !- Vertex 2 Zcoordinate
    686748.332,               !- Vertex 3 Xcoordinate
    4928973.345,              !- Vertex 3 Ycoordinate
    15,                       !- Vertex 3 Zcoordinate
    686748.332,               !- Vertex 4 Xcoordinate
    4928973.345,              !- Vertex 4 Ycoordinate
    18;                       !- Vertex 4 Zcoordinate

BUILDINGSURFACE:DETAILED,
    Block 19da1493f901936e_1 Storey 5 Wall 0005,    !- Name
    wall,                     !- Surface Type
    EU_wall_Construction,     !- Construction Name
    19da1493f901936e_F5_dwelling_1,    !- Zone Name
    ,                         !- Space Name
    outdoors,                 !- Outside Boundary Condition
    ,                         !- Outside Boundary Condition Object
    SunExposed,               !- Sun Exposure
    WindExposed,              !- Wind Exposure
    autocalculate,            !- View Factor to Ground
    autocalculate,            !- Number of Vertices
    686748.332,               !- Vertex 1 Xcoordinate
    4928973.345,              !- Vertex 1 Ycoordinate
    18,                       !- Vertex 1 Zcoordinate
    686748.332,               !- Vertex 2 Xcoordinate
    4928973.345,              !- Vertex 2 Ycoordinate
    15,                       !- Vertex 2 Zcoordinate
    686747.352,               !- Vertex 3 Xcoordinate
    4928970.545,              !- Vertex 3 Ycoordinate
    15,                       !- Vertex 3 Zcoordinate
    686747.352,               !- Vertex 4 Xcoordinate
    4928970.545,              !- Vertex 4 Ycoordinate
    18;                       !- Vertex 4 Zcoordinate

BUILDINGSURFACE:DETAILED,
    Block 19da1493f901936e_1 Storey 5 Wall 0006,    !- Name
    wall,                     !- Surface Type
    EU_wall_Construction,     !- Construction Name
    19da1493f901936e_F5_dwelling_1,    !- Zone Name
    ,                         !- Space Name
    outdoors,                 !- Outside Boundary Condition
    ,                         !- Outside Boundary Condition Object
    SunExposed,               !- Sun Exposure
    WindExposed,              !- Wind Exposure
    autocalculate,            !- View Factor to Ground
    autocalculate,            !- Number of Vertices
    686747.352,               !- Vertex 1 Xcoordinate
    4928970.545,              !- Vertex 1 Ycoordinate
    18,                       !- Vertex 1 Zcoordinate
    686747.352,               !- Vertex 2 Xcoordinate
    4928970.545,              !- Vertex 2 Ycoordinate
    15,                       !- Vertex 2 Zcoordinate
    686742.872,               !- Vertex 3 Xcoordinate
    4928958.945,              !- Vertex 3 Ycoordinate
    15,                       !- Vertex 3 Zcoordinate
    686742.872,               !- Vertex 4 Xcoordinate
    4928958.945,              !- Vertex 4 Ycoordinate
    18;                       !- Vertex 4 Zcoordinate

BUILDINGSURFACE:DETAILED,
    Block 19da1493f901936e_1 Storey 5 Wall 0007,    !- Name
    wall,                     !- Surface Type
    EU_wall_Construction,     !- Construction Name
    19da1493f901936e_F5_dwelling_1,    !- Zone Name
    ,                         !- Space Name
    outdoors,                 !- Outside Boundary Condition
    ,                         !- Outside Boundary Condition Object
    SunExposed,               !- Sun Exposure
    WindExposed,              !- Wind Exposure
    autocalculate,            !- View Factor to Ground
    autocalculate,            !- Number of Vertices
    686742.872,               !- Vertex 1 Xcoordinate
    4928958.945,              !- Vertex 1 Ycoordinate
    18,                       !- Vertex 1 Zcoordinate
    686742.872,               !- Vertex 2 Xcoordinate
    4928958.945,              !- Vertex 2 Ycoordinate
    15,                       !- Vertex 2 Zcoordinate
    686741.662,               !- Vertex 3 Xcoordinate
    4928955.745,              !- Vertex 3 Ycoordinate
    15,                       !- Vertex 3 Zcoordinate
    686741.662,               !- Vertex 4 Xcoordinate
    4928955.745,              !- Vertex 4 Ycoordinate
    18;                       !- Vertex 4 Zcoordinate

BUILDINGSURFACE:DETAILED,
    Block 19da1493f901936e_1 Storey 5 Wall 0008,    !- Name
    wall,                     !- Surface Type
    EU_wall_Construction,     !- Construction Name
    19da1493f901936e_F5_dwelling_1,    !- Zone Name
    ,                         !- Space Name
    outdoors,                 !- Outside Boundary Condition
    ,                         !- Outside Boundary Condition Object
    SunExposed,               !- Sun Exposure
    WindExposed,              !- Wind Exposure
    autocalculate,            !- View Factor to Ground
    autocalculate,            !- Number of Vertices
    686741.662,               !- Vertex 1 Xcoordinate
    4928955.745,              !- Vertex 1 Ycoordinate
    18,                       !- Vertex 1 Zcoordinate
    686741.662,               !- Vertex 2 Xcoordinate
    4928955.745,              !- Vertex 2 Ycoordinate
    15,                       !- Vertex 2 Zcoordinate
    686755.905,               !- Vertex 3 Xcoordinate
    4928950.639,              !- Vertex 3 Ycoordinate
    15,                       !- Vertex 3 Zcoordinate
    686755.905,               !- Vertex 4 Xcoordinate
    4928950.639,              !- Vertex 4 Ycoordinate
    18;                       !- Vertex 4 Zcoordinate

BUILDINGSURFACE:DETAILED,
    Block 19da1493f901936e_1 Storey 5 Wall 0010,    !- Name
    wall,                     !- Surface Type
    EU_wall_Construction,     !- Construction Name
    19da1493f901936e_F5_dwelling_1,    !- Zone Name
    ,                         !- Space Name
    outdoors,                 !- Outside Boundary Condition
    ,                         !- Outside Boundary Condition Object
    SunExposed,               !- Sun Exposure
    WindExposed,              !- Wind Exposure
    autocalculate,            !- View Factor to Ground
    autocalculate,            !- Number of Vertices
    686747.905,               !- Vertex 1 Xcoordinate
    4928939.383,              !- Vertex 1 Ycoordinate
    18,                       !- Vertex 1 Zcoordinate
    686747.905,               !- Vertex 2 Xcoordinate
    4928939.383,              !- Vertex 2 Ycoordinate
    15,                       !- Vertex 2 Zcoordinate
    686726.082,               !- Vertex 3 Xcoordinate
    4928947.246,              !- Vertex 3 Ycoordinate
    15,                       !- Vertex 3 Zcoordinate
    686726.082,               !- Vertex 4 Xcoordinate
    4928947.246,              !- Vertex 4 Ycoordinate
    18;                       !- Vertex 4 Zcoordinate

BUILDINGSURFACE:DETAILED,
    Block 19da1493f901936e_1 Storey 5 Wall 0011,    !- Name
    wall,                     !- Surface Type
    EU_wall_Construction,     !- Construction Name
    19da1493f901936e_F5_dwelling_1,    !- Zone Name
    ,                         !- Space Name
    outdoors,                 !- Outside Boundary Condition
    ,                         !- Outside Boundary Condition Object
    SunExposed,               !- Sun Exposure
    WindExposed,              !- Wind Exposure
    autocalculate,            !- View Factor to Ground
    autocalculate,            !- Number of Vertices
    686726.082,               !- Vertex 1 Xcoordinate
    4928947.246,              !- Vertex 1 Ycoordinate
    18,                       !- Vertex 1 Zcoordinate
    686726.082,               !- Vertex 2 Xcoordinate
    4928947.246,              !- Vertex 2 Ycoordinate
    15,                       !- Vertex 2 Zcoordinate
    686732.222,               !- Vertex 3 Xcoordinate
    4928962.766,              !- Vertex 3 Ycoordinate
    15,                       !- Vertex 3 Zcoordinate
    686732.222,               !- Vertex 4 Xcoordinate
    4928962.766,              !- Vertex 4 Ycoordinate
    18;                       !- Vertex 4 Zcoordinate

BUILDINGSURFACE:DETAILED,
    Block 19da1493f901936e_1 Storey 5 Wall 0012,    !- Name
    wall,                     !- Surface Type
    EU_wall_Construction,     !- Construction Name
    19da1493f901936e_F5_dwelling_1,    !- Zone Name
    ,                         !- Space Name
    outdoors,                 !- Outside Boundary Condition
    ,                         !- Outside Boundary Condition Object
    SunExposed,               !- Sun Exposure
    WindExposed,              !- Wind Exposure
    autocalculate,            !- View Factor to Ground
    autocalculate,            !- Number of Vertices
    686732.222,               !- Vertex 1 Xcoordinate
    4928962.766,              !- Vertex 1 Ycoordinate
    18,                       !- Vertex 1 Zcoordinate
    686732.222,               !- Vertex 2 Xcoordinate
    4928962.766,              !- Vertex 2 Ycoordinate
    15,                       !- Vertex 2 Zcoordinate
    686737.112,               !- Vertex 3 Xcoordinate
    4928974.555,              !- Vertex 3 Ycoordinate
    15,                       !- Vertex 3 Zcoordinate
    686737.112,               !- Vertex 4 Xcoordinate
    4928974.555,              !- Vertex 4 Ycoordinate
    18;                       !- Vertex 4 Zcoordinate

BUILDINGSURFACE:DETAILED,
    Block 19da1493f901936e_1 Storey 5 Wall 0013,    !- Name
    wall,                     !- Surface Type
    EU_wall_Construction,     !- Construction Name
    19da1493f901936e_F5_dwelling_1,    !- Zone Name
    ,                         !- Space Name
    outdoors,                 !- Outside Boundary Condition
    ,                         !- Outside Boundary Condition Object
    SunExposed,               !- Sun Exposure
    WindExposed,              !- Wind Exposure
    autocalculate,            !- View Factor to Ground
    autocalculate,            !- Number of Vertices
    686737.112,               !- Vertex 1 Xcoordinate
    4928974.555,              !- Vertex 1 Ycoordinate
    18,                       !- Vertex 1 Zcoordinate
    686737.112,               !- Vertex 2 Xcoordinate
    4928974.555,              !- Vertex 2 Ycoordinate
    15,                       !- Vertex 2 Zcoordinate
    686737.942,               !- Vertex 3 Xcoordinate
    4928974.225,              !- Vertex 3 Ycoordinate
    15,                       !- Vertex 3 Zcoordinate
    686737.942,               !- Vertex 4 Xcoordinate
    4928974.225,              !- Vertex 4 Ycoordinate
    18;                       !- Vertex 4 Zcoordinate

BUILDINGSURFACE:DETAILED,
    Block 19da1493f901936e_1 Storey 5 Wall 0014,    !- Name
    wall,                     !- Surface Type
    EU_wall_Construction,     !- Construction Name
    19da1493f901936e_F5_dwelling_1,    !- Zone Name
    ,                         !- Space Name
    outdoors,                 !- Outside Boundary Condition
    ,                         !- Outside Boundary Condition Object
    SunExposed,               !- Sun Exposure
    WindExposed,              !- Wind Exposure
    autocalculate,            !- View Factor to Ground
    autocalculate,            !- Number of Vertices
    686737.942,               !- Vertex 1 Xcoordinate
    4928974.225,              !- Vertex 1 Ycoordinate
    18,                       !- Vertex 1 Zcoordinate
    686737.942,               !- Vertex 2 Xcoordinate
    4928974.225,              !- Vertex 2 Ycoordinate
    15,                       !- Vertex 2 Zcoordinate
    686740.632,               !- Vertex 3 Xcoordinate
    4928981.305,              !- Vertex 3 Ycoordinate
    15,                       !- Vertex 3 Zcoordinate
    686740.632,               !- Vertex 4 Xcoordinate
    4928981.305,              !- Vertex 4 Ycoordinate
    18;                       !- Vertex 4 Zcoordinate

BUILDINGSURFACE:DETAILED,
    Block 19da1493f901936e_1 Storey 5 Wall 0015,    !- Name
    wall,                     !- Surface Type
    EU_wall_Construction,     !- Construction Name
    19da1493f901936e_F5_dwelling_1,    !- Zone Name
    ,                         !- Space Name
    outdoors,                 !- Outside Boundary Condition
    ,                         !- Outside Boundary Condition Object
    SunExposed,               !- Sun Exposure
    WindExposed,              !- Wind Exposure
    autocalculate,            !- View Factor to Ground
    autocalculate,            !- Number of Vertices
    686740.632,               !- Vertex 1 Xcoordinate
    4928981.305,              !- Vertex 1 Ycoordinate
    18,                       !- Vertex 1 Zcoordinate
    686740.632,               !- Vertex 2 Xcoordinate
    4928981.305,              !- Vertex 2 Ycoordinate
    15,                       !- Vertex 2 Zcoordinate
    686742.232,               !- Vertex 3 Xcoordinate
    4928980.695,              !- Vertex 3 Ycoordinate
    15,                       !- Vertex 3 Zcoordinate
    686742.232,               !- Vertex 4 Xcoordinate
    4928980.695,              !- Vertex 4 Ycoordinate
    18;                       !- Vertex 4 Zcoordinate

BUILDINGSURFACE:DETAILED,
    Block 19da1493f901936e_1 Storey 6 Wall 0001,    !- Name
    wall,                     !- Surface Type
    EU_wall_Construction,     !- Construction Name
    19da1493f901936e_F6_dwelling_1,    !- Zone Name
    ,                         !- Space Name
    outdoors,                 !- Outside Boundary Condition
    ,                         !- Outside Boundary Condition Object
    SunExposed,               !- Sun Exposure
    WindExposed,              !- Wind Exposure
    autocalculate,            !- View Factor to Ground
    autocalculate,            !- Number of Vertices
    686742.232,               !- Vertex 1 Xcoordinate
    4928980.695,              !- Vertex 1 Ycoordinate
    21,                       !- Vertex 1 Zcoordinate
    686742.232,               !- Vertex 2 Xcoordinate
    4928980.695,              !- Vertex 2 Ycoordinate
    18,                       !- Vertex 2 Zcoordinate
    686746.202,               !- Vertex 3 Xcoordinate
    4928987.925,              !- Vertex 3 Ycoordinate
    18,                       !- Vertex 3 Zcoordinate
    686746.202,               !- Vertex 4 Xcoordinate
    4928987.925,              !- Vertex 4 Ycoordinate
    21;                       !- Vertex 4 Zcoordinate

BUILDINGSURFACE:DETAILED,
    Block 19da1493f901936e_1 Storey 6 Wall 0002,    !- Name
    wall,                     !- Surface Type
    EU_wall_Construction,     !- Construction Name
    19da1493f901936e_F6_dwelling_1,    !- Zone Name
    ,                         !- Space Name
    outdoors,                 !- Outside Boundary Condition
    ,                         !- Outside Boundary Condition Object
    SunExposed,               !- Sun Exposure
    WindExposed,              !- Wind Exposure
    autocalculate,            !- View Factor to Ground
    autocalculate,            !- Number of Vertices
    686746.202,               !- Vertex 1 Xcoordinate
    4928987.925,              !- Vertex 1 Ycoordinate
    21,                       !- Vertex 1 Zcoordinate
    686746.202,               !- Vertex 2 Xcoordinate
    4928987.925,              !- Vertex 2 Ycoordinate
    18,                       !- Vertex 2 Zcoordinate
    686774.932,               !- Vertex 3 Xcoordinate
    4928977.41,               !- Vertex 3 Ycoordinate
    18,                       !- Vertex 3 Zcoordinate
    686774.932,               !- Vertex 4 Xcoordinate
    4928977.41,               !- Vertex 4 Ycoordinate
    21;                       !- Vertex 4 Zcoordinate

BUILDINGSURFACE:DETAILED,
    Block 19da1493f901936e_1 Storey 6 Wall 0004,    !- Name
    wall,                     !- Surface Type
    EU_wall_Construction,     !- Construction Name
    19da1493f901936e_F6_dwelling_1,    !- Zone Name
    ,                         !- Space Name
    outdoors,                 !- Outside Boundary Condition
    ,                         !- Outside Boundary Condition Object
    SunExposed,               !- Sun Exposure
    WindExposed,              !- Wind Exposure
    autocalculate,            !- View Factor to Ground
    autocalculate,            !- Number of Vertices
    686766.921,               !- Vertex 1 Xcoordinate
    4928966.138,              !- Vertex 1 Ycoordinate
    21,                       !- Vertex 1 Zcoordinate
    686766.921,               !- Vertex 2 Xcoordinate
    4928966.138,              !- Vertex 2 Ycoordinate
    18,                       !- Vertex 2 Zcoordinate
    686748.332,               !- Vertex 3 Xcoordinate
    4928973.345,              !- Vertex 3 Ycoordinate
    18,                       !- Vertex 3 Zcoordinate
    686748.332,               !- Vertex 4 Xcoordinate
    4928973.345,              !- Vertex 4 Ycoordinate
    21;                       !- Vertex 4 Zcoordinate

BUILDINGSURFACE:DETAILED,
    Block 19da1493f901936e_1 Storey 6 Wall 0005,    !- Name
    wall,                     !- Surface Type
    EU_wall_Construction,     !- Construction Name
    19da1493f901936e_F6_dwelling_1,    !- Zone Name
    ,                         !- Space Name
    outdoors,                 !- Outside Boundary Condition
    ,                         !- Outside Boundary Condition Object
    SunExposed,               !- Sun Exposure
    WindExposed,              !- Wind Exposure
    autocalculate,            !- View Factor to Ground
    autocalculate,            !- Number of Vertices
    686748.332,               !- Vertex 1 Xcoordinate
    4928973.345,              !- Vertex 1 Ycoordinate
    21,                       !- Vertex 1 Zcoordinate
    686748.332,               !- Vertex 2 Xcoordinate
    4928973.345,              !- Vertex 2 Ycoordinate
    18,                       !- Vertex 2 Zcoordinate
    686747.352,               !- Vertex 3 Xcoordinate
    4928970.545,              !- Vertex 3 Ycoordinate
    18,                       !- Vertex 3 Zcoordinate
    686747.352,               !- Vertex 4 Xcoordinate
    4928970.545,              !- Vertex 4 Ycoordinate
    21;                       !- Vertex 4 Zcoordinate

BUILDINGSURFACE:DETAILED,
    Block 19da1493f901936e_1 Storey 6 Wall 0006,    !- Name
    wall,                     !- Surface Type
    EU_wall_Construction,     !- Construction Name
    19da1493f901936e_F6_dwelling_1,    !- Zone Name
    ,                         !- Space Name
    outdoors,                 !- Outside Boundary Condition
    ,                         !- Outside Boundary Condition Object
    SunExposed,               !- Sun Exposure
    WindExposed,              !- Wind Exposure
    autocalculate,            !- View Factor to Ground
    autocalculate,            !- Number of Vertices
    686747.352,               !- Vertex 1 Xcoordinate
    4928970.545,              !- Vertex 1 Ycoordinate
    21,                       !- Vertex 1 Zcoordinate
    686747.352,               !- Vertex 2 Xcoordinate
    4928970.545,              !- Vertex 2 Ycoordinate
    18,                       !- Vertex 2 Zcoordinate
    686742.872,               !- Vertex 3 Xcoordinate
    4928958.945,              !- Vertex 3 Ycoordinate
    18,                       !- Vertex 3 Zcoordinate
    686742.872,               !- Vertex 4 Xcoordinate
    4928958.945,              !- Vertex 4 Ycoordinate
    21;                       !- Vertex 4 Zcoordinate

BUILDINGSURFACE:DETAILED,
    Block 19da1493f901936e_1 Storey 6 Wall 0007,    !- Name
    wall,                     !- Surface Type
    EU_wall_Construction,     !- Construction Name
    19da1493f901936e_F6_dwelling_1,    !- Zone Name
    ,                         !- Space Name
    outdoors,                 !- Outside Boundary Condition
    ,                         !- Outside Boundary Condition Object
    SunExposed,               !- Sun Exposure
    WindExposed,              !- Wind Exposure
    autocalculate,            !- View Factor to Ground
    autocalculate,            !- Number of Vertices
    686742.872,               !- Vertex 1 Xcoordinate
    4928958.945,              !- Vertex 1 Ycoordinate
    21,                       !- Vertex 1 Zcoordinate
    686742.872,               !- Vertex 2 Xcoordinate
    4928958.945,              !- Vertex 2 Ycoordinate
    18,                       !- Vertex 2 Zcoordinate
    686741.662,               !- Vertex 3 Xcoordinate
    4928955.745,              !- Vertex 3 Ycoordinate
    18,                       !- Vertex 3 Zcoordinate
    686741.662,               !- Vertex 4 Xcoordinate
    4928955.745,              !- Vertex 4 Ycoordinate
    21;                       !- Vertex 4 Zcoordinate

BUILDINGSURFACE:DETAILED,
    Block 19da1493f901936e_1 Storey 6 Wall 0008,    !- Name
    wall,                     !- Surface Type
    EU_wall_Construction,     !- Construction Name
    19da1493f901936e_F6_dwelling_1,    !- Zone Name
    ,                         !- Space Name
    outdoors,                 !- Outside Boundary Condition
    ,                         !- Outside Boundary Condition Object
    SunExposed,               !- Sun Exposure
    WindExposed,              !- Wind Exposure
    autocalculate,            !- View Factor to Ground
    autocalculate,            !- Number of Vertices
    686741.662,               !- Vertex 1 Xcoordinate
    4928955.745,              !- Vertex 1 Ycoordinate
    21,                       !- Vertex 1 Zcoordinate
    686741.662,               !- Vertex 2 Xcoordinate
    4928955.745,              !- Vertex 2 Ycoordinate
    18,                       !- Vertex 2 Zcoordinate
    686755.905,               !- Vertex 3 Xcoordinate
    4928950.639,              !- Vertex 3 Ycoordinate
    18,                       !- Vertex 3 Zcoordinate
    686755.905,               !- Vertex 4 Xcoordinate
    4928950.639,              !- Vertex 4 Ycoordinate
    21;                       !- Vertex 4 Zcoordinate

BUILDINGSURFACE:DETAILED,
    Block 19da1493f901936e_1 Storey 6 Wall 0010,    !- Name
    wall,                     !- Surface Type
    EU_wall_Construction,     !- Construction Name
    19da1493f901936e_F6_dwelling_1,    !- Zone Name
    ,                         !- Space Name
    outdoors,                 !- Outside Boundary Condition
    ,                         !- Outside Boundary Condition Object
    SunExposed,               !- Sun Exposure
    WindExposed,              !- Wind Exposure
    autocalculate,            !- View Factor to Ground
    autocalculate,            !- Number of Vertices
    686747.905,               !- Vertex 1 Xcoordinate
    4928939.383,              !- Vertex 1 Ycoordinate
    21,                       !- Vertex 1 Zcoordinate
    686747.905,               !- Vertex 2 Xcoordinate
    4928939.383,              !- Vertex 2 Ycoordinate
    18,                       !- Vertex 2 Zcoordinate
    686726.082,               !- Vertex 3 Xcoordinate
    4928947.246,              !- Vertex 3 Ycoordinate
    18,                       !- Vertex 3 Zcoordinate
    686726.082,               !- Vertex 4 Xcoordinate
    4928947.246,              !- Vertex 4 Ycoordinate
    21;                       !- Vertex 4 Zcoordinate

BUILDINGSURFACE:DETAILED,
    Block 19da1493f901936e_1 Storey 6 Wall 0011,    !- Name
    wall,                     !- Surface Type
    EU_wall_Construction,     !- Construction Name
    19da1493f901936e_F6_dwelling_1,    !- Zone Name
    ,                         !- Space Name
    outdoors,                 !- Outside Boundary Condition
    ,                         !- Outside Boundary Condition Object
    SunExposed,               !- Sun Exposure
    WindExposed,              !- Wind Exposure
    autocalculate,            !- View Factor to Ground
    autocalculate,            !- Number of Vertices
    686726.082,               !- Vertex 1 Xcoordinate
    4928947.246,              !- Vertex 1 Ycoordinate
    21,                       !- Vertex 1 Zcoordinate
    686726.082,               !- Vertex 2 Xcoordinate
    4928947.246,              !- Vertex 2 Ycoordinate
    18,                       !- Vertex 2 Zcoordinate
    686732.222,               !- Vertex 3 Xcoordinate
    4928962.766,              !- Vertex 3 Ycoordinate
    18,                       !- Vertex 3 Zcoordinate
    686732.222,               !- Vertex 4 Xcoordinate
    4928962.766,              !- Vertex 4 Ycoordinate
    21;                       !- Vertex 4 Zcoordinate

BUILDINGSURFACE:DETAILED,
    Block 19da1493f901936e_1 Storey 6 Wall 0012,    !- Name
    wall,                     !- Surface Type
    EU_wall_Construction,     !- Construction Name
    19da1493f901936e_F6_dwelling_1,    !- Zone Name
    ,                         !- Space Name
    outdoors,                 !- Outside Boundary Condition
    ,                         !- Outside Boundary Condition Object
    SunExposed,               !- Sun Exposure
    WindExposed,              !- Wind Exposure
    autocalculate,            !- View Factor to Ground
    autocalculate,            !- Number of Vertices
    686732.222,               !- Vertex 1 Xcoordinate
    4928962.766,              !- Vertex 1 Ycoordinate
    21,                       !- Vertex 1 Zcoordinate
    686732.222,               !- Vertex 2 Xcoordinate
    4928962.766,              !- Vertex 2 Ycoordinate
    18,                       !- Vertex 2 Zcoordinate
    686737.112,               !- Vertex 3 Xcoordinate
    4928974.555,              !- Vertex 3 Ycoordinate
    18,                       !- Vertex 3 Zcoordinate
    686737.112,               !- Vertex 4 Xcoordinate
    4928974.555,              !- Vertex 4 Ycoordinate
    21;                       !- Vertex 4 Zcoordinate

BUILDINGSURFACE:DETAILED,
    Block 19da1493f901936e_1 Storey 6 Wall 0013,    !- Name
    wall,                     !- Surface Type
    EU_wall_Construction,     !- Construction Name
    19da1493f901936e_F6_dwelling_1,    !- Zone Name
    ,                         !- Space Name
    outdoors,                 !- Outside Boundary Condition
    ,                         !- Outside Boundary Condition Object
    SunExposed,               !- Sun Exposure
    WindExposed,              !- Wind Exposure
    autocalculate,            !- View Factor to Ground
    autocalculate,            !- Number of Vertices
    686737.112,               !- Vertex 1 Xcoordinate
    4928974.555,              !- Vertex 1 Ycoordinate
    21,                       !- Vertex 1 Zcoordinate
    686737.112,               !- Vertex 2 Xcoordinate
    4928974.555,              !- Vertex 2 Ycoordinate
    18,                       !- Vertex 2 Zcoordinate
    686737.942,               !- Vertex 3 Xcoordinate
    4928974.225,              !- Vertex 3 Ycoordinate
    18,                       !- Vertex 3 Zcoordinate
    686737.942,               !- Vertex 4 Xcoordinate
    4928974.225,              !- Vertex 4 Ycoordinate
    21;                       !- Vertex 4 Zcoordinate

BUILDINGSURFACE:DETAILED,
    Block 19da1493f901936e_1 Storey 6 Wall 0014,    !- Name
    wall,                     !- Surface Type
    EU_wall_Construction,     !- Construction Name
    19da1493f901936e_F6_dwelling_1,    !- Zone Name
    ,                         !- Space Name
    outdoors,                 !- Outside Boundary Condition
    ,                         !- Outside Boundary Condition Object
    SunExposed,               !- Sun Exposure
    WindExposed,              !- Wind Exposure
    autocalculate,            !- View Factor to Ground
    autocalculate,            !- Number of Vertices
    686737.942,               !- Vertex 1 Xcoordinate
    4928974.225,              !- Vertex 1 Ycoordinate
    21,                       !- Vertex 1 Zcoordinate
    686737.942,               !- Vertex 2 Xcoordinate
    4928974.225,              !- Vertex 2 Ycoordinate
    18,                       !- Vertex 2 Zcoordinate
    686740.632,               !- Vertex 3 Xcoordinate
    4928981.305,              !- Vertex 3 Ycoordinate
    18,                       !- Vertex 3 Zcoordinate
    686740.632,               !- Vertex 4 Xcoordinate
    4928981.305,              !- Vertex 4 Ycoordinate
    21;                       !- Vertex 4 Zcoordinate

BUILDINGSURFACE:DETAILED,
    Block 19da1493f901936e_1 Storey 6 Wall 0015,    !- Name
    wall,                     !- Surface Type
    EU_wall_Construction,     !- Construction Name
    19da1493f901936e_F6_dwelling_1,    !- Zone Name
    ,                         !- Space Name
    outdoors,                 !- Outside Boundary Condition
    ,                         !- Outside Boundary Condition Object
    SunExposed,               !- Sun Exposure
    WindExposed,              !- Wind Exposure
    autocalculate,            !- View Factor to Ground
    autocalculate,            !- Number of Vertices
    686740.632,               !- Vertex 1 Xcoordinate
    4928981.305,              !- Vertex 1 Ycoordinate
    21,                       !- Vertex 1 Zcoordinate
    686740.632,               !- Vertex 2 Xcoordinate
    4928981.305,              !- Vertex 2 Ycoordinate
    18,                       !- Vertex 2 Zcoordinate
    686742.232,               !- Vertex 3 Xcoordinate
    4928980.695,              !- Vertex 3 Ycoordinate
    18,                       !- Vertex 3 Zcoordinate
    686742.232,               !- Vertex 4 Xcoordinate
    4928980.695,              !- Vertex 4 Ycoordinate
    21;                       !- Vertex 4 Zcoordinate

BUILDINGSURFACE:DETAILED,
    Block 19da1493f901936e_1 Storey 7 Wall 0001,    !- Name
    wall,                     !- Surface Type
    EU_wall_Construction,     !- Construction Name
    19da1493f901936e_F7_dwelling_1,    !- Zone Name
    ,                         !- Space Name
    outdoors,                 !- Outside Boundary Condition
    ,                         !- Outside Boundary Condition Object
    SunExposed,               !- Sun Exposure
    WindExposed,              !- Wind Exposure
    autocalculate,            !- View Factor to Ground
    autocalculate,            !- Number of Vertices
    686742.232,               !- Vertex 1 Xcoordinate
    4928980.695,              !- Vertex 1 Ycoordinate
    24,                       !- Vertex 1 Zcoordinate
    686742.232,               !- Vertex 2 Xcoordinate
    4928980.695,              !- Vertex 2 Ycoordinate
    21,                       !- Vertex 2 Zcoordinate
    686746.202,               !- Vertex 3 Xcoordinate
    4928987.925,              !- Vertex 3 Ycoordinate
    21,                       !- Vertex 3 Zcoordinate
    686746.202,               !- Vertex 4 Xcoordinate
    4928987.925,              !- Vertex 4 Ycoordinate
    24;                       !- Vertex 4 Zcoordinate

BUILDINGSURFACE:DETAILED,
    Block 19da1493f901936e_1 Storey 7 Wall 0002,    !- Name
    wall,                     !- Surface Type
    EU_wall_Construction,     !- Construction Name
    19da1493f901936e_F7_dwelling_1,    !- Zone Name
    ,                         !- Space Name
    outdoors,                 !- Outside Boundary Condition
    ,                         !- Outside Boundary Condition Object
    SunExposed,               !- Sun Exposure
    WindExposed,              !- Wind Exposure
    autocalculate,            !- View Factor to Ground
    autocalculate,            !- Number of Vertices
    686746.202,               !- Vertex 1 Xcoordinate
    4928987.925,              !- Vertex 1 Ycoordinate
    24,                       !- Vertex 1 Zcoordinate
    686746.202,               !- Vertex 2 Xcoordinate
    4928987.925,              !- Vertex 2 Ycoordinate
    21,                       !- Vertex 2 Zcoordinate
    686774.932,               !- Vertex 3 Xcoordinate
    4928977.41,               !- Vertex 3 Ycoordinate
    21,                       !- Vertex 3 Zcoordinate
    686774.932,               !- Vertex 4 Xcoordinate
    4928977.41,               !- Vertex 4 Ycoordinate
    24;                       !- Vertex 4 Zcoordinate

BUILDINGSURFACE:DETAILED,
    Block 19da1493f901936e_1 Storey 7 Wall 0004,    !- Name
    wall,                     !- Surface Type
    EU_wall_Construction,     !- Construction Name
    19da1493f901936e_F7_dwelling_1,    !- Zone Name
    ,                         !- Space Name
    outdoors,                 !- Outside Boundary Condition
    ,                         !- Outside Boundary Condition Object
    SunExposed,               !- Sun Exposure
    WindExposed,              !- Wind Exposure
    autocalculate,            !- View Factor to Ground
    autocalculate,            !- Number of Vertices
    686766.921,               !- Vertex 1 Xcoordinate
    4928966.138,              !- Vertex 1 Ycoordinate
    24,                       !- Vertex 1 Zcoordinate
    686766.921,               !- Vertex 2 Xcoordinate
    4928966.138,              !- Vertex 2 Ycoordinate
    21,                       !- Vertex 2 Zcoordinate
    686748.332,               !- Vertex 3 Xcoordinate
    4928973.345,              !- Vertex 3 Ycoordinate
    21,                       !- Vertex 3 Zcoordinate
    686748.332,               !- Vertex 4 Xcoordinate
    4928973.345,              !- Vertex 4 Ycoordinate
    24;                       !- Vertex 4 Zcoordinate

BUILDINGSURFACE:DETAILED,
    Block 19da1493f901936e_1 Storey 7 Wall 0005,    !- Name
    wall,                     !- Surface Type
    EU_wall_Construction,     !- Construction Name
    19da1493f901936e_F7_dwelling_1,    !- Zone Name
    ,                         !- Space Name
    outdoors,                 !- Outside Boundary Condition
    ,                         !- Outside Boundary Condition Object
    SunExposed,               !- Sun Exposure
    WindExposed,              !- Wind Exposure
    autocalculate,            !- View Factor to Ground
    autocalculate,            !- Number of Vertices
    686748.332,               !- Vertex 1 Xcoordinate
    4928973.345,              !- Vertex 1 Ycoordinate
    24,                       !- Vertex 1 Zcoordinate
    686748.332,               !- Vertex 2 Xcoordinate
    4928973.345,              !- Vertex 2 Ycoordinate
    21,                       !- Vertex 2 Zcoordinate
    686747.352,               !- Vertex 3 Xcoordinate
    4928970.545,              !- Vertex 3 Ycoordinate
    21,                       !- Vertex 3 Zcoordinate
    686747.352,               !- Vertex 4 Xcoordinate
    4928970.545,              !- Vertex 4 Ycoordinate
    24;                       !- Vertex 4 Zcoordinate

BUILDINGSURFACE:DETAILED,
    Block 19da1493f901936e_1 Storey 7 Wall 0006,    !- Name
    wall,                     !- Surface Type
    EU_wall_Construction,     !- Construction Name
    19da1493f901936e_F7_dwelling_1,    !- Zone Name
    ,                         !- Space Name
    outdoors,                 !- Outside Boundary Condition
    ,                         !- Outside Boundary Condition Object
    SunExposed,               !- Sun Exposure
    WindExposed,              !- Wind Exposure
    autocalculate,            !- View Factor to Ground
    autocalculate,            !- Number of Vertices
    686747.352,               !- Vertex 1 Xcoordinate
    4928970.545,              !- Vertex 1 Ycoordinate
    24,                       !- Vertex 1 Zcoordinate
    686747.352,               !- Vertex 2 Xcoordinate
    4928970.545,              !- Vertex 2 Ycoordinate
    21,                       !- Vertex 2 Zcoordinate
    686742.872,               !- Vertex 3 Xcoordinate
    4928958.945,              !- Vertex 3 Ycoordinate
    21,                       !- Vertex 3 Zcoordinate
    686742.872,               !- Vertex 4 Xcoordinate
    4928958.945,              !- Vertex 4 Ycoordinate
    24;                       !- Vertex 4 Zcoordinate

BUILDINGSURFACE:DETAILED,
    Block 19da1493f901936e_1 Storey 7 Wall 0007,    !- Name
    wall,                     !- Surface Type
    EU_wall_Construction,     !- Construction Name
    19da1493f901936e_F7_dwelling_1,    !- Zone Name
    ,                         !- Space Name
    outdoors,                 !- Outside Boundary Condition
    ,                         !- Outside Boundary Condition Object
    SunExposed,               !- Sun Exposure
    WindExposed,              !- Wind Exposure
    autocalculate,            !- View Factor to Ground
    autocalculate,            !- Number of Vertices
    686742.872,               !- Vertex 1 Xcoordinate
    4928958.945,              !- Vertex 1 Ycoordinate
    24,                       !- Vertex 1 Zcoordinate
    686742.872,               !- Vertex 2 Xcoordinate
    4928958.945,              !- Vertex 2 Ycoordinate
    21,                       !- Vertex 2 Zcoordinate
    686741.662,               !- Vertex 3 Xcoordinate
    4928955.745,              !- Vertex 3 Ycoordinate
    21,                       !- Vertex 3 Zcoordinate
    686741.662,               !- Vertex 4 Xcoordinate
    4928955.745,              !- Vertex 4 Ycoordinate
    24;                       !- Vertex 4 Zcoordinate

BUILDINGSURFACE:DETAILED,
    Block 19da1493f901936e_1 Storey 7 Wall 0008,    !- Name
    wall,                     !- Surface Type
    EU_wall_Construction,     !- Construction Name
    19da1493f901936e_F7_dwelling_1,    !- Zone Name
    ,                         !- Space Name
    outdoors,                 !- Outside Boundary Condition
    ,                         !- Outside Boundary Condition Object
    SunExposed,               !- Sun Exposure
    WindExposed,              !- Wind Exposure
    autocalculate,            !- View Factor to Ground
    autocalculate,            !- Number of Vertices
    686741.662,               !- Vertex 1 Xcoordinate
    4928955.745,              !- Vertex 1 Ycoordinate
    24,                       !- Vertex 1 Zcoordinate
    686741.662,               !- Vertex 2 Xcoordinate
    4928955.745,              !- Vertex 2 Ycoordinate
    21,                       !- Vertex 2 Zcoordinate
    686755.905,               !- Vertex 3 Xcoordinate
    4928950.639,              !- Vertex 3 Ycoordinate
    21,                       !- Vertex 3 Zcoordinate
    686755.905,               !- Vertex 4 Xcoordinate
    4928950.639,              !- Vertex 4 Ycoordinate
    24;                       !- Vertex 4 Zcoordinate

BUILDINGSURFACE:DETAILED,
    Block 19da1493f901936e_1 Storey 7 Wall 0010,    !- Name
    wall,                     !- Surface Type
    EU_wall_Construction,     !- Construction Name
    19da1493f901936e_F7_dwelling_1,    !- Zone Name
    ,                         !- Space Name
    outdoors,                 !- Outside Boundary Condition
    ,                         !- Outside Boundary Condition Object
    SunExposed,               !- Sun Exposure
    WindExposed,              !- Wind Exposure
    autocalculate,            !- View Factor to Ground
    autocalculate,            !- Number of Vertices
    686747.905,               !- Vertex 1 Xcoordinate
    4928939.383,              !- Vertex 1 Ycoordinate
    24,                       !- Vertex 1 Zcoordinate
    686747.905,               !- Vertex 2 Xcoordinate
    4928939.383,              !- Vertex 2 Ycoordinate
    21,                       !- Vertex 2 Zcoordinate
    686726.082,               !- Vertex 3 Xcoordinate
    4928947.246,              !- Vertex 3 Ycoordinate
    21,                       !- Vertex 3 Zcoordinate
    686726.082,               !- Vertex 4 Xcoordinate
    4928947.246,              !- Vertex 4 Ycoordinate
    24;                       !- Vertex 4 Zcoordinate

BUILDINGSURFACE:DETAILED,
    Block 19da1493f901936e_1 Storey 7 Wall 0011,    !- Name
    wall,                     !- Surface Type
    EU_wall_Construction,     !- Construction Name
    19da1493f901936e_F7_dwelling_1,    !- Zone Name
    ,                         !- Space Name
    outdoors,                 !- Outside Boundary Condition
    ,                         !- Outside Boundary Condition Object
    SunExposed,               !- Sun Exposure
    WindExposed,              !- Wind Exposure
    autocalculate,            !- View Factor to Ground
    autocalculate,            !- Number of Vertices
    686726.082,               !- Vertex 1 Xcoordinate
    4928947.246,              !- Vertex 1 Ycoordinate
    24,                       !- Vertex 1 Zcoordinate
    686726.082,               !- Vertex 2 Xcoordinate
    4928947.246,              !- Vertex 2 Ycoordinate
    21,                       !- Vertex 2 Zcoordinate
    686732.222,               !- Vertex 3 Xcoordinate
    4928962.766,              !- Vertex 3 Ycoordinate
    21,                       !- Vertex 3 Zcoordinate
    686732.222,               !- Vertex 4 Xcoordinate
    4928962.766,              !- Vertex 4 Ycoordinate
    24;                       !- Vertex 4 Zcoordinate

BUILDINGSURFACE:DETAILED,
    Block 19da1493f901936e_1 Storey 7 Wall 0012,    !- Name
    wall,                     !- Surface Type
    EU_wall_Construction,     !- Construction Name
    19da1493f901936e_F7_dwelling_1,    !- Zone Name
    ,                         !- Space Name
    outdoors,                 !- Outside Boundary Condition
    ,                         !- Outside Boundary Condition Object
    SunExposed,               !- Sun Exposure
    WindExposed,              !- Wind Exposure
    autocalculate,            !- View Factor to Ground
    autocalculate,            !- Number of Vertices
    686732.222,               !- Vertex 1 Xcoordinate
    4928962.766,              !- Vertex 1 Ycoordinate
    24,                       !- Vertex 1 Zcoordinate
    686732.222,               !- Vertex 2 Xcoordinate
    4928962.766,              !- Vertex 2 Ycoordinate
    21,                       !- Vertex 2 Zcoordinate
    686737.112,               !- Vertex 3 Xcoordinate
    4928974.555,              !- Vertex 3 Ycoordinate
    21,                       !- Vertex 3 Zcoordinate
    686737.112,               !- Vertex 4 Xcoordinate
    4928974.555,              !- Vertex 4 Ycoordinate
    24;                       !- Vertex 4 Zcoordinate

BUILDINGSURFACE:DETAILED,
    Block 19da1493f901936e_1 Storey 7 Wall 0013,    !- Name
    wall,                     !- Surface Type
    EU_wall_Construction,     !- Construction Name
    19da1493f901936e_F7_dwelling_1,    !- Zone Name
    ,                         !- Space Name
    outdoors,                 !- Outside Boundary Condition
    ,                         !- Outside Boundary Condition Object
    SunExposed,               !- Sun Exposure
    WindExposed,              !- Wind Exposure
    autocalculate,            !- View Factor to Ground
    autocalculate,            !- Number of Vertices
    686737.112,               !- Vertex 1 Xcoordinate
    4928974.555,              !- Vertex 1 Ycoordinate
    24,                       !- Vertex 1 Zcoordinate
    686737.112,               !- Vertex 2 Xcoordinate
    4928974.555,              !- Vertex 2 Ycoordinate
    21,                       !- Vertex 2 Zcoordinate
    686737.942,               !- Vertex 3 Xcoordinate
    4928974.225,              !- Vertex 3 Ycoordinate
    21,                       !- Vertex 3 Zcoordinate
    686737.942,               !- Vertex 4 Xcoordinate
    4928974.225,              !- Vertex 4 Ycoordinate
    24;                       !- Vertex 4 Zcoordinate

BUILDINGSURFACE:DETAILED,
    Block 19da1493f901936e_1 Storey 7 Wall 0014,    !- Name
    wall,                     !- Surface Type
    EU_wall_Construction,     !- Construction Name
    19da1493f901936e_F7_dwelling_1,    !- Zone Name
    ,                         !- Space Name
    outdoors,                 !- Outside Boundary Condition
    ,                         !- Outside Boundary Condition Object
    SunExposed,               !- Sun Exposure
    WindExposed,              !- Wind Exposure
    autocalculate,            !- View Factor to Ground
    autocalculate,            !- Number of Vertices
    686737.942,               !- Vertex 1 Xcoordinate
    4928974.225,              !- Vertex 1 Ycoordinate
    24,                       !- Vertex 1 Zcoordinate
    686737.942,               !- Vertex 2 Xcoordinate
    4928974.225,              !- Vertex 2 Ycoordinate
    21,                       !- Vertex 2 Zcoordinate
    686740.632,               !- Vertex 3 Xcoordinate
    4928981.305,              !- Vertex 3 Ycoordinate
    21,                       !- Vertex 3 Zcoordinate
    686740.632,               !- Vertex 4 Xcoordinate
    4928981.305,              !- Vertex 4 Ycoordinate
    24;                       !- Vertex 4 Zcoordinate

BUILDINGSURFACE:DETAILED,
    Block 19da1493f901936e_1 Storey 7 Wall 0015,    !- Name
    wall,                     !- Surface Type
    EU_wall_Construction,     !- Construction Name
    19da1493f901936e_F7_dwelling_1,    !- Zone Name
    ,                         !- Space Name
    outdoors,                 !- Outside Boundary Condition
    ,                         !- Outside Boundary Condition Object
    SunExposed,               !- Sun Exposure
    WindExposed,              !- Wind Exposure
    autocalculate,            !- View Factor to Ground
    autocalculate,            !- Number of Vertices
    686740.632,               !- Vertex 1 Xcoordinate
    4928981.305,              !- Vertex 1 Ycoordinate
    24,                       !- Vertex 1 Zcoordinate
    686740.632,               !- Vertex 2 Xcoordinate
    4928981.305,              !- Vertex 2 Ycoordinate
    21,                       !- Vertex 2 Zcoordinate
    686742.232,               !- Vertex 3 Xcoordinate
    4928980.695,              !- Vertex 3 Ycoordinate
    21,                       !- Vertex 3 Zcoordinate
    686742.232,               !- Vertex 4 Xcoordinate
    4928980.695,              !- Vertex 4 Ycoordinate
    24;                       !- Vertex 4 Zcoordinate

BUILDINGSURFACE:DETAILED,
    Block 19da1493f901936e_1 Storey 7 Roof 0001,    !- Name
    roof,                     !- Surface Type
    EU_roof_Construction,     !- Construction Name
    19da1493f901936e_F7_dwelling_1,    !- Zone Name
    ,                         !- Space Name
    outdoors,                 !- Outside Boundary Condition
    ,                         !- Outside Boundary Condition Object
    NoSun,                    !- Sun Exposure
    WindExposed,              !- Wind Exposure
    autocalculate,            !- View Factor to Ground
    autocalculate,            !- Number of Vertices
    686774.932,               !- Vertex 1 Xcoordinate
    4928977.41,               !- Vertex 1 Ycoordinate
    24,                       !- Vertex 1 Zcoordinate
    686766.921,               !- Vertex 2 Xcoordinate
    4928966.138,              !- Vertex 2 Ycoordinate
    24,                       !- Vertex 2 Zcoordinate
    686748.332,               !- Vertex 3 Xcoordinate
    4928973.345,              !- Vertex 3 Ycoordinate
    24,                       !- Vertex 3 Zcoordinate
    686747.352,               !- Vertex 4 Xcoordinate
    4928970.545,              !- Vertex 4 Ycoordinate
    24,                       !- Vertex 4 Zcoordinate
    686742.872,               !- Vertex 5 Xcoordinate
    4928958.945,              !- Vertex 5 Ycoordinate
    24,                       !- Vertex 5 Zcoordinate
    686741.662,               !- Vertex 6 Xcoordinate
    4928955.745,              !- Vertex 6 Ycoordinate
    24,                       !- Vertex 6 Zcoordinate
    686755.905,               !- Vertex 7 Xcoordinate
    4928950.639,              !- Vertex 7 Ycoordinate
    24,                       !- Vertex 7 Zcoordinate
    686747.905,               !- Vertex 8 Xcoordinate
    4928939.383,              !- Vertex 8 Ycoordinate
    24,                       !- Vertex 8 Zcoordinate
    686726.082,               !- Vertex 9 Xcoordinate
    4928947.246,              !- Vertex 9 Ycoordinate
    24,                       !- Vertex 9 Zcoordinate
    686732.222,               !- Vertex 10 Xcoordinate
    4928962.766,              !- Vertex 10 Ycoordinate
    24,                       !- Vertex 10 Zcoordinate
    686737.112,               !- Vertex 11 Xcoordinate
    4928974.555,              !- Vertex 11 Ycoordinate
    24,                       !- Vertex 11 Zcoordinate
    686737.942,               !- Vertex 12 Xcoordinate
    4928974.225,              !- Vertex 12 Ycoordinate
    24,                       !- Vertex 12 Zcoordinate
    686740.632,               !- Vertex 13 Xcoordinate
    4928981.305,              !- Vertex 13 Ycoordinate
    24,                       !- Vertex 13 Zcoordinate
    686742.232,               !- Vertex 14 Xcoordinate
    4928980.695,              !- Vertex 14 Ycoordinate
    24,                       !- Vertex 14 Zcoordinate
    686746.202,               !- Vertex 15 Xcoordinate
    4928987.925,              !- Vertex 15 Ycoordinate
    24;                       !- Vertex 15 Zcoordinate

BUILDINGSURFACE:DETAILED,
    Block 19da1493f901936e_0 Storey 0 Wall 0001_1,    !- Name
    wall,                     !- Surface Type
    EU_wall_Construction,     !- Construction Name
    19da1493f901936e_F0_dwelling_0,    !- Zone Name
    ,                         !- Space Name
    surface,                  !- Outside Boundary Condition
    Block 19da1493f901936e_1 Storey 0 Wall 0009_1,    !- Outside Boundary Condition Object
    NoSun,                    !- Sun Exposure
    NoWind,                   !- Wind Exposure
    autocalculate,            !- View Factor to Ground
    autocalculate,            !- Number of Vertices
    686747.9049999999,        !- Vertex 1 Xcoordinate
    4928939.383,              !- Vertex 1 Ycoordinate
    3,                        !- Vertex 1 Zcoordinate
    686747.9049999999,        !- Vertex 2 Xcoordinate
    4928939.383,              !- Vertex 2 Ycoordinate
    0,                        !- Vertex 2 Zcoordinate
    686755.9050000003,        !- Vertex 3 Xcoordinate
    4928950.639,              !- Vertex 3 Ycoordinate
    0,                        !- Vertex 3 Zcoordinate
    686755.9050000003,        !- Vertex 4 Xcoordinate
    4928950.639,              !- Vertex 4 Ycoordinate
    3;                        !- Vertex 4 Zcoordinate

BUILDINGSURFACE:DETAILED,
    Block 19da1493f901936e_1 Storey 0 Wall 0009_1,    !- Name
    wall,                     !- Surface Type
    EU_wall_Construction,     !- Construction Name
    19da1493f901936e_F0_dwelling_1,    !- Zone Name
    ,                         !- Space Name
    surface,                  !- Outside Boundary Condition
    Block 19da1493f901936e_0 Storey 0 Wall 0001_1,    !- Outside Boundary Condition Object
    NoSun,                    !- Sun Exposure
    NoWind,                   !- Wind Exposure
    autocalculate,            !- View Factor to Ground
    autocalculate,            !- Number of Vertices
    686755.9050000003,        !- Vertex 1 Xcoordinate
    4928950.639,              !- Vertex 1 Ycoordinate
    3,                        !- Vertex 1 Zcoordinate
    686755.9050000003,        !- Vertex 2 Xcoordinate
    4928950.639,              !- Vertex 2 Ycoordinate
    0,                        !- Vertex 2 Zcoordinate
    686747.9049999999,        !- Vertex 3 Xcoordinate
    4928939.383,              !- Vertex 3 Ycoordinate
    0,                        !- Vertex 3 Zcoordinate
    686747.9049999999,        !- Vertex 4 Xcoordinate
    4928939.383,              !- Vertex 4 Ycoordinate
    3;                        !- Vertex 4 Zcoordinate

BUILDINGSURFACE:DETAILED,
    Block 19da1493f901936e_0 Storey 0 Wall 0005_1,    !- Name
    wall,                     !- Surface Type
    EU_wall_Construction,     !- Construction Name
    19da1493f901936e_F0_dwelling_0,    !- Zone Name
    ,                         !- Space Name
    surface,                  !- Outside Boundary Condition
    Block 19da1493f901936e_1 Storey 0 Wall 0003_1,    !- Outside Boundary Condition Object
    NoSun,                    !- Sun Exposure
    NoWind,                   !- Wind Exposure
    autocalculate,            !- View Factor to Ground
    autocalculate,            !- Number of Vertices
    686766.9209999997,        !- Vertex 1 Xcoordinate
    4928966.138,              !- Vertex 1 Ycoordinate
    3,                        !- Vertex 1 Zcoordinate
    686766.9209999997,        !- Vertex 2 Xcoordinate
    4928966.138,              !- Vertex 2 Ycoordinate
    0,                        !- Vertex 2 Zcoordinate
    686774.9319999999,        !- Vertex 3 Xcoordinate
    4928977.41,               !- Vertex 3 Ycoordinate
    0,                        !- Vertex 3 Zcoordinate
    686774.9319999999,        !- Vertex 4 Xcoordinate
    4928977.41,               !- Vertex 4 Ycoordinate
    3;                        !- Vertex 4 Zcoordinate

BUILDINGSURFACE:DETAILED,
    Block 19da1493f901936e_1 Storey 0 Wall 0003_1,    !- Name
    wall,                     !- Surface Type
    EU_wall_Construction,     !- Construction Name
    19da1493f901936e_F0_dwelling_1,    !- Zone Name
    ,                         !- Space Name
    surface,                  !- Outside Boundary Condition
    Block 19da1493f901936e_0 Storey 0 Wall 0005_1,    !- Outside Boundary Condition Object
    NoSun,                    !- Sun Exposure
    NoWind,                   !- Wind Exposure
    autocalculate,            !- View Factor to Ground
    autocalculate,            !- Number of Vertices
    686774.9319999999,        !- Vertex 1 Xcoordinate
    4928977.41,               !- Vertex 1 Ycoordinate
    3,                        !- Vertex 1 Zcoordinate
    686774.9319999999,        !- Vertex 2 Xcoordinate
    4928977.41,               !- Vertex 2 Ycoordinate
    0,                        !- Vertex 2 Zcoordinate
    686766.9209999997,        !- Vertex 3 Xcoordinate
    4928966.138,              !- Vertex 3 Ycoordinate
    0,                        !- Vertex 3 Zcoordinate
    686766.9209999997,        !- Vertex 4 Xcoordinate
    4928966.138,              !- Vertex 4 Ycoordinate
    3;                        !- Vertex 4 Zcoordinate

BUILDINGSURFACE:DETAILED,
    Block 19da1493f901936e_0 Storey 0 Ceiling 0001_1,    !- Name
    ceiling,                  !- Surface Type
    EU_floor_Construction,    !- Construction Name
    19da1493f901936e_F0_dwelling_0,    !- Zone Name
    ,                         !- Space Name
    Surface,                  !- Outside Boundary Condition
    Block 19da1493f901936e_0 Storey 1 Floor 0001_1,    !- Outside Boundary Condition Object
    NoSun,                    !- Sun Exposure
    NoWind,                   !- Wind Exposure
    autocalculate,            !- View Factor to Ground
    autocalculate,            !- Number of Vertices
    686797.571,               !- Vertex 1 Xcoordinate
    4928969.124,              !- Vertex 1 Ycoordinate
    3,                        !- Vertex 1 Zcoordinate
    686777.7509999997,        !- Vertex 2 Xcoordinate
    4928941.285,              !- Vertex 2 Ycoordinate
    3,                        !- Vertex 2 Zcoordinate
    686770.131,               !- Vertex 3 Xcoordinate
    4928931.375,              !- Vertex 3 Ycoordinate
    3,                        !- Vertex 3 Zcoordinate
    686747.9049999998,        !- Vertex 4 Xcoordinate
    4928939.383,              !- Vertex 4 Ycoordinate
    3,                        !- Vertex 4 Zcoordinate
    686755.9049999998,        !- Vertex 5 Xcoordinate
    4928950.639,              !- Vertex 5 Ycoordinate
    3,                        !- Vertex 5 Zcoordinate
    686765.7919999999,        !- Vertex 6 Xcoordinate
    4928947.095,              !- Vertex 6 Ycoordinate
    3,                        !- Vertex 6 Zcoordinate
    686771.932,               !- Vertex 7 Xcoordinate
    4928964.195,              !- Vertex 7 Ycoordinate
    3,                        !- Vertex 7 Zcoordinate
    686766.9209999996,        !- Vertex 8 Xcoordinate
    4928966.138,              !- Vertex 8 Ycoordinate
    3,                        !- Vertex 8 Zcoordinate
    686774.932,               !- Vertex 9 Xcoordinate
    4928977.41,               !- Vertex 9 Ycoordinate
    3;                        !- Vertex 9 Zcoordinate

BUILDINGSURFACE:DETAILED,
    Block 19da1493f901936e_0 Storey 1 Floor 0001_1,    !- Name
    floor,                    !- Surface Type
    EU_floor_Construction,    !- Construction Name
    19da1493f901936e_F1_dwelling_0,    !- Zone Name
    ,                         !- Space Name
    Surface,                  !- Outside Boundary Condition
    Block 19da1493f901936e_0 Storey 0 Ceiling 0001_1,    !- Outside Boundary Condition Object
    NoSun,                    !- Sun Exposure
    NoWind,                   !- Wind Exposure
    autocalculate,            !- View Factor to Ground
    autocalculate,            !- Number of Vertices
    686777.7509999997,        !- Vertex 1 Xcoordinate
    4928941.285,              !- Vertex 1 Ycoordinate
    3,                        !- Vertex 1 Zcoordinate
    686797.571,               !- Vertex 2 Xcoordinate
    4928969.124,              !- Vertex 2 Ycoordinate
    3,                        !- Vertex 2 Zcoordinate
    686774.932,               !- Vertex 3 Xcoordinate
    4928977.41,               !- Vertex 3 Ycoordinate
    3,                        !- Vertex 3 Zcoordinate
    686766.9209999996,        !- Vertex 4 Xcoordinate
    4928966.138,              !- Vertex 4 Ycoordinate
    3,                        !- Vertex 4 Zcoordinate
    686771.932,               !- Vertex 5 Xcoordinate
    4928964.195,              !- Vertex 5 Ycoordinate
    3,                        !- Vertex 5 Zcoordinate
    686765.7919999999,        !- Vertex 6 Xcoordinate
    4928947.095,              !- Vertex 6 Ycoordinate
    3,                        !- Vertex 6 Zcoordinate
    686755.9049999998,        !- Vertex 7 Xcoordinate
    4928950.639,              !- Vertex 7 Ycoordinate
    3,                        !- Vertex 7 Zcoordinate
    686747.9049999998,        !- Vertex 8 Xcoordinate
    4928939.383,              !- Vertex 8 Ycoordinate
    3,                        !- Vertex 8 Zcoordinate
    686770.131,               !- Vertex 9 Xcoordinate
    4928931.375,              !- Vertex 9 Ycoordinate
    3;                        !- Vertex 9 Zcoordinate

BUILDINGSURFACE:DETAILED,
    Block 19da1493f901936e_0 Storey 1 Wall 0001_1,    !- Name
    wall,                     !- Surface Type
    EU_wall_Construction,     !- Construction Name
    19da1493f901936e_F1_dwelling_0,    !- Zone Name
    ,                         !- Space Name
    surface,                  !- Outside Boundary Condition
    Block 19da1493f901936e_1 Storey 1 Wall 0009_1,    !- Outside Boundary Condition Object
    NoSun,                    !- Sun Exposure
    NoWind,                   !- Wind Exposure
    autocalculate,            !- View Factor to Ground
    autocalculate,            !- Number of Vertices
    686747.9049999999,        !- Vertex 1 Xcoordinate
    4928939.383,              !- Vertex 1 Ycoordinate
    6,                        !- Vertex 1 Zcoordinate
    686747.9049999999,        !- Vertex 2 Xcoordinate
    4928939.383,              !- Vertex 2 Ycoordinate
    3,                        !- Vertex 2 Zcoordinate
    686755.9050000003,        !- Vertex 3 Xcoordinate
    4928950.639,              !- Vertex 3 Ycoordinate
    3,                        !- Vertex 3 Zcoordinate
    686755.9050000003,        !- Vertex 4 Xcoordinate
    4928950.639,              !- Vertex 4 Ycoordinate
    6;                        !- Vertex 4 Zcoordinate

BUILDINGSURFACE:DETAILED,
    Block 19da1493f901936e_1 Storey 1 Wall 0009_1,    !- Name
    wall,                     !- Surface Type
    EU_wall_Construction,     !- Construction Name
    19da1493f901936e_F1_dwelling_1,    !- Zone Name
    ,                         !- Space Name
    surface,                  !- Outside Boundary Condition
    Block 19da1493f901936e_0 Storey 1 Wall 0001_1,    !- Outside Boundary Condition Object
    NoSun,                    !- Sun Exposure
    NoWind,                   !- Wind Exposure
    autocalculate,            !- View Factor to Ground
    autocalculate,            !- Number of Vertices
    686755.9050000003,        !- Vertex 1 Xcoordinate
    4928950.639,              !- Vertex 1 Ycoordinate
    6,                        !- Vertex 1 Zcoordinate
    686755.9050000003,        !- Vertex 2 Xcoordinate
    4928950.639,              !- Vertex 2 Ycoordinate
    3,                        !- Vertex 2 Zcoordinate
    686747.9049999999,        !- Vertex 3 Xcoordinate
    4928939.383,              !- Vertex 3 Ycoordinate
    3,                        !- Vertex 3 Zcoordinate
    686747.9049999999,        !- Vertex 4 Xcoordinate
    4928939.383,              !- Vertex 4 Ycoordinate
    6;                        !- Vertex 4 Zcoordinate

BUILDINGSURFACE:DETAILED,
    Block 19da1493f901936e_0 Storey 1 Wall 0005_1,    !- Name
    wall,                     !- Surface Type
    EU_wall_Construction,     !- Construction Name
    19da1493f901936e_F1_dwelling_0,    !- Zone Name
    ,                         !- Space Name
    surface,                  !- Outside Boundary Condition
    Block 19da1493f901936e_1 Storey 1 Wall 0003_1,    !- Outside Boundary Condition Object
    NoSun,                    !- Sun Exposure
    NoWind,                   !- Wind Exposure
    autocalculate,            !- View Factor to Ground
    autocalculate,            !- Number of Vertices
    686766.9209999997,        !- Vertex 1 Xcoordinate
    4928966.138,              !- Vertex 1 Ycoordinate
    6,                        !- Vertex 1 Zcoordinate
    686766.9209999997,        !- Vertex 2 Xcoordinate
    4928966.138,              !- Vertex 2 Ycoordinate
    3,                        !- Vertex 2 Zcoordinate
    686774.9319999999,        !- Vertex 3 Xcoordinate
    4928977.41,               !- Vertex 3 Ycoordinate
    3,                        !- Vertex 3 Zcoordinate
    686774.9319999999,        !- Vertex 4 Xcoordinate
    4928977.41,               !- Vertex 4 Ycoordinate
    6;                        !- Vertex 4 Zcoordinate

BUILDINGSURFACE:DETAILED,
    Block 19da1493f901936e_1 Storey 1 Wall 0003_1,    !- Name
    wall,                     !- Surface Type
    EU_wall_Construction,     !- Construction Name
    19da1493f901936e_F1_dwelling_1,    !- Zone Name
    ,                         !- Space Name
    surface,                  !- Outside Boundary Condition
    Block 19da1493f901936e_0 Storey 1 Wall 0005_1,    !- Outside Boundary Condition Object
    NoSun,                    !- Sun Exposure
    NoWind,                   !- Wind Exposure
    autocalculate,            !- View Factor to Ground
    autocalculate,            !- Number of Vertices
    686774.9319999999,        !- Vertex 1 Xcoordinate
    4928977.41,               !- Vertex 1 Ycoordinate
    6,                        !- Vertex 1 Zcoordinate
    686774.9319999999,        !- Vertex 2 Xcoordinate
    4928977.41,               !- Vertex 2 Ycoordinate
    3,                        !- Vertex 2 Zcoordinate
    686766.9209999997,        !- Vertex 3 Xcoordinate
    4928966.138,              !- Vertex 3 Ycoordinate
    3,                        !- Vertex 3 Zcoordinate
    686766.9209999997,        !- Vertex 4 Xcoordinate
    4928966.138,              !- Vertex 4 Ycoordinate
    6;                        !- Vertex 4 Zcoordinate

BUILDINGSURFACE:DETAILED,
    Block 19da1493f901936e_0 Storey 1 Ceiling 0001_1,    !- Name
    ceiling,                  !- Surface Type
    EU_floor_Construction,    !- Construction Name
    19da1493f901936e_F1_dwelling_0,    !- Zone Name
    ,                         !- Space Name
    Surface,                  !- Outside Boundary Condition
    Block 19da1493f901936e_0 Storey 2 Floor 0001_1,    !- Outside Boundary Condition Object
    NoSun,                    !- Sun Exposure
    NoWind,                   !- Wind Exposure
    autocalculate,            !- View Factor to Ground
    autocalculate,            !- Number of Vertices
    686797.571,               !- Vertex 1 Xcoordinate
    4928969.124,              !- Vertex 1 Ycoordinate
    6,                        !- Vertex 1 Zcoordinate
    686777.7509999997,        !- Vertex 2 Xcoordinate
    4928941.285,              !- Vertex 2 Ycoordinate
    6,                        !- Vertex 2 Zcoordinate
    686770.131,               !- Vertex 3 Xcoordinate
    4928931.375,              !- Vertex 3 Ycoordinate
    6,                        !- Vertex 3 Zcoordinate
    686747.9049999998,        !- Vertex 4 Xcoordinate
    4928939.383,              !- Vertex 4 Ycoordinate
    6,                        !- Vertex 4 Zcoordinate
    686755.9049999998,        !- Vertex 5 Xcoordinate
    4928950.639,              !- Vertex 5 Ycoordinate
    6,                        !- Vertex 5 Zcoordinate
    686765.7919999999,        !- Vertex 6 Xcoordinate
    4928947.095,              !- Vertex 6 Ycoordinate
    6,                        !- Vertex 6 Zcoordinate
    686771.932,               !- Vertex 7 Xcoordinate
    4928964.195,              !- Vertex 7 Ycoordinate
    6,                        !- Vertex 7 Zcoordinate
    686766.9209999996,        !- Vertex 8 Xcoordinate
    4928966.138,              !- Vertex 8 Ycoordinate
    6,                        !- Vertex 8 Zcoordinate
    686774.932,               !- Vertex 9 Xcoordinate
    4928977.41,               !- Vertex 9 Ycoordinate
    6;                        !- Vertex 9 Zcoordinate

BUILDINGSURFACE:DETAILED,
    Block 19da1493f901936e_0 Storey 2 Floor 0001_1,    !- Name
    floor,                    !- Surface Type
    EU_floor_Construction,    !- Construction Name
    19da1493f901936e_F2_dwelling_0,    !- Zone Name
    ,                         !- Space Name
    Surface,                  !- Outside Boundary Condition
    Block 19da1493f901936e_0 Storey 1 Ceiling 0001_1,    !- Outside Boundary Condition Object
    NoSun,                    !- Sun Exposure
    NoWind,                   !- Wind Exposure
    autocalculate,            !- View Factor to Ground
    autocalculate,            !- Number of Vertices
    686777.7509999997,        !- Vertex 1 Xcoordinate
    4928941.285,              !- Vertex 1 Ycoordinate
    6,                        !- Vertex 1 Zcoordinate
    686797.571,               !- Vertex 2 Xcoordinate
    4928969.124,              !- Vertex 2 Ycoordinate
    6,                        !- Vertex 2 Zcoordinate
    686774.932,               !- Vertex 3 Xcoordinate
    4928977.41,               !- Vertex 3 Ycoordinate
    6,                        !- Vertex 3 Zcoordinate
    686766.9209999996,        !- Vertex 4 Xcoordinate
    4928966.138,              !- Vertex 4 Ycoordinate
    6,                        !- Vertex 4 Zcoordinate
    686771.932,               !- Vertex 5 Xcoordinate
    4928964.195,              !- Vertex 5 Ycoordinate
    6,                        !- Vertex 5 Zcoordinate
    686765.7919999999,        !- Vertex 6 Xcoordinate
    4928947.095,              !- Vertex 6 Ycoordinate
    6,                        !- Vertex 6 Zcoordinate
    686755.9049999998,        !- Vertex 7 Xcoordinate
    4928950.639,              !- Vertex 7 Ycoordinate
    6,                        !- Vertex 7 Zcoordinate
    686747.9049999998,        !- Vertex 8 Xcoordinate
    4928939.383,              !- Vertex 8 Ycoordinate
    6,                        !- Vertex 8 Zcoordinate
    686770.131,               !- Vertex 9 Xcoordinate
    4928931.375,              !- Vertex 9 Ycoordinate
    6;                        !- Vertex 9 Zcoordinate

BUILDINGSURFACE:DETAILED,
    Block 19da1493f901936e_0 Storey 2 Wall 0001_1,    !- Name
    wall,                     !- Surface Type
    EU_wall_Construction,     !- Construction Name
    19da1493f901936e_F2_dwelling_0,    !- Zone Name
    ,                         !- Space Name
    surface,                  !- Outside Boundary Condition
    Block 19da1493f901936e_1 Storey 2 Wall 0009_1,    !- Outside Boundary Condition Object
    NoSun,                    !- Sun Exposure
    NoWind,                   !- Wind Exposure
    autocalculate,            !- View Factor to Ground
    autocalculate,            !- Number of Vertices
    686747.9049999999,        !- Vertex 1 Xcoordinate
    4928939.383,              !- Vertex 1 Ycoordinate
    9,                        !- Vertex 1 Zcoordinate
    686747.9049999999,        !- Vertex 2 Xcoordinate
    4928939.383,              !- Vertex 2 Ycoordinate
    6,                        !- Vertex 2 Zcoordinate
    686755.9050000003,        !- Vertex 3 Xcoordinate
    4928950.639,              !- Vertex 3 Ycoordinate
    6,                        !- Vertex 3 Zcoordinate
    686755.9050000003,        !- Vertex 4 Xcoordinate
    4928950.639,              !- Vertex 4 Ycoordinate
    9;                        !- Vertex 4 Zcoordinate

BUILDINGSURFACE:DETAILED,
    Block 19da1493f901936e_1 Storey 2 Wall 0009_1,    !- Name
    wall,                     !- Surface Type
    EU_wall_Construction,     !- Construction Name
    19da1493f901936e_F2_dwelling_1,    !- Zone Name
    ,                         !- Space Name
    surface,                  !- Outside Boundary Condition
    Block 19da1493f901936e_0 Storey 2 Wall 0001_1,    !- Outside Boundary Condition Object
    NoSun,                    !- Sun Exposure
    NoWind,                   !- Wind Exposure
    autocalculate,            !- View Factor to Ground
    autocalculate,            !- Number of Vertices
    686755.9050000003,        !- Vertex 1 Xcoordinate
    4928950.639,              !- Vertex 1 Ycoordinate
    9,                        !- Vertex 1 Zcoordinate
    686755.9050000003,        !- Vertex 2 Xcoordinate
    4928950.639,              !- Vertex 2 Ycoordinate
    6,                        !- Vertex 2 Zcoordinate
    686747.9049999999,        !- Vertex 3 Xcoordinate
    4928939.383,              !- Vertex 3 Ycoordinate
    6,                        !- Vertex 3 Zcoordinate
    686747.9049999999,        !- Vertex 4 Xcoordinate
    4928939.383,              !- Vertex 4 Ycoordinate
    9;                        !- Vertex 4 Zcoordinate

BUILDINGSURFACE:DETAILED,
    Block 19da1493f901936e_0 Storey 2 Wall 0005_1,    !- Name
    wall,                     !- Surface Type
    EU_wall_Construction,     !- Construction Name
    19da1493f901936e_F2_dwelling_0,    !- Zone Name
    ,                         !- Space Name
    surface,                  !- Outside Boundary Condition
    Block 19da1493f901936e_1 Storey 2 Wall 0003_1,    !- Outside Boundary Condition Object
    NoSun,                    !- Sun Exposure
    NoWind,                   !- Wind Exposure
    autocalculate,            !- View Factor to Ground
    autocalculate,            !- Number of Vertices
    686766.9209999997,        !- Vertex 1 Xcoordinate
    4928966.138,              !- Vertex 1 Ycoordinate
    9,                        !- Vertex 1 Zcoordinate
    686766.9209999997,        !- Vertex 2 Xcoordinate
    4928966.138,              !- Vertex 2 Ycoordinate
    6,                        !- Vertex 2 Zcoordinate
    686774.9319999999,        !- Vertex 3 Xcoordinate
    4928977.41,               !- Vertex 3 Ycoordinate
    6,                        !- Vertex 3 Zcoordinate
    686774.9319999999,        !- Vertex 4 Xcoordinate
    4928977.41,               !- Vertex 4 Ycoordinate
    9;                        !- Vertex 4 Zcoordinate

BUILDINGSURFACE:DETAILED,
    Block 19da1493f901936e_1 Storey 2 Wall 0003_1,    !- Name
    wall,                     !- Surface Type
    EU_wall_Construction,     !- Construction Name
    19da1493f901936e_F2_dwelling_1,    !- Zone Name
    ,                         !- Space Name
    surface,                  !- Outside Boundary Condition
    Block 19da1493f901936e_0 Storey 2 Wall 0005_1,    !- Outside Boundary Condition Object
    NoSun,                    !- Sun Exposure
    NoWind,                   !- Wind Exposure
    autocalculate,            !- View Factor to Ground
    autocalculate,            !- Number of Vertices
    686774.9319999999,        !- Vertex 1 Xcoordinate
    4928977.41,               !- Vertex 1 Ycoordinate
    9,                        !- Vertex 1 Zcoordinate
    686774.9319999999,        !- Vertex 2 Xcoordinate
    4928977.41,               !- Vertex 2 Ycoordinate
    6,                        !- Vertex 2 Zcoordinate
    686766.9209999997,        !- Vertex 3 Xcoordinate
    4928966.138,              !- Vertex 3 Ycoordinate
    6,                        !- Vertex 3 Zcoordinate
    686766.9209999997,        !- Vertex 4 Xcoordinate
    4928966.138,              !- Vertex 4 Ycoordinate
    9;                        !- Vertex 4 Zcoordinate

BUILDINGSURFACE:DETAILED,
    Block 19da1493f901936e_0 Storey 2 Ceiling 0001_1,    !- Name
    ceiling,                  !- Surface Type
    EU_floor_Construction,    !- Construction Name
    19da1493f901936e_F2_dwelling_0,    !- Zone Name
    ,                         !- Space Name
    Surface,                  !- Outside Boundary Condition
    Block 19da1493f901936e_0 Storey 3 Floor 0001_1,    !- Outside Boundary Condition Object
    NoSun,                    !- Sun Exposure
    NoWind,                   !- Wind Exposure
    autocalculate,            !- View Factor to Ground
    autocalculate,            !- Number of Vertices
    686797.571,               !- Vertex 1 Xcoordinate
    4928969.124,              !- Vertex 1 Ycoordinate
    9,                        !- Vertex 1 Zcoordinate
    686777.7509999997,        !- Vertex 2 Xcoordinate
    4928941.285,              !- Vertex 2 Ycoordinate
    9,                        !- Vertex 2 Zcoordinate
    686770.131,               !- Vertex 3 Xcoordinate
    4928931.375,              !- Vertex 3 Ycoordinate
    9,                        !- Vertex 3 Zcoordinate
    686747.9049999998,        !- Vertex 4 Xcoordinate
    4928939.383,              !- Vertex 4 Ycoordinate
    9,                        !- Vertex 4 Zcoordinate
    686755.9049999998,        !- Vertex 5 Xcoordinate
    4928950.639,              !- Vertex 5 Ycoordinate
    9,                        !- Vertex 5 Zcoordinate
    686765.7919999999,        !- Vertex 6 Xcoordinate
    4928947.095,              !- Vertex 6 Ycoordinate
    9,                        !- Vertex 6 Zcoordinate
    686771.932,               !- Vertex 7 Xcoordinate
    4928964.195,              !- Vertex 7 Ycoordinate
    9,                        !- Vertex 7 Zcoordinate
    686766.9209999996,        !- Vertex 8 Xcoordinate
    4928966.138,              !- Vertex 8 Ycoordinate
    9,                        !- Vertex 8 Zcoordinate
    686774.932,               !- Vertex 9 Xcoordinate
    4928977.41,               !- Vertex 9 Ycoordinate
    9;                        !- Vertex 9 Zcoordinate

BUILDINGSURFACE:DETAILED,
    Block 19da1493f901936e_0 Storey 3 Floor 0001_1,    !- Name
    floor,                    !- Surface Type
    EU_floor_Construction,    !- Construction Name
    19da1493f901936e_F3_dwelling_0,    !- Zone Name
    ,                         !- Space Name
    Surface,                  !- Outside Boundary Condition
    Block 19da1493f901936e_0 Storey 2 Ceiling 0001_1,    !- Outside Boundary Condition Object
    NoSun,                    !- Sun Exposure
    NoWind,                   !- Wind Exposure
    autocalculate,            !- View Factor to Ground
    autocalculate,            !- Number of Vertices
    686777.7509999997,        !- Vertex 1 Xcoordinate
    4928941.285,              !- Vertex 1 Ycoordinate
    9,                        !- Vertex 1 Zcoordinate
    686797.571,               !- Vertex 2 Xcoordinate
    4928969.124,              !- Vertex 2 Ycoordinate
    9,                        !- Vertex 2 Zcoordinate
    686774.932,               !- Vertex 3 Xcoordinate
    4928977.41,               !- Vertex 3 Ycoordinate
    9,                        !- Vertex 3 Zcoordinate
    686766.9209999996,        !- Vertex 4 Xcoordinate
    4928966.138,              !- Vertex 4 Ycoordinate
    9,                        !- Vertex 4 Zcoordinate
    686771.932,               !- Vertex 5 Xcoordinate
    4928964.195,              !- Vertex 5 Ycoordinate
    9,                        !- Vertex 5 Zcoordinate
    686765.7919999999,        !- Vertex 6 Xcoordinate
    4928947.095,              !- Vertex 6 Ycoordinate
    9,                        !- Vertex 6 Zcoordinate
    686755.9049999998,        !- Vertex 7 Xcoordinate
    4928950.639,              !- Vertex 7 Ycoordinate
    9,                        !- Vertex 7 Zcoordinate
    686747.9049999998,        !- Vertex 8 Xcoordinate
    4928939.383,              !- Vertex 8 Ycoordinate
    9,                        !- Vertex 8 Zcoordinate
    686770.131,               !- Vertex 9 Xcoordinate
    4928931.375,              !- Vertex 9 Ycoordinate
    9;                        !- Vertex 9 Zcoordinate

BUILDINGSURFACE:DETAILED,
    Block 19da1493f901936e_0 Storey 3 Wall 0001_1,    !- Name
    wall,                     !- Surface Type
    EU_wall_Construction,     !- Construction Name
    19da1493f901936e_F3_dwelling_0,    !- Zone Name
    ,                         !- Space Name
    surface,                  !- Outside Boundary Condition
    Block 19da1493f901936e_1 Storey 3 Wall 0009_1,    !- Outside Boundary Condition Object
    NoSun,                    !- Sun Exposure
    NoWind,                   !- Wind Exposure
    autocalculate,            !- View Factor to Ground
    autocalculate,            !- Number of Vertices
    686747.9049999999,        !- Vertex 1 Xcoordinate
    4928939.383,              !- Vertex 1 Ycoordinate
    12,                       !- Vertex 1 Zcoordinate
    686747.9049999999,        !- Vertex 2 Xcoordinate
    4928939.383,              !- Vertex 2 Ycoordinate
    9,                        !- Vertex 2 Zcoordinate
    686755.9050000003,        !- Vertex 3 Xcoordinate
    4928950.639,              !- Vertex 3 Ycoordinate
    9,                        !- Vertex 3 Zcoordinate
    686755.9050000003,        !- Vertex 4 Xcoordinate
    4928950.639,              !- Vertex 4 Ycoordinate
    12;                       !- Vertex 4 Zcoordinate

BUILDINGSURFACE:DETAILED,
    Block 19da1493f901936e_1 Storey 3 Wall 0009_1,    !- Name
    wall,                     !- Surface Type
    EU_wall_Construction,     !- Construction Name
    19da1493f901936e_F3_dwelling_1,    !- Zone Name
    ,                         !- Space Name
    surface,                  !- Outside Boundary Condition
    Block 19da1493f901936e_0 Storey 3 Wall 0001_1,    !- Outside Boundary Condition Object
    NoSun,                    !- Sun Exposure
    NoWind,                   !- Wind Exposure
    autocalculate,            !- View Factor to Ground
    autocalculate,            !- Number of Vertices
    686755.9050000003,        !- Vertex 1 Xcoordinate
    4928950.639,              !- Vertex 1 Ycoordinate
    12,                       !- Vertex 1 Zcoordinate
    686755.9050000003,        !- Vertex 2 Xcoordinate
    4928950.639,              !- Vertex 2 Ycoordinate
    9,                        !- Vertex 2 Zcoordinate
    686747.9049999999,        !- Vertex 3 Xcoordinate
    4928939.383,              !- Vertex 3 Ycoordinate
    9,                        !- Vertex 3 Zcoordinate
    686747.9049999999,        !- Vertex 4 Xcoordinate
    4928939.383,              !- Vertex 4 Ycoordinate
    12;                       !- Vertex 4 Zcoordinate

BUILDINGSURFACE:DETAILED,
    Block 19da1493f901936e_0 Storey 3 Wall 0005_1,    !- Name
    wall,                     !- Surface Type
    EU_wall_Construction,     !- Construction Name
    19da1493f901936e_F3_dwelling_0,    !- Zone Name
    ,                         !- Space Name
    surface,                  !- Outside Boundary Condition
    Block 19da1493f901936e_1 Storey 3 Wall 0003_1,    !- Outside Boundary Condition Object
    NoSun,                    !- Sun Exposure
    NoWind,                   !- Wind Exposure
    autocalculate,            !- View Factor to Ground
    autocalculate,            !- Number of Vertices
    686766.9209999997,        !- Vertex 1 Xcoordinate
    4928966.138,              !- Vertex 1 Ycoordinate
    12,                       !- Vertex 1 Zcoordinate
    686766.9209999997,        !- Vertex 2 Xcoordinate
    4928966.138,              !- Vertex 2 Ycoordinate
    9,                        !- Vertex 2 Zcoordinate
    686774.9319999999,        !- Vertex 3 Xcoordinate
    4928977.41,               !- Vertex 3 Ycoordinate
    9,                        !- Vertex 3 Zcoordinate
    686774.9319999999,        !- Vertex 4 Xcoordinate
    4928977.41,               !- Vertex 4 Ycoordinate
    12;                       !- Vertex 4 Zcoordinate

BUILDINGSURFACE:DETAILED,
    Block 19da1493f901936e_1 Storey 3 Wall 0003_1,    !- Name
    wall,                     !- Surface Type
    EU_wall_Construction,     !- Construction Name
    19da1493f901936e_F3_dwelling_1,    !- Zone Name
    ,                         !- Space Name
    surface,                  !- Outside Boundary Condition
    Block 19da1493f901936e_0 Storey 3 Wall 0005_1,    !- Outside Boundary Condition Object
    NoSun,                    !- Sun Exposure
    NoWind,                   !- Wind Exposure
    autocalculate,            !- View Factor to Ground
    autocalculate,            !- Number of Vertices
    686774.9319999999,        !- Vertex 1 Xcoordinate
    4928977.41,               !- Vertex 1 Ycoordinate
    12,                       !- Vertex 1 Zcoordinate
    686774.9319999999,        !- Vertex 2 Xcoordinate
    4928977.41,               !- Vertex 2 Ycoordinate
    9,                        !- Vertex 2 Zcoordinate
    686766.9209999997,        !- Vertex 3 Xcoordinate
    4928966.138,              !- Vertex 3 Ycoordinate
    9,                        !- Vertex 3 Zcoordinate
    686766.9209999997,        !- Vertex 4 Xcoordinate
    4928966.138,              !- Vertex 4 Ycoordinate
    12;                       !- Vertex 4 Zcoordinate

BUILDINGSURFACE:DETAILED,
    Block 19da1493f901936e_0 Storey 3 Ceiling 0001_1,    !- Name
    ceiling,                  !- Surface Type
    EU_floor_Construction,    !- Construction Name
    19da1493f901936e_F3_dwelling_0,    !- Zone Name
    ,                         !- Space Name
    Surface,                  !- Outside Boundary Condition
    Block 19da1493f901936e_0 Storey 4 Floor 0001_1,    !- Outside Boundary Condition Object
    NoSun,                    !- Sun Exposure
    NoWind,                   !- Wind Exposure
    autocalculate,            !- View Factor to Ground
    autocalculate,            !- Number of Vertices
    686797.571,               !- Vertex 1 Xcoordinate
    4928969.124,              !- Vertex 1 Ycoordinate
    12,                       !- Vertex 1 Zcoordinate
    686777.7509999997,        !- Vertex 2 Xcoordinate
    4928941.285,              !- Vertex 2 Ycoordinate
    12,                       !- Vertex 2 Zcoordinate
    686770.131,               !- Vertex 3 Xcoordinate
    4928931.375,              !- Vertex 3 Ycoordinate
    12,                       !- Vertex 3 Zcoordinate
    686747.9049999998,        !- Vertex 4 Xcoordinate
    4928939.383,              !- Vertex 4 Ycoordinate
    12,                       !- Vertex 4 Zcoordinate
    686755.9049999998,        !- Vertex 5 Xcoordinate
    4928950.639,              !- Vertex 5 Ycoordinate
    12,                       !- Vertex 5 Zcoordinate
    686765.7919999999,        !- Vertex 6 Xcoordinate
    4928947.095,              !- Vertex 6 Ycoordinate
    12,                       !- Vertex 6 Zcoordinate
    686771.932,               !- Vertex 7 Xcoordinate
    4928964.195,              !- Vertex 7 Ycoordinate
    12,                       !- Vertex 7 Zcoordinate
    686766.9209999996,        !- Vertex 8 Xcoordinate
    4928966.138,              !- Vertex 8 Ycoordinate
    12,                       !- Vertex 8 Zcoordinate
    686774.932,               !- Vertex 9 Xcoordinate
    4928977.41,               !- Vertex 9 Ycoordinate
    12;                       !- Vertex 9 Zcoordinate

BUILDINGSURFACE:DETAILED,
    Block 19da1493f901936e_0 Storey 4 Floor 0001_1,    !- Name
    floor,                    !- Surface Type
    EU_floor_Construction,    !- Construction Name
    19da1493f901936e_F4_dwelling_0,    !- Zone Name
    ,                         !- Space Name
    Surface,                  !- Outside Boundary Condition
    Block 19da1493f901936e_0 Storey 3 Ceiling 0001_1,    !- Outside Boundary Condition Object
    NoSun,                    !- Sun Exposure
    NoWind,                   !- Wind Exposure
    autocalculate,            !- View Factor to Ground
    autocalculate,            !- Number of Vertices
    686777.7509999997,        !- Vertex 1 Xcoordinate
    4928941.285,              !- Vertex 1 Ycoordinate
    12,                       !- Vertex 1 Zcoordinate
    686797.571,               !- Vertex 2 Xcoordinate
    4928969.124,              !- Vertex 2 Ycoordinate
    12,                       !- Vertex 2 Zcoordinate
    686774.932,               !- Vertex 3 Xcoordinate
    4928977.41,               !- Vertex 3 Ycoordinate
    12,                       !- Vertex 3 Zcoordinate
    686766.9209999996,        !- Vertex 4 Xcoordinate
    4928966.138,              !- Vertex 4 Ycoordinate
    12,                       !- Vertex 4 Zcoordinate
    686771.932,               !- Vertex 5 Xcoordinate
    4928964.195,              !- Vertex 5 Ycoordinate
    12,                       !- Vertex 5 Zcoordinate
    686765.7919999999,        !- Vertex 6 Xcoordinate
    4928947.095,              !- Vertex 6 Ycoordinate
    12,                       !- Vertex 6 Zcoordinate
    686755.9049999998,        !- Vertex 7 Xcoordinate
    4928950.639,              !- Vertex 7 Ycoordinate
    12,                       !- Vertex 7 Zcoordinate
    686747.9049999998,        !- Vertex 8 Xcoordinate
    4928939.383,              !- Vertex 8 Ycoordinate
    12,                       !- Vertex 8 Zcoordinate
    686770.131,               !- Vertex 9 Xcoordinate
    4928931.375,              !- Vertex 9 Ycoordinate
    12;                       !- Vertex 9 Zcoordinate

BUILDINGSURFACE:DETAILED,
    Block 19da1493f901936e_0 Storey 4 Wall 0001_1,    !- Name
    wall,                     !- Surface Type
    EU_wall_Construction,     !- Construction Name
    19da1493f901936e_F4_dwelling_0,    !- Zone Name
    ,                         !- Space Name
    surface,                  !- Outside Boundary Condition
    Block 19da1493f901936e_1 Storey 4 Wall 0009_1,    !- Outside Boundary Condition Object
    NoSun,                    !- Sun Exposure
    NoWind,                   !- Wind Exposure
    autocalculate,            !- View Factor to Ground
    autocalculate,            !- Number of Vertices
    686747.9049999999,        !- Vertex 1 Xcoordinate
    4928939.383,              !- Vertex 1 Ycoordinate
    15,                       !- Vertex 1 Zcoordinate
    686747.9049999999,        !- Vertex 2 Xcoordinate
    4928939.383,              !- Vertex 2 Ycoordinate
    12,                       !- Vertex 2 Zcoordinate
    686755.9050000003,        !- Vertex 3 Xcoordinate
    4928950.639,              !- Vertex 3 Ycoordinate
    12,                       !- Vertex 3 Zcoordinate
    686755.9050000003,        !- Vertex 4 Xcoordinate
    4928950.639,              !- Vertex 4 Ycoordinate
    15;                       !- Vertex 4 Zcoordinate

BUILDINGSURFACE:DETAILED,
    Block 19da1493f901936e_1 Storey 4 Wall 0009_1,    !- Name
    wall,                     !- Surface Type
    EU_wall_Construction,     !- Construction Name
    19da1493f901936e_F4_dwelling_1,    !- Zone Name
    ,                         !- Space Name
    surface,                  !- Outside Boundary Condition
    Block 19da1493f901936e_0 Storey 4 Wall 0001_1,    !- Outside Boundary Condition Object
    NoSun,                    !- Sun Exposure
    NoWind,                   !- Wind Exposure
    autocalculate,            !- View Factor to Ground
    autocalculate,            !- Number of Vertices
    686755.9050000003,        !- Vertex 1 Xcoordinate
    4928950.639,              !- Vertex 1 Ycoordinate
    15,                       !- Vertex 1 Zcoordinate
    686755.9050000003,        !- Vertex 2 Xcoordinate
    4928950.639,              !- Vertex 2 Ycoordinate
    12,                       !- Vertex 2 Zcoordinate
    686747.9049999999,        !- Vertex 3 Xcoordinate
    4928939.383,              !- Vertex 3 Ycoordinate
    12,                       !- Vertex 3 Zcoordinate
    686747.9049999999,        !- Vertex 4 Xcoordinate
    4928939.383,              !- Vertex 4 Ycoordinate
    15;                       !- Vertex 4 Zcoordinate

BUILDINGSURFACE:DETAILED,
    Block 19da1493f901936e_0 Storey 4 Wall 0005_1,    !- Name
    wall,                     !- Surface Type
    EU_wall_Construction,     !- Construction Name
    19da1493f901936e_F4_dwelling_0,    !- Zone Name
    ,                         !- Space Name
    surface,                  !- Outside Boundary Condition
    Block 19da1493f901936e_1 Storey 4 Wall 0003_1,    !- Outside Boundary Condition Object
    NoSun,                    !- Sun Exposure
    NoWind,                   !- Wind Exposure
    autocalculate,            !- View Factor to Ground
    autocalculate,            !- Number of Vertices
    686766.9209999997,        !- Vertex 1 Xcoordinate
    4928966.138,              !- Vertex 1 Ycoordinate
    15,                       !- Vertex 1 Zcoordinate
    686766.9209999997,        !- Vertex 2 Xcoordinate
    4928966.138,              !- Vertex 2 Ycoordinate
    12,                       !- Vertex 2 Zcoordinate
    686774.9319999999,        !- Vertex 3 Xcoordinate
    4928977.41,               !- Vertex 3 Ycoordinate
    12,                       !- Vertex 3 Zcoordinate
    686774.9319999999,        !- Vertex 4 Xcoordinate
    4928977.41,               !- Vertex 4 Ycoordinate
    15;                       !- Vertex 4 Zcoordinate

BUILDINGSURFACE:DETAILED,
    Block 19da1493f901936e_1 Storey 4 Wall 0003_1,    !- Name
    wall,                     !- Surface Type
    EU_wall_Construction,     !- Construction Name
    19da1493f901936e_F4_dwelling_1,    !- Zone Name
    ,                         !- Space Name
    surface,                  !- Outside Boundary Condition
    Block 19da1493f901936e_0 Storey 4 Wall 0005_1,    !- Outside Boundary Condition Object
    NoSun,                    !- Sun Exposure
    NoWind,                   !- Wind Exposure
    autocalculate,            !- View Factor to Ground
    autocalculate,            !- Number of Vertices
    686774.9319999999,        !- Vertex 1 Xcoordinate
    4928977.41,               !- Vertex 1 Ycoordinate
    15,                       !- Vertex 1 Zcoordinate
    686774.9319999999,        !- Vertex 2 Xcoordinate
    4928977.41,               !- Vertex 2 Ycoordinate
    12,                       !- Vertex 2 Zcoordinate
    686766.9209999997,        !- Vertex 3 Xcoordinate
    4928966.138,              !- Vertex 3 Ycoordinate
    12,                       !- Vertex 3 Zcoordinate
    686766.9209999997,        !- Vertex 4 Xcoordinate
    4928966.138,              !- Vertex 4 Ycoordinate
    15;                       !- Vertex 4 Zcoordinate

BUILDINGSURFACE:DETAILED,
    Block 19da1493f901936e_0 Storey 4 Ceiling 0001_1,    !- Name
    ceiling,                  !- Surface Type
    EU_floor_Construction,    !- Construction Name
    19da1493f901936e_F4_dwelling_0,    !- Zone Name
    ,                         !- Space Name
    Surface,                  !- Outside Boundary Condition
    Block 19da1493f901936e_0 Storey 5 Floor 0001_1,    !- Outside Boundary Condition Object
    NoSun,                    !- Sun Exposure
    NoWind,                   !- Wind Exposure
    autocalculate,            !- View Factor to Ground
    autocalculate,            !- Number of Vertices
    686797.571,               !- Vertex 1 Xcoordinate
    4928969.124,              !- Vertex 1 Ycoordinate
    15,                       !- Vertex 1 Zcoordinate
    686777.7509999997,        !- Vertex 2 Xcoordinate
    4928941.285,              !- Vertex 2 Ycoordinate
    15,                       !- Vertex 2 Zcoordinate
    686770.131,               !- Vertex 3 Xcoordinate
    4928931.375,              !- Vertex 3 Ycoordinate
    15,                       !- Vertex 3 Zcoordinate
    686747.9049999998,        !- Vertex 4 Xcoordinate
    4928939.383,              !- Vertex 4 Ycoordinate
    15,                       !- Vertex 4 Zcoordinate
    686755.9049999998,        !- Vertex 5 Xcoordinate
    4928950.639,              !- Vertex 5 Ycoordinate
    15,                       !- Vertex 5 Zcoordinate
    686765.7919999999,        !- Vertex 6 Xcoordinate
    4928947.095,              !- Vertex 6 Ycoordinate
    15,                       !- Vertex 6 Zcoordinate
    686771.932,               !- Vertex 7 Xcoordinate
    4928964.195,              !- Vertex 7 Ycoordinate
    15,                       !- Vertex 7 Zcoordinate
    686766.9209999996,        !- Vertex 8 Xcoordinate
    4928966.138,              !- Vertex 8 Ycoordinate
    15,                       !- Vertex 8 Zcoordinate
    686774.932,               !- Vertex 9 Xcoordinate
    4928977.41,               !- Vertex 9 Ycoordinate
    15;                       !- Vertex 9 Zcoordinate

BUILDINGSURFACE:DETAILED,
    Block 19da1493f901936e_0 Storey 5 Floor 0001_1,    !- Name
    floor,                    !- Surface Type
    EU_floor_Construction,    !- Construction Name
    19da1493f901936e_F5_dwelling_0,    !- Zone Name
    ,                         !- Space Name
    Surface,                  !- Outside Boundary Condition
    Block 19da1493f901936e_0 Storey 4 Ceiling 0001_1,    !- Outside Boundary Condition Object
    NoSun,                    !- Sun Exposure
    NoWind,                   !- Wind Exposure
    autocalculate,            !- View Factor to Ground
    autocalculate,            !- Number of Vertices
    686777.7509999997,        !- Vertex 1 Xcoordinate
    4928941.285,              !- Vertex 1 Ycoordinate
    15,                       !- Vertex 1 Zcoordinate
    686797.571,               !- Vertex 2 Xcoordinate
    4928969.124,              !- Vertex 2 Ycoordinate
    15,                       !- Vertex 2 Zcoordinate
    686774.932,               !- Vertex 3 Xcoordinate
    4928977.41,               !- Vertex 3 Ycoordinate
    15,                       !- Vertex 3 Zcoordinate
    686766.9209999996,        !- Vertex 4 Xcoordinate
    4928966.138,              !- Vertex 4 Ycoordinate
    15,                       !- Vertex 4 Zcoordinate
    686771.932,               !- Vertex 5 Xcoordinate
    4928964.195,              !- Vertex 5 Ycoordinate
    15,                       !- Vertex 5 Zcoordinate
    686765.7919999999,        !- Vertex 6 Xcoordinate
    4928947.095,              !- Vertex 6 Ycoordinate
    15,                       !- Vertex 6 Zcoordinate
    686755.9049999998,        !- Vertex 7 Xcoordinate
    4928950.639,              !- Vertex 7 Ycoordinate
    15,                       !- Vertex 7 Zcoordinate
    686747.9049999998,        !- Vertex 8 Xcoordinate
    4928939.383,              !- Vertex 8 Ycoordinate
    15,                       !- Vertex 8 Zcoordinate
    686770.131,               !- Vertex 9 Xcoordinate
    4928931.375,              !- Vertex 9 Ycoordinate
    15;                       !- Vertex 9 Zcoordinate

BUILDINGSURFACE:DETAILED,
    Block 19da1493f901936e_0 Storey 5 Wall 0001_1,    !- Name
    wall,                     !- Surface Type
    EU_wall_Construction,     !- Construction Name
    19da1493f901936e_F5_dwelling_0,    !- Zone Name
    ,                         !- Space Name
    surface,                  !- Outside Boundary Condition
    Block 19da1493f901936e_1 Storey 5 Wall 0009_1,    !- Outside Boundary Condition Object
    NoSun,                    !- Sun Exposure
    NoWind,                   !- Wind Exposure
    autocalculate,            !- View Factor to Ground
    autocalculate,            !- Number of Vertices
    686747.9049999999,        !- Vertex 1 Xcoordinate
    4928939.383,              !- Vertex 1 Ycoordinate
    18,                       !- Vertex 1 Zcoordinate
    686747.9049999999,        !- Vertex 2 Xcoordinate
    4928939.383,              !- Vertex 2 Ycoordinate
    15,                       !- Vertex 2 Zcoordinate
    686755.9050000003,        !- Vertex 3 Xcoordinate
    4928950.639,              !- Vertex 3 Ycoordinate
    15,                       !- Vertex 3 Zcoordinate
    686755.9050000003,        !- Vertex 4 Xcoordinate
    4928950.639,              !- Vertex 4 Ycoordinate
    18;                       !- Vertex 4 Zcoordinate

BUILDINGSURFACE:DETAILED,
    Block 19da1493f901936e_1 Storey 5 Wall 0009_1,    !- Name
    wall,                     !- Surface Type
    EU_wall_Construction,     !- Construction Name
    19da1493f901936e_F5_dwelling_1,    !- Zone Name
    ,                         !- Space Name
    surface,                  !- Outside Boundary Condition
    Block 19da1493f901936e_0 Storey 5 Wall 0001_1,    !- Outside Boundary Condition Object
    NoSun,                    !- Sun Exposure
    NoWind,                   !- Wind Exposure
    autocalculate,            !- View Factor to Ground
    autocalculate,            !- Number of Vertices
    686755.9050000003,        !- Vertex 1 Xcoordinate
    4928950.639,              !- Vertex 1 Ycoordinate
    18,                       !- Vertex 1 Zcoordinate
    686755.9050000003,        !- Vertex 2 Xcoordinate
    4928950.639,              !- Vertex 2 Ycoordinate
    15,                       !- Vertex 2 Zcoordinate
    686747.9049999999,        !- Vertex 3 Xcoordinate
    4928939.383,              !- Vertex 3 Ycoordinate
    15,                       !- Vertex 3 Zcoordinate
    686747.9049999999,        !- Vertex 4 Xcoordinate
    4928939.383,              !- Vertex 4 Ycoordinate
    18;                       !- Vertex 4 Zcoordinate

BUILDINGSURFACE:DETAILED,
    Block 19da1493f901936e_0 Storey 5 Wall 0005_1,    !- Name
    wall,                     !- Surface Type
    EU_wall_Construction,     !- Construction Name
    19da1493f901936e_F5_dwelling_0,    !- Zone Name
    ,                         !- Space Name
    surface,                  !- Outside Boundary Condition
    Block 19da1493f901936e_1 Storey 5 Wall 0003_1,    !- Outside Boundary Condition Object
    NoSun,                    !- Sun Exposure
    NoWind,                   !- Wind Exposure
    autocalculate,            !- View Factor to Ground
    autocalculate,            !- Number of Vertices
    686766.9209999997,        !- Vertex 1 Xcoordinate
    4928966.138,              !- Vertex 1 Ycoordinate
    18,                       !- Vertex 1 Zcoordinate
    686766.9209999997,        !- Vertex 2 Xcoordinate
    4928966.138,              !- Vertex 2 Ycoordinate
    15,                       !- Vertex 2 Zcoordinate
    686774.9319999999,        !- Vertex 3 Xcoordinate
    4928977.41,               !- Vertex 3 Ycoordinate
    15,                       !- Vertex 3 Zcoordinate
    686774.9319999999,        !- Vertex 4 Xcoordinate
    4928977.41,               !- Vertex 4 Ycoordinate
    18;                       !- Vertex 4 Zcoordinate

BUILDINGSURFACE:DETAILED,
    Block 19da1493f901936e_1 Storey 5 Wall 0003_1,    !- Name
    wall,                     !- Surface Type
    EU_wall_Construction,     !- Construction Name
    19da1493f901936e_F5_dwelling_1,    !- Zone Name
    ,                         !- Space Name
    surface,                  !- Outside Boundary Condition
    Block 19da1493f901936e_0 Storey 5 Wall 0005_1,    !- Outside Boundary Condition Object
    NoSun,                    !- Sun Exposure
    NoWind,                   !- Wind Exposure
    autocalculate,            !- View Factor to Ground
    autocalculate,            !- Number of Vertices
    686774.9319999999,        !- Vertex 1 Xcoordinate
    4928977.41,               !- Vertex 1 Ycoordinate
    18,                       !- Vertex 1 Zcoordinate
    686774.9319999999,        !- Vertex 2 Xcoordinate
    4928977.41,               !- Vertex 2 Ycoordinate
    15,                       !- Vertex 2 Zcoordinate
    686766.9209999997,        !- Vertex 3 Xcoordinate
    4928966.138,              !- Vertex 3 Ycoordinate
    15,                       !- Vertex 3 Zcoordinate
    686766.9209999997,        !- Vertex 4 Xcoordinate
    4928966.138,              !- Vertex 4 Ycoordinate
    18;                       !- Vertex 4 Zcoordinate

BUILDINGSURFACE:DETAILED,
    Block 19da1493f901936e_0 Storey 5 Ceiling 0001_1,    !- Name
    ceiling,                  !- Surface Type
    EU_floor_Construction,    !- Construction Name
    19da1493f901936e_F5_dwelling_0,    !- Zone Name
    ,                         !- Space Name
    Surface,                  !- Outside Boundary Condition
    Block 19da1493f901936e_0 Storey 6 Floor 0001_1,    !- Outside Boundary Condition Object
    NoSun,                    !- Sun Exposure
    NoWind,                   !- Wind Exposure
    autocalculate,            !- View Factor to Ground
    autocalculate,            !- Number of Vertices
    686797.571,               !- Vertex 1 Xcoordinate
    4928969.124,              !- Vertex 1 Ycoordinate
    18,                       !- Vertex 1 Zcoordinate
    686777.7509999997,        !- Vertex 2 Xcoordinate
    4928941.285,              !- Vertex 2 Ycoordinate
    18,                       !- Vertex 2 Zcoordinate
    686770.131,               !- Vertex 3 Xcoordinate
    4928931.375,              !- Vertex 3 Ycoordinate
    18,                       !- Vertex 3 Zcoordinate
    686747.9049999998,        !- Vertex 4 Xcoordinate
    4928939.383,              !- Vertex 4 Ycoordinate
    18,                       !- Vertex 4 Zcoordinate
    686755.9049999998,        !- Vertex 5 Xcoordinate
    4928950.639,              !- Vertex 5 Ycoordinate
    18,                       !- Vertex 5 Zcoordinate
    686765.7919999999,        !- Vertex 6 Xcoordinate
    4928947.095,              !- Vertex 6 Ycoordinate
    18,                       !- Vertex 6 Zcoordinate
    686771.932,               !- Vertex 7 Xcoordinate
    4928964.195,              !- Vertex 7 Ycoordinate
    18,                       !- Vertex 7 Zcoordinate
    686766.9209999996,        !- Vertex 8 Xcoordinate
    4928966.138,              !- Vertex 8 Ycoordinate
    18,                       !- Vertex 8 Zcoordinate
    686774.932,               !- Vertex 9 Xcoordinate
    4928977.41,               !- Vertex 9 Ycoordinate
    18;                       !- Vertex 9 Zcoordinate

BUILDINGSURFACE:DETAILED,
    Block 19da1493f901936e_0 Storey 6 Floor 0001_1,    !- Name
    floor,                    !- Surface Type
    EU_floor_Construction,    !- Construction Name
    19da1493f901936e_F6_dwelling_0,    !- Zone Name
    ,                         !- Space Name
    Surface,                  !- Outside Boundary Condition
    Block 19da1493f901936e_0 Storey 5 Ceiling 0001_1,    !- Outside Boundary Condition Object
    NoSun,                    !- Sun Exposure
    NoWind,                   !- Wind Exposure
    autocalculate,            !- View Factor to Ground
    autocalculate,            !- Number of Vertices
    686777.7509999997,        !- Vertex 1 Xcoordinate
    4928941.285,              !- Vertex 1 Ycoordinate
    18,                       !- Vertex 1 Zcoordinate
    686797.571,               !- Vertex 2 Xcoordinate
    4928969.124,              !- Vertex 2 Ycoordinate
    18,                       !- Vertex 2 Zcoordinate
    686774.932,               !- Vertex 3 Xcoordinate
    4928977.41,               !- Vertex 3 Ycoordinate
    18,                       !- Vertex 3 Zcoordinate
    686766.9209999996,        !- Vertex 4 Xcoordinate
    4928966.138,              !- Vertex 4 Ycoordinate
    18,                       !- Vertex 4 Zcoordinate
    686771.932,               !- Vertex 5 Xcoordinate
    4928964.195,              !- Vertex 5 Ycoordinate
    18,                       !- Vertex 5 Zcoordinate
    686765.7919999999,        !- Vertex 6 Xcoordinate
    4928947.095,              !- Vertex 6 Ycoordinate
    18,                       !- Vertex 6 Zcoordinate
    686755.9049999998,        !- Vertex 7 Xcoordinate
    4928950.639,              !- Vertex 7 Ycoordinate
    18,                       !- Vertex 7 Zcoordinate
    686747.9049999998,        !- Vertex 8 Xcoordinate
    4928939.383,              !- Vertex 8 Ycoordinate
    18,                       !- Vertex 8 Zcoordinate
    686770.131,               !- Vertex 9 Xcoordinate
    4928931.375,              !- Vertex 9 Ycoordinate
    18;                       !- Vertex 9 Zcoordinate

BUILDINGSURFACE:DETAILED,
    Block 19da1493f901936e_0 Storey 6 Wall 0001_1,    !- Name
    wall,                     !- Surface Type
    EU_wall_Construction,     !- Construction Name
    19da1493f901936e_F6_dwelling_0,    !- Zone Name
    ,                         !- Space Name
    surface,                  !- Outside Boundary Condition
    Block 19da1493f901936e_1 Storey 6 Wall 0009_1,    !- Outside Boundary Condition Object
    NoSun,                    !- Sun Exposure
    NoWind,                   !- Wind Exposure
    autocalculate,            !- View Factor to Ground
    autocalculate,            !- Number of Vertices
    686747.9049999999,        !- Vertex 1 Xcoordinate
    4928939.383,              !- Vertex 1 Ycoordinate
    21,                       !- Vertex 1 Zcoordinate
    686747.9049999999,        !- Vertex 2 Xcoordinate
    4928939.383,              !- Vertex 2 Ycoordinate
    18,                       !- Vertex 2 Zcoordinate
    686755.9050000003,        !- Vertex 3 Xcoordinate
    4928950.639,              !- Vertex 3 Ycoordinate
    18,                       !- Vertex 3 Zcoordinate
    686755.9050000003,        !- Vertex 4 Xcoordinate
    4928950.639,              !- Vertex 4 Ycoordinate
    21;                       !- Vertex 4 Zcoordinate

BUILDINGSURFACE:DETAILED,
    Block 19da1493f901936e_1 Storey 6 Wall 0009_1,    !- Name
    wall,                     !- Surface Type
    EU_wall_Construction,     !- Construction Name
    19da1493f901936e_F6_dwelling_1,    !- Zone Name
    ,                         !- Space Name
    surface,                  !- Outside Boundary Condition
    Block 19da1493f901936e_0 Storey 6 Wall 0001_1,    !- Outside Boundary Condition Object
    NoSun,                    !- Sun Exposure
    NoWind,                   !- Wind Exposure
    autocalculate,            !- View Factor to Ground
    autocalculate,            !- Number of Vertices
    686755.9050000003,        !- Vertex 1 Xcoordinate
    4928950.639,              !- Vertex 1 Ycoordinate
    21,                       !- Vertex 1 Zcoordinate
    686755.9050000003,        !- Vertex 2 Xcoordinate
    4928950.639,              !- Vertex 2 Ycoordinate
    18,                       !- Vertex 2 Zcoordinate
    686747.9049999999,        !- Vertex 3 Xcoordinate
    4928939.383,              !- Vertex 3 Ycoordinate
    18,                       !- Vertex 3 Zcoordinate
    686747.9049999999,        !- Vertex 4 Xcoordinate
    4928939.383,              !- Vertex 4 Ycoordinate
    21;                       !- Vertex 4 Zcoordinate

BUILDINGSURFACE:DETAILED,
    Block 19da1493f901936e_0 Storey 6 Wall 0005_1,    !- Name
    wall,                     !- Surface Type
    EU_wall_Construction,     !- Construction Name
    19da1493f901936e_F6_dwelling_0,    !- Zone Name
    ,                         !- Space Name
    surface,                  !- Outside Boundary Condition
    Block 19da1493f901936e_1 Storey 6 Wall 0003_1,    !- Outside Boundary Condition Object
    NoSun,                    !- Sun Exposure
    NoWind,                   !- Wind Exposure
    autocalculate,            !- View Factor to Ground
    autocalculate,            !- Number of Vertices
    686766.9209999997,        !- Vertex 1 Xcoordinate
    4928966.138,              !- Vertex 1 Ycoordinate
    21,                       !- Vertex 1 Zcoordinate
    686766.9209999997,        !- Vertex 2 Xcoordinate
    4928966.138,              !- Vertex 2 Ycoordinate
    18,                       !- Vertex 2 Zcoordinate
    686774.9319999999,        !- Vertex 3 Xcoordinate
    4928977.41,               !- Vertex 3 Ycoordinate
    18,                       !- Vertex 3 Zcoordinate
    686774.9319999999,        !- Vertex 4 Xcoordinate
    4928977.41,               !- Vertex 4 Ycoordinate
    21;                       !- Vertex 4 Zcoordinate

BUILDINGSURFACE:DETAILED,
    Block 19da1493f901936e_1 Storey 6 Wall 0003_1,    !- Name
    wall,                     !- Surface Type
    EU_wall_Construction,     !- Construction Name
    19da1493f901936e_F6_dwelling_1,    !- Zone Name
    ,                         !- Space Name
    surface,                  !- Outside Boundary Condition
    Block 19da1493f901936e_0 Storey 6 Wall 0005_1,    !- Outside Boundary Condition Object
    NoSun,                    !- Sun Exposure
    NoWind,                   !- Wind Exposure
    autocalculate,            !- View Factor to Ground
    autocalculate,            !- Number of Vertices
    686774.9319999999,        !- Vertex 1 Xcoordinate
    4928977.41,               !- Vertex 1 Ycoordinate
    21,                       !- Vertex 1 Zcoordinate
    686774.9319999999,        !- Vertex 2 Xcoordinate
    4928977.41,               !- Vertex 2 Ycoordinate
    18,                       !- Vertex 2 Zcoordinate
    686766.9209999997,        !- Vertex 3 Xcoordinate
    4928966.138,              !- Vertex 3 Ycoordinate
    18,                       !- Vertex 3 Zcoordinate
    686766.9209999997,        !- Vertex 4 Xcoordinate
    4928966.138,              !- Vertex 4 Ycoordinate
    21;                       !- Vertex 4 Zcoordinate

BUILDINGSURFACE:DETAILED,
    Block 19da1493f901936e_0 Storey 6 Ceiling 0001_1,    !- Name
    ceiling,                  !- Surface Type
    EU_floor_Construction,    !- Construction Name
    19da1493f901936e_F6_dwelling_0,    !- Zone Name
    ,                         !- Space Name
    Surface,                  !- Outside Boundary Condition
    Block 19da1493f901936e_0 Storey 7 Floor 0001_1,    !- Outside Boundary Condition Object
    NoSun,                    !- Sun Exposure
    NoWind,                   !- Wind Exposure
    autocalculate,            !- View Factor to Ground
    autocalculate,            !- Number of Vertices
    686797.571,               !- Vertex 1 Xcoordinate
    4928969.124,              !- Vertex 1 Ycoordinate
    21,                       !- Vertex 1 Zcoordinate
    686777.7509999997,        !- Vertex 2 Xcoordinate
    4928941.285,              !- Vertex 2 Ycoordinate
    21,                       !- Vertex 2 Zcoordinate
    686770.131,               !- Vertex 3 Xcoordinate
    4928931.375,              !- Vertex 3 Ycoordinate
    21,                       !- Vertex 3 Zcoordinate
    686747.9049999998,        !- Vertex 4 Xcoordinate
    4928939.383,              !- Vertex 4 Ycoordinate
    21,                       !- Vertex 4 Zcoordinate
    686755.9049999998,        !- Vertex 5 Xcoordinate
    4928950.639,              !- Vertex 5 Ycoordinate
    21,                       !- Vertex 5 Zcoordinate
    686765.7919999999,        !- Vertex 6 Xcoordinate
    4928947.095,              !- Vertex 6 Ycoordinate
    21,                       !- Vertex 6 Zcoordinate
    686771.932,               !- Vertex 7 Xcoordinate
    4928964.195,              !- Vertex 7 Ycoordinate
    21,                       !- Vertex 7 Zcoordinate
    686766.9209999996,        !- Vertex 8 Xcoordinate
    4928966.138,              !- Vertex 8 Ycoordinate
    21,                       !- Vertex 8 Zcoordinate
    686774.932,               !- Vertex 9 Xcoordinate
    4928977.41,               !- Vertex 9 Ycoordinate
    21;                       !- Vertex 9 Zcoordinate

BUILDINGSURFACE:DETAILED,
    Block 19da1493f901936e_0 Storey 7 Floor 0001_1,    !- Name
    floor,                    !- Surface Type
    EU_floor_Construction,    !- Construction Name
    19da1493f901936e_F7_dwelling_0,    !- Zone Name
    ,                         !- Space Name
    Surface,                  !- Outside Boundary Condition
    Block 19da1493f901936e_0 Storey 6 Ceiling 0001_1,    !- Outside Boundary Condition Object
    NoSun,                    !- Sun Exposure
    NoWind,                   !- Wind Exposure
    autocalculate,            !- View Factor to Ground
    autocalculate,            !- Number of Vertices
    686777.7509999997,        !- Vertex 1 Xcoordinate
    4928941.285,              !- Vertex 1 Ycoordinate
    21,                       !- Vertex 1 Zcoordinate
    686797.571,               !- Vertex 2 Xcoordinate
    4928969.124,              !- Vertex 2 Ycoordinate
    21,                       !- Vertex 2 Zcoordinate
    686774.932,               !- Vertex 3 Xcoordinate
    4928977.41,               !- Vertex 3 Ycoordinate
    21,                       !- Vertex 3 Zcoordinate
    686766.9209999996,        !- Vertex 4 Xcoordinate
    4928966.138,              !- Vertex 4 Ycoordinate
    21,                       !- Vertex 4 Zcoordinate
    686771.932,               !- Vertex 5 Xcoordinate
    4928964.195,              !- Vertex 5 Ycoordinate
    21,                       !- Vertex 5 Zcoordinate
    686765.7919999999,        !- Vertex 6 Xcoordinate
    4928947.095,              !- Vertex 6 Ycoordinate
    21,                       !- Vertex 6 Zcoordinate
    686755.9049999998,        !- Vertex 7 Xcoordinate
    4928950.639,              !- Vertex 7 Ycoordinate
    21,                       !- Vertex 7 Zcoordinate
    686747.9049999998,        !- Vertex 8 Xcoordinate
    4928939.383,              !- Vertex 8 Ycoordinate
    21,                       !- Vertex 8 Zcoordinate
    686770.131,               !- Vertex 9 Xcoordinate
    4928931.375,              !- Vertex 9 Ycoordinate
    21;                       !- Vertex 9 Zcoordinate

BUILDINGSURFACE:DETAILED,
    Block 19da1493f901936e_0 Storey 7 Wall 0001_1,    !- Name
    wall,                     !- Surface Type
    EU_wall_Construction,     !- Construction Name
    19da1493f901936e_F7_dwelling_0,    !- Zone Name
    ,                         !- Space Name
    surface,                  !- Outside Boundary Condition
    Block 19da1493f901936e_1 Storey 7 Wall 0009_1,    !- Outside Boundary Condition Object
    NoSun,                    !- Sun Exposure
    NoWind,                   !- Wind Exposure
    autocalculate,            !- View Factor to Ground
    autocalculate,            !- Number of Vertices
    686747.9049999999,        !- Vertex 1 Xcoordinate
    4928939.383,              !- Vertex 1 Ycoordinate
    24,                       !- Vertex 1 Zcoordinate
    686747.9049999999,        !- Vertex 2 Xcoordinate
    4928939.383,              !- Vertex 2 Ycoordinate
    21,                       !- Vertex 2 Zcoordinate
    686755.9050000003,        !- Vertex 3 Xcoordinate
    4928950.639,              !- Vertex 3 Ycoordinate
    21,                       !- Vertex 3 Zcoordinate
    686755.9050000003,        !- Vertex 4 Xcoordinate
    4928950.639,              !- Vertex 4 Ycoordinate
    24;                       !- Vertex 4 Zcoordinate

BUILDINGSURFACE:DETAILED,
    Block 19da1493f901936e_1 Storey 7 Wall 0009_1,    !- Name
    wall,                     !- Surface Type
    EU_wall_Construction,     !- Construction Name
    19da1493f901936e_F7_dwelling_1,    !- Zone Name
    ,                         !- Space Name
    surface,                  !- Outside Boundary Condition
    Block 19da1493f901936e_0 Storey 7 Wall 0001_1,    !- Outside Boundary Condition Object
    NoSun,                    !- Sun Exposure
    NoWind,                   !- Wind Exposure
    autocalculate,            !- View Factor to Ground
    autocalculate,            !- Number of Vertices
    686755.9050000003,        !- Vertex 1 Xcoordinate
    4928950.639,              !- Vertex 1 Ycoordinate
    24,                       !- Vertex 1 Zcoordinate
    686755.9050000003,        !- Vertex 2 Xcoordinate
    4928950.639,              !- Vertex 2 Ycoordinate
    21,                       !- Vertex 2 Zcoordinate
    686747.9049999999,        !- Vertex 3 Xcoordinate
    4928939.383,              !- Vertex 3 Ycoordinate
    21,                       !- Vertex 3 Zcoordinate
    686747.9049999999,        !- Vertex 4 Xcoordinate
    4928939.383,              !- Vertex 4 Ycoordinate
    24;                       !- Vertex 4 Zcoordinate

BUILDINGSURFACE:DETAILED,
    Block 19da1493f901936e_0 Storey 7 Wall 0005_1,    !- Name
    wall,                     !- Surface Type
    EU_wall_Construction,     !- Construction Name
    19da1493f901936e_F7_dwelling_0,    !- Zone Name
    ,                         !- Space Name
    surface,                  !- Outside Boundary Condition
    Block 19da1493f901936e_1 Storey 7 Wall 0003_1,    !- Outside Boundary Condition Object
    NoSun,                    !- Sun Exposure
    NoWind,                   !- Wind Exposure
    autocalculate,            !- View Factor to Ground
    autocalculate,            !- Number of Vertices
    686766.9209999997,        !- Vertex 1 Xcoordinate
    4928966.138,              !- Vertex 1 Ycoordinate
    24,                       !- Vertex 1 Zcoordinate
    686766.9209999997,        !- Vertex 2 Xcoordinate
    4928966.138,              !- Vertex 2 Ycoordinate
    21,                       !- Vertex 2 Zcoordinate
    686774.9319999999,        !- Vertex 3 Xcoordinate
    4928977.41,               !- Vertex 3 Ycoordinate
    21,                       !- Vertex 3 Zcoordinate
    686774.9319999999,        !- Vertex 4 Xcoordinate
    4928977.41,               !- Vertex 4 Ycoordinate
    24;                       !- Vertex 4 Zcoordinate

BUILDINGSURFACE:DETAILED,
    Block 19da1493f901936e_1 Storey 7 Wall 0003_1,    !- Name
    wall,                     !- Surface Type
    EU_wall_Construction,     !- Construction Name
    19da1493f901936e_F7_dwelling_1,    !- Zone Name
    ,                         !- Space Name
    surface,                  !- Outside Boundary Condition
    Block 19da1493f901936e_0 Storey 7 Wall 0005_1,    !- Outside Boundary Condition Object
    NoSun,                    !- Sun Exposure
    NoWind,                   !- Wind Exposure
    autocalculate,            !- View Factor to Ground
    autocalculate,            !- Number of Vertices
    686774.9319999999,        !- Vertex 1 Xcoordinate
    4928977.41,               !- Vertex 1 Ycoordinate
    24,                       !- Vertex 1 Zcoordinate
    686774.9319999999,        !- Vertex 2 Xcoordinate
    4928977.41,               !- Vertex 2 Ycoordinate
    21,                       !- Vertex 2 Zcoordinate
    686766.9209999997,        !- Vertex 3 Xcoordinate
    4928966.138,              !- Vertex 3 Ycoordinate
    21,                       !- Vertex 3 Zcoordinate
    686766.9209999997,        !- Vertex 4 Xcoordinate
    4928966.138,              !- Vertex 4 Ycoordinate
    24;                       !- Vertex 4 Zcoordinate

BUILDINGSURFACE:DETAILED,
    Block 19da1493f901936e_1 Storey 0 Ceiling 0001_1,    !- Name
    ceiling,                  !- Surface Type
    EU_floor_Construction,    !- Construction Name
    19da1493f901936e_F0_dwelling_1,    !- Zone Name
    ,                         !- Space Name
    Surface,                  !- Outside Boundary Condition
    Block 19da1493f901936e_1 Storey 1 Floor 0001_1,    !- Outside Boundary Condition Object
    NoSun,                    !- Sun Exposure
    NoWind,                   !- Wind Exposure
    autocalculate,            !- View Factor to Ground
    autocalculate,            !- Number of Vertices
    686774.932,               !- Vertex 1 Xcoordinate
    4928977.41,               !- Vertex 1 Ycoordinate
    3,                        !- Vertex 1 Zcoordinate
    686766.9209999996,        !- Vertex 2 Xcoordinate
    4928966.138,              !- Vertex 2 Ycoordinate
    3,                        !- Vertex 2 Zcoordinate
    686748.3319999999,        !- Vertex 3 Xcoordinate
    4928973.345,              !- Vertex 3 Ycoordinate
    3,                        !- Vertex 3 Zcoordinate
    686747.352,               !- Vertex 4 Xcoordinate
    4928970.545,              !- Vertex 4 Ycoordinate
    3,                        !- Vertex 4 Zcoordinate
    686742.872,               !- Vertex 5 Xcoordinate
    4928958.945,              !- Vertex 5 Ycoordinate
    3,                        !- Vertex 5 Zcoordinate
    686741.662,               !- Vertex 6 Xcoordinate
    4928955.745,              !- Vertex 6 Ycoordinate
    3,                        !- Vertex 6 Zcoordinate
    686755.9049999998,        !- Vertex 7 Xcoordinate
    4928950.639,              !- Vertex 7 Ycoordinate
    3,                        !- Vertex 7 Zcoordinate
    686747.9049999998,        !- Vertex 8 Xcoordinate
    4928939.383,              !- Vertex 8 Ycoordinate
    3,                        !- Vertex 8 Zcoordinate
    686726.0819999999,        !- Vertex 9 Xcoordinate
    4928947.246,              !- Vertex 9 Ycoordinate
    3,                        !- Vertex 9 Zcoordinate
    686732.2219999996,        !- Vertex 10 Xcoordinate
    4928962.766,              !- Vertex 10 Ycoordinate
    3,                        !- Vertex 10 Zcoordinate
    686737.1119999997,        !- Vertex 11 Xcoordinate
    4928974.555,              !- Vertex 11 Ycoordinate
    3,                        !- Vertex 11 Zcoordinate
    686737.9419999998,        !- Vertex 12 Xcoordinate
    4928974.225,              !- Vertex 12 Ycoordinate
    3,                        !- Vertex 12 Zcoordinate
    686740.6319999998,        !- Vertex 13 Xcoordinate
    4928981.305,              !- Vertex 13 Ycoordinate
    3,                        !- Vertex 13 Zcoordinate
    686742.2319999998,        !- Vertex 14 Xcoordinate
    4928980.695,              !- Vertex 14 Ycoordinate
    3,                        !- Vertex 14 Zcoordinate
    686746.202,               !- Vertex 15 Xcoordinate
    4928987.925,              !- Vertex 15 Ycoordinate
    3;                        !- Vertex 15 Zcoordinate

BUILDINGSURFACE:DETAILED,
    Block 19da1493f901936e_1 Storey 1 Floor 0001_1,    !- Name
    floor,                    !- Surface Type
    EU_floor_Construction,    !- Construction Name
    19da1493f901936e_F1_dwelling_1,    !- Zone Name
    ,                         !- Space Name
    Surface,                  !- Outside Boundary Condition
    Block 19da1493f901936e_1 Storey 0 Ceiling 0001_1,    !- Outside Boundary Condition Object
    NoSun,                    !- Sun Exposure
    NoWind,                   !- Wind Exposure
    autocalculate,            !- View Factor to Ground
    autocalculate,            !- Number of Vertices
    686755.9049999998,        !- Vertex 1 Xcoordinate
    4928950.639,              !- Vertex 1 Ycoordinate
    3,                        !- Vertex 1 Zcoordinate
    686741.662,               !- Vertex 2 Xcoordinate
    4928955.745,              !- Vertex 2 Ycoordinate
    3,                        !- Vertex 2 Zcoordinate
    686742.872,               !- Vertex 3 Xcoordinate
    4928958.945,              !- Vertex 3 Ycoordinate
    3,                        !- Vertex 3 Zcoordinate
    686747.352,               !- Vertex 4 Xcoordinate
    4928970.545,              !- Vertex 4 Ycoordinate
    3,                        !- Vertex 4 Zcoordinate
    686748.3319999999,        !- Vertex 5 Xcoordinate
    4928973.345,              !- Vertex 5 Ycoordinate
    3,                        !- Vertex 5 Zcoordinate
    686766.9209999996,        !- Vertex 6 Xcoordinate
    4928966.138,              !- Vertex 6 Ycoordinate
    3,                        !- Vertex 6 Zcoordinate
    686774.932,               !- Vertex 7 Xcoordinate
    4928977.41,               !- Vertex 7 Ycoordinate
    3,                        !- Vertex 7 Zcoordinate
    686746.202,               !- Vertex 8 Xcoordinate
    4928987.925,              !- Vertex 8 Ycoordinate
    3,                        !- Vertex 8 Zcoordinate
    686742.2319999998,        !- Vertex 9 Xcoordinate
    4928980.695,              !- Vertex 9 Ycoordinate
    3,                        !- Vertex 9 Zcoordinate
    686740.6319999998,        !- Vertex 10 Xcoordinate
    4928981.305,              !- Vertex 10 Ycoordinate
    3,                        !- Vertex 10 Zcoordinate
    686737.9419999998,        !- Vertex 11 Xcoordinate
    4928974.225,              !- Vertex 11 Ycoordinate
    3,                        !- Vertex 11 Zcoordinate
    686737.1119999997,        !- Vertex 12 Xcoordinate
    4928974.555,              !- Vertex 12 Ycoordinate
    3,                        !- Vertex 12 Zcoordinate
    686732.2219999996,        !- Vertex 13 Xcoordinate
    4928962.766,              !- Vertex 13 Ycoordinate
    3,                        !- Vertex 13 Zcoordinate
    686726.0819999999,        !- Vertex 14 Xcoordinate
    4928947.246,              !- Vertex 14 Ycoordinate
    3,                        !- Vertex 14 Zcoordinate
    686747.9049999998,        !- Vertex 15 Xcoordinate
    4928939.383,              !- Vertex 15 Ycoordinate
    3;                        !- Vertex 15 Zcoordinate

BUILDINGSURFACE:DETAILED,
    Block 19da1493f901936e_1 Storey 1 Ceiling 0001_1,    !- Name
    ceiling,                  !- Surface Type
    EU_floor_Construction,    !- Construction Name
    19da1493f901936e_F1_dwelling_1,    !- Zone Name
    ,                         !- Space Name
    Surface,                  !- Outside Boundary Condition
    Block 19da1493f901936e_1 Storey 2 Floor 0001_1,    !- Outside Boundary Condition Object
    NoSun,                    !- Sun Exposure
    NoWind,                   !- Wind Exposure
    autocalculate,            !- View Factor to Ground
    autocalculate,            !- Number of Vertices
    686774.932,               !- Vertex 1 Xcoordinate
    4928977.41,               !- Vertex 1 Ycoordinate
    6,                        !- Vertex 1 Zcoordinate
    686766.9209999996,        !- Vertex 2 Xcoordinate
    4928966.138,              !- Vertex 2 Ycoordinate
    6,                        !- Vertex 2 Zcoordinate
    686748.3319999999,        !- Vertex 3 Xcoordinate
    4928973.345,              !- Vertex 3 Ycoordinate
    6,                        !- Vertex 3 Zcoordinate
    686747.352,               !- Vertex 4 Xcoordinate
    4928970.545,              !- Vertex 4 Ycoordinate
    6,                        !- Vertex 4 Zcoordinate
    686742.872,               !- Vertex 5 Xcoordinate
    4928958.945,              !- Vertex 5 Ycoordinate
    6,                        !- Vertex 5 Zcoordinate
    686741.662,               !- Vertex 6 Xcoordinate
    4928955.745,              !- Vertex 6 Ycoordinate
    6,                        !- Vertex 6 Zcoordinate
    686755.9049999998,        !- Vertex 7 Xcoordinate
    4928950.639,              !- Vertex 7 Ycoordinate
    6,                        !- Vertex 7 Zcoordinate
    686747.9049999998,        !- Vertex 8 Xcoordinate
    4928939.383,              !- Vertex 8 Ycoordinate
    6,                        !- Vertex 8 Zcoordinate
    686726.0819999999,        !- Vertex 9 Xcoordinate
    4928947.246,              !- Vertex 9 Ycoordinate
    6,                        !- Vertex 9 Zcoordinate
    686732.2219999996,        !- Vertex 10 Xcoordinate
    4928962.766,              !- Vertex 10 Ycoordinate
    6,                        !- Vertex 10 Zcoordinate
    686737.1119999997,        !- Vertex 11 Xcoordinate
    4928974.555,              !- Vertex 11 Ycoordinate
    6,                        !- Vertex 11 Zcoordinate
    686737.9419999998,        !- Vertex 12 Xcoordinate
    4928974.225,              !- Vertex 12 Ycoordinate
    6,                        !- Vertex 12 Zcoordinate
    686740.6319999998,        !- Vertex 13 Xcoordinate
    4928981.305,              !- Vertex 13 Ycoordinate
    6,                        !- Vertex 13 Zcoordinate
    686742.2319999998,        !- Vertex 14 Xcoordinate
    4928980.695,              !- Vertex 14 Ycoordinate
    6,                        !- Vertex 14 Zcoordinate
    686746.202,               !- Vertex 15 Xcoordinate
    4928987.925,              !- Vertex 15 Ycoordinate
    6;                        !- Vertex 15 Zcoordinate

BUILDINGSURFACE:DETAILED,
    Block 19da1493f901936e_1 Storey 2 Floor 0001_1,    !- Name
    floor,                    !- Surface Type
    EU_floor_Construction,    !- Construction Name
    19da1493f901936e_F2_dwelling_1,    !- Zone Name
    ,                         !- Space Name
    Surface,                  !- Outside Boundary Condition
    Block 19da1493f901936e_1 Storey 1 Ceiling 0001_1,    !- Outside Boundary Condition Object
    NoSun,                    !- Sun Exposure
    NoWind,                   !- Wind Exposure
    autocalculate,            !- View Factor to Ground
    autocalculate,            !- Number of Vertices
    686755.9049999998,        !- Vertex 1 Xcoordinate
    4928950.639,              !- Vertex 1 Ycoordinate
    6,                        !- Vertex 1 Zcoordinate
    686741.662,               !- Vertex 2 Xcoordinate
    4928955.745,              !- Vertex 2 Ycoordinate
    6,                        !- Vertex 2 Zcoordinate
    686742.872,               !- Vertex 3 Xcoordinate
    4928958.945,              !- Vertex 3 Ycoordinate
    6,                        !- Vertex 3 Zcoordinate
    686747.352,               !- Vertex 4 Xcoordinate
    4928970.545,              !- Vertex 4 Ycoordinate
    6,                        !- Vertex 4 Zcoordinate
    686748.3319999999,        !- Vertex 5 Xcoordinate
    4928973.345,              !- Vertex 5 Ycoordinate
    6,                        !- Vertex 5 Zcoordinate
    686766.9209999996,        !- Vertex 6 Xcoordinate
    4928966.138,              !- Vertex 6 Ycoordinate
    6,                        !- Vertex 6 Zcoordinate
    686774.932,               !- Vertex 7 Xcoordinate
    4928977.41,               !- Vertex 7 Ycoordinate
    6,                        !- Vertex 7 Zcoordinate
    686746.202,               !- Vertex 8 Xcoordinate
    4928987.925,              !- Vertex 8 Ycoordinate
    6,                        !- Vertex 8 Zcoordinate
    686742.2319999998,        !- Vertex 9 Xcoordinate
    4928980.695,              !- Vertex 9 Ycoordinate
    6,                        !- Vertex 9 Zcoordinate
    686740.6319999998,        !- Vertex 10 Xcoordinate
    4928981.305,              !- Vertex 10 Ycoordinate
    6,                        !- Vertex 10 Zcoordinate
    686737.9419999998,        !- Vertex 11 Xcoordinate
    4928974.225,              !- Vertex 11 Ycoordinate
    6,                        !- Vertex 11 Zcoordinate
    686737.1119999997,        !- Vertex 12 Xcoordinate
    4928974.555,              !- Vertex 12 Ycoordinate
    6,                        !- Vertex 12 Zcoordinate
    686732.2219999996,        !- Vertex 13 Xcoordinate
    4928962.766,              !- Vertex 13 Ycoordinate
    6,                        !- Vertex 13 Zcoordinate
    686726.0819999999,        !- Vertex 14 Xcoordinate
    4928947.246,              !- Vertex 14 Ycoordinate
    6,                        !- Vertex 14 Zcoordinate
    686747.9049999998,        !- Vertex 15 Xcoordinate
    4928939.383,              !- Vertex 15 Ycoordinate
    6;                        !- Vertex 15 Zcoordinate

BUILDINGSURFACE:DETAILED,
    Block 19da1493f901936e_1 Storey 2 Ceiling 0001_1,    !- Name
    ceiling,                  !- Surface Type
    EU_floor_Construction,    !- Construction Name
    19da1493f901936e_F2_dwelling_1,    !- Zone Name
    ,                         !- Space Name
    Surface,                  !- Outside Boundary Condition
    Block 19da1493f901936e_1 Storey 3 Floor 0001_1,    !- Outside Boundary Condition Object
    NoSun,                    !- Sun Exposure
    NoWind,                   !- Wind Exposure
    autocalculate,            !- View Factor to Ground
    autocalculate,            !- Number of Vertices
    686774.932,               !- Vertex 1 Xcoordinate
    4928977.41,               !- Vertex 1 Ycoordinate
    9,                        !- Vertex 1 Zcoordinate
    686766.9209999996,        !- Vertex 2 Xcoordinate
    4928966.138,              !- Vertex 2 Ycoordinate
    9,                        !- Vertex 2 Zcoordinate
    686748.3319999999,        !- Vertex 3 Xcoordinate
    4928973.345,              !- Vertex 3 Ycoordinate
    9,                        !- Vertex 3 Zcoordinate
    686747.352,               !- Vertex 4 Xcoordinate
    4928970.545,              !- Vertex 4 Ycoordinate
    9,                        !- Vertex 4 Zcoordinate
    686742.872,               !- Vertex 5 Xcoordinate
    4928958.945,              !- Vertex 5 Ycoordinate
    9,                        !- Vertex 5 Zcoordinate
    686741.662,               !- Vertex 6 Xcoordinate
    4928955.745,              !- Vertex 6 Ycoordinate
    9,                        !- Vertex 6 Zcoordinate
    686755.9049999998,        !- Vertex 7 Xcoordinate
    4928950.639,              !- Vertex 7 Ycoordinate
    9,                        !- Vertex 7 Zcoordinate
    686747.9049999998,        !- Vertex 8 Xcoordinate
    4928939.383,              !- Vertex 8 Ycoordinate
    9,                        !- Vertex 8 Zcoordinate
    686726.0819999999,        !- Vertex 9 Xcoordinate
    4928947.246,              !- Vertex 9 Ycoordinate
    9,                        !- Vertex 9 Zcoordinate
    686732.2219999996,        !- Vertex 10 Xcoordinate
    4928962.766,              !- Vertex 10 Ycoordinate
    9,                        !- Vertex 10 Zcoordinate
    686737.1119999997,        !- Vertex 11 Xcoordinate
    4928974.555,              !- Vertex 11 Ycoordinate
    9,                        !- Vertex 11 Zcoordinate
    686737.9419999998,        !- Vertex 12 Xcoordinate
    4928974.225,              !- Vertex 12 Ycoordinate
    9,                        !- Vertex 12 Zcoordinate
    686740.6319999998,        !- Vertex 13 Xcoordinate
    4928981.305,              !- Vertex 13 Ycoordinate
    9,                        !- Vertex 13 Zcoordinate
    686742.2319999998,        !- Vertex 14 Xcoordinate
    4928980.695,              !- Vertex 14 Ycoordinate
    9,                        !- Vertex 14 Zcoordinate
    686746.202,               !- Vertex 15 Xcoordinate
    4928987.925,              !- Vertex 15 Ycoordinate
    9;                        !- Vertex 15 Zcoordinate

BUILDINGSURFACE:DETAILED,
    Block 19da1493f901936e_1 Storey 3 Floor 0001_1,    !- Name
    floor,                    !- Surface Type
    EU_floor_Construction,    !- Construction Name
    19da1493f901936e_F3_dwelling_1,    !- Zone Name
    ,                         !- Space Name
    Surface,                  !- Outside Boundary Condition
    Block 19da1493f901936e_1 Storey 2 Ceiling 0001_1,    !- Outside Boundary Condition Object
    NoSun,                    !- Sun Exposure
    NoWind,                   !- Wind Exposure
    autocalculate,            !- View Factor to Ground
    autocalculate,            !- Number of Vertices
    686755.9049999998,        !- Vertex 1 Xcoordinate
    4928950.639,              !- Vertex 1 Ycoordinate
    9,                        !- Vertex 1 Zcoordinate
    686741.662,               !- Vertex 2 Xcoordinate
    4928955.745,              !- Vertex 2 Ycoordinate
    9,                        !- Vertex 2 Zcoordinate
    686742.872,               !- Vertex 3 Xcoordinate
    4928958.945,              !- Vertex 3 Ycoordinate
    9,                        !- Vertex 3 Zcoordinate
    686747.352,               !- Vertex 4 Xcoordinate
    4928970.545,              !- Vertex 4 Ycoordinate
    9,                        !- Vertex 4 Zcoordinate
    686748.3319999999,        !- Vertex 5 Xcoordinate
    4928973.345,              !- Vertex 5 Ycoordinate
    9,                        !- Vertex 5 Zcoordinate
    686766.9209999996,        !- Vertex 6 Xcoordinate
    4928966.138,              !- Vertex 6 Ycoordinate
    9,                        !- Vertex 6 Zcoordinate
    686774.932,               !- Vertex 7 Xcoordinate
    4928977.41,               !- Vertex 7 Ycoordinate
    9,                        !- Vertex 7 Zcoordinate
    686746.202,               !- Vertex 8 Xcoordinate
    4928987.925,              !- Vertex 8 Ycoordinate
    9,                        !- Vertex 8 Zcoordinate
    686742.2319999998,        !- Vertex 9 Xcoordinate
    4928980.695,              !- Vertex 9 Ycoordinate
    9,                        !- Vertex 9 Zcoordinate
    686740.6319999998,        !- Vertex 10 Xcoordinate
    4928981.305,              !- Vertex 10 Ycoordinate
    9,                        !- Vertex 10 Zcoordinate
    686737.9419999998,        !- Vertex 11 Xcoordinate
    4928974.225,              !- Vertex 11 Ycoordinate
    9,                        !- Vertex 11 Zcoordinate
    686737.1119999997,        !- Vertex 12 Xcoordinate
    4928974.555,              !- Vertex 12 Ycoordinate
    9,                        !- Vertex 12 Zcoordinate
    686732.2219999996,        !- Vertex 13 Xcoordinate
    4928962.766,              !- Vertex 13 Ycoordinate
    9,                        !- Vertex 13 Zcoordinate
    686726.0819999999,        !- Vertex 14 Xcoordinate
    4928947.246,              !- Vertex 14 Ycoordinate
    9,                        !- Vertex 14 Zcoordinate
    686747.9049999998,        !- Vertex 15 Xcoordinate
    4928939.383,              !- Vertex 15 Ycoordinate
    9;                        !- Vertex 15 Zcoordinate

BUILDINGSURFACE:DETAILED,
    Block 19da1493f901936e_1 Storey 3 Ceiling 0001_1,    !- Name
    ceiling,                  !- Surface Type
    EU_floor_Construction,    !- Construction Name
    19da1493f901936e_F3_dwelling_1,    !- Zone Name
    ,                         !- Space Name
    Surface,                  !- Outside Boundary Condition
    Block 19da1493f901936e_1 Storey 4 Floor 0001_1,    !- Outside Boundary Condition Object
    NoSun,                    !- Sun Exposure
    NoWind,                   !- Wind Exposure
    autocalculate,            !- View Factor to Ground
    autocalculate,            !- Number of Vertices
    686774.932,               !- Vertex 1 Xcoordinate
    4928977.41,               !- Vertex 1 Ycoordinate
    12,                       !- Vertex 1 Zcoordinate
    686766.9209999996,        !- Vertex 2 Xcoordinate
    4928966.138,              !- Vertex 2 Ycoordinate
    12,                       !- Vertex 2 Zcoordinate
    686748.3319999999,        !- Vertex 3 Xcoordinate
    4928973.345,              !- Vertex 3 Ycoordinate
    12,                       !- Vertex 3 Zcoordinate
    686747.352,               !- Vertex 4 Xcoordinate
    4928970.545,              !- Vertex 4 Ycoordinate
    12,                       !- Vertex 4 Zcoordinate
    686742.872,               !- Vertex 5 Xcoordinate
    4928958.945,              !- Vertex 5 Ycoordinate
    12,                       !- Vertex 5 Zcoordinate
    686741.662,               !- Vertex 6 Xcoordinate
    4928955.745,              !- Vertex 6 Ycoordinate
    12,                       !- Vertex 6 Zcoordinate
    686755.9049999998,        !- Vertex 7 Xcoordinate
    4928950.639,              !- Vertex 7 Ycoordinate
    12,                       !- Vertex 7 Zcoordinate
    686747.9049999998,        !- Vertex 8 Xcoordinate
    4928939.383,              !- Vertex 8 Ycoordinate
    12,                       !- Vertex 8 Zcoordinate
    686726.0819999999,        !- Vertex 9 Xcoordinate
    4928947.246,              !- Vertex 9 Ycoordinate
    12,                       !- Vertex 9 Zcoordinate
    686732.2219999996,        !- Vertex 10 Xcoordinate
    4928962.766,              !- Vertex 10 Ycoordinate
    12,                       !- Vertex 10 Zcoordinate
    686737.1119999997,        !- Vertex 11 Xcoordinate
    4928974.555,              !- Vertex 11 Ycoordinate
    12,                       !- Vertex 11 Zcoordinate
    686737.9419999998,        !- Vertex 12 Xcoordinate
    4928974.225,              !- Vertex 12 Ycoordinate
    12,                       !- Vertex 12 Zcoordinate
    686740.6319999998,        !- Vertex 13 Xcoordinate
    4928981.305,              !- Vertex 13 Ycoordinate
    12,                       !- Vertex 13 Zcoordinate
    686742.2319999998,        !- Vertex 14 Xcoordinate
    4928980.695,              !- Vertex 14 Ycoordinate
    12,                       !- Vertex 14 Zcoordinate
    686746.202,               !- Vertex 15 Xcoordinate
    4928987.925,              !- Vertex 15 Ycoordinate
    12;                       !- Vertex 15 Zcoordinate

BUILDINGSURFACE:DETAILED,
    Block 19da1493f901936e_1 Storey 4 Floor 0001_1,    !- Name
    floor,                    !- Surface Type
    EU_floor_Construction,    !- Construction Name
    19da1493f901936e_F4_dwelling_1,    !- Zone Name
    ,                         !- Space Name
    Surface,                  !- Outside Boundary Condition
    Block 19da1493f901936e_1 Storey 3 Ceiling 0001_1,    !- Outside Boundary Condition Object
    NoSun,                    !- Sun Exposure
    NoWind,                   !- Wind Exposure
    autocalculate,            !- View Factor to Ground
    autocalculate,            !- Number of Vertices
    686755.9049999998,        !- Vertex 1 Xcoordinate
    4928950.639,              !- Vertex 1 Ycoordinate
    12,                       !- Vertex 1 Zcoordinate
    686741.662,               !- Vertex 2 Xcoordinate
    4928955.745,              !- Vertex 2 Ycoordinate
    12,                       !- Vertex 2 Zcoordinate
    686742.872,               !- Vertex 3 Xcoordinate
    4928958.945,              !- Vertex 3 Ycoordinate
    12,                       !- Vertex 3 Zcoordinate
    686747.352,               !- Vertex 4 Xcoordinate
    4928970.545,              !- Vertex 4 Ycoordinate
    12,                       !- Vertex 4 Zcoordinate
    686748.3319999999,        !- Vertex 5 Xcoordinate
    4928973.345,              !- Vertex 5 Ycoordinate
    12,                       !- Vertex 5 Zcoordinate
    686766.9209999996,        !- Vertex 6 Xcoordinate
    4928966.138,              !- Vertex 6 Ycoordinate
    12,                       !- Vertex 6 Zcoordinate
    686774.932,               !- Vertex 7 Xcoordinate
    4928977.41,               !- Vertex 7 Ycoordinate
    12,                       !- Vertex 7 Zcoordinate
    686746.202,               !- Vertex 8 Xcoordinate
    4928987.925,              !- Vertex 8 Ycoordinate
    12,                       !- Vertex 8 Zcoordinate
    686742.2319999998,        !- Vertex 9 Xcoordinate
    4928980.695,              !- Vertex 9 Ycoordinate
    12,                       !- Vertex 9 Zcoordinate
    686740.6319999998,        !- Vertex 10 Xcoordinate
    4928981.305,              !- Vertex 10 Ycoordinate
    12,                       !- Vertex 10 Zcoordinate
    686737.9419999998,        !- Vertex 11 Xcoordinate
    4928974.225,              !- Vertex 11 Ycoordinate
    12,                       !- Vertex 11 Zcoordinate
    686737.1119999997,        !- Vertex 12 Xcoordinate
    4928974.555,              !- Vertex 12 Ycoordinate
    12,                       !- Vertex 12 Zcoordinate
    686732.2219999996,        !- Vertex 13 Xcoordinate
    4928962.766,              !- Vertex 13 Ycoordinate
    12,                       !- Vertex 13 Zcoordinate
    686726.0819999999,        !- Vertex 14 Xcoordinate
    4928947.246,              !- Vertex 14 Ycoordinate
    12,                       !- Vertex 14 Zcoordinate
    686747.9049999998,        !- Vertex 15 Xcoordinate
    4928939.383,              !- Vertex 15 Ycoordinate
    12;                       !- Vertex 15 Zcoordinate

BUILDINGSURFACE:DETAILED,
    Block 19da1493f901936e_1 Storey 4 Ceiling 0001_1,    !- Name
    ceiling,                  !- Surface Type
    EU_floor_Construction,    !- Construction Name
    19da1493f901936e_F4_dwelling_1,    !- Zone Name
    ,                         !- Space Name
    Surface,                  !- Outside Boundary Condition
    Block 19da1493f901936e_1 Storey 5 Floor 0001_1,    !- Outside Boundary Condition Object
    NoSun,                    !- Sun Exposure
    NoWind,                   !- Wind Exposure
    autocalculate,            !- View Factor to Ground
    autocalculate,            !- Number of Vertices
    686774.932,               !- Vertex 1 Xcoordinate
    4928977.41,               !- Vertex 1 Ycoordinate
    15,                       !- Vertex 1 Zcoordinate
    686766.9209999996,        !- Vertex 2 Xcoordinate
    4928966.138,              !- Vertex 2 Ycoordinate
    15,                       !- Vertex 2 Zcoordinate
    686748.3319999999,        !- Vertex 3 Xcoordinate
    4928973.345,              !- Vertex 3 Ycoordinate
    15,                       !- Vertex 3 Zcoordinate
    686747.352,               !- Vertex 4 Xcoordinate
    4928970.545,              !- Vertex 4 Ycoordinate
    15,                       !- Vertex 4 Zcoordinate
    686742.872,               !- Vertex 5 Xcoordinate
    4928958.945,              !- Vertex 5 Ycoordinate
    15,                       !- Vertex 5 Zcoordinate
    686741.662,               !- Vertex 6 Xcoordinate
    4928955.745,              !- Vertex 6 Ycoordinate
    15,                       !- Vertex 6 Zcoordinate
    686755.9049999998,        !- Vertex 7 Xcoordinate
    4928950.639,              !- Vertex 7 Ycoordinate
    15,                       !- Vertex 7 Zcoordinate
    686747.9049999998,        !- Vertex 8 Xcoordinate
    4928939.383,              !- Vertex 8 Ycoordinate
    15,                       !- Vertex 8 Zcoordinate
    686726.0819999999,        !- Vertex 9 Xcoordinate
    4928947.246,              !- Vertex 9 Ycoordinate
    15,                       !- Vertex 9 Zcoordinate
    686732.2219999996,        !- Vertex 10 Xcoordinate
    4928962.766,              !- Vertex 10 Ycoordinate
    15,                       !- Vertex 10 Zcoordinate
    686737.1119999997,        !- Vertex 11 Xcoordinate
    4928974.555,              !- Vertex 11 Ycoordinate
    15,                       !- Vertex 11 Zcoordinate
    686737.9419999998,        !- Vertex 12 Xcoordinate
    4928974.225,              !- Vertex 12 Ycoordinate
    15,                       !- Vertex 12 Zcoordinate
    686740.6319999998,        !- Vertex 13 Xcoordinate
    4928981.305,              !- Vertex 13 Ycoordinate
    15,                       !- Vertex 13 Zcoordinate
    686742.2319999998,        !- Vertex 14 Xcoordinate
    4928980.695,              !- Vertex 14 Ycoordinate
    15,                       !- Vertex 14 Zcoordinate
    686746.202,               !- Vertex 15 Xcoordinate
    4928987.925,              !- Vertex 15 Ycoordinate
    15;                       !- Vertex 15 Zcoordinate

BUILDINGSURFACE:DETAILED,
    Block 19da1493f901936e_1 Storey 5 Floor 0001_1,    !- Name
    floor,                    !- Surface Type
    EU_floor_Construction,    !- Construction Name
    19da1493f901936e_F5_dwelling_1,    !- Zone Name
    ,                         !- Space Name
    Surface,                  !- Outside Boundary Condition
    Block 19da1493f901936e_1 Storey 4 Ceiling 0001_1,    !- Outside Boundary Condition Object
    NoSun,                    !- Sun Exposure
    NoWind,                   !- Wind Exposure
    autocalculate,            !- View Factor to Ground
    autocalculate,            !- Number of Vertices
    686755.9049999998,        !- Vertex 1 Xcoordinate
    4928950.639,              !- Vertex 1 Ycoordinate
    15,                       !- Vertex 1 Zcoordinate
    686741.662,               !- Vertex 2 Xcoordinate
    4928955.745,              !- Vertex 2 Ycoordinate
    15,                       !- Vertex 2 Zcoordinate
    686742.872,               !- Vertex 3 Xcoordinate
    4928958.945,              !- Vertex 3 Ycoordinate
    15,                       !- Vertex 3 Zcoordinate
    686747.352,               !- Vertex 4 Xcoordinate
    4928970.545,              !- Vertex 4 Ycoordinate
    15,                       !- Vertex 4 Zcoordinate
    686748.3319999999,        !- Vertex 5 Xcoordinate
    4928973.345,              !- Vertex 5 Ycoordinate
    15,                       !- Vertex 5 Zcoordinate
    686766.9209999996,        !- Vertex 6 Xcoordinate
    4928966.138,              !- Vertex 6 Ycoordinate
    15,                       !- Vertex 6 Zcoordinate
    686774.932,               !- Vertex 7 Xcoordinate
    4928977.41,               !- Vertex 7 Ycoordinate
    15,                       !- Vertex 7 Zcoordinate
    686746.202,               !- Vertex 8 Xcoordinate
    4928987.925,              !- Vertex 8 Ycoordinate
    15,                       !- Vertex 8 Zcoordinate
    686742.2319999998,        !- Vertex 9 Xcoordinate
    4928980.695,              !- Vertex 9 Ycoordinate
    15,                       !- Vertex 9 Zcoordinate
    686740.6319999998,        !- Vertex 10 Xcoordinate
    4928981.305,              !- Vertex 10 Ycoordinate
    15,                       !- Vertex 10 Zcoordinate
    686737.9419999998,        !- Vertex 11 Xcoordinate
    4928974.225,              !- Vertex 11 Ycoordinate
    15,                       !- Vertex 11 Zcoordinate
    686737.1119999997,        !- Vertex 12 Xcoordinate
    4928974.555,              !- Vertex 12 Ycoordinate
    15,                       !- Vertex 12 Zcoordinate
    686732.2219999996,        !- Vertex 13 Xcoordinate
    4928962.766,              !- Vertex 13 Ycoordinate
    15,                       !- Vertex 13 Zcoordinate
    686726.0819999999,        !- Vertex 14 Xcoordinate
    4928947.246,              !- Vertex 14 Ycoordinate
    15,                       !- Vertex 14 Zcoordinate
    686747.9049999998,        !- Vertex 15 Xcoordinate
    4928939.383,              !- Vertex 15 Ycoordinate
    15;                       !- Vertex 15 Zcoordinate

BUILDINGSURFACE:DETAILED,
    Block 19da1493f901936e_1 Storey 5 Ceiling 0001_1,    !- Name
    ceiling,                  !- Surface Type
    EU_floor_Construction,    !- Construction Name
    19da1493f901936e_F5_dwelling_1,    !- Zone Name
    ,                         !- Space Name
    Surface,                  !- Outside Boundary Condition
    Block 19da1493f901936e_1 Storey 6 Floor 0001_1,    !- Outside Boundary Condition Object
    NoSun,                    !- Sun Exposure
    NoWind,                   !- Wind Exposure
    autocalculate,            !- View Factor to Ground
    autocalculate,            !- Number of Vertices
    686774.932,               !- Vertex 1 Xcoordinate
    4928977.41,               !- Vertex 1 Ycoordinate
    18,                       !- Vertex 1 Zcoordinate
    686766.9209999996,        !- Vertex 2 Xcoordinate
    4928966.138,              !- Vertex 2 Ycoordinate
    18,                       !- Vertex 2 Zcoordinate
    686748.3319999999,        !- Vertex 3 Xcoordinate
    4928973.345,              !- Vertex 3 Ycoordinate
    18,                       !- Vertex 3 Zcoordinate
    686747.352,               !- Vertex 4 Xcoordinate
    4928970.545,              !- Vertex 4 Ycoordinate
    18,                       !- Vertex 4 Zcoordinate
    686742.872,               !- Vertex 5 Xcoordinate
    4928958.945,              !- Vertex 5 Ycoordinate
    18,                       !- Vertex 5 Zcoordinate
    686741.662,               !- Vertex 6 Xcoordinate
    4928955.745,              !- Vertex 6 Ycoordinate
    18,                       !- Vertex 6 Zcoordinate
    686755.9049999998,        !- Vertex 7 Xcoordinate
    4928950.639,              !- Vertex 7 Ycoordinate
    18,                       !- Vertex 7 Zcoordinate
    686747.9049999998,        !- Vertex 8 Xcoordinate
    4928939.383,              !- Vertex 8 Ycoordinate
    18,                       !- Vertex 8 Zcoordinate
    686726.0819999999,        !- Vertex 9 Xcoordinate
    4928947.246,              !- Vertex 9 Ycoordinate
    18,                       !- Vertex 9 Zcoordinate
    686732.2219999996,        !- Vertex 10 Xcoordinate
    4928962.766,              !- Vertex 10 Ycoordinate
    18,                       !- Vertex 10 Zcoordinate
    686737.1119999997,        !- Vertex 11 Xcoordinate
    4928974.555,              !- Vertex 11 Ycoordinate
    18,                       !- Vertex 11 Zcoordinate
    686737.9419999998,        !- Vertex 12 Xcoordinate
    4928974.225,              !- Vertex 12 Ycoordinate
    18,                       !- Vertex 12 Zcoordinate
    686740.6319999998,        !- Vertex 13 Xcoordinate
    4928981.305,              !- Vertex 13 Ycoordinate
    18,                       !- Vertex 13 Zcoordinate
    686742.2319999998,        !- Vertex 14 Xcoordinate
    4928980.695,              !- Vertex 14 Ycoordinate
    18,                       !- Vertex 14 Zcoordinate
    686746.202,               !- Vertex 15 Xcoordinate
    4928987.925,              !- Vertex 15 Ycoordinate
    18;                       !- Vertex 15 Zcoordinate

BUILDINGSURFACE:DETAILED,
    Block 19da1493f901936e_1 Storey 6 Floor 0001_1,    !- Name
    floor,                    !- Surface Type
    EU_floor_Construction,    !- Construction Name
    19da1493f901936e_F6_dwelling_1,    !- Zone Name
    ,                         !- Space Name
    Surface,                  !- Outside Boundary Condition
    Block 19da1493f901936e_1 Storey 5 Ceiling 0001_1,    !- Outside Boundary Condition Object
    NoSun,                    !- Sun Exposure
    NoWind,                   !- Wind Exposure
    autocalculate,            !- View Factor to Ground
    autocalculate,            !- Number of Vertices
    686755.9049999998,        !- Vertex 1 Xcoordinate
    4928950.639,              !- Vertex 1 Ycoordinate
    18,                       !- Vertex 1 Zcoordinate
    686741.662,               !- Vertex 2 Xcoordinate
    4928955.745,              !- Vertex 2 Ycoordinate
    18,                       !- Vertex 2 Zcoordinate
    686742.872,               !- Vertex 3 Xcoordinate
    4928958.945,              !- Vertex 3 Ycoordinate
    18,                       !- Vertex 3 Zcoordinate
    686747.352,               !- Vertex 4 Xcoordinate
    4928970.545,              !- Vertex 4 Ycoordinate
    18,                       !- Vertex 4 Zcoordinate
    686748.3319999999,        !- Vertex 5 Xcoordinate
    4928973.345,              !- Vertex 5 Ycoordinate
    18,                       !- Vertex 5 Zcoordinate
    686766.9209999996,        !- Vertex 6 Xcoordinate
    4928966.138,              !- Vertex 6 Ycoordinate
    18,                       !- Vertex 6 Zcoordinate
    686774.932,               !- Vertex 7 Xcoordinate
    4928977.41,               !- Vertex 7 Ycoordinate
    18,                       !- Vertex 7 Zcoordinate
    686746.202,               !- Vertex 8 Xcoordinate
    4928987.925,              !- Vertex 8 Ycoordinate
    18,                       !- Vertex 8 Zcoordinate
    686742.2319999998,        !- Vertex 9 Xcoordinate
    4928980.695,              !- Vertex 9 Ycoordinate
    18,                       !- Vertex 9 Zcoordinate
    686740.6319999998,        !- Vertex 10 Xcoordinate
    4928981.305,              !- Vertex 10 Ycoordinate
    18,                       !- Vertex 10 Zcoordinate
    686737.9419999998,        !- Vertex 11 Xcoordinate
    4928974.225,              !- Vertex 11 Ycoordinate
    18,                       !- Vertex 11 Zcoordinate
    686737.1119999997,        !- Vertex 12 Xcoordinate
    4928974.555,              !- Vertex 12 Ycoordinate
    18,                       !- Vertex 12 Zcoordinate
    686732.2219999996,        !- Vertex 13 Xcoordinate
    4928962.766,              !- Vertex 13 Ycoordinate
    18,                       !- Vertex 13 Zcoordinate
    686726.0819999999,        !- Vertex 14 Xcoordinate
    4928947.246,              !- Vertex 14 Ycoordinate
    18,                       !- Vertex 14 Zcoordinate
    686747.9049999998,        !- Vertex 15 Xcoordinate
    4928939.383,              !- Vertex 15 Ycoordinate
    18;                       !- Vertex 15 Zcoordinate

BUILDINGSURFACE:DETAILED,
    Block 19da1493f901936e_1 Storey 6 Ceiling 0001_1,    !- Name
    ceiling,                  !- Surface Type
    EU_floor_Construction,    !- Construction Name
    19da1493f901936e_F6_dwelling_1,    !- Zone Name
    ,                         !- Space Name
    Surface,                  !- Outside Boundary Condition
    Block 19da1493f901936e_1 Storey 7 Floor 0001_1,    !- Outside Boundary Condition Object
    NoSun,                    !- Sun Exposure
    NoWind,                   !- Wind Exposure
    autocalculate,            !- View Factor to Ground
    autocalculate,            !- Number of Vertices
    686774.932,               !- Vertex 1 Xcoordinate
    4928977.41,               !- Vertex 1 Ycoordinate
    21,                       !- Vertex 1 Zcoordinate
    686766.9209999996,        !- Vertex 2 Xcoordinate
    4928966.138,              !- Vertex 2 Ycoordinate
    21,                       !- Vertex 2 Zcoordinate
    686748.3319999999,        !- Vertex 3 Xcoordinate
    4928973.345,              !- Vertex 3 Ycoordinate
    21,                       !- Vertex 3 Zcoordinate
    686747.352,               !- Vertex 4 Xcoordinate
    4928970.545,              !- Vertex 4 Ycoordinate
    21,                       !- Vertex 4 Zcoordinate
    686742.872,               !- Vertex 5 Xcoordinate
    4928958.945,              !- Vertex 5 Ycoordinate
    21,                       !- Vertex 5 Zcoordinate
    686741.662,               !- Vertex 6 Xcoordinate
    4928955.745,              !- Vertex 6 Ycoordinate
    21,                       !- Vertex 6 Zcoordinate
    686755.9049999998,        !- Vertex 7 Xcoordinate
    4928950.639,              !- Vertex 7 Ycoordinate
    21,                       !- Vertex 7 Zcoordinate
    686747.9049999998,        !- Vertex 8 Xcoordinate
    4928939.383,              !- Vertex 8 Ycoordinate
    21,                       !- Vertex 8 Zcoordinate
    686726.0819999999,        !- Vertex 9 Xcoordinate
    4928947.246,              !- Vertex 9 Ycoordinate
    21,                       !- Vertex 9 Zcoordinate
    686732.2219999996,        !- Vertex 10 Xcoordinate
    4928962.766,              !- Vertex 10 Ycoordinate
    21,                       !- Vertex 10 Zcoordinate
    686737.1119999997,        !- Vertex 11 Xcoordinate
    4928974.555,              !- Vertex 11 Ycoordinate
    21,                       !- Vertex 11 Zcoordinate
    686737.9419999998,        !- Vertex 12 Xcoordinate
    4928974.225,              !- Vertex 12 Ycoordinate
    21,                       !- Vertex 12 Zcoordinate
    686740.6319999998,        !- Vertex 13 Xcoordinate
    4928981.305,              !- Vertex 13 Ycoordinate
    21,                       !- Vertex 13 Zcoordinate
    686742.2319999998,        !- Vertex 14 Xcoordinate
    4928980.695,              !- Vertex 14 Ycoordinate
    21,                       !- Vertex 14 Zcoordinate
    686746.202,               !- Vertex 15 Xcoordinate
    4928987.925,              !- Vertex 15 Ycoordinate
    21;                       !- Vertex 15 Zcoordinate

BUILDINGSURFACE:DETAILED,
    Block 19da1493f901936e_1 Storey 7 Floor 0001_1,    !- Name
    floor,                    !- Surface Type
    EU_floor_Construction,    !- Construction Name
    19da1493f901936e_F7_dwelling_1,    !- Zone Name
    ,                         !- Space Name
    Surface,                  !- Outside Boundary Condition
    Block 19da1493f901936e_1 Storey 6 Ceiling 0001_1,    !- Outside Boundary Condition Object
    NoSun,                    !- Sun Exposure
    NoWind,                   !- Wind Exposure
    autocalculate,            !- View Factor to Ground
    autocalculate,            !- Number of Vertices
    686755.9049999998,        !- Vertex 1 Xcoordinate
    4928950.639,              !- Vertex 1 Ycoordinate
    21,                       !- Vertex 1 Zcoordinate
    686741.662,               !- Vertex 2 Xcoordinate
    4928955.745,              !- Vertex 2 Ycoordinate
    21,                       !- Vertex 2 Zcoordinate
    686742.872,               !- Vertex 3 Xcoordinate
    4928958.945,              !- Vertex 3 Ycoordinate
    21,                       !- Vertex 3 Zcoordinate
    686747.352,               !- Vertex 4 Xcoordinate
    4928970.545,              !- Vertex 4 Ycoordinate
    21,                       !- Vertex 4 Zcoordinate
    686748.3319999999,        !- Vertex 5 Xcoordinate
    4928973.345,              !- Vertex 5 Ycoordinate
    21,                       !- Vertex 5 Zcoordinate
    686766.9209999996,        !- Vertex 6 Xcoordinate
    4928966.138,              !- Vertex 6 Ycoordinate
    21,                       !- Vertex 6 Zcoordinate
    686774.932,               !- Vertex 7 Xcoordinate
    4928977.41,               !- Vertex 7 Ycoordinate
    21,                       !- Vertex 7 Zcoordinate
    686746.202,               !- Vertex 8 Xcoordinate
    4928987.925,              !- Vertex 8 Ycoordinate
    21,                       !- Vertex 8 Zcoordinate
    686742.2319999998,        !- Vertex 9 Xcoordinate
    4928980.695,              !- Vertex 9 Ycoordinate
    21,                       !- Vertex 9 Zcoordinate
    686740.6319999998,        !- Vertex 10 Xcoordinate
    4928981.305,              !- Vertex 10 Ycoordinate
    21,                       !- Vertex 10 Zcoordinate
    686737.9419999998,        !- Vertex 11 Xcoordinate
    4928974.225,              !- Vertex 11 Ycoordinate
    21,                       !- Vertex 11 Zcoordinate
    686737.1119999997,        !- Vertex 12 Xcoordinate
    4928974.555,              !- Vertex 12 Ycoordinate
    21,                       !- Vertex 12 Zcoordinate
    686732.2219999996,        !- Vertex 13 Xcoordinate
    4928962.766,              !- Vertex 13 Ycoordinate
    21,                       !- Vertex 13 Zcoordinate
    686726.0819999999,        !- Vertex 14 Xcoordinate
    4928947.246,              !- Vertex 14 Ycoordinate
    21,                       !- Vertex 14 Zcoordinate
    686747.9049999998,        !- Vertex 15 Xcoordinate
    4928939.383,              !- Vertex 15 Ycoordinate
    21;                       !- Vertex 15 Zcoordinate

INTERNALMASS,
    19da1493f901936e_F0_dwelling_0_EU_InternalMass,    !- Name
    EU_InternalMass_Construction,    !- Construction Name
    19da1493f901936e_F0_dwelling_0,    !- Zone or ZoneList Name
    ,                         !- Space or SpaceList Name
    934.6986805012294;        !- Surface Area

INTERNALMASS,
    19da1493f901936e_F0_dwelling_1_EU_InternalMass,    !- Name
    EU_InternalMass_Construction,    !- Construction Name
    19da1493f901936e_F0_dwelling_1,    !- Zone or ZoneList Name
    ,                         !- Space or SpaceList Name
    934.6821249943938;        !- Surface Area

INTERNALMASS,
    19da1493f901936e_F1_dwelling_0_EU_InternalMass,    !- Name
    EU_InternalMass_Construction,    !- Construction Name
    19da1493f901936e_F1_dwelling_0,    !- Zone or ZoneList Name
    ,                         !- Space or SpaceList Name
    934.6986805012294;        !- Surface Area

INTERNALMASS,
    19da1493f901936e_F1_dwelling_1_EU_InternalMass,    !- Name
    EU_InternalMass_Construction,    !- Construction Name
    19da1493f901936e_F1_dwelling_1,    !- Zone or ZoneList Name
    ,                         !- Space or SpaceList Name
    934.6821249943938;        !- Surface Area

INTERNALMASS,
    19da1493f901936e_F2_dwelling_0_EU_InternalMass,    !- Name
    EU_InternalMass_Construction,    !- Construction Name
    19da1493f901936e_F2_dwelling_0,    !- Zone or ZoneList Name
    ,                         !- Space or SpaceList Name
    934.6986805012294;        !- Surface Area

INTERNALMASS,
    19da1493f901936e_F2_dwelling_1_EU_InternalMass,    !- Name
    EU_InternalMass_Construction,    !- Construction Name
    19da1493f901936e_F2_dwelling_1,    !- Zone or ZoneList Name
    ,                         !- Space or SpaceList Name
    934.6821249943938;        !- Surface Area

INTERNALMASS,
    19da1493f901936e_F3_dwelling_0_EU_InternalMass,    !- Name
    EU_InternalMass_Construction,    !- Construction Name
    19da1493f901936e_F3_dwelling_0,    !- Zone or ZoneList Name
    ,                         !- Space or SpaceList Name
    934.6986805012294;        !- Surface Area

INTERNALMASS,
    19da1493f901936e_F3_dwelling_1_EU_InternalMass,    !- Name
    EU_InternalMass_Construction,    !- Construction Name
    19da1493f901936e_F3_dwelling_1,    !- Zone or ZoneList Name
    ,                         !- Space or SpaceList Name
    934.6821249943938;        !- Surface Area

INTERNALMASS,
    19da1493f901936e_F4_dwelling_0_EU_InternalMass,    !- Name
    EU_InternalMass_Construction,    !- Construction Name
    19da1493f901936e_F4_dwelling_0,    !- Zone or ZoneList Name
    ,                         !- Space or SpaceList Name
    934.6986805012294;        !- Surface Area

INTERNALMASS,
    19da1493f901936e_F4_dwelling_1_EU_InternalMass,    !- Name
    EU_InternalMass_Construction,    !- Construction Name
    19da1493f901936e_F4_dwelling_1,    !- Zone or ZoneList Name
    ,                         !- Space or SpaceList Name
    934.6821249943938;        !- Surface Area

INTERNALMASS,
    19da1493f901936e_F5_dwelling_0_EU_InternalMass,    !- Name
    EU_InternalMass_Construction,    !- Construction Name
    19da1493f901936e_F5_dwelling_0,    !- Zone or ZoneList Name
    ,                         !- Space or SpaceList Name
    934.6986805012294;        !- Surface Area

INTERNALMASS,
    19da1493f901936e_F5_dwelling_1_EU_InternalMass,    !- Name
    EU_InternalMass_Construction,    !- Construction Name
    19da1493f901936e_F5_dwelling_1,    !- Zone or ZoneList Name
    ,                         !- Space or SpaceList Name
    934.6821249943938;        !- Surface Area

INTERNALMASS,
    19da1493f901936e_F6_dwelling_0_EU_InternalMass,    !- Name
    EU_InternalMass_Construction,    !- Construction Name
    19da1493f901936e_F6_dwelling_0,    !- Zone or ZoneList Name
    ,                         !- Space or SpaceList Name
    934.6986805012294;        !- Surface Area

INTERNALMASS,
    19da1493f901936e_F6_dwelling_1_EU_InternalMass,    !- Name
    EU_InternalMass_Construction,    !- Construction Name
    19da1493f901936e_F6_dwelling_1,    !- Zone or ZoneList Name
    ,                         !- Space or SpaceList Name
    934.6821249943938;        !- Surface Area

INTERNALMASS,
    19da1493f901936e_F7_dwelling_0_EU_InternalMass,    !- Name
    EU_InternalMass_Construction,    !- Construction Name
    19da1493f901936e_F7_dwelling_0,    !- Zone or ZoneList Name
    ,                         !- Space or SpaceList Name
    934.6986805012294;        !- Surface Area

INTERNALMASS,
    19da1493f901936e_F7_dwelling_1_EU_InternalMass,    !- Name
    EU_InternalMass_Construction,    !- Construction Name
    19da1493f901936e_F7_dwelling_1,    !- Zone or ZoneList Name
    ,                         !- Space or SpaceList Name
    934.6821249943938;        !- Surface Area

SHADING:SITE:DETAILED,
    shade_30070_1,            !- Name
    ,                         !- Transmittance Schedule Name
    autocalculate,            !- Number of Vertices
    686769.2709984923,        !- Vertex 1 Xcoordinate
    4928920.076119193,        !- Vertex 1 Ycoordinate
    15,                       !- Vertex 1 Zcoordinate
    686769.2709984923,        !- Vertex 2 Xcoordinate
    4928920.076119193,        !- Vertex 2 Ycoordinate
    0,                        !- Vertex 2 Zcoordinate
    686796.1000939982,        !- Vertex 3 Xcoordinate
    4928898.666755642,        !- Vertex 3 Ycoordinate
    0,                        !- Vertex 3 Zcoordinate
    686796.1000939982,        !- Vertex 4 Xcoordinate
    4928898.666755642,        !- Vertex 4 Ycoordinate
    15;                       !- Vertex 4 Zcoordinate

SHADING:SITE:DETAILED,
    shade_30070_2,            !- Name
    ,                         !- Transmittance Schedule Name
    autocalculate,            !- Number of Vertices
    686796.1000939982,        !- Vertex 1 Xcoordinate
    4928898.666755642,        !- Vertex 1 Ycoordinate
    15,                       !- Vertex 1 Zcoordinate
    686796.1000939982,        !- Vertex 2 Xcoordinate
    4928898.666755642,        !- Vertex 2 Ycoordinate
    0,                        !- Vertex 2 Zcoordinate
    686790.0246637842,        !- Vertex 3 Xcoordinate
    4928891.053290382,        !- Vertex 3 Ycoordinate
    0,                        !- Vertex 3 Zcoordinate
    686790.0246637842,        !- Vertex 4 Xcoordinate
    4928891.053290382,        !- Vertex 4 Ycoordinate
    15;                       !- Vertex 4 Zcoordinate

SHADING:SITE:DETAILED,
    shade_30070_3,            !- Name
    ,                         !- Transmittance Schedule Name
    autocalculate,            !- Number of Vertices
    686790.0246637842,        !- Vertex 1 Xcoordinate
    4928891.053290382,        !- Vertex 1 Ycoordinate
    15,                       !- Vertex 1 Zcoordinate
    686790.0246637842,        !- Vertex 2 Xcoordinate
    4928891.053290382,        !- Vertex 2 Ycoordinate
    0,                        !- Vertex 2 Zcoordinate
    686763.1961560182,        !- Vertex 3 Xcoordinate
    4928912.462034117,        !- Vertex 3 Ycoordinate
    0,                        !- Vertex 3 Zcoordinate
    686763.1961560182,        !- Vertex 4 Xcoordinate
    4928912.462034117,        !- Vertex 4 Ycoordinate
    15;                       !- Vertex 4 Zcoordinate

SHADING:SITE:DETAILED,
    shade_30070_4,            !- Name
    ,                         !- Transmittance Schedule Name
    autocalculate,            !- Number of Vertices
    686763.1961560182,        !- Vertex 1 Xcoordinate
    4928912.462034117,        !- Vertex 1 Ycoordinate
    15,                       !- Vertex 1 Zcoordinate
    686763.1961560182,        !- Vertex 2 Xcoordinate
    4928912.462034117,        !- Vertex 2 Ycoordinate
    0,                        !- Vertex 2 Zcoordinate
    686769.2709984923,        !- Vertex 3 Xcoordinate
    4928920.076119193,        !- Vertex 3 Ycoordinate
    0,                        !- Vertex 3 Zcoordinate
    686769.2709984923,        !- Vertex 4 Xcoordinate
    4928920.076119193,        !- Vertex 4 Ycoordinate
    15;                       !- Vertex 4 Zcoordinate

SHADING:SITE:DETAILED,
    shade_30042_1,            !- Name
    ,                         !- Transmittance Schedule Name
    autocalculate,            !- Number of Vertices
    686795.4995586665,        !- Vertex 1 Xcoordinate
    4928899.134711768,        !- Vertex 1 Ycoordinate
    15,                       !- Vertex 1 Zcoordinate
    686795.4995586665,        !- Vertex 2 Xcoordinate
    4928899.134711768,        !- Vertex 2 Ycoordinate
    0,                        !- Vertex 2 Zcoordinate
    686768.8751551629,        !- Vertex 3 Xcoordinate
    4928920.383197372,        !- Vertex 3 Ycoordinate
    0,                        !- Vertex 3 Zcoordinate
    686768.8751551629,        !- Vertex 4 Xcoordinate
    4928920.383197372,        !- Vertex 4 Ycoordinate
    15;                       !- Vertex 4 Zcoordinate

SHADING:SITE:DETAILED,
    shade_30042_2,            !- Name
    ,                         !- Transmittance Schedule Name
    autocalculate,            !- Number of Vertices
    686768.8751551629,        !- Vertex 1 Xcoordinate
    4928920.383197372,        !- Vertex 1 Ycoordinate
    15,                       !- Vertex 1 Zcoordinate
    686768.8751551629,        !- Vertex 2 Xcoordinate
    4928920.383197372,        !- Vertex 2 Ycoordinate
    0,                        !- Vertex 2 Zcoordinate
    686771.8980750678,        !- Vertex 3 Xcoordinate
    4928924.170923274,        !- Vertex 3 Ycoordinate
    0,                        !- Vertex 3 Zcoordinate
    686771.8980750678,        !- Vertex 4 Xcoordinate
    4928924.170923274,        !- Vertex 4 Ycoordinate
    15;                       !- Vertex 4 Zcoordinate

SHADING:SITE:DETAILED,
    shade_30042_3,            !- Name
    ,                         !- Transmittance Schedule Name
    autocalculate,            !- Number of Vertices
    686771.8980750678,        !- Vertex 1 Xcoordinate
    4928924.170923274,        !- Vertex 1 Ycoordinate
    15,                       !- Vertex 1 Zcoordinate
    686771.8980750678,        !- Vertex 2 Xcoordinate
    4928924.170923274,        !- Vertex 2 Ycoordinate
    0,                        !- Vertex 2 Zcoordinate
    686798.5224785715,        !- Vertex 3 Xcoordinate
    4928902.922437671,        !- Vertex 3 Ycoordinate
    0,                        !- Vertex 3 Zcoordinate
    686798.5224785715,        !- Vertex 4 Xcoordinate
    4928902.922437671,        !- Vertex 4 Ycoordinate
    15;                       !- Vertex 4 Zcoordinate

SHADING:SITE:DETAILED,
    shade_30042_4,            !- Name
    ,                         !- Transmittance Schedule Name
    autocalculate,            !- Number of Vertices
    686798.5224785715,        !- Vertex 1 Xcoordinate
    4928902.922437671,        !- Vertex 1 Ycoordinate
    15,                       !- Vertex 1 Zcoordinate
    686798.5224785715,        !- Vertex 2 Xcoordinate
    4928902.922437671,        !- Vertex 2 Ycoordinate
    0,                        !- Vertex 2 Zcoordinate
    686795.4995586665,        !- Vertex 3 Xcoordinate
    4928899.134711768,        !- Vertex 3 Ycoordinate
    0,                        !- Vertex 3 Zcoordinate
    686795.4995586665,        !- Vertex 4 Xcoordinate
    4928899.134711768,        !- Vertex 4 Ycoordinate
    15;                       !- Vertex 4 Zcoordinate

SHADING:SITE:DETAILED,
    shade_29965_1,            !- Name
    ,                         !- Transmittance Schedule Name
    autocalculate,            !- Number of Vertices
    686797.2659926459,        !- Vertex 1 Xcoordinate
    4928902.376692988,        !- Vertex 1 Ycoordinate
    15,                       !- Vertex 1 Zcoordinate
    686797.2659926459,        !- Vertex 2 Xcoordinate
    4928902.376692988,        !- Vertex 2 Ycoordinate
    0,                        !- Vertex 2 Zcoordinate
    686771.3836181104,        !- Vertex 3 Xcoordinate
    4928924.212456906,        !- Vertex 3 Ycoordinate
    0,                        !- Vertex 3 Zcoordinate
    686771.3836181104,        !- Vertex 4 Xcoordinate
    4928924.212456906,        !- Vertex 4 Ycoordinate
    15;                       !- Vertex 4 Zcoordinate

SHADING:SITE:DETAILED,
    shade_29965_2,            !- Name
    ,                         !- Transmittance Schedule Name
    autocalculate,            !- Number of Vertices
    686771.3836181104,        !- Vertex 1 Xcoordinate
    4928924.212456906,        !- Vertex 1 Ycoordinate
    15,                       !- Vertex 1 Zcoordinate
    686771.3836181104,        !- Vertex 2 Xcoordinate
    4928924.212456906,        !- Vertex 2 Ycoordinate
    0,                        !- Vertex 2 Zcoordinate
    686780.6111930436,        !- Vertex 3 Xcoordinate
    4928935.15008892,         !- Vertex 3 Ycoordinate
    0,                        !- Vertex 3 Zcoordinate
    686780.6111930436,        !- Vertex 4 Xcoordinate
    4928935.15008892,         !- Vertex 4 Ycoordinate
    15;                       !- Vertex 4 Zcoordinate

SHADING:SITE:DETAILED,
    shade_29965_3,            !- Name
    ,                         !- Transmittance Schedule Name
    autocalculate,            !- Number of Vertices
    686780.6111930436,        !- Vertex 1 Xcoordinate
    4928935.15008892,         !- Vertex 1 Ycoordinate
    15,                       !- Vertex 1 Zcoordinate
    686780.6111930436,        !- Vertex 2 Xcoordinate
    4928935.15008892,         !- Vertex 2 Ycoordinate
    0,                        !- Vertex 2 Zcoordinate
    686806.4935675792,        !- Vertex 3 Xcoordinate
    4928913.314325002,        !- Vertex 3 Ycoordinate
    0,                        !- Vertex 3 Zcoordinate
    686806.4935675792,        !- Vertex 4 Xcoordinate
    4928913.314325002,        !- Vertex 4 Ycoordinate
    15;                       !- Vertex 4 Zcoordinate

SHADING:SITE:DETAILED,
    shade_29965_4,            !- Name
    ,                         !- Transmittance Schedule Name
    autocalculate,            !- Number of Vertices
    686806.4935675792,        !- Vertex 1 Xcoordinate
    4928913.314325002,        !- Vertex 1 Ycoordinate
    15,                       !- Vertex 1 Zcoordinate
    686806.4935675792,        !- Vertex 2 Xcoordinate
    4928913.314325002,        !- Vertex 2 Ycoordinate
    0,                        !- Vertex 2 Zcoordinate
    686797.2659926459,        !- Vertex 3 Xcoordinate
    4928902.376692988,        !- Vertex 3 Ycoordinate
    0,                        !- Vertex 3 Zcoordinate
    686797.2659926459,        !- Vertex 4 Xcoordinate
    4928902.376692988,        !- Vertex 4 Ycoordinate
    15;                       !- Vertex 4 Zcoordinate

SHADING:SITE:DETAILED,
    shade_29530_1,            !- Name
    ,                         !- Transmittance Schedule Name
    autocalculate,            !- Number of Vertices
    686810.0453561667,        !- Vertex 1 Xcoordinate
    4928971.105164887,        !- Vertex 1 Ycoordinate
    15,                       !- Vertex 1 Zcoordinate
    686810.0453561667,        !- Vertex 2 Xcoordinate
    4928971.105164887,        !- Vertex 2 Ycoordinate
    0,                        !- Vertex 2 Zcoordinate
    686832.7165001205,        !- Vertex 3 Xcoordinate
    4928951.650460148,        !- Vertex 3 Ycoordinate
    0,                        !- Vertex 3 Zcoordinate
    686832.7165001205,        !- Vertex 4 Xcoordinate
    4928951.650460148,        !- Vertex 4 Ycoordinate
    15;                       !- Vertex 4 Zcoordinate

SHADING:SITE:DETAILED,
    shade_29530_2,            !- Name
    ,                         !- Transmittance Schedule Name
    autocalculate,            !- Number of Vertices
    686832.7165001205,        !- Vertex 1 Xcoordinate
    4928951.650460148,        !- Vertex 1 Ycoordinate
    15,                       !- Vertex 1 Zcoordinate
    686832.7165001205,        !- Vertex 2 Xcoordinate
    4928951.650460148,        !- Vertex 2 Ycoordinate
    0,                        !- Vertex 2 Zcoordinate
    686821.4628303212,        !- Vertex 3 Xcoordinate
    4928938.53622524,         !- Vertex 3 Ycoordinate
    0,                        !- Vertex 3 Zcoordinate
    686821.4628303212,        !- Vertex 4 Xcoordinate
    4928938.53622524,         !- Vertex 4 Ycoordinate
    15;                       !- Vertex 4 Zcoordinate

SHADING:SITE:DETAILED,
    shade_29530_3,            !- Name
    ,                         !- Transmittance Schedule Name
    autocalculate,            !- Number of Vertices
    686821.4628303212,        !- Vertex 1 Xcoordinate
    4928938.53622524,         !- Vertex 1 Ycoordinate
    15,                       !- Vertex 1 Zcoordinate
    686821.4628303212,        !- Vertex 2 Xcoordinate
    4928938.53622524,         !- Vertex 2 Ycoordinate
    0,                        !- Vertex 2 Zcoordinate
    686798.7916863674,        !- Vertex 3 Xcoordinate
    4928957.990929978,        !- Vertex 3 Ycoordinate
    0,                        !- Vertex 3 Zcoordinate
    686798.7916863674,        !- Vertex 4 Xcoordinate
    4928957.990929978,        !- Vertex 4 Ycoordinate
    15;                       !- Vertex 4 Zcoordinate

SHADING:SITE:DETAILED,
    shade_29530_4,            !- Name
    ,                         !- Transmittance Schedule Name
    autocalculate,            !- Number of Vertices
    686798.7916863674,        !- Vertex 1 Xcoordinate
    4928957.990929978,        !- Vertex 1 Ycoordinate
    15,                       !- Vertex 1 Zcoordinate
    686798.7916863674,        !- Vertex 2 Xcoordinate
    4928957.990929978,        !- Vertex 2 Ycoordinate
    0,                        !- Vertex 2 Zcoordinate
    686810.0453561667,        !- Vertex 3 Xcoordinate
    4928971.105164887,        !- Vertex 3 Ycoordinate
    0,                        !- Vertex 3 Zcoordinate
    686810.0453561667,        !- Vertex 4 Xcoordinate
    4928971.105164887,        !- Vertex 4 Ycoordinate
    15;                       !- Vertex 4 Zcoordinate

SHADING:SITE:DETAILED,
    shade_29484_1,            !- Name
    ,                         !- Transmittance Schedule Name
    autocalculate,            !- Number of Vertices
    686814.3027548087,        !- Vertex 1 Xcoordinate
    4928975.484890475,        !- Vertex 1 Ycoordinate
    15,                       !- Vertex 1 Zcoordinate
    686814.3027548087,        !- Vertex 2 Xcoordinate
    4928975.484890475,        !- Vertex 2 Ycoordinate
    0,                        !- Vertex 2 Zcoordinate
    686833.9916799926,        !- Vertex 3 Xcoordinate
    4928959.304673373,        !- Vertex 3 Ycoordinate
    0,                        !- Vertex 3 Zcoordinate
    686833.9916799926,        !- Vertex 4 Xcoordinate
    4928959.304673373,        !- Vertex 4 Ycoordinate
    15;                       !- Vertex 4 Zcoordinate

SHADING:SITE:DETAILED,
    shade_29484_2,            !- Name
    ,                         !- Transmittance Schedule Name
    autocalculate,            !- Number of Vertices
    686833.9916799926,        !- Vertex 1 Xcoordinate
    4928959.304673373,        !- Vertex 1 Ycoordinate
    15,                       !- Vertex 1 Zcoordinate
    686833.9916799926,        !- Vertex 2 Xcoordinate
    4928959.304673373,        !- Vertex 2 Ycoordinate
    0,                        !- Vertex 2 Zcoordinate
    686829.6007260836,        !- Vertex 3 Xcoordinate
    4928953.961533509,        !- Vertex 3 Ycoordinate
    0,                        !- Vertex 3 Zcoordinate
    686829.6007260836,        !- Vertex 4 Xcoordinate
    4928953.961533509,        !- Vertex 4 Ycoordinate
    15;                       !- Vertex 4 Zcoordinate

SHADING:SITE:DETAILED,
    shade_29484_3,            !- Name
    ,                         !- Transmittance Schedule Name
    autocalculate,            !- Number of Vertices
    686829.6007260836,        !- Vertex 1 Xcoordinate
    4928953.961533509,        !- Vertex 1 Ycoordinate
    15,                       !- Vertex 1 Zcoordinate
    686829.6007260836,        !- Vertex 2 Xcoordinate
    4928953.961533509,        !- Vertex 2 Ycoordinate
    0,                        !- Vertex 2 Zcoordinate
    686809.9118008998,        !- Vertex 3 Xcoordinate
    4928970.141750611,        !- Vertex 3 Ycoordinate
    0,                        !- Vertex 3 Zcoordinate
    686809.9118008998,        !- Vertex 4 Xcoordinate
    4928970.141750611,        !- Vertex 4 Ycoordinate
    15;                       !- Vertex 4 Zcoordinate

SHADING:SITE:DETAILED,
    shade_29484_4,            !- Name
    ,                         !- Transmittance Schedule Name
    autocalculate,            !- Number of Vertices
    686809.9118008998,        !- Vertex 1 Xcoordinate
    4928970.141750611,        !- Vertex 1 Ycoordinate
    15,                       !- Vertex 1 Zcoordinate
    686809.9118008998,        !- Vertex 2 Xcoordinate
    4928970.141750611,        !- Vertex 2 Ycoordinate
    0,                        !- Vertex 2 Zcoordinate
    686814.3027548087,        !- Vertex 3 Xcoordinate
    4928975.484890475,        !- Vertex 3 Ycoordinate
    0,                        !- Vertex 3 Zcoordinate
    686814.3027548087,        !- Vertex 4 Xcoordinate
    4928975.484890475,        !- Vertex 4 Ycoordinate
    15;                       !- Vertex 4 Zcoordinate

SHADING:SITE:DETAILED,
    shade_29885_1,            !- Name
    ,                         !- Transmittance Schedule Name
    autocalculate,            !- Number of Vertices
    686752.5379984924,        !- Vertex 1 Xcoordinate
    4928904.469119191,        !- Vertex 1 Ycoordinate
    15,                       !- Vertex 1 Zcoordinate
    686752.5379984924,        !- Vertex 2 Xcoordinate
    4928904.469119191,        !- Vertex 2 Ycoordinate
    0,                        !- Vertex 2 Zcoordinate
    686722.8209984927,        !- Vertex 3 Xcoordinate
    4928924.458119192,        !- Vertex 3 Ycoordinate
    0,                        !- Vertex 3 Zcoordinate
    686722.8209984927,        !- Vertex 4 Xcoordinate
    4928924.458119192,        !- Vertex 4 Ycoordinate
    15;                       !- Vertex 4 Zcoordinate

SHADING:SITE:DETAILED,
    shade_29885_2,            !- Name
    ,                         !- Transmittance Schedule Name
    autocalculate,            !- Number of Vertices
    686722.8209984927,        !- Vertex 1 Xcoordinate
    4928924.458119192,        !- Vertex 1 Ycoordinate
    15,                       !- Vertex 1 Zcoordinate
    686722.8209984927,        !- Vertex 2 Xcoordinate
    4928924.458119192,        !- Vertex 2 Ycoordinate
    0,                        !- Vertex 2 Zcoordinate
    686732.3389163412,        !- Vertex 3 Xcoordinate
    4928938.609027619,        !- Vertex 3 Ycoordinate
    0,                        !- Vertex 3 Zcoordinate
    686732.3389163412,        !- Vertex 4 Xcoordinate
    4928938.609027619,        !- Vertex 4 Ycoordinate
    15;                       !- Vertex 4 Zcoordinate

SHADING:SITE:DETAILED,
    shade_29885_3,            !- Name
    ,                         !- Transmittance Schedule Name
    autocalculate,            !- Number of Vertices
    686732.3389163412,        !- Vertex 1 Xcoordinate
    4928938.609027619,        !- Vertex 1 Ycoordinate
    15,                       !- Vertex 1 Zcoordinate
    686732.3389163412,        !- Vertex 2 Xcoordinate
    4928938.609027619,        !- Vertex 2 Ycoordinate
    0,                        !- Vertex 2 Zcoordinate
    686762.0559163379,        !- Vertex 3 Xcoordinate
    4928918.62002761,         !- Vertex 3 Ycoordinate
    0,                        !- Vertex 3 Zcoordinate
    686762.0559163379,        !- Vertex 4 Xcoordinate
    4928918.62002761,         !- Vertex 4 Ycoordinate
    15;                       !- Vertex 4 Zcoordinate

SHADING:SITE:DETAILED,
    shade_29885_4,            !- Name
    ,                         !- Transmittance Schedule Name
    autocalculate,            !- Number of Vertices
    686762.0559163379,        !- Vertex 1 Xcoordinate
    4928918.62002761,         !- Vertex 1 Ycoordinate
    15,                       !- Vertex 1 Zcoordinate
    686762.0559163379,        !- Vertex 2 Xcoordinate
    4928918.62002761,         !- Vertex 2 Ycoordinate
    0,                        !- Vertex 2 Zcoordinate
    686752.5379984924,        !- Vertex 3 Xcoordinate
    4928904.469119191,        !- Vertex 3 Ycoordinate
    0,                        !- Vertex 3 Zcoordinate
    686752.5379984924,        !- Vertex 4 Xcoordinate
    4928904.469119191,        !- Vertex 4 Ycoordinate
    15;                       !- Vertex 4 Zcoordinate

SHADING:SITE:DETAILED,
    shade_29793_1,            !- Name
    ,                         !- Transmittance Schedule Name
    autocalculate,            !- Number of Vertices
    686738.2859070114,        !- Vertex 1 Xcoordinate
    4928942.576453239,        !- Vertex 1 Ycoordinate
    15,                       !- Vertex 1 Zcoordinate
    686738.2859070114,        !- Vertex 2 Xcoordinate
    4928942.576453239,        !- Vertex 2 Ycoordinate
    0,                        !- Vertex 2 Zcoordinate
    686697.6359588336,        !- Vertex 3 Xcoordinate
    4928918.780247623,        !- Vertex 3 Ycoordinate
    0,                        !- Vertex 3 Zcoordinate
    686697.6359588336,        !- Vertex 4 Xcoordinate
    4928918.780247623,        !- Vertex 4 Ycoordinate
    15;                       !- Vertex 4 Zcoordinate

SHADING:SITE:DETAILED,
    shade_29793_2,            !- Name
    ,                         !- Transmittance Schedule Name
    autocalculate,            !- Number of Vertices
    686697.6359588336,        !- Vertex 1 Xcoordinate
    4928918.780247623,        !- Vertex 1 Ycoordinate
    15,                       !- Vertex 1 Zcoordinate
    686697.6359588336,        !- Vertex 2 Xcoordinate
    4928918.780247623,        !- Vertex 2 Ycoordinate
    0,                        !- Vertex 2 Zcoordinate
    686672.6554794088,        !- Vertex 3 Xcoordinate
    4928961.453235512,        !- Vertex 3 Ycoordinate
    0,                        !- Vertex 3 Zcoordinate
    686672.6554794088,        !- Vertex 4 Xcoordinate
    4928961.453235512,        !- Vertex 4 Ycoordinate
    15;                       !- Vertex 4 Zcoordinate

SHADING:SITE:DETAILED,
    shade_29793_3,            !- Name
    ,                         !- Transmittance Schedule Name
    autocalculate,            !- Number of Vertices
    686672.6554794088,        !- Vertex 1 Xcoordinate
    4928961.453235512,        !- Vertex 1 Ycoordinate
    15,                       !- Vertex 1 Zcoordinate
    686672.6554794088,        !- Vertex 2 Xcoordinate
    4928961.453235512,        !- Vertex 2 Ycoordinate
    0,                        !- Vertex 2 Zcoordinate
    686713.3054275865,        !- Vertex 3 Xcoordinate
    4928985.249441128,        !- Vertex 3 Ycoordinate
    0,                        !- Vertex 3 Zcoordinate
    686713.3054275865,        !- Vertex 4 Xcoordinate
    4928985.249441128,        !- Vertex 4 Ycoordinate
    15;                       !- Vertex 4 Zcoordinate

SHADING:SITE:DETAILED,
    shade_29793_4,            !- Name
    ,                         !- Transmittance Schedule Name
    autocalculate,            !- Number of Vertices
    686713.3054275865,        !- Vertex 1 Xcoordinate
    4928985.249441128,        !- Vertex 1 Ycoordinate
    15,                       !- Vertex 1 Zcoordinate
    686713.3054275865,        !- Vertex 2 Xcoordinate
    4928985.249441128,        !- Vertex 2 Ycoordinate
    0,                        !- Vertex 2 Zcoordinate
    686738.2859070114,        !- Vertex 3 Xcoordinate
    4928942.576453239,        !- Vertex 3 Ycoordinate
    0,                        !- Vertex 3 Zcoordinate
    686738.2859070114,        !- Vertex 4 Xcoordinate
    4928942.576453239,        !- Vertex 4 Ycoordinate
    15;                       !- Vertex 4 Zcoordinate

SHADING:SITE:DETAILED,
    shade_29346_1,            !- Name
    ,                         !- Transmittance Schedule Name
    autocalculate,            !- Number of Vertices
    686740.6679139965,        !- Vertex 1 Xcoordinate
    4928985.884972187,        !- Vertex 1 Ycoordinate
    15,                       !- Vertex 1 Zcoordinate
    686740.6679139965,        !- Vertex 2 Xcoordinate
    4928985.884972187,        !- Vertex 2 Ycoordinate
    0,                        !- Vertex 2 Zcoordinate
    686728.3063748839,        !- Vertex 3 Xcoordinate
    4928967.812939461,        !- Vertex 3 Ycoordinate
    0,                        !- Vertex 3 Zcoordinate
    686728.3063748839,        !- Vertex 4 Xcoordinate
    4928967.812939461,        !- Vertex 4 Ycoordinate
    15;                       !- Vertex 4 Zcoordinate

SHADING:SITE:DETAILED,
    shade_29346_2,            !- Name
    ,                         !- Transmittance Schedule Name
    autocalculate,            !- Number of Vertices
    686728.3063748839,        !- Vertex 1 Xcoordinate
    4928967.812939461,        !- Vertex 1 Ycoordinate
    15,                       !- Vertex 1 Zcoordinate
    686728.3063748839,        !- Vertex 2 Xcoordinate
    4928967.812939461,        !- Vertex 2 Ycoordinate
    0,                        !- Vertex 2 Zcoordinate
    686721.6525142507,        !- Vertex 3 Xcoordinate
    4928972.364279076,        !- Vertex 3 Ycoordinate
    0,                        !- Vertex 3 Zcoordinate
    686721.6525142507,        !- Vertex 4 Xcoordinate
    4928972.364279076,        !- Vertex 4 Ycoordinate
    15;                       !- Vertex 4 Zcoordinate

SHADING:SITE:DETAILED,
    shade_29346_3,            !- Name
    ,                         !- Transmittance Schedule Name
    autocalculate,            !- Number of Vertices
    686721.6525142507,        !- Vertex 1 Xcoordinate
    4928972.364279076,        !- Vertex 1 Ycoordinate
    15,                       !- Vertex 1 Zcoordinate
    686721.6525142507,        !- Vertex 2 Xcoordinate
    4928972.364279076,        !- Vertex 2 Ycoordinate
    0,                        !- Vertex 2 Zcoordinate
    686734.0140533634,        !- Vertex 3 Xcoordinate
    4928990.436311802,        !- Vertex 3 Ycoordinate
    0,                        !- Vertex 3 Zcoordinate
    686734.0140533634,        !- Vertex 4 Xcoordinate
    4928990.436311802,        !- Vertex 4 Ycoordinate
    15;                       !- Vertex 4 Zcoordinate

SHADING:SITE:DETAILED,
    shade_29346_4,            !- Name
    ,                         !- Transmittance Schedule Name
    autocalculate,            !- Number of Vertices
    686734.0140533634,        !- Vertex 1 Xcoordinate
    4928990.436311802,        !- Vertex 1 Ycoordinate
    15,                       !- Vertex 1 Zcoordinate
    686734.0140533634,        !- Vertex 2 Xcoordinate
    4928990.436311802,        !- Vertex 2 Ycoordinate
    0,                        !- Vertex 2 Zcoordinate
    686740.6679139965,        !- Vertex 3 Xcoordinate
    4928985.884972187,        !- Vertex 3 Ycoordinate
    0,                        !- Vertex 3 Zcoordinate
    686740.6679139965,        !- Vertex 4 Xcoordinate
    4928985.884972187,        !- Vertex 4 Ycoordinate
    15;                       !- Vertex 4 Zcoordinate

SHADING:SITE:DETAILED,
    shade_29279_1,            !- Name
    ,                         !- Transmittance Schedule Name
    autocalculate,            !- Number of Vertices
    686719.290421589,         !- Vertex 1 Xcoordinate
    4928975.555155241,        !- Vertex 1 Ycoordinate
    15,                       !- Vertex 1 Zcoordinate
    686719.290421589,         !- Vertex 2 Xcoordinate
    4928975.555155241,        !- Vertex 2 Ycoordinate
    0,                        !- Vertex 2 Zcoordinate
    686729.1513313432,        !- Vertex 3 Xcoordinate
    4928996.256863894,        !- Vertex 3 Ycoordinate
    0,                        !- Vertex 3 Zcoordinate
    686729.1513313432,        !- Vertex 4 Xcoordinate
    4928996.256863894,        !- Vertex 4 Ycoordinate
    15;                       !- Vertex 4 Zcoordinate

SHADING:SITE:DETAILED,
    shade_29279_2,            !- Name
    ,                         !- Transmittance Schedule Name
    autocalculate,            !- Number of Vertices
    686729.1513313432,        !- Vertex 1 Xcoordinate
    4928996.256863894,        !- Vertex 1 Ycoordinate
    15,                       !- Vertex 1 Zcoordinate
    686729.1513313432,        !- Vertex 2 Xcoordinate
    4928996.256863894,        !- Vertex 2 Ycoordinate
    0,                        !- Vertex 2 Zcoordinate
    686741.0609458048,        !- Vertex 3 Xcoordinate
    4928990.5839199135,       !- Vertex 3 Ycoordinate
    0,                        !- Vertex 3 Zcoordinate
    686741.0609458048,        !- Vertex 4 Xcoordinate
    4928990.5839199135,       !- Vertex 4 Ycoordinate
    15;                       !- Vertex 4 Zcoordinate

SHADING:SITE:DETAILED,
    shade_29279_3,            !- Name
    ,                         !- Transmittance Schedule Name
    autocalculate,            !- Number of Vertices
    686741.0609458048,        !- Vertex 1 Xcoordinate
    4928990.5839199135,       !- Vertex 1 Ycoordinate
    15,                       !- Vertex 1 Zcoordinate
    686741.0609458048,        !- Vertex 2 Xcoordinate
    4928990.5839199135,       !- Vertex 2 Ycoordinate
    0,                        !- Vertex 2 Zcoordinate
    686731.2000360506,        !- Vertex 3 Xcoordinate
    4928969.882211261,        !- Vertex 3 Ycoordinate
    0,                        !- Vertex 3 Zcoordinate
    686731.2000360506,        !- Vertex 4 Xcoordinate
    4928969.882211261,        !- Vertex 4 Ycoordinate
    15;                       !- Vertex 4 Zcoordinate

SHADING:SITE:DETAILED,
    shade_29279_4,            !- Name
    ,                         !- Transmittance Schedule Name
    autocalculate,            !- Number of Vertices
    686731.2000360506,        !- Vertex 1 Xcoordinate
    4928969.882211261,        !- Vertex 1 Ycoordinate
    15,                       !- Vertex 1 Zcoordinate
    686731.2000360506,        !- Vertex 2 Xcoordinate
    4928969.882211261,        !- Vertex 2 Ycoordinate
    0,                        !- Vertex 2 Zcoordinate
    686719.290421589,         !- Vertex 3 Xcoordinate
    4928975.555155241,        !- Vertex 3 Ycoordinate
    0,                        !- Vertex 3 Zcoordinate
    686719.290421589,         !- Vertex 4 Xcoordinate
    4928975.555155241,        !- Vertex 4 Ycoordinate
    15;                       !- Vertex 4 Zcoordinate

SHADING:SITE:DETAILED,
    shade_29437_1,            !- Name
    ,                         !- Transmittance Schedule Name
    autocalculate,            !- Number of Vertices
    686728.6929984925,        !- Vertex 1 Xcoordinate
    4928995.295119193,        !- Vertex 1 Ycoordinate
    15,                       !- Vertex 1 Zcoordinate
    686728.6929984925,        !- Vertex 2 Xcoordinate
    4928995.295119193,        !- Vertex 2 Ycoordinate
    0,                        !- Vertex 2 Zcoordinate
    686719.0702348119,        !- Vertex 3 Xcoordinate
    4928975.092901491,        !- Vertex 3 Ycoordinate
    0,                        !- Vertex 3 Zcoordinate
    686719.0702348119,        !- Vertex 4 Xcoordinate
    4928975.092901491,        !- Vertex 4 Ycoordinate
    15;                       !- Vertex 4 Zcoordinate

SHADING:SITE:DETAILED,
    shade_29437_2,            !- Name
    ,                         !- Transmittance Schedule Name
    autocalculate,            !- Number of Vertices
    686719.0702348119,        !- Vertex 1 Xcoordinate
    4928975.092901491,        !- Vertex 1 Ycoordinate
    15,                       !- Vertex 1 Zcoordinate
    686719.0702348119,        !- Vertex 2 Xcoordinate
    4928975.092901491,        !- Vertex 2 Ycoordinate
    0,                        !- Vertex 2 Zcoordinate
    686710.3233467963,        !- Vertex 3 Xcoordinate
    4928979.259334071,        !- Vertex 3 Ycoordinate
    0,                        !- Vertex 3 Zcoordinate
    686710.3233467963,        !- Vertex 4 Xcoordinate
    4928979.259334071,        !- Vertex 4 Ycoordinate
    15;                       !- Vertex 4 Zcoordinate

SHADING:SITE:DETAILED,
    shade_29437_3,            !- Name
    ,                         !- Transmittance Schedule Name
    autocalculate,            !- Number of Vertices
    686710.3233467963,        !- Vertex 1 Xcoordinate
    4928979.259334071,        !- Vertex 1 Ycoordinate
    15,                       !- Vertex 1 Zcoordinate
    686710.3233467963,        !- Vertex 2 Xcoordinate
    4928979.259334071,        !- Vertex 2 Ycoordinate
    0,                        !- Vertex 2 Zcoordinate
    686719.9462173246,        !- Vertex 3 Xcoordinate
    4928999.461310059,        !- Vertex 3 Ycoordinate
    0,                        !- Vertex 3 Zcoordinate
    686719.9462173246,        !- Vertex 4 Xcoordinate
    4928999.461310059,        !- Vertex 4 Ycoordinate
    15;                       !- Vertex 4 Zcoordinate

SHADING:SITE:DETAILED,
    shade_29437_4,            !- Name
    ,                         !- Transmittance Schedule Name
    autocalculate,            !- Number of Vertices
    686719.9462173246,        !- Vertex 1 Xcoordinate
    4928999.461310059,        !- Vertex 1 Ycoordinate
    15,                       !- Vertex 1 Zcoordinate
    686719.9462173246,        !- Vertex 2 Xcoordinate
    4928999.461310059,        !- Vertex 2 Ycoordinate
    0,                        !- Vertex 2 Zcoordinate
    686728.6929984925,        !- Vertex 3 Xcoordinate
    4928995.295119193,        !- Vertex 3 Ycoordinate
    0,                        !- Vertex 3 Zcoordinate
    686728.6929984925,        !- Vertex 4 Xcoordinate
    4928995.295119193,        !- Vertex 4 Ycoordinate
    15;                       !- Vertex 4 Zcoordinate

SHADING:SITE:DETAILED,
    shade_29884_1,            !- Name
    ,                         !- Transmittance Schedule Name
    autocalculate,            !- Number of Vertices
    686770.1309984922,        !- Vertex 1 Xcoordinate
    4928931.375119192,        !- Vertex 1 Ycoordinate
    15,                       !- Vertex 1 Zcoordinate
    686770.1309984922,        !- Vertex 2 Xcoordinate
    4928931.375119192,        !- Vertex 2 Ycoordinate
    0,                        !- Vertex 2 Zcoordinate
    686761.8309984923,        !- Vertex 3 Xcoordinate
    4928918.716119193,        !- Vertex 3 Ycoordinate
    0,                        !- Vertex 3 Zcoordinate
    686761.8309984923,        !- Vertex 4 Xcoordinate
    4928918.716119193,        !- Vertex 4 Ycoordinate
    15;                       !- Vertex 4 Zcoordinate

SHADING:SITE:DETAILED,
    shade_29884_2,            !- Name
    ,                         !- Transmittance Schedule Name
    autocalculate,            !- Number of Vertices
    686761.8309984923,        !- Vertex 1 Xcoordinate
    4928918.716119193,        !- Vertex 1 Ycoordinate
    15,                       !- Vertex 1 Zcoordinate
    686761.8309984923,        !- Vertex 2 Xcoordinate
    4928918.716119193,        !- Vertex 2 Ycoordinate
    0,                        !- Vertex 2 Zcoordinate
    686745.1029790707,        !- Vertex 3 Xcoordinate
    4928929.684306543,        !- Vertex 3 Ycoordinate
    0,                        !- Vertex 3 Zcoordinate
    686745.1029790707,        !- Vertex 4 Xcoordinate
    4928929.684306543,        !- Vertex 4 Ycoordinate
    15;                       !- Vertex 4 Zcoordinate

SHADING:SITE:DETAILED,
    shade_29884_3,            !- Name
    ,                         !- Transmittance Schedule Name
    autocalculate,            !- Number of Vertices
    686745.1029790707,        !- Vertex 1 Xcoordinate
    4928929.684306543,        !- Vertex 1 Ycoordinate
    15,                       !- Vertex 1 Zcoordinate
    686745.1029790707,        !- Vertex 2 Xcoordinate
    4928929.684306543,        !- Vertex 2 Ycoordinate
    0,                        !- Vertex 2 Zcoordinate
    686753.4029790729,        !- Vertex 3 Xcoordinate
    4928942.343306545,        !- Vertex 3 Ycoordinate
    0,                        !- Vertex 3 Zcoordinate
    686753.4029790729,        !- Vertex 4 Xcoordinate
    4928942.343306545,        !- Vertex 4 Ycoordinate
    15;                       !- Vertex 4 Zcoordinate

SHADING:SITE:DETAILED,
    shade_29884_4,            !- Name
    ,                         !- Transmittance Schedule Name
    autocalculate,            !- Number of Vertices
    686753.4029790729,        !- Vertex 1 Xcoordinate
    4928942.343306545,        !- Vertex 1 Ycoordinate
    15,                       !- Vertex 1 Zcoordinate
    686753.4029790729,        !- Vertex 2 Xcoordinate
    4928942.343306545,        !- Vertex 2 Ycoordinate
    0,                        !- Vertex 2 Zcoordinate
    686770.1309984922,        !- Vertex 3 Xcoordinate
    4928931.375119192,        !- Vertex 3 Ycoordinate
    0,                        !- Vertex 3 Zcoordinate
    686770.1309984922,        !- Vertex 4 Xcoordinate
    4928931.375119192,        !- Vertex 4 Ycoordinate
    15;                       !- Vertex 4 Zcoordinate

SHADING:SITE:DETAILED,
    shade_29813_1,            !- Name
    ,                         !- Transmittance Schedule Name
    autocalculate,            !- Number of Vertices
    686789.899775404,         !- Vertex 1 Xcoordinate
    4928919.7005600305,       !- Vertex 1 Ycoordinate
    15,                       !- Vertex 1 Zcoordinate
    686789.899775404,         !- Vertex 2 Xcoordinate
    4928919.7005600305,       !- Vertex 2 Ycoordinate
    0,                        !- Vertex 2 Zcoordinate
    686776.1806680731,        !- Vertex 3 Xcoordinate
    4928931.480085752,        !- Vertex 3 Ycoordinate
    0,                        !- Vertex 3 Zcoordinate
    686776.1806680731,        !- Vertex 4 Xcoordinate
    4928931.480085752,        !- Vertex 4 Ycoordinate
    15;                       !- Vertex 4 Zcoordinate

SHADING:SITE:DETAILED,
    shade_29813_2,            !- Name
    ,                         !- Transmittance Schedule Name
    autocalculate,            !- Number of Vertices
    686776.1806680731,        !- Vertex 1 Xcoordinate
    4928931.480085752,        !- Vertex 1 Ycoordinate
    15,                       !- Vertex 1 Zcoordinate
    686776.1806680731,        !- Vertex 2 Xcoordinate
    4928931.480085752,        !- Vertex 2 Ycoordinate
    0,                        !- Vertex 2 Zcoordinate
    686787.5109984921,        !- Vertex 3 Xcoordinate
    4928944.675119192,        !- Vertex 3 Ycoordinate
    0,                        !- Vertex 3 Zcoordinate
    686787.5109984921,        !- Vertex 4 Xcoordinate
    4928944.675119192,        !- Vertex 4 Ycoordinate
    15;                       !- Vertex 4 Zcoordinate

SHADING:SITE:DETAILED,
    shade_29813_3,            !- Name
    ,                         !- Transmittance Schedule Name
    autocalculate,            !- Number of Vertices
    686787.5109984921,        !- Vertex 1 Xcoordinate
    4928944.675119192,        !- Vertex 1 Ycoordinate
    15,                       !- Vertex 1 Zcoordinate
    686787.5109984921,        !- Vertex 2 Xcoordinate
    4928944.675119192,        !- Vertex 2 Ycoordinate
    0,                        !- Vertex 2 Zcoordinate
    686801.2297075053,        !- Vertex 3 Xcoordinate
    4928932.896044996,        !- Vertex 3 Ycoordinate
    0,                        !- Vertex 3 Zcoordinate
    686801.2297075053,        !- Vertex 4 Xcoordinate
    4928932.896044996,        !- Vertex 4 Ycoordinate
    15;                       !- Vertex 4 Zcoordinate

SHADING:SITE:DETAILED,
    shade_29813_4,            !- Name
    ,                         !- Transmittance Schedule Name
    autocalculate,            !- Number of Vertices
    686801.2297075053,        !- Vertex 1 Xcoordinate
    4928932.896044996,        !- Vertex 1 Ycoordinate
    15,                       !- Vertex 1 Zcoordinate
    686801.2297075053,        !- Vertex 2 Xcoordinate
    4928932.896044996,        !- Vertex 2 Ycoordinate
    0,                        !- Vertex 2 Zcoordinate
    686789.899775404,         !- Vertex 3 Xcoordinate
    4928919.7005600305,       !- Vertex 3 Ycoordinate
    0,                        !- Vertex 3 Zcoordinate
    686789.899775404,         !- Vertex 4 Xcoordinate
    4928919.7005600305,       !- Vertex 4 Ycoordinate
    15;                       !- Vertex 4 Zcoordinate

SHADING:SITE:DETAILED,
    shade_29701_1,            !- Name
    ,                         !- Transmittance Schedule Name
    autocalculate,            !- Number of Vertices
    686794.940998492,         !- Vertex 1 Xcoordinate
    4928953.6241191905,       !- Vertex 1 Ycoordinate
    15,                       !- Vertex 1 Zcoordinate
    686794.940998492,         !- Vertex 2 Xcoordinate
    4928953.6241191905,       !- Vertex 2 Ycoordinate
    0,                        !- Vertex 2 Zcoordinate
    686817.608874746,         !- Vertex 3 Xcoordinate
    4928934.40822212,         !- Vertex 3 Ycoordinate
    0,                        !- Vertex 3 Zcoordinate
    686817.608874746,         !- Vertex 4 Xcoordinate
    4928934.40822212,         !- Vertex 4 Ycoordinate
    15;                       !- Vertex 4 Zcoordinate

SHADING:SITE:DETAILED,
    shade_29701_2,            !- Name
    ,                         !- Transmittance Schedule Name
    autocalculate,            !- Number of Vertices
    686817.608874746,         !- Vertex 1 Xcoordinate
    4928934.40822212,         !- Vertex 1 Ycoordinate
    15,                       !- Vertex 1 Zcoordinate
    686817.608874746,         !- Vertex 2 Xcoordinate
    4928934.40822212,         !- Vertex 2 Ycoordinate
    0,                        !- Vertex 2 Zcoordinate
    686809.2839984918,        !- Vertex 3 Xcoordinate
    4928924.587119193,        !- Vertex 3 Ycoordinate
    0,                        !- Vertex 3 Zcoordinate
    686809.2839984918,        !- Vertex 4 Xcoordinate
    4928924.587119193,        !- Vertex 4 Ycoordinate
    15;                       !- Vertex 4 Zcoordinate

SHADING:SITE:DETAILED,
    shade_29701_3,            !- Name
    ,                         !- Transmittance Schedule Name
    autocalculate,            !- Number of Vertices
    686809.2839984918,        !- Vertex 1 Xcoordinate
    4928924.587119193,        !- Vertex 1 Ycoordinate
    15,                       !- Vertex 1 Zcoordinate
    686809.2839984918,        !- Vertex 2 Xcoordinate
    4928924.587119193,        !- Vertex 2 Ycoordinate
    0,                        !- Vertex 2 Zcoordinate
    686786.615281673,         !- Vertex 3 Xcoordinate
    4928943.803231758,        !- Vertex 3 Ycoordinate
    0,                        !- Vertex 3 Zcoordinate
    686786.615281673,         !- Vertex 4 Xcoordinate
    4928943.803231758,        !- Vertex 4 Ycoordinate
    15;                       !- Vertex 4 Zcoordinate

SHADING:SITE:DETAILED,
    shade_29701_4,            !- Name
    ,                         !- Transmittance Schedule Name
    autocalculate,            !- Number of Vertices
    686786.615281673,         !- Vertex 1 Xcoordinate
    4928943.803231758,        !- Vertex 1 Ycoordinate
    15,                       !- Vertex 1 Zcoordinate
    686786.615281673,         !- Vertex 2 Xcoordinate
    4928943.803231758,        !- Vertex 2 Ycoordinate
    0,                        !- Vertex 2 Zcoordinate
    686794.940998492,         !- Vertex 3 Xcoordinate
    4928953.6241191905,       !- Vertex 3 Ycoordinate
    0,                        !- Vertex 3 Zcoordinate
    686794.940998492,         !- Vertex 4 Xcoordinate
    4928953.6241191905,       !- Vertex 4 Ycoordinate
    15;                       !- Vertex 4 Zcoordinate

SHADING:SITE:DETAILED,
    shade_29661_1,            !- Name
    ,                         !- Transmittance Schedule Name
    autocalculate,            !- Number of Vertices
    686798.7240070516,        !- Vertex 1 Xcoordinate
    4928958.106991412,        !- Vertex 1 Ycoordinate
    15,                       !- Vertex 1 Zcoordinate
    686798.7240070516,        !- Vertex 2 Xcoordinate
    4928958.106991412,        !- Vertex 2 Ycoordinate
    0,                        !- Vertex 2 Zcoordinate
    686809.1109984919,        !- Vertex 3 Xcoordinate
    4928949.264119194,        !- Vertex 3 Ycoordinate
    0,                        !- Vertex 3 Zcoordinate
    686809.1109984919,        !- Vertex 4 Xcoordinate
    4928949.264119194,        !- Vertex 4 Ycoordinate
    15;                       !- Vertex 4 Zcoordinate

SHADING:SITE:DETAILED,
    shade_29661_2,            !- Name
    ,                         !- Transmittance Schedule Name
    autocalculate,            !- Number of Vertices
    686809.1109984919,        !- Vertex 1 Xcoordinate
    4928949.264119194,        !- Vertex 1 Ycoordinate
    15,                       !- Vertex 1 Zcoordinate
    686809.1109984919,        !- Vertex 2 Xcoordinate
    4928949.264119194,        !- Vertex 2 Ycoordinate
    0,                        !- Vertex 2 Zcoordinate
    686805.1039826083,        !- Vertex 3 Xcoordinate
    4928944.557099687,        !- Vertex 3 Ycoordinate
    0,                        !- Vertex 3 Zcoordinate
    686805.1039826083,        !- Vertex 4 Xcoordinate
    4928944.557099687,        !- Vertex 4 Ycoordinate
    15;                       !- Vertex 4 Zcoordinate

SHADING:SITE:DETAILED,
    shade_29661_3,            !- Name
    ,                         !- Transmittance Schedule Name
    autocalculate,            !- Number of Vertices
    686805.1039826083,        !- Vertex 1 Xcoordinate
    4928944.557099687,        !- Vertex 1 Ycoordinate
    15,                       !- Vertex 1 Zcoordinate
    686805.1039826083,        !- Vertex 2 Xcoordinate
    4928944.557099687,        !- Vertex 2 Ycoordinate
    0,                        !- Vertex 2 Zcoordinate
    686794.7167688741,        !- Vertex 3 Xcoordinate
    4928953.399858895,        !- Vertex 3 Ycoordinate
    0,                        !- Vertex 3 Zcoordinate
    686794.7167688741,        !- Vertex 4 Xcoordinate
    4928953.399858895,        !- Vertex 4 Ycoordinate
    15;                       !- Vertex 4 Zcoordinate

SHADING:SITE:DETAILED,
    shade_29661_4,            !- Name
    ,                         !- Transmittance Schedule Name
    autocalculate,            !- Number of Vertices
    686794.7167688741,        !- Vertex 1 Xcoordinate
    4928953.399858895,        !- Vertex 1 Ycoordinate
    15,                       !- Vertex 1 Zcoordinate
    686794.7167688741,        !- Vertex 2 Xcoordinate
    4928953.399858895,        !- Vertex 2 Ycoordinate
    0,                        !- Vertex 2 Zcoordinate
    686798.7240070516,        !- Vertex 3 Xcoordinate
    4928958.106991412,        !- Vertex 3 Ycoordinate
    0,                        !- Vertex 3 Zcoordinate
    686798.7240070516,        !- Vertex 4 Xcoordinate
    4928958.106991412,        !- Vertex 4 Ycoordinate
    15;                       !- Vertex 4 Zcoordinate

SHADING:SITE:DETAILED,
    shade_92910_1,            !- Name
    ,                         !- Transmittance Schedule Name
    autocalculate,            !- Number of Vertices
    686792.6174385701,        !- Vertex 1 Xcoordinate
    4928976.6259306455,       !- Vertex 1 Ycoordinate
    15,                       !- Vertex 1 Zcoordinate
    686792.6174385701,        !- Vertex 2 Xcoordinate
    4928976.6259306455,       !- Vertex 2 Ycoordinate
    0,                        !- Vertex 2 Zcoordinate
    686804.2278723819,        !- Vertex 3 Xcoordinate
    4928979.947396524,        !- Vertex 3 Ycoordinate
    0,                        !- Vertex 3 Zcoordinate
    686804.2278723819,        !- Vertex 4 Xcoordinate
    4928979.947396524,        !- Vertex 4 Ycoordinate
    15;                       !- Vertex 4 Zcoordinate

SHADING:SITE:DETAILED,
    shade_92910_2,            !- Name
    ,                         !- Transmittance Schedule Name
    autocalculate,            !- Number of Vertices
    686804.2278723819,        !- Vertex 1 Xcoordinate
    4928979.947396524,        !- Vertex 1 Ycoordinate
    15,                       !- Vertex 1 Zcoordinate
    686804.2278723819,        !- Vertex 2 Xcoordinate
    4928979.947396524,        !- Vertex 2 Ycoordinate
    0,                        !- Vertex 2 Zcoordinate
    686805.6127607083,        !- Vertex 3 Xcoordinate
    4928975.1064152075,       !- Vertex 3 Ycoordinate
    0,                        !- Vertex 3 Zcoordinate
    686805.6127607083,        !- Vertex 4 Xcoordinate
    4928975.1064152075,       !- Vertex 4 Ycoordinate
    15;                       !- Vertex 4 Zcoordinate

SHADING:SITE:DETAILED,
    shade_92910_3,            !- Name
    ,                         !- Transmittance Schedule Name
    autocalculate,            !- Number of Vertices
    686805.6127607083,        !- Vertex 1 Xcoordinate
    4928975.1064152075,       !- Vertex 1 Ycoordinate
    15,                       !- Vertex 1 Zcoordinate
    686805.6127607083,        !- Vertex 2 Xcoordinate
    4928975.1064152075,       !- Vertex 2 Ycoordinate
    0,                        !- Vertex 2 Zcoordinate
    686794.0023268965,        !- Vertex 3 Xcoordinate
    4928971.784949329,        !- Vertex 3 Ycoordinate
    0,                        !- Vertex 3 Zcoordinate
    686794.0023268965,        !- Vertex 4 Xcoordinate
    4928971.784949329,        !- Vertex 4 Ycoordinate
    15;                       !- Vertex 4 Zcoordinate

SHADING:SITE:DETAILED,
    shade_92910_4,            !- Name
    ,                         !- Transmittance Schedule Name
    autocalculate,            !- Number of Vertices
    686794.0023268965,        !- Vertex 1 Xcoordinate
    4928971.784949329,        !- Vertex 1 Ycoordinate
    15,                       !- Vertex 1 Zcoordinate
    686794.0023268965,        !- Vertex 2 Xcoordinate
    4928971.784949329,        !- Vertex 2 Ycoordinate
    0,                        !- Vertex 2 Zcoordinate
    686792.6174385701,        !- Vertex 3 Xcoordinate
    4928976.6259306455,       !- Vertex 3 Ycoordinate
    0,                        !- Vertex 3 Zcoordinate
    686792.6174385701,        !- Vertex 4 Xcoordinate
    4928976.6259306455,       !- Vertex 4 Ycoordinate
    15;                       !- Vertex 4 Zcoordinate

SHADING:SITE:DETAILED,
    shade_29253_1,            !- Name
    ,                         !- Transmittance Schedule Name
    autocalculate,            !- Number of Vertices
    686802.3208662891,        !- Vertex 1 Xcoordinate
    4928996.883578532,        !- Vertex 1 Ycoordinate
    15,                       !- Vertex 1 Zcoordinate
    686802.3208662891,        !- Vertex 2 Xcoordinate
    4928996.883578532,        !- Vertex 2 Ycoordinate
    0,                        !- Vertex 2 Zcoordinate
    686816.6009984917,        !- Vertex 3 Xcoordinate
    4928989.023119193,        !- Vertex 3 Ycoordinate
    0,                        !- Vertex 3 Zcoordinate
    686816.6009984917,        !- Vertex 4 Xcoordinate
    4928989.023119193,        !- Vertex 4 Ycoordinate
    15;                       !- Vertex 4 Zcoordinate

SHADING:SITE:DETAILED,
    shade_29253_2,            !- Name
    ,                         !- Transmittance Schedule Name
    autocalculate,            !- Number of Vertices
    686816.6009984917,        !- Vertex 1 Xcoordinate
    4928989.023119193,        !- Vertex 1 Ycoordinate
    15,                       !- Vertex 1 Zcoordinate
    686816.6009984917,        !- Vertex 2 Xcoordinate
    4928989.023119193,        !- Vertex 2 Ycoordinate
    0,                        !- Vertex 2 Zcoordinate
    686809.5113238508,        !- Vertex 3 Xcoordinate
    4928976.143169156,        !- Vertex 3 Ycoordinate
    0,                        !- Vertex 3 Zcoordinate
    686809.5113238508,        !- Vertex 4 Xcoordinate
    4928976.143169156,        !- Vertex 4 Ycoordinate
    15;                       !- Vertex 4 Zcoordinate

SHADING:SITE:DETAILED,
    shade_29253_3,            !- Name
    ,                         !- Transmittance Schedule Name
    autocalculate,            !- Number of Vertices
    686809.5113238508,        !- Vertex 1 Xcoordinate
    4928976.143169156,        !- Vertex 1 Ycoordinate
    15,                       !- Vertex 1 Zcoordinate
    686809.5113238508,        !- Vertex 2 Xcoordinate
    4928976.143169156,        !- Vertex 2 Ycoordinate
    0,                        !- Vertex 2 Zcoordinate
    686795.2309984919,        !- Vertex 3 Xcoordinate
    4928984.004119191,        !- Vertex 3 Ycoordinate
    0,                        !- Vertex 3 Zcoordinate
    686795.2309984919,        !- Vertex 4 Xcoordinate
    4928984.004119191,        !- Vertex 4 Ycoordinate
    15;                       !- Vertex 4 Zcoordinate

SHADING:SITE:DETAILED,
    shade_29253_4,            !- Name
    ,                         !- Transmittance Schedule Name
    autocalculate,            !- Number of Vertices
    686795.2309984919,        !- Vertex 1 Xcoordinate
    4928984.004119191,        !- Vertex 1 Ycoordinate
    15,                       !- Vertex 1 Zcoordinate
    686795.2309984919,        !- Vertex 2 Xcoordinate
    4928984.004119191,        !- Vertex 2 Ycoordinate
    0,                        !- Vertex 2 Zcoordinate
    686802.3208662891,        !- Vertex 3 Xcoordinate
    4928996.883578532,        !- Vertex 3 Ycoordinate
    0,                        !- Vertex 3 Zcoordinate
    686802.3208662891,        !- Vertex 4 Xcoordinate
    4928996.883578532,        !- Vertex 4 Ycoordinate
    15;                       !- Vertex 4 Zcoordinate

SHADING:SITE:DETAILED,
    shade_29417_1,            !- Name
    ,                         !- Transmittance Schedule Name
    autocalculate,            !- Number of Vertices
    686804.2832191257,        !- Vertex 1 Xcoordinate
    4928971.729158535,        !- Vertex 1 Ycoordinate
    15,                       !- Vertex 1 Zcoordinate
    686804.2832191257,        !- Vertex 2 Xcoordinate
    4928971.729158535,        !- Vertex 2 Ycoordinate
    0,                        !- Vertex 2 Zcoordinate
    686686.2237601954,        !- Vertex 3 Xcoordinate
    4929013.343707795,        !- Vertex 3 Ycoordinate
    0,                        !- Vertex 3 Zcoordinate
    686686.2237601954,        !- Vertex 4 Xcoordinate
    4929013.343707795,        !- Vertex 4 Ycoordinate
    15;                       !- Vertex 4 Zcoordinate

SHADING:SITE:DETAILED,
    shade_29417_2,            !- Name
    ,                         !- Transmittance Schedule Name
    autocalculate,            !- Number of Vertices
    686686.2237601954,        !- Vertex 1 Xcoordinate
    4929013.343707795,        !- Vertex 1 Ycoordinate
    15,                       !- Vertex 1 Zcoordinate
    686686.2237601954,        !- Vertex 2 Xcoordinate
    4929013.343707795,        !- Vertex 2 Ycoordinate
    0,                        !- Vertex 2 Zcoordinate
    686702.9513768776,        !- Vertex 3 Xcoordinate
    4929060.799547363,        !- Vertex 3 Ycoordinate
    0,                        !- Vertex 3 Zcoordinate
    686702.9513768776,        !- Vertex 4 Xcoordinate
    4929060.799547363,        !- Vertex 4 Ycoordinate
    15;                       !- Vertex 4 Zcoordinate

SHADING:SITE:DETAILED,
    shade_29417_3,            !- Name
    ,                         !- Transmittance Schedule Name
    autocalculate,            !- Number of Vertices
    686702.9513768776,        !- Vertex 1 Xcoordinate
    4929060.799547363,        !- Vertex 1 Ycoordinate
    15,                       !- Vertex 1 Zcoordinate
    686702.9513768776,        !- Vertex 2 Xcoordinate
    4929060.799547363,        !- Vertex 2 Ycoordinate
    0,                        !- Vertex 2 Zcoordinate
    686821.0108358079,        !- Vertex 3 Xcoordinate
    4929019.184998103,        !- Vertex 3 Ycoordinate
    0,                        !- Vertex 3 Zcoordinate
    686821.0108358079,        !- Vertex 4 Xcoordinate
    4929019.184998103,        !- Vertex 4 Ycoordinate
    15;                       !- Vertex 4 Zcoordinate

SHADING:SITE:DETAILED,
    shade_29417_4,            !- Name
    ,                         !- Transmittance Schedule Name
    autocalculate,            !- Number of Vertices
    686821.0108358079,        !- Vertex 1 Xcoordinate
    4929019.184998103,        !- Vertex 1 Ycoordinate
    15,                       !- Vertex 1 Zcoordinate
    686821.0108358079,        !- Vertex 2 Xcoordinate
    4929019.184998103,        !- Vertex 2 Ycoordinate
    0,                        !- Vertex 2 Zcoordinate
    686804.2832191257,        !- Vertex 3 Xcoordinate
    4928971.729158535,        !- Vertex 3 Ycoordinate
    0,                        !- Vertex 3 Zcoordinate
    686804.2832191257,        !- Vertex 4 Xcoordinate
    4928971.729158535,        !- Vertex 4 Ycoordinate
    15;                       !- Vertex 4 Zcoordinate

SHADING:SITE:DETAILED,
    shade_29349_1,            !- Name
    ,                         !- Transmittance Schedule Name
    autocalculate,            !- Number of Vertices
    686830.2747641079,        !- Vertex 1 Xcoordinate
    4928992.5900500575,       !- Vertex 1 Ycoordinate
    15,                       !- Vertex 1 Zcoordinate
    686830.2747641079,        !- Vertex 2 Xcoordinate
    4928992.5900500575,       !- Vertex 2 Ycoordinate
    0,                        !- Vertex 2 Zcoordinate
    686848.7458137027,        !- Vertex 3 Xcoordinate
    4928976.05193219,         !- Vertex 3 Ycoordinate
    0,                        !- Vertex 3 Zcoordinate
    686848.7458137027,        !- Vertex 4 Xcoordinate
    4928976.05193219,         !- Vertex 4 Ycoordinate
    15;                       !- Vertex 4 Zcoordinate

SHADING:SITE:DETAILED,
    shade_29349_2,            !- Name
    ,                         !- Transmittance Schedule Name
    autocalculate,            !- Number of Vertices
    686848.7458137027,        !- Vertex 1 Xcoordinate
    4928976.05193219,         !- Vertex 1 Ycoordinate
    15,                       !- Vertex 1 Zcoordinate
    686848.7458137027,        !- Vertex 2 Xcoordinate
    4928976.05193219,         !- Vertex 2 Ycoordinate
    0,                        !- Vertex 2 Zcoordinate
    686833.1522190562,        !- Vertex 3 Xcoordinate
    4928958.635799206,        !- Vertex 3 Ycoordinate
    0,                        !- Vertex 3 Zcoordinate
    686833.1522190562,        !- Vertex 4 Xcoordinate
    4928958.635799206,        !- Vertex 4 Ycoordinate
    15;                       !- Vertex 4 Zcoordinate

SHADING:SITE:DETAILED,
    shade_29349_3,            !- Name
    ,                         !- Transmittance Schedule Name
    autocalculate,            !- Number of Vertices
    686833.1522190562,        !- Vertex 1 Xcoordinate
    4928958.635799206,        !- Vertex 1 Ycoordinate
    15,                       !- Vertex 1 Zcoordinate
    686833.1522190562,        !- Vertex 2 Xcoordinate
    4928958.635799206,        !- Vertex 2 Ycoordinate
    0,                        !- Vertex 2 Zcoordinate
    686814.6809984918,        !- Vertex 3 Xcoordinate
    4928975.174119192,        !- Vertex 3 Ycoordinate
    0,                        !- Vertex 3 Zcoordinate
    686814.6809984918,        !- Vertex 4 Xcoordinate
    4928975.174119192,        !- Vertex 4 Ycoordinate
    15;                       !- Vertex 4 Zcoordinate

SHADING:SITE:DETAILED,
    shade_29349_4,            !- Name
    ,                         !- Transmittance Schedule Name
    autocalculate,            !- Number of Vertices
    686814.6809984918,        !- Vertex 1 Xcoordinate
    4928975.174119192,        !- Vertex 1 Ycoordinate
    15,                       !- Vertex 1 Zcoordinate
    686814.6809984918,        !- Vertex 2 Xcoordinate
    4928975.174119192,        !- Vertex 2 Ycoordinate
    0,                        !- Vertex 2 Zcoordinate
    686830.2747641079,        !- Vertex 3 Xcoordinate
    4928992.5900500575,       !- Vertex 3 Ycoordinate
    0,                        !- Vertex 3 Zcoordinate
    686830.2747641079,        !- Vertex 4 Xcoordinate
    4928992.5900500575,       !- Vertex 4 Ycoordinate
    15;                       !- Vertex 4 Zcoordinate

OTHEREQUIPMENT,
    EU_Step8_InternalGain_19da1493f901936e_F0_dwelling_0_f000,    !- Name
    Electricity,              !- Fuel Type
    19da1493f901936e_F0_dwelling_0,    !- Zone or ZoneList or Space or SpaceList Name
    EU_Step8_GainSchedule_19da1493f901936e_F0_dwelling_0_f000,    !- Schedule Name
    Watts/Area,               !- Design Level Calculation Method
    ,                         !- Design Level
    1,                        !- Power per Zone Floor Area
    ,                         !- Power per Person
    0,                        !- Fraction Latent
    0,                        !- Fraction Radiant
    0,                        !- Fraction Lost
    0,                        !- Carbon Dioxide Generation Rate
    EU_Step8_InternalGains;    !- EndUse Subcategory

OTHEREQUIPMENT,
    EU_Step8_InternalGain_19da1493f901936e_F0_dwelling_1_f000,    !- Name
    Electricity,              !- Fuel Type
    19da1493f901936e_F0_dwelling_1,    !- Zone or ZoneList or Space or SpaceList Name
    EU_Step8_GainSchedule_19da1493f901936e_F0_dwelling_1_f000,    !- Schedule Name
    Watts/Area,               !- Design Level Calculation Method
    ,                         !- Design Level
    1,                        !- Power per Zone Floor Area
    ,                         !- Power per Person
    0,                        !- Fraction Latent
    0,                        !- Fraction Radiant
    0,                        !- Fraction Lost
    0,                        !- Carbon Dioxide Generation Rate
    EU_Step8_InternalGains;    !- EndUse Subcategory

OTHEREQUIPMENT,
    EU_Step8_InternalGain_19da1493f901936e_F1_dwelling_0_f000,    !- Name
    Electricity,              !- Fuel Type
    19da1493f901936e_F1_dwelling_0,    !- Zone or ZoneList or Space or SpaceList Name
    EU_Step8_GainSchedule_19da1493f901936e_F1_dwelling_0_f000,    !- Schedule Name
    Watts/Area,               !- Design Level Calculation Method
    ,                         !- Design Level
    1,                        !- Power per Zone Floor Area
    ,                         !- Power per Person
    0,                        !- Fraction Latent
    0,                        !- Fraction Radiant
    0,                        !- Fraction Lost
    0,                        !- Carbon Dioxide Generation Rate
    EU_Step8_InternalGains;    !- EndUse Subcategory

OTHEREQUIPMENT,
    EU_Step8_InternalGain_19da1493f901936e_F1_dwelling_1_f000,    !- Name
    Electricity,              !- Fuel Type
    19da1493f901936e_F1_dwelling_1,    !- Zone or ZoneList or Space or SpaceList Name
    EU_Step8_GainSchedule_19da1493f901936e_F1_dwelling_1_f000,    !- Schedule Name
    Watts/Area,               !- Design Level Calculation Method
    ,                         !- Design Level
    1,                        !- Power per Zone Floor Area
    ,                         !- Power per Person
    0,                        !- Fraction Latent
    0,                        !- Fraction Radiant
    0,                        !- Fraction Lost
    0,                        !- Carbon Dioxide Generation Rate
    EU_Step8_InternalGains;    !- EndUse Subcategory

OTHEREQUIPMENT,
    EU_Step8_InternalGain_19da1493f901936e_F2_dwelling_0_f000,    !- Name
    Electricity,              !- Fuel Type
    19da1493f901936e_F2_dwelling_0,    !- Zone or ZoneList or Space or SpaceList Name
    EU_Step8_GainSchedule_19da1493f901936e_F2_dwelling_0_f000,    !- Schedule Name
    Watts/Area,               !- Design Level Calculation Method
    ,                         !- Design Level
    1,                        !- Power per Zone Floor Area
    ,                         !- Power per Person
    0,                        !- Fraction Latent
    0,                        !- Fraction Radiant
    0,                        !- Fraction Lost
    0,                        !- Carbon Dioxide Generation Rate
    EU_Step8_InternalGains;    !- EndUse Subcategory

OTHEREQUIPMENT,
    EU_Step8_InternalGain_19da1493f901936e_F2_dwelling_1_f000,    !- Name
    Electricity,              !- Fuel Type
    19da1493f901936e_F2_dwelling_1,    !- Zone or ZoneList or Space or SpaceList Name
    EU_Step8_GainSchedule_19da1493f901936e_F2_dwelling_1_f000,    !- Schedule Name
    Watts/Area,               !- Design Level Calculation Method
    ,                         !- Design Level
    1,                        !- Power per Zone Floor Area
    ,                         !- Power per Person
    0,                        !- Fraction Latent
    0,                        !- Fraction Radiant
    0,                        !- Fraction Lost
    0,                        !- Carbon Dioxide Generation Rate
    EU_Step8_InternalGains;    !- EndUse Subcategory

OTHEREQUIPMENT,
    EU_Step8_InternalGain_19da1493f901936e_F3_dwelling_0_f000,    !- Name
    Electricity,              !- Fuel Type
    19da1493f901936e_F3_dwelling_0,    !- Zone or ZoneList or Space or SpaceList Name
    EU_Step8_GainSchedule_19da1493f901936e_F3_dwelling_0_f000,    !- Schedule Name
    Watts/Area,               !- Design Level Calculation Method
    ,                         !- Design Level
    1,                        !- Power per Zone Floor Area
    ,                         !- Power per Person
    0,                        !- Fraction Latent
    0,                        !- Fraction Radiant
    0,                        !- Fraction Lost
    0,                        !- Carbon Dioxide Generation Rate
    EU_Step8_InternalGains;    !- EndUse Subcategory

OTHEREQUIPMENT,
    EU_Step8_InternalGain_19da1493f901936e_F3_dwelling_1_f000,    !- Name
    Electricity,              !- Fuel Type
    19da1493f901936e_F3_dwelling_1,    !- Zone or ZoneList or Space or SpaceList Name
    EU_Step8_GainSchedule_19da1493f901936e_F3_dwelling_1_f000,    !- Schedule Name
    Watts/Area,               !- Design Level Calculation Method
    ,                         !- Design Level
    1,                        !- Power per Zone Floor Area
    ,                         !- Power per Person
    0,                        !- Fraction Latent
    0,                        !- Fraction Radiant
    0,                        !- Fraction Lost
    0,                        !- Carbon Dioxide Generation Rate
    EU_Step8_InternalGains;    !- EndUse Subcategory

OTHEREQUIPMENT,
    EU_Step8_InternalGain_19da1493f901936e_F4_dwelling_0_f000,    !- Name
    Electricity,              !- Fuel Type
    19da1493f901936e_F4_dwelling_0,    !- Zone or ZoneList or Space or SpaceList Name
    EU_Step8_GainSchedule_19da1493f901936e_F4_dwelling_0_f000,    !- Schedule Name
    Watts/Area,               !- Design Level Calculation Method
    ,                         !- Design Level
    1,                        !- Power per Zone Floor Area
    ,                         !- Power per Person
    0,                        !- Fraction Latent
    0,                        !- Fraction Radiant
    0,                        !- Fraction Lost
    0,                        !- Carbon Dioxide Generation Rate
    EU_Step8_InternalGains;    !- EndUse Subcategory

OTHEREQUIPMENT,
    EU_Step8_InternalGain_19da1493f901936e_F4_dwelling_1_f000,    !- Name
    Electricity,              !- Fuel Type
    19da1493f901936e_F4_dwelling_1,    !- Zone or ZoneList or Space or SpaceList Name
    EU_Step8_GainSchedule_19da1493f901936e_F4_dwelling_1_f000,    !- Schedule Name
    Watts/Area,               !- Design Level Calculation Method
    ,                         !- Design Level
    1,                        !- Power per Zone Floor Area
    ,                         !- Power per Person
    0,                        !- Fraction Latent
    0,                        !- Fraction Radiant
    0,                        !- Fraction Lost
    0,                        !- Carbon Dioxide Generation Rate
    EU_Step8_InternalGains;    !- EndUse Subcategory

OTHEREQUIPMENT,
    EU_Step8_InternalGain_19da1493f901936e_F5_dwelling_0_f000,    !- Name
    Electricity,              !- Fuel Type
    19da1493f901936e_F5_dwelling_0,    !- Zone or ZoneList or Space or SpaceList Name
    EU_Step8_GainSchedule_19da1493f901936e_F5_dwelling_0_f000,    !- Schedule Name
    Watts/Area,               !- Design Level Calculation Method
    ,                         !- Design Level
    1,                        !- Power per Zone Floor Area
    ,                         !- Power per Person
    0,                        !- Fraction Latent
    0,                        !- Fraction Radiant
    0,                        !- Fraction Lost
    0,                        !- Carbon Dioxide Generation Rate
    EU_Step8_InternalGains;    !- EndUse Subcategory

OTHEREQUIPMENT,
    EU_Step8_InternalGain_19da1493f901936e_F5_dwelling_1_f000,    !- Name
    Electricity,              !- Fuel Type
    19da1493f901936e_F5_dwelling_1,    !- Zone or ZoneList or Space or SpaceList Name
    EU_Step8_GainSchedule_19da1493f901936e_F5_dwelling_1_f000,    !- Schedule Name
    Watts/Area,               !- Design Level Calculation Method
    ,                         !- Design Level
    1,                        !- Power per Zone Floor Area
    ,                         !- Power per Person
    0,                        !- Fraction Latent
    0,                        !- Fraction Radiant
    0,                        !- Fraction Lost
    0,                        !- Carbon Dioxide Generation Rate
    EU_Step8_InternalGains;    !- EndUse Subcategory

OTHEREQUIPMENT,
    EU_Step8_InternalGain_19da1493f901936e_F6_dwelling_0_f000,    !- Name
    Electricity,              !- Fuel Type
    19da1493f901936e_F6_dwelling_0,    !- Zone or ZoneList or Space or SpaceList Name
    EU_Step8_GainSchedule_19da1493f901936e_F6_dwelling_0_f000,    !- Schedule Name
    Watts/Area,               !- Design Level Calculation Method
    ,                         !- Design Level
    1,                        !- Power per Zone Floor Area
    ,                         !- Power per Person
    0,                        !- Fraction Latent
    0,                        !- Fraction Radiant
    0,                        !- Fraction Lost
    0,                        !- Carbon Dioxide Generation Rate
    EU_Step8_InternalGains;    !- EndUse Subcategory

OTHEREQUIPMENT,
    EU_Step8_InternalGain_19da1493f901936e_F6_dwelling_1_f000,    !- Name
    Electricity,              !- Fuel Type
    19da1493f901936e_F6_dwelling_1,    !- Zone or ZoneList or Space or SpaceList Name
    EU_Step8_GainSchedule_19da1493f901936e_F6_dwelling_1_f000,    !- Schedule Name
    Watts/Area,               !- Design Level Calculation Method
    ,                         !- Design Level
    1,                        !- Power per Zone Floor Area
    ,                         !- Power per Person
    0,                        !- Fraction Latent
    0,                        !- Fraction Radiant
    0,                        !- Fraction Lost
    0,                        !- Carbon Dioxide Generation Rate
    EU_Step8_InternalGains;    !- EndUse Subcategory

OTHEREQUIPMENT,
    EU_Step8_InternalGain_19da1493f901936e_F7_dwelling_0_f000,    !- Name
    Electricity,              !- Fuel Type
    19da1493f901936e_F7_dwelling_0,    !- Zone or ZoneList or Space or SpaceList Name
    EU_Step8_GainSchedule_19da1493f901936e_F7_dwelling_0_f000,    !- Schedule Name
    Watts/Area,               !- Design Level Calculation Method
    ,                         !- Design Level
    1,                        !- Power per Zone Floor Area
    ,                         !- Power per Person
    0,                        !- Fraction Latent
    0,                        !- Fraction Radiant
    0,                        !- Fraction Lost
    0,                        !- Carbon Dioxide Generation Rate
    EU_Step8_InternalGains;    !- EndUse Subcategory

OTHEREQUIPMENT,
    EU_Step8_InternalGain_19da1493f901936e_F7_dwelling_1_f000,    !- Name
    Electricity,              !- Fuel Type
    19da1493f901936e_F7_dwelling_1,    !- Zone or ZoneList or Space or SpaceList Name
    EU_Step8_GainSchedule_19da1493f901936e_F7_dwelling_1_f000,    !- Schedule Name
    Watts/Area,               !- Design Level Calculation Method
    ,                         !- Design Level
    1,                        !- Power per Zone Floor Area
    ,                         !- Power per Person
    0,                        !- Fraction Latent
    0,                        !- Fraction Radiant
    0,                        !- Fraction Lost
    0,                        !- Carbon Dioxide Generation Rate
    EU_Step8_InternalGains;    !- EndUse Subcategory

ZONEVENTILATION:DESIGNFLOWRATE,
    EU_ConstantAir_19da1493f901936e_F0_dwelling_0,    !- Name
    19da1493f901936e_F0_dwelling_0,    !- Zone or ZoneList or Space or SpaceList Name
    EU_AlwaysOn,              !- Schedule Name
    AirChanges/Hour,          !- Design Flow Rate Calculation Method
    ,                         !- Design Flow Rate
    ,                         !- Flow Rate per Floor Area
    ,                         !- Flow Rate per Person
    0.7312898234710613,       !- Air Changes per Hour
    Natural,                  !- Ventilation Type
    0,                        !- Fan Pressure Rise
    1,                        !- Fan Total Efficiency
    1,                        !- Constant Term Coefficient
    0,                        !- Temperature Term Coefficient
    0,                        !- Velocity Term Coefficient
    0,                        !- Velocity Squared Term Coefficient
    -100,                     !- Minimum Indoor Temperature
    ,                         !- Minimum Indoor Temperature Schedule Name
    100,                      !- Maximum Indoor Temperature
    ,                         !- Maximum Indoor Temperature Schedule Name
    -100,                     !- Delta Temperature
    ,                         !- Delta Temperature Schedule Name
    -100,                     !- Minimum Outdoor Temperature
    ,                         !- Minimum Outdoor Temperature Schedule Name
    100,                      !- Maximum Outdoor Temperature
    ,                         !- Maximum Outdoor Temperature Schedule Name
    40;                       !- Maximum Wind Speed

ZONEVENTILATION:DESIGNFLOWRATE,
    EU_ConstantAir_19da1493f901936e_F0_dwelling_1,    !- Name
    19da1493f901936e_F0_dwelling_1,    !- Zone or ZoneList or Space or SpaceList Name
    EU_AlwaysOn,              !- Schedule Name
    AirChanges/Hour,          !- Design Flow Rate Calculation Method
    ,                         !- Design Flow Rate
    ,                         !- Flow Rate per Floor Area
    ,                         !- Flow Rate per Person
    0.7312898234710613,       !- Air Changes per Hour
    Natural,                  !- Ventilation Type
    0,                        !- Fan Pressure Rise
    1,                        !- Fan Total Efficiency
    1,                        !- Constant Term Coefficient
    0,                        !- Temperature Term Coefficient
    0,                        !- Velocity Term Coefficient
    0,                        !- Velocity Squared Term Coefficient
    -100,                     !- Minimum Indoor Temperature
    ,                         !- Minimum Indoor Temperature Schedule Name
    100,                      !- Maximum Indoor Temperature
    ,                         !- Maximum Indoor Temperature Schedule Name
    -100,                     !- Delta Temperature
    ,                         !- Delta Temperature Schedule Name
    -100,                     !- Minimum Outdoor Temperature
    ,                         !- Minimum Outdoor Temperature Schedule Name
    100,                      !- Maximum Outdoor Temperature
    ,                         !- Maximum Outdoor Temperature Schedule Name
    40;                       !- Maximum Wind Speed

ZONEVENTILATION:DESIGNFLOWRATE,
    EU_ConstantAir_19da1493f901936e_F1_dwelling_0,    !- Name
    19da1493f901936e_F1_dwelling_0,    !- Zone or ZoneList or Space or SpaceList Name
    EU_AlwaysOn,              !- Schedule Name
    AirChanges/Hour,          !- Design Flow Rate Calculation Method
    ,                         !- Design Flow Rate
    ,                         !- Flow Rate per Floor Area
    ,                         !- Flow Rate per Person
    0.7312898234710613,       !- Air Changes per Hour
    Natural,                  !- Ventilation Type
    0,                        !- Fan Pressure Rise
    1,                        !- Fan Total Efficiency
    1,                        !- Constant Term Coefficient
    0,                        !- Temperature Term Coefficient
    0,                        !- Velocity Term Coefficient
    0,                        !- Velocity Squared Term Coefficient
    -100,                     !- Minimum Indoor Temperature
    ,                         !- Minimum Indoor Temperature Schedule Name
    100,                      !- Maximum Indoor Temperature
    ,                         !- Maximum Indoor Temperature Schedule Name
    -100,                     !- Delta Temperature
    ,                         !- Delta Temperature Schedule Name
    -100,                     !- Minimum Outdoor Temperature
    ,                         !- Minimum Outdoor Temperature Schedule Name
    100,                      !- Maximum Outdoor Temperature
    ,                         !- Maximum Outdoor Temperature Schedule Name
    40;                       !- Maximum Wind Speed

ZONEVENTILATION:DESIGNFLOWRATE,
    EU_ConstantAir_19da1493f901936e_F1_dwelling_1,    !- Name
    19da1493f901936e_F1_dwelling_1,    !- Zone or ZoneList or Space or SpaceList Name
    EU_AlwaysOn,              !- Schedule Name
    AirChanges/Hour,          !- Design Flow Rate Calculation Method
    ,                         !- Design Flow Rate
    ,                         !- Flow Rate per Floor Area
    ,                         !- Flow Rate per Person
    0.7312898234710613,       !- Air Changes per Hour
    Natural,                  !- Ventilation Type
    0,                        !- Fan Pressure Rise
    1,                        !- Fan Total Efficiency
    1,                        !- Constant Term Coefficient
    0,                        !- Temperature Term Coefficient
    0,                        !- Velocity Term Coefficient
    0,                        !- Velocity Squared Term Coefficient
    -100,                     !- Minimum Indoor Temperature
    ,                         !- Minimum Indoor Temperature Schedule Name
    100,                      !- Maximum Indoor Temperature
    ,                         !- Maximum Indoor Temperature Schedule Name
    -100,                     !- Delta Temperature
    ,                         !- Delta Temperature Schedule Name
    -100,                     !- Minimum Outdoor Temperature
    ,                         !- Minimum Outdoor Temperature Schedule Name
    100,                      !- Maximum Outdoor Temperature
    ,                         !- Maximum Outdoor Temperature Schedule Name
    40;                       !- Maximum Wind Speed

ZONEVENTILATION:DESIGNFLOWRATE,
    EU_ConstantAir_19da1493f901936e_F2_dwelling_0,    !- Name
    19da1493f901936e_F2_dwelling_0,    !- Zone or ZoneList or Space or SpaceList Name
    EU_AlwaysOn,              !- Schedule Name
    AirChanges/Hour,          !- Design Flow Rate Calculation Method
    ,                         !- Design Flow Rate
    ,                         !- Flow Rate per Floor Area
    ,                         !- Flow Rate per Person
    0.7312898234710613,       !- Air Changes per Hour
    Natural,                  !- Ventilation Type
    0,                        !- Fan Pressure Rise
    1,                        !- Fan Total Efficiency
    1,                        !- Constant Term Coefficient
    0,                        !- Temperature Term Coefficient
    0,                        !- Velocity Term Coefficient
    0,                        !- Velocity Squared Term Coefficient
    -100,                     !- Minimum Indoor Temperature
    ,                         !- Minimum Indoor Temperature Schedule Name
    100,                      !- Maximum Indoor Temperature
    ,                         !- Maximum Indoor Temperature Schedule Name
    -100,                     !- Delta Temperature
    ,                         !- Delta Temperature Schedule Name
    -100,                     !- Minimum Outdoor Temperature
    ,                         !- Minimum Outdoor Temperature Schedule Name
    100,                      !- Maximum Outdoor Temperature
    ,                         !- Maximum Outdoor Temperature Schedule Name
    40;                       !- Maximum Wind Speed

ZONEVENTILATION:DESIGNFLOWRATE,
    EU_ConstantAir_19da1493f901936e_F2_dwelling_1,    !- Name
    19da1493f901936e_F2_dwelling_1,    !- Zone or ZoneList or Space or SpaceList Name
    EU_AlwaysOn,              !- Schedule Name
    AirChanges/Hour,          !- Design Flow Rate Calculation Method
    ,                         !- Design Flow Rate
    ,                         !- Flow Rate per Floor Area
    ,                         !- Flow Rate per Person
    0.7312898234710613,       !- Air Changes per Hour
    Natural,                  !- Ventilation Type
    0,                        !- Fan Pressure Rise
    1,                        !- Fan Total Efficiency
    1,                        !- Constant Term Coefficient
    0,                        !- Temperature Term Coefficient
    0,                        !- Velocity Term Coefficient
    0,                        !- Velocity Squared Term Coefficient
    -100,                     !- Minimum Indoor Temperature
    ,                         !- Minimum Indoor Temperature Schedule Name
    100,                      !- Maximum Indoor Temperature
    ,                         !- Maximum Indoor Temperature Schedule Name
    -100,                     !- Delta Temperature
    ,                         !- Delta Temperature Schedule Name
    -100,                     !- Minimum Outdoor Temperature
    ,                         !- Minimum Outdoor Temperature Schedule Name
    100,                      !- Maximum Outdoor Temperature
    ,                         !- Maximum Outdoor Temperature Schedule Name
    40;                       !- Maximum Wind Speed

ZONEVENTILATION:DESIGNFLOWRATE,
    EU_ConstantAir_19da1493f901936e_F3_dwelling_0,    !- Name
    19da1493f901936e_F3_dwelling_0,    !- Zone or ZoneList or Space or SpaceList Name
    EU_AlwaysOn,              !- Schedule Name
    AirChanges/Hour,          !- Design Flow Rate Calculation Method
    ,                         !- Design Flow Rate
    ,                         !- Flow Rate per Floor Area
    ,                         !- Flow Rate per Person
    0.7312898234710613,       !- Air Changes per Hour
    Natural,                  !- Ventilation Type
    0,                        !- Fan Pressure Rise
    1,                        !- Fan Total Efficiency
    1,                        !- Constant Term Coefficient
    0,                        !- Temperature Term Coefficient
    0,                        !- Velocity Term Coefficient
    0,                        !- Velocity Squared Term Coefficient
    -100,                     !- Minimum Indoor Temperature
    ,                         !- Minimum Indoor Temperature Schedule Name
    100,                      !- Maximum Indoor Temperature
    ,                         !- Maximum Indoor Temperature Schedule Name
    -100,                     !- Delta Temperature
    ,                         !- Delta Temperature Schedule Name
    -100,                     !- Minimum Outdoor Temperature
    ,                         !- Minimum Outdoor Temperature Schedule Name
    100,                      !- Maximum Outdoor Temperature
    ,                         !- Maximum Outdoor Temperature Schedule Name
    40;                       !- Maximum Wind Speed

ZONEVENTILATION:DESIGNFLOWRATE,
    EU_ConstantAir_19da1493f901936e_F3_dwelling_1,    !- Name
    19da1493f901936e_F3_dwelling_1,    !- Zone or ZoneList or Space or SpaceList Name
    EU_AlwaysOn,              !- Schedule Name
    AirChanges/Hour,          !- Design Flow Rate Calculation Method
    ,                         !- Design Flow Rate
    ,                         !- Flow Rate per Floor Area
    ,                         !- Flow Rate per Person
    0.7312898234710613,       !- Air Changes per Hour
    Natural,                  !- Ventilation Type
    0,                        !- Fan Pressure Rise
    1,                        !- Fan Total Efficiency
    1,                        !- Constant Term Coefficient
    0,                        !- Temperature Term Coefficient
    0,                        !- Velocity Term Coefficient
    0,                        !- Velocity Squared Term Coefficient
    -100,                     !- Minimum Indoor Temperature
    ,                         !- Minimum Indoor Temperature Schedule Name
    100,                      !- Maximum Indoor Temperature
    ,                         !- Maximum Indoor Temperature Schedule Name
    -100,                     !- Delta Temperature
    ,                         !- Delta Temperature Schedule Name
    -100,                     !- Minimum Outdoor Temperature
    ,                         !- Minimum Outdoor Temperature Schedule Name
    100,                      !- Maximum Outdoor Temperature
    ,                         !- Maximum Outdoor Temperature Schedule Name
    40;                       !- Maximum Wind Speed

ZONEVENTILATION:DESIGNFLOWRATE,
    EU_ConstantAir_19da1493f901936e_F4_dwelling_0,    !- Name
    19da1493f901936e_F4_dwelling_0,    !- Zone or ZoneList or Space or SpaceList Name
    EU_AlwaysOn,              !- Schedule Name
    AirChanges/Hour,          !- Design Flow Rate Calculation Method
    ,                         !- Design Flow Rate
    ,                         !- Flow Rate per Floor Area
    ,                         !- Flow Rate per Person
    0.7312898234710613,       !- Air Changes per Hour
    Natural,                  !- Ventilation Type
    0,                        !- Fan Pressure Rise
    1,                        !- Fan Total Efficiency
    1,                        !- Constant Term Coefficient
    0,                        !- Temperature Term Coefficient
    0,                        !- Velocity Term Coefficient
    0,                        !- Velocity Squared Term Coefficient
    -100,                     !- Minimum Indoor Temperature
    ,                         !- Minimum Indoor Temperature Schedule Name
    100,                      !- Maximum Indoor Temperature
    ,                         !- Maximum Indoor Temperature Schedule Name
    -100,                     !- Delta Temperature
    ,                         !- Delta Temperature Schedule Name
    -100,                     !- Minimum Outdoor Temperature
    ,                         !- Minimum Outdoor Temperature Schedule Name
    100,                      !- Maximum Outdoor Temperature
    ,                         !- Maximum Outdoor Temperature Schedule Name
    40;                       !- Maximum Wind Speed

ZONEVENTILATION:DESIGNFLOWRATE,
    EU_ConstantAir_19da1493f901936e_F4_dwelling_1,    !- Name
    19da1493f901936e_F4_dwelling_1,    !- Zone or ZoneList or Space or SpaceList Name
    EU_AlwaysOn,              !- Schedule Name
    AirChanges/Hour,          !- Design Flow Rate Calculation Method
    ,                         !- Design Flow Rate
    ,                         !- Flow Rate per Floor Area
    ,                         !- Flow Rate per Person
    0.7312898234710613,       !- Air Changes per Hour
    Natural,                  !- Ventilation Type
    0,                        !- Fan Pressure Rise
    1,                        !- Fan Total Efficiency
    1,                        !- Constant Term Coefficient
    0,                        !- Temperature Term Coefficient
    0,                        !- Velocity Term Coefficient
    0,                        !- Velocity Squared Term Coefficient
    -100,                     !- Minimum Indoor Temperature
    ,                         !- Minimum Indoor Temperature Schedule Name
    100,                      !- Maximum Indoor Temperature
    ,                         !- Maximum Indoor Temperature Schedule Name
    -100,                     !- Delta Temperature
    ,                         !- Delta Temperature Schedule Name
    -100,                     !- Minimum Outdoor Temperature
    ,                         !- Minimum Outdoor Temperature Schedule Name
    100,                      !- Maximum Outdoor Temperature
    ,                         !- Maximum Outdoor Temperature Schedule Name
    40;                       !- Maximum Wind Speed

ZONEVENTILATION:DESIGNFLOWRATE,
    EU_ConstantAir_19da1493f901936e_F5_dwelling_0,    !- Name
    19da1493f901936e_F5_dwelling_0,    !- Zone or ZoneList or Space or SpaceList Name
    EU_AlwaysOn,              !- Schedule Name
    AirChanges/Hour,          !- Design Flow Rate Calculation Method
    ,                         !- Design Flow Rate
    ,                         !- Flow Rate per Floor Area
    ,                         !- Flow Rate per Person
    0.7312898234710613,       !- Air Changes per Hour
    Natural,                  !- Ventilation Type
    0,                        !- Fan Pressure Rise
    1,                        !- Fan Total Efficiency
    1,                        !- Constant Term Coefficient
    0,                        !- Temperature Term Coefficient
    0,                        !- Velocity Term Coefficient
    0,                        !- Velocity Squared Term Coefficient
    -100,                     !- Minimum Indoor Temperature
    ,                         !- Minimum Indoor Temperature Schedule Name
    100,                      !- Maximum Indoor Temperature
    ,                         !- Maximum Indoor Temperature Schedule Name
    -100,                     !- Delta Temperature
    ,                         !- Delta Temperature Schedule Name
    -100,                     !- Minimum Outdoor Temperature
    ,                         !- Minimum Outdoor Temperature Schedule Name
    100,                      !- Maximum Outdoor Temperature
    ,                         !- Maximum Outdoor Temperature Schedule Name
    40;                       !- Maximum Wind Speed

ZONEVENTILATION:DESIGNFLOWRATE,
    EU_ConstantAir_19da1493f901936e_F5_dwelling_1,    !- Name
    19da1493f901936e_F5_dwelling_1,    !- Zone or ZoneList or Space or SpaceList Name
    EU_AlwaysOn,              !- Schedule Name
    AirChanges/Hour,          !- Design Flow Rate Calculation Method
    ,                         !- Design Flow Rate
    ,                         !- Flow Rate per Floor Area
    ,                         !- Flow Rate per Person
    0.7312898234710613,       !- Air Changes per Hour
    Natural,                  !- Ventilation Type
    0,                        !- Fan Pressure Rise
    1,                        !- Fan Total Efficiency
    1,                        !- Constant Term Coefficient
    0,                        !- Temperature Term Coefficient
    0,                        !- Velocity Term Coefficient
    0,                        !- Velocity Squared Term Coefficient
    -100,                     !- Minimum Indoor Temperature
    ,                         !- Minimum Indoor Temperature Schedule Name
    100,                      !- Maximum Indoor Temperature
    ,                         !- Maximum Indoor Temperature Schedule Name
    -100,                     !- Delta Temperature
    ,                         !- Delta Temperature Schedule Name
    -100,                     !- Minimum Outdoor Temperature
    ,                         !- Minimum Outdoor Temperature Schedule Name
    100,                      !- Maximum Outdoor Temperature
    ,                         !- Maximum Outdoor Temperature Schedule Name
    40;                       !- Maximum Wind Speed

ZONEVENTILATION:DESIGNFLOWRATE,
    EU_ConstantAir_19da1493f901936e_F6_dwelling_0,    !- Name
    19da1493f901936e_F6_dwelling_0,    !- Zone or ZoneList or Space or SpaceList Name
    EU_AlwaysOn,              !- Schedule Name
    AirChanges/Hour,          !- Design Flow Rate Calculation Method
    ,                         !- Design Flow Rate
    ,                         !- Flow Rate per Floor Area
    ,                         !- Flow Rate per Person
    0.7312898234710613,       !- Air Changes per Hour
    Natural,                  !- Ventilation Type
    0,                        !- Fan Pressure Rise
    1,                        !- Fan Total Efficiency
    1,                        !- Constant Term Coefficient
    0,                        !- Temperature Term Coefficient
    0,                        !- Velocity Term Coefficient
    0,                        !- Velocity Squared Term Coefficient
    -100,                     !- Minimum Indoor Temperature
    ,                         !- Minimum Indoor Temperature Schedule Name
    100,                      !- Maximum Indoor Temperature
    ,                         !- Maximum Indoor Temperature Schedule Name
    -100,                     !- Delta Temperature
    ,                         !- Delta Temperature Schedule Name
    -100,                     !- Minimum Outdoor Temperature
    ,                         !- Minimum Outdoor Temperature Schedule Name
    100,                      !- Maximum Outdoor Temperature
    ,                         !- Maximum Outdoor Temperature Schedule Name
    40;                       !- Maximum Wind Speed

ZONEVENTILATION:DESIGNFLOWRATE,
    EU_ConstantAir_19da1493f901936e_F6_dwelling_1,    !- Name
    19da1493f901936e_F6_dwelling_1,    !- Zone or ZoneList or Space or SpaceList Name
    EU_AlwaysOn,              !- Schedule Name
    AirChanges/Hour,          !- Design Flow Rate Calculation Method
    ,                         !- Design Flow Rate
    ,                         !- Flow Rate per Floor Area
    ,                         !- Flow Rate per Person
    0.7312898234710613,       !- Air Changes per Hour
    Natural,                  !- Ventilation Type
    0,                        !- Fan Pressure Rise
    1,                        !- Fan Total Efficiency
    1,                        !- Constant Term Coefficient
    0,                        !- Temperature Term Coefficient
    0,                        !- Velocity Term Coefficient
    0,                        !- Velocity Squared Term Coefficient
    -100,                     !- Minimum Indoor Temperature
    ,                         !- Minimum Indoor Temperature Schedule Name
    100,                      !- Maximum Indoor Temperature
    ,                         !- Maximum Indoor Temperature Schedule Name
    -100,                     !- Delta Temperature
    ,                         !- Delta Temperature Schedule Name
    -100,                     !- Minimum Outdoor Temperature
    ,                         !- Minimum Outdoor Temperature Schedule Name
    100,                      !- Maximum Outdoor Temperature
    ,                         !- Maximum Outdoor Temperature Schedule Name
    40;                       !- Maximum Wind Speed

ZONEVENTILATION:DESIGNFLOWRATE,
    EU_ConstantAir_19da1493f901936e_F7_dwelling_0,    !- Name
    19da1493f901936e_F7_dwelling_0,    !- Zone or ZoneList or Space or SpaceList Name
    EU_AlwaysOn,              !- Schedule Name
    AirChanges/Hour,          !- Design Flow Rate Calculation Method
    ,                         !- Design Flow Rate
    ,                         !- Flow Rate per Floor Area
    ,                         !- Flow Rate per Person
    0.7312898234710613,       !- Air Changes per Hour
    Natural,                  !- Ventilation Type
    0,                        !- Fan Pressure Rise
    1,                        !- Fan Total Efficiency
    1,                        !- Constant Term Coefficient
    0,                        !- Temperature Term Coefficient
    0,                        !- Velocity Term Coefficient
    0,                        !- Velocity Squared Term Coefficient
    -100,                     !- Minimum Indoor Temperature
    ,                         !- Minimum Indoor Temperature Schedule Name
    100,                      !- Maximum Indoor Temperature
    ,                         !- Maximum Indoor Temperature Schedule Name
    -100,                     !- Delta Temperature
    ,                         !- Delta Temperature Schedule Name
    -100,                     !- Minimum Outdoor Temperature
    ,                         !- Minimum Outdoor Temperature Schedule Name
    100,                      !- Maximum Outdoor Temperature
    ,                         !- Maximum Outdoor Temperature Schedule Name
    40;                       !- Maximum Wind Speed

ZONEVENTILATION:DESIGNFLOWRATE,
    EU_ConstantAir_19da1493f901936e_F7_dwelling_1,    !- Name
    19da1493f901936e_F7_dwelling_1,    !- Zone or ZoneList or Space or SpaceList Name
    EU_AlwaysOn,              !- Schedule Name
    AirChanges/Hour,          !- Design Flow Rate Calculation Method
    ,                         !- Design Flow Rate
    ,                         !- Flow Rate per Floor Area
    ,                         !- Flow Rate per Person
    0.7312898234710613,       !- Air Changes per Hour
    Natural,                  !- Ventilation Type
    0,                        !- Fan Pressure Rise
    1,                        !- Fan Total Efficiency
    1,                        !- Constant Term Coefficient
    0,                        !- Temperature Term Coefficient
    0,                        !- Velocity Term Coefficient
    0,                        !- Velocity Squared Term Coefficient
    -100,                     !- Minimum Indoor Temperature
    ,                         !- Minimum Indoor Temperature Schedule Name
    100,                      !- Maximum Indoor Temperature
    ,                         !- Maximum Indoor Temperature Schedule Name
    -100,                     !- Delta Temperature
    ,                         !- Delta Temperature Schedule Name
    -100,                     !- Minimum Outdoor Temperature
    ,                         !- Minimum Outdoor Temperature Schedule Name
    100,                      !- Maximum Outdoor Temperature
    ,                         !- Maximum Outdoor Temperature Schedule Name
    40;                       !- Maximum Wind Speed

HVACTEMPLATE:THERMOSTAT,
    EU_HeatOnly_19da1493f901936e_F0_dwelling_0,    !- Name
    ,                         !- Heating Setpoint Schedule Name
    20,                       !- Constant Heating Setpoint
    ,                         !- Cooling Setpoint Schedule Name
    50;                       !- Constant Cooling Setpoint

HVACTEMPLATE:THERMOSTAT,
    EU_HeatOnly_19da1493f901936e_F0_dwelling_1,    !- Name
    ,                         !- Heating Setpoint Schedule Name
    20,                       !- Constant Heating Setpoint
    ,                         !- Cooling Setpoint Schedule Name
    50;                       !- Constant Cooling Setpoint

HVACTEMPLATE:THERMOSTAT,
    EU_HeatOnly_19da1493f901936e_F1_dwelling_0,    !- Name
    ,                         !- Heating Setpoint Schedule Name
    20,                       !- Constant Heating Setpoint
    ,                         !- Cooling Setpoint Schedule Name
    50;                       !- Constant Cooling Setpoint

HVACTEMPLATE:THERMOSTAT,
    EU_HeatOnly_19da1493f901936e_F1_dwelling_1,    !- Name
    ,                         !- Heating Setpoint Schedule Name
    20,                       !- Constant Heating Setpoint
    ,                         !- Cooling Setpoint Schedule Name
    50;                       !- Constant Cooling Setpoint

HVACTEMPLATE:THERMOSTAT,
    EU_HeatOnly_19da1493f901936e_F2_dwelling_0,    !- Name
    ,                         !- Heating Setpoint Schedule Name
    20,                       !- Constant Heating Setpoint
    ,                         !- Cooling Setpoint Schedule Name
    50;                       !- Constant Cooling Setpoint

HVACTEMPLATE:THERMOSTAT,
    EU_HeatOnly_19da1493f901936e_F2_dwelling_1,    !- Name
    ,                         !- Heating Setpoint Schedule Name
    20,                       !- Constant Heating Setpoint
    ,                         !- Cooling Setpoint Schedule Name
    50;                       !- Constant Cooling Setpoint

HVACTEMPLATE:THERMOSTAT,
    EU_HeatOnly_19da1493f901936e_F3_dwelling_0,    !- Name
    ,                         !- Heating Setpoint Schedule Name
    20,                       !- Constant Heating Setpoint
    ,                         !- Cooling Setpoint Schedule Name
    50;                       !- Constant Cooling Setpoint

HVACTEMPLATE:THERMOSTAT,
    EU_HeatOnly_19da1493f901936e_F3_dwelling_1,    !- Name
    ,                         !- Heating Setpoint Schedule Name
    20,                       !- Constant Heating Setpoint
    ,                         !- Cooling Setpoint Schedule Name
    50;                       !- Constant Cooling Setpoint

HVACTEMPLATE:THERMOSTAT,
    EU_HeatOnly_19da1493f901936e_F4_dwelling_0,    !- Name
    ,                         !- Heating Setpoint Schedule Name
    20,                       !- Constant Heating Setpoint
    ,                         !- Cooling Setpoint Schedule Name
    50;                       !- Constant Cooling Setpoint

HVACTEMPLATE:THERMOSTAT,
    EU_HeatOnly_19da1493f901936e_F4_dwelling_1,    !- Name
    ,                         !- Heating Setpoint Schedule Name
    20,                       !- Constant Heating Setpoint
    ,                         !- Cooling Setpoint Schedule Name
    50;                       !- Constant Cooling Setpoint

HVACTEMPLATE:THERMOSTAT,
    EU_HeatOnly_19da1493f901936e_F5_dwelling_0,    !- Name
    ,                         !- Heating Setpoint Schedule Name
    20,                       !- Constant Heating Setpoint
    ,                         !- Cooling Setpoint Schedule Name
    50;                       !- Constant Cooling Setpoint

HVACTEMPLATE:THERMOSTAT,
    EU_HeatOnly_19da1493f901936e_F5_dwelling_1,    !- Name
    ,                         !- Heating Setpoint Schedule Name
    20,                       !- Constant Heating Setpoint
    ,                         !- Cooling Setpoint Schedule Name
    50;                       !- Constant Cooling Setpoint

HVACTEMPLATE:THERMOSTAT,
    EU_HeatOnly_19da1493f901936e_F6_dwelling_0,    !- Name
    ,                         !- Heating Setpoint Schedule Name
    20,                       !- Constant Heating Setpoint
    ,                         !- Cooling Setpoint Schedule Name
    50;                       !- Constant Cooling Setpoint

HVACTEMPLATE:THERMOSTAT,
    EU_HeatOnly_19da1493f901936e_F6_dwelling_1,    !- Name
    ,                         !- Heating Setpoint Schedule Name
    20,                       !- Constant Heating Setpoint
    ,                         !- Cooling Setpoint Schedule Name
    50;                       !- Constant Cooling Setpoint

HVACTEMPLATE:THERMOSTAT,
    EU_HeatOnly_19da1493f901936e_F7_dwelling_0,    !- Name
    ,                         !- Heating Setpoint Schedule Name
    20,                       !- Constant Heating Setpoint
    ,                         !- Cooling Setpoint Schedule Name
    50;                       !- Constant Cooling Setpoint

HVACTEMPLATE:THERMOSTAT,
    EU_HeatOnly_19da1493f901936e_F7_dwelling_1,    !- Name
    ,                         !- Heating Setpoint Schedule Name
    20,                       !- Constant Heating Setpoint
    ,                         !- Cooling Setpoint Schedule Name
    50;                       !- Constant Cooling Setpoint

HVACTEMPLATE:ZONE:IDEALLOADSAIRSYSTEM,
    19da1493f901936e_F0_dwelling_0,    !- Zone Name
    EU_HeatOnly_19da1493f901936e_F0_dwelling_0,    !- Template Thermostat Name
    EU_AlwaysOn,              !- System Availability Schedule Name
    50,                       !- Maximum Heating Supply Air Temperature
    13,                       !- Minimum Cooling Supply Air Temperature
    0.0156,                   !- Maximum Heating Supply Air Humidity Ratio
    0.0077,                   !- Minimum Cooling Supply Air Humidity Ratio
    NoLimit,                  !- Heating Limit
    ,                         !- Maximum Heating Air Flow Rate
    ,                         !- Maximum Sensible Heating Capacity
    NoLimit,                  !- Cooling Limit
    ,                         !- Maximum Cooling Air Flow Rate
    ,                         !- Maximum Total Cooling Capacity
    EU_AlwaysOn,              !- Heating Availability Schedule Name
    EU_CoolingOff,            !- Cooling Availability Schedule Name
    ConstantSensibleHeatRatio,    !- Dehumidification Control Type
    0.7,                      !- Cooling Sensible Heat Ratio
    60,                       !- Dehumidification Setpoint
    None,                     !- Humidification Control Type
    30,                       !- Humidification Setpoint
    None,                     !- Outdoor Air Method
    0.00944,                  !- Outdoor Air Flow Rate per Person
    0.0,                      !- Outdoor Air Flow Rate per Zone Floor Area
    0,                        !- Outdoor Air Flow Rate per Zone
    ,                         !- Design Specification Outdoor Air Object Name
    None,                     !- Demand Controlled Ventilation Type
    NoEconomizer,             !- Outdoor Air Economizer Type
    None,                     !- Heat Recovery Type
    0.70,                     !- Sensible Heat Recovery Effectiveness
    0.65;                     !- Latent Heat Recovery Effectiveness

HVACTEMPLATE:ZONE:IDEALLOADSAIRSYSTEM,
    19da1493f901936e_F0_dwelling_1,    !- Zone Name
    EU_HeatOnly_19da1493f901936e_F0_dwelling_1,    !- Template Thermostat Name
    EU_AlwaysOn,              !- System Availability Schedule Name
    50,                       !- Maximum Heating Supply Air Temperature
    13,                       !- Minimum Cooling Supply Air Temperature
    0.0156,                   !- Maximum Heating Supply Air Humidity Ratio
    0.0077,                   !- Minimum Cooling Supply Air Humidity Ratio
    NoLimit,                  !- Heating Limit
    ,                         !- Maximum Heating Air Flow Rate
    ,                         !- Maximum Sensible Heating Capacity
    NoLimit,                  !- Cooling Limit
    ,                         !- Maximum Cooling Air Flow Rate
    ,                         !- Maximum Total Cooling Capacity
    EU_AlwaysOn,              !- Heating Availability Schedule Name
    EU_CoolingOff,            !- Cooling Availability Schedule Name
    ConstantSensibleHeatRatio,    !- Dehumidification Control Type
    0.7,                      !- Cooling Sensible Heat Ratio
    60,                       !- Dehumidification Setpoint
    None,                     !- Humidification Control Type
    30,                       !- Humidification Setpoint
    None,                     !- Outdoor Air Method
    0.00944,                  !- Outdoor Air Flow Rate per Person
    0.0,                      !- Outdoor Air Flow Rate per Zone Floor Area
    0,                        !- Outdoor Air Flow Rate per Zone
    ,                         !- Design Specification Outdoor Air Object Name
    None,                     !- Demand Controlled Ventilation Type
    NoEconomizer,             !- Outdoor Air Economizer Type
    None,                     !- Heat Recovery Type
    0.70,                     !- Sensible Heat Recovery Effectiveness
    0.65;                     !- Latent Heat Recovery Effectiveness

HVACTEMPLATE:ZONE:IDEALLOADSAIRSYSTEM,
    19da1493f901936e_F1_dwelling_0,    !- Zone Name
    EU_HeatOnly_19da1493f901936e_F1_dwelling_0,    !- Template Thermostat Name
    EU_AlwaysOn,              !- System Availability Schedule Name
    50,                       !- Maximum Heating Supply Air Temperature
    13,                       !- Minimum Cooling Supply Air Temperature
    0.0156,                   !- Maximum Heating Supply Air Humidity Ratio
    0.0077,                   !- Minimum Cooling Supply Air Humidity Ratio
    NoLimit,                  !- Heating Limit
    ,                         !- Maximum Heating Air Flow Rate
    ,                         !- Maximum Sensible Heating Capacity
    NoLimit,                  !- Cooling Limit
    ,                         !- Maximum Cooling Air Flow Rate
    ,                         !- Maximum Total Cooling Capacity
    EU_AlwaysOn,              !- Heating Availability Schedule Name
    EU_CoolingOff,            !- Cooling Availability Schedule Name
    ConstantSensibleHeatRatio,    !- Dehumidification Control Type
    0.7,                      !- Cooling Sensible Heat Ratio
    60,                       !- Dehumidification Setpoint
    None,                     !- Humidification Control Type
    30,                       !- Humidification Setpoint
    None,                     !- Outdoor Air Method
    0.00944,                  !- Outdoor Air Flow Rate per Person
    0.0,                      !- Outdoor Air Flow Rate per Zone Floor Area
    0,                        !- Outdoor Air Flow Rate per Zone
    ,                         !- Design Specification Outdoor Air Object Name
    None,                     !- Demand Controlled Ventilation Type
    NoEconomizer,             !- Outdoor Air Economizer Type
    None,                     !- Heat Recovery Type
    0.70,                     !- Sensible Heat Recovery Effectiveness
    0.65;                     !- Latent Heat Recovery Effectiveness

HVACTEMPLATE:ZONE:IDEALLOADSAIRSYSTEM,
    19da1493f901936e_F1_dwelling_1,    !- Zone Name
    EU_HeatOnly_19da1493f901936e_F1_dwelling_1,    !- Template Thermostat Name
    EU_AlwaysOn,              !- System Availability Schedule Name
    50,                       !- Maximum Heating Supply Air Temperature
    13,                       !- Minimum Cooling Supply Air Temperature
    0.0156,                   !- Maximum Heating Supply Air Humidity Ratio
    0.0077,                   !- Minimum Cooling Supply Air Humidity Ratio
    NoLimit,                  !- Heating Limit
    ,                         !- Maximum Heating Air Flow Rate
    ,                         !- Maximum Sensible Heating Capacity
    NoLimit,                  !- Cooling Limit
    ,                         !- Maximum Cooling Air Flow Rate
    ,                         !- Maximum Total Cooling Capacity
    EU_AlwaysOn,              !- Heating Availability Schedule Name
    EU_CoolingOff,            !- Cooling Availability Schedule Name
    ConstantSensibleHeatRatio,    !- Dehumidification Control Type
    0.7,                      !- Cooling Sensible Heat Ratio
    60,                       !- Dehumidification Setpoint
    None,                     !- Humidification Control Type
    30,                       !- Humidification Setpoint
    None,                     !- Outdoor Air Method
    0.00944,                  !- Outdoor Air Flow Rate per Person
    0.0,                      !- Outdoor Air Flow Rate per Zone Floor Area
    0,                        !- Outdoor Air Flow Rate per Zone
    ,                         !- Design Specification Outdoor Air Object Name
    None,                     !- Demand Controlled Ventilation Type
    NoEconomizer,             !- Outdoor Air Economizer Type
    None,                     !- Heat Recovery Type
    0.70,                     !- Sensible Heat Recovery Effectiveness
    0.65;                     !- Latent Heat Recovery Effectiveness

HVACTEMPLATE:ZONE:IDEALLOADSAIRSYSTEM,
    19da1493f901936e_F2_dwelling_0,    !- Zone Name
    EU_HeatOnly_19da1493f901936e_F2_dwelling_0,    !- Template Thermostat Name
    EU_AlwaysOn,              !- System Availability Schedule Name
    50,                       !- Maximum Heating Supply Air Temperature
    13,                       !- Minimum Cooling Supply Air Temperature
    0.0156,                   !- Maximum Heating Supply Air Humidity Ratio
    0.0077,                   !- Minimum Cooling Supply Air Humidity Ratio
    NoLimit,                  !- Heating Limit
    ,                         !- Maximum Heating Air Flow Rate
    ,                         !- Maximum Sensible Heating Capacity
    NoLimit,                  !- Cooling Limit
    ,                         !- Maximum Cooling Air Flow Rate
    ,                         !- Maximum Total Cooling Capacity
    EU_AlwaysOn,              !- Heating Availability Schedule Name
    EU_CoolingOff,            !- Cooling Availability Schedule Name
    ConstantSensibleHeatRatio,    !- Dehumidification Control Type
    0.7,                      !- Cooling Sensible Heat Ratio
    60,                       !- Dehumidification Setpoint
    None,                     !- Humidification Control Type
    30,                       !- Humidification Setpoint
    None,                     !- Outdoor Air Method
    0.00944,                  !- Outdoor Air Flow Rate per Person
    0.0,                      !- Outdoor Air Flow Rate per Zone Floor Area
    0,                        !- Outdoor Air Flow Rate per Zone
    ,                         !- Design Specification Outdoor Air Object Name
    None,                     !- Demand Controlled Ventilation Type
    NoEconomizer,             !- Outdoor Air Economizer Type
    None,                     !- Heat Recovery Type
    0.70,                     !- Sensible Heat Recovery Effectiveness
    0.65;                     !- Latent Heat Recovery Effectiveness

HVACTEMPLATE:ZONE:IDEALLOADSAIRSYSTEM,
    19da1493f901936e_F2_dwelling_1,    !- Zone Name
    EU_HeatOnly_19da1493f901936e_F2_dwelling_1,    !- Template Thermostat Name
    EU_AlwaysOn,              !- System Availability Schedule Name
    50,                       !- Maximum Heating Supply Air Temperature
    13,                       !- Minimum Cooling Supply Air Temperature
    0.0156,                   !- Maximum Heating Supply Air Humidity Ratio
    0.0077,                   !- Minimum Cooling Supply Air Humidity Ratio
    NoLimit,                  !- Heating Limit
    ,                         !- Maximum Heating Air Flow Rate
    ,                         !- Maximum Sensible Heating Capacity
    NoLimit,                  !- Cooling Limit
    ,                         !- Maximum Cooling Air Flow Rate
    ,                         !- Maximum Total Cooling Capacity
    EU_AlwaysOn,              !- Heating Availability Schedule Name
    EU_CoolingOff,            !- Cooling Availability Schedule Name
    ConstantSensibleHeatRatio,    !- Dehumidification Control Type
    0.7,                      !- Cooling Sensible Heat Ratio
    60,                       !- Dehumidification Setpoint
    None,                     !- Humidification Control Type
    30,                       !- Humidification Setpoint
    None,                     !- Outdoor Air Method
    0.00944,                  !- Outdoor Air Flow Rate per Person
    0.0,                      !- Outdoor Air Flow Rate per Zone Floor Area
    0,                        !- Outdoor Air Flow Rate per Zone
    ,                         !- Design Specification Outdoor Air Object Name
    None,                     !- Demand Controlled Ventilation Type
    NoEconomizer,             !- Outdoor Air Economizer Type
    None,                     !- Heat Recovery Type
    0.70,                     !- Sensible Heat Recovery Effectiveness
    0.65;                     !- Latent Heat Recovery Effectiveness

HVACTEMPLATE:ZONE:IDEALLOADSAIRSYSTEM,
    19da1493f901936e_F3_dwelling_0,    !- Zone Name
    EU_HeatOnly_19da1493f901936e_F3_dwelling_0,    !- Template Thermostat Name
    EU_AlwaysOn,              !- System Availability Schedule Name
    50,                       !- Maximum Heating Supply Air Temperature
    13,                       !- Minimum Cooling Supply Air Temperature
    0.0156,                   !- Maximum Heating Supply Air Humidity Ratio
    0.0077,                   !- Minimum Cooling Supply Air Humidity Ratio
    NoLimit,                  !- Heating Limit
    ,                         !- Maximum Heating Air Flow Rate
    ,                         !- Maximum Sensible Heating Capacity
    NoLimit,                  !- Cooling Limit
    ,                         !- Maximum Cooling Air Flow Rate
    ,                         !- Maximum Total Cooling Capacity
    EU_AlwaysOn,              !- Heating Availability Schedule Name
    EU_CoolingOff,            !- Cooling Availability Schedule Name
    ConstantSensibleHeatRatio,    !- Dehumidification Control Type
    0.7,                      !- Cooling Sensible Heat Ratio
    60,                       !- Dehumidification Setpoint
    None,                     !- Humidification Control Type
    30,                       !- Humidification Setpoint
    None,                     !- Outdoor Air Method
    0.00944,                  !- Outdoor Air Flow Rate per Person
    0.0,                      !- Outdoor Air Flow Rate per Zone Floor Area
    0,                        !- Outdoor Air Flow Rate per Zone
    ,                         !- Design Specification Outdoor Air Object Name
    None,                     !- Demand Controlled Ventilation Type
    NoEconomizer,             !- Outdoor Air Economizer Type
    None,                     !- Heat Recovery Type
    0.70,                     !- Sensible Heat Recovery Effectiveness
    0.65;                     !- Latent Heat Recovery Effectiveness

HVACTEMPLATE:ZONE:IDEALLOADSAIRSYSTEM,
    19da1493f901936e_F3_dwelling_1,    !- Zone Name
    EU_HeatOnly_19da1493f901936e_F3_dwelling_1,    !- Template Thermostat Name
    EU_AlwaysOn,              !- System Availability Schedule Name
    50,                       !- Maximum Heating Supply Air Temperature
    13,                       !- Minimum Cooling Supply Air Temperature
    0.0156,                   !- Maximum Heating Supply Air Humidity Ratio
    0.0077,                   !- Minimum Cooling Supply Air Humidity Ratio
    NoLimit,                  !- Heating Limit
    ,                         !- Maximum Heating Air Flow Rate
    ,                         !- Maximum Sensible Heating Capacity
    NoLimit,                  !- Cooling Limit
    ,                         !- Maximum Cooling Air Flow Rate
    ,                         !- Maximum Total Cooling Capacity
    EU_AlwaysOn,              !- Heating Availability Schedule Name
    EU_CoolingOff,            !- Cooling Availability Schedule Name
    ConstantSensibleHeatRatio,    !- Dehumidification Control Type
    0.7,                      !- Cooling Sensible Heat Ratio
    60,                       !- Dehumidification Setpoint
    None,                     !- Humidification Control Type
    30,                       !- Humidification Setpoint
    None,                     !- Outdoor Air Method
    0.00944,                  !- Outdoor Air Flow Rate per Person
    0.0,                      !- Outdoor Air Flow Rate per Zone Floor Area
    0,                        !- Outdoor Air Flow Rate per Zone
    ,                         !- Design Specification Outdoor Air Object Name
    None,                     !- Demand Controlled Ventilation Type
    NoEconomizer,             !- Outdoor Air Economizer Type
    None,                     !- Heat Recovery Type
    0.70,                     !- Sensible Heat Recovery Effectiveness
    0.65;                     !- Latent Heat Recovery Effectiveness

HVACTEMPLATE:ZONE:IDEALLOADSAIRSYSTEM,
    19da1493f901936e_F4_dwelling_0,    !- Zone Name
    EU_HeatOnly_19da1493f901936e_F4_dwelling_0,    !- Template Thermostat Name
    EU_AlwaysOn,              !- System Availability Schedule Name
    50,                       !- Maximum Heating Supply Air Temperature
    13,                       !- Minimum Cooling Supply Air Temperature
    0.0156,                   !- Maximum Heating Supply Air Humidity Ratio
    0.0077,                   !- Minimum Cooling Supply Air Humidity Ratio
    NoLimit,                  !- Heating Limit
    ,                         !- Maximum Heating Air Flow Rate
    ,                         !- Maximum Sensible Heating Capacity
    NoLimit,                  !- Cooling Limit
    ,                         !- Maximum Cooling Air Flow Rate
    ,                         !- Maximum Total Cooling Capacity
    EU_AlwaysOn,              !- Heating Availability Schedule Name
    EU_CoolingOff,            !- Cooling Availability Schedule Name
    ConstantSensibleHeatRatio,    !- Dehumidification Control Type
    0.7,                      !- Cooling Sensible Heat Ratio
    60,                       !- Dehumidification Setpoint
    None,                     !- Humidification Control Type
    30,                       !- Humidification Setpoint
    None,                     !- Outdoor Air Method
    0.00944,                  !- Outdoor Air Flow Rate per Person
    0.0,                      !- Outdoor Air Flow Rate per Zone Floor Area
    0,                        !- Outdoor Air Flow Rate per Zone
    ,                         !- Design Specification Outdoor Air Object Name
    None,                     !- Demand Controlled Ventilation Type
    NoEconomizer,             !- Outdoor Air Economizer Type
    None,                     !- Heat Recovery Type
    0.70,                     !- Sensible Heat Recovery Effectiveness
    0.65;                     !- Latent Heat Recovery Effectiveness

HVACTEMPLATE:ZONE:IDEALLOADSAIRSYSTEM,
    19da1493f901936e_F4_dwelling_1,    !- Zone Name
    EU_HeatOnly_19da1493f901936e_F4_dwelling_1,    !- Template Thermostat Name
    EU_AlwaysOn,              !- System Availability Schedule Name
    50,                       !- Maximum Heating Supply Air Temperature
    13,                       !- Minimum Cooling Supply Air Temperature
    0.0156,                   !- Maximum Heating Supply Air Humidity Ratio
    0.0077,                   !- Minimum Cooling Supply Air Humidity Ratio
    NoLimit,                  !- Heating Limit
    ,                         !- Maximum Heating Air Flow Rate
    ,                         !- Maximum Sensible Heating Capacity
    NoLimit,                  !- Cooling Limit
    ,                         !- Maximum Cooling Air Flow Rate
    ,                         !- Maximum Total Cooling Capacity
    EU_AlwaysOn,              !- Heating Availability Schedule Name
    EU_CoolingOff,            !- Cooling Availability Schedule Name
    ConstantSensibleHeatRatio,    !- Dehumidification Control Type
    0.7,                      !- Cooling Sensible Heat Ratio
    60,                       !- Dehumidification Setpoint
    None,                     !- Humidification Control Type
    30,                       !- Humidification Setpoint
    None,                     !- Outdoor Air Method
    0.00944,                  !- Outdoor Air Flow Rate per Person
    0.0,                      !- Outdoor Air Flow Rate per Zone Floor Area
    0,                        !- Outdoor Air Flow Rate per Zone
    ,                         !- Design Specification Outdoor Air Object Name
    None,                     !- Demand Controlled Ventilation Type
    NoEconomizer,             !- Outdoor Air Economizer Type
    None,                     !- Heat Recovery Type
    0.70,                     !- Sensible Heat Recovery Effectiveness
    0.65;                     !- Latent Heat Recovery Effectiveness

HVACTEMPLATE:ZONE:IDEALLOADSAIRSYSTEM,
    19da1493f901936e_F5_dwelling_0,    !- Zone Name
    EU_HeatOnly_19da1493f901936e_F5_dwelling_0,    !- Template Thermostat Name
    EU_AlwaysOn,              !- System Availability Schedule Name
    50,                       !- Maximum Heating Supply Air Temperature
    13,                       !- Minimum Cooling Supply Air Temperature
    0.0156,                   !- Maximum Heating Supply Air Humidity Ratio
    0.0077,                   !- Minimum Cooling Supply Air Humidity Ratio
    NoLimit,                  !- Heating Limit
    ,                         !- Maximum Heating Air Flow Rate
    ,                         !- Maximum Sensible Heating Capacity
    NoLimit,                  !- Cooling Limit
    ,                         !- Maximum Cooling Air Flow Rate
    ,                         !- Maximum Total Cooling Capacity
    EU_AlwaysOn,              !- Heating Availability Schedule Name
    EU_CoolingOff,            !- Cooling Availability Schedule Name
    ConstantSensibleHeatRatio,    !- Dehumidification Control Type
    0.7,                      !- Cooling Sensible Heat Ratio
    60,                       !- Dehumidification Setpoint
    None,                     !- Humidification Control Type
    30,                       !- Humidification Setpoint
    None,                     !- Outdoor Air Method
    0.00944,                  !- Outdoor Air Flow Rate per Person
    0.0,                      !- Outdoor Air Flow Rate per Zone Floor Area
    0,                        !- Outdoor Air Flow Rate per Zone
    ,                         !- Design Specification Outdoor Air Object Name
    None,                     !- Demand Controlled Ventilation Type
    NoEconomizer,             !- Outdoor Air Economizer Type
    None,                     !- Heat Recovery Type
    0.70,                     !- Sensible Heat Recovery Effectiveness
    0.65;                     !- Latent Heat Recovery Effectiveness

HVACTEMPLATE:ZONE:IDEALLOADSAIRSYSTEM,
    19da1493f901936e_F5_dwelling_1,    !- Zone Name
    EU_HeatOnly_19da1493f901936e_F5_dwelling_1,    !- Template Thermostat Name
    EU_AlwaysOn,              !- System Availability Schedule Name
    50,                       !- Maximum Heating Supply Air Temperature
    13,                       !- Minimum Cooling Supply Air Temperature
    0.0156,                   !- Maximum Heating Supply Air Humidity Ratio
    0.0077,                   !- Minimum Cooling Supply Air Humidity Ratio
    NoLimit,                  !- Heating Limit
    ,                         !- Maximum Heating Air Flow Rate
    ,                         !- Maximum Sensible Heating Capacity
    NoLimit,                  !- Cooling Limit
    ,                         !- Maximum Cooling Air Flow Rate
    ,                         !- Maximum Total Cooling Capacity
    EU_AlwaysOn,              !- Heating Availability Schedule Name
    EU_CoolingOff,            !- Cooling Availability Schedule Name
    ConstantSensibleHeatRatio,    !- Dehumidification Control Type
    0.7,                      !- Cooling Sensible Heat Ratio
    60,                       !- Dehumidification Setpoint
    None,                     !- Humidification Control Type
    30,                       !- Humidification Setpoint
    None,                     !- Outdoor Air Method
    0.00944,                  !- Outdoor Air Flow Rate per Person
    0.0,                      !- Outdoor Air Flow Rate per Zone Floor Area
    0,                        !- Outdoor Air Flow Rate per Zone
    ,                         !- Design Specification Outdoor Air Object Name
    None,                     !- Demand Controlled Ventilation Type
    NoEconomizer,             !- Outdoor Air Economizer Type
    None,                     !- Heat Recovery Type
    0.70,                     !- Sensible Heat Recovery Effectiveness
    0.65;                     !- Latent Heat Recovery Effectiveness

HVACTEMPLATE:ZONE:IDEALLOADSAIRSYSTEM,
    19da1493f901936e_F6_dwelling_0,    !- Zone Name
    EU_HeatOnly_19da1493f901936e_F6_dwelling_0,    !- Template Thermostat Name
    EU_AlwaysOn,              !- System Availability Schedule Name
    50,                       !- Maximum Heating Supply Air Temperature
    13,                       !- Minimum Cooling Supply Air Temperature
    0.0156,                   !- Maximum Heating Supply Air Humidity Ratio
    0.0077,                   !- Minimum Cooling Supply Air Humidity Ratio
    NoLimit,                  !- Heating Limit
    ,                         !- Maximum Heating Air Flow Rate
    ,                         !- Maximum Sensible Heating Capacity
    NoLimit,                  !- Cooling Limit
    ,                         !- Maximum Cooling Air Flow Rate
    ,                         !- Maximum Total Cooling Capacity
    EU_AlwaysOn,              !- Heating Availability Schedule Name
    EU_CoolingOff,            !- Cooling Availability Schedule Name
    ConstantSensibleHeatRatio,    !- Dehumidification Control Type
    0.7,                      !- Cooling Sensible Heat Ratio
    60,                       !- Dehumidification Setpoint
    None,                     !- Humidification Control Type
    30,                       !- Humidification Setpoint
    None,                     !- Outdoor Air Method
    0.00944,                  !- Outdoor Air Flow Rate per Person
    0.0,                      !- Outdoor Air Flow Rate per Zone Floor Area
    0,                        !- Outdoor Air Flow Rate per Zone
    ,                         !- Design Specification Outdoor Air Object Name
    None,                     !- Demand Controlled Ventilation Type
    NoEconomizer,             !- Outdoor Air Economizer Type
    None,                     !- Heat Recovery Type
    0.70,                     !- Sensible Heat Recovery Effectiveness
    0.65;                     !- Latent Heat Recovery Effectiveness

HVACTEMPLATE:ZONE:IDEALLOADSAIRSYSTEM,
    19da1493f901936e_F6_dwelling_1,    !- Zone Name
    EU_HeatOnly_19da1493f901936e_F6_dwelling_1,    !- Template Thermostat Name
    EU_AlwaysOn,              !- System Availability Schedule Name
    50,                       !- Maximum Heating Supply Air Temperature
    13,                       !- Minimum Cooling Supply Air Temperature
    0.0156,                   !- Maximum Heating Supply Air Humidity Ratio
    0.0077,                   !- Minimum Cooling Supply Air Humidity Ratio
    NoLimit,                  !- Heating Limit
    ,                         !- Maximum Heating Air Flow Rate
    ,                         !- Maximum Sensible Heating Capacity
    NoLimit,                  !- Cooling Limit
    ,                         !- Maximum Cooling Air Flow Rate
    ,                         !- Maximum Total Cooling Capacity
    EU_AlwaysOn,              !- Heating Availability Schedule Name
    EU_CoolingOff,            !- Cooling Availability Schedule Name
    ConstantSensibleHeatRatio,    !- Dehumidification Control Type
    0.7,                      !- Cooling Sensible Heat Ratio
    60,                       !- Dehumidification Setpoint
    None,                     !- Humidification Control Type
    30,                       !- Humidification Setpoint
    None,                     !- Outdoor Air Method
    0.00944,                  !- Outdoor Air Flow Rate per Person
    0.0,                      !- Outdoor Air Flow Rate per Zone Floor Area
    0,                        !- Outdoor Air Flow Rate per Zone
    ,                         !- Design Specification Outdoor Air Object Name
    None,                     !- Demand Controlled Ventilation Type
    NoEconomizer,             !- Outdoor Air Economizer Type
    None,                     !- Heat Recovery Type
    0.70,                     !- Sensible Heat Recovery Effectiveness
    0.65;                     !- Latent Heat Recovery Effectiveness

HVACTEMPLATE:ZONE:IDEALLOADSAIRSYSTEM,
    19da1493f901936e_F7_dwelling_0,    !- Zone Name
    EU_HeatOnly_19da1493f901936e_F7_dwelling_0,    !- Template Thermostat Name
    EU_AlwaysOn,              !- System Availability Schedule Name
    50,                       !- Maximum Heating Supply Air Temperature
    13,                       !- Minimum Cooling Supply Air Temperature
    0.0156,                   !- Maximum Heating Supply Air Humidity Ratio
    0.0077,                   !- Minimum Cooling Supply Air Humidity Ratio
    NoLimit,                  !- Heating Limit
    ,                         !- Maximum Heating Air Flow Rate
    ,                         !- Maximum Sensible Heating Capacity
    NoLimit,                  !- Cooling Limit
    ,                         !- Maximum Cooling Air Flow Rate
    ,                         !- Maximum Total Cooling Capacity
    EU_AlwaysOn,              !- Heating Availability Schedule Name
    EU_CoolingOff,            !- Cooling Availability Schedule Name
    ConstantSensibleHeatRatio,    !- Dehumidification Control Type
    0.7,                      !- Cooling Sensible Heat Ratio
    60,                       !- Dehumidification Setpoint
    None,                     !- Humidification Control Type
    30,                       !- Humidification Setpoint
    None,                     !- Outdoor Air Method
    0.00944,                  !- Outdoor Air Flow Rate per Person
    0.0,                      !- Outdoor Air Flow Rate per Zone Floor Area
    0,                        !- Outdoor Air Flow Rate per Zone
    ,                         !- Design Specification Outdoor Air Object Name
    None,                     !- Demand Controlled Ventilation Type
    NoEconomizer,             !- Outdoor Air Economizer Type
    None,                     !- Heat Recovery Type
    0.70,                     !- Sensible Heat Recovery Effectiveness
    0.65;                     !- Latent Heat Recovery Effectiveness

HVACTEMPLATE:ZONE:IDEALLOADSAIRSYSTEM,
    19da1493f901936e_F7_dwelling_1,    !- Zone Name
    EU_HeatOnly_19da1493f901936e_F7_dwelling_1,    !- Template Thermostat Name
    EU_AlwaysOn,              !- System Availability Schedule Name
    50,                       !- Maximum Heating Supply Air Temperature
    13,                       !- Minimum Cooling Supply Air Temperature
    0.0156,                   !- Maximum Heating Supply Air Humidity Ratio
    0.0077,                   !- Minimum Cooling Supply Air Humidity Ratio
    NoLimit,                  !- Heating Limit
    ,                         !- Maximum Heating Air Flow Rate
    ,                         !- Maximum Sensible Heating Capacity
    NoLimit,                  !- Cooling Limit
    ,                         !- Maximum Cooling Air Flow Rate
    ,                         !- Maximum Total Cooling Capacity
    EU_AlwaysOn,              !- Heating Availability Schedule Name
    EU_CoolingOff,            !- Cooling Availability Schedule Name
    ConstantSensibleHeatRatio,    !- Dehumidification Control Type
    0.7,                      !- Cooling Sensible Heat Ratio
    60,                       !- Dehumidification Setpoint
    None,                     !- Humidification Control Type
    30,                       !- Humidification Setpoint
    None,                     !- Outdoor Air Method
    0.00944,                  !- Outdoor Air Flow Rate per Person
    0.0,                      !- Outdoor Air Flow Rate per Zone Floor Area
    0,                        !- Outdoor Air Flow Rate per Zone
    ,                         !- Design Specification Outdoor Air Object Name
    None,                     !- Demand Controlled Ventilation Type
    NoEconomizer,             !- Outdoor Air Economizer Type
    None,                     !- Heat Recovery Type
    0.70,                     !- Sensible Heat Recovery Effectiveness
    0.65;                     !- Latent Heat Recovery Effectiveness

SIZING:ZONE,
    19da1493f901936e_F0_dwelling_0,    !- Zone or ZoneList Name
    SupplyAirTemperature,     !- Zone Cooling Design Supply Air Temperature Input Method
    13,                       !- Zone Cooling Design Supply Air Temperature
    ,                         !- Zone Cooling Design Supply Air Temperature Difference
    SupplyAirTemperature,     !- Zone Heating Design Supply Air Temperature Input Method
    50,                       !- Zone Heating Design Supply Air Temperature
    ,                         !- Zone Heating Design Supply Air Temperature Difference
    0.008,                    !- Zone Cooling Design Supply Air Humidity Ratio
    0.008,                    !- Zone Heating Design Supply Air Humidity Ratio
    ,                         !- Design Specification Outdoor Air Object Name
    ,                         !- Zone Heating Sizing Factor
    ,                         !- Zone Cooling Sizing Factor
    DesignDay,                !- Cooling Design Air Flow Method
    0,                        !- Cooling Design Air Flow Rate
    0.000762,                 !- Cooling Minimum Air Flow per Zone Floor Area
    0,                        !- Cooling Minimum Air Flow
    0.2,                      !- Cooling Minimum Air Flow Fraction
    DesignDay,                !- Heating Design Air Flow Method
    0,                        !- Heating Design Air Flow Rate
    0.002032,                 !- Heating Maximum Air Flow per Zone Floor Area
    0.1415762,                !- Heating Maximum Air Flow
    0.3,                      !- Heating Maximum Air Flow Fraction
    ,                         !- Design Specification Zone Air Distribution Object Name
    No,                       !- Account for Dedicated Outdoor Air System
    NeutralSupplyAir,         !- Dedicated Outdoor Air System Control Strategy
    autosize,                 !- Dedicated Outdoor Air Low Setpoint Temperature for Design
    autosize,                 !- Dedicated Outdoor Air High Setpoint Temperature for Design
    Sensible Load Only No Latent Load,    !- Zone Load Sizing Method
    HumidityRatioDifference,    !- Zone Latent Cooling Design Supply Air Humidity Ratio Input Method
    ,                         !- Zone Dehumidification Design Supply Air Humidity Ratio
    0.005,                    !- Zone Cooling Design Supply Air Humidity Ratio Difference
    HumidityRatioDifference,    !- Zone Latent Heating Design Supply Air Humidity Ratio Input Method
    ,                         !- Zone Humidification Design Supply Air Humidity Ratio
    0.005;                    !- Zone Humidification Design Supply Air Humidity Ratio Difference

SIZING:ZONE,
    19da1493f901936e_F0_dwelling_1,    !- Zone or ZoneList Name
    SupplyAirTemperature,     !- Zone Cooling Design Supply Air Temperature Input Method
    13,                       !- Zone Cooling Design Supply Air Temperature
    ,                         !- Zone Cooling Design Supply Air Temperature Difference
    SupplyAirTemperature,     !- Zone Heating Design Supply Air Temperature Input Method
    50,                       !- Zone Heating Design Supply Air Temperature
    ,                         !- Zone Heating Design Supply Air Temperature Difference
    0.008,                    !- Zone Cooling Design Supply Air Humidity Ratio
    0.008,                    !- Zone Heating Design Supply Air Humidity Ratio
    ,                         !- Design Specification Outdoor Air Object Name
    ,                         !- Zone Heating Sizing Factor
    ,                         !- Zone Cooling Sizing Factor
    DesignDay,                !- Cooling Design Air Flow Method
    0,                        !- Cooling Design Air Flow Rate
    0.000762,                 !- Cooling Minimum Air Flow per Zone Floor Area
    0,                        !- Cooling Minimum Air Flow
    0.2,                      !- Cooling Minimum Air Flow Fraction
    DesignDay,                !- Heating Design Air Flow Method
    0,                        !- Heating Design Air Flow Rate
    0.002032,                 !- Heating Maximum Air Flow per Zone Floor Area
    0.1415762,                !- Heating Maximum Air Flow
    0.3,                      !- Heating Maximum Air Flow Fraction
    ,                         !- Design Specification Zone Air Distribution Object Name
    No,                       !- Account for Dedicated Outdoor Air System
    NeutralSupplyAir,         !- Dedicated Outdoor Air System Control Strategy
    autosize,                 !- Dedicated Outdoor Air Low Setpoint Temperature for Design
    autosize,                 !- Dedicated Outdoor Air High Setpoint Temperature for Design
    Sensible Load Only No Latent Load,    !- Zone Load Sizing Method
    HumidityRatioDifference,    !- Zone Latent Cooling Design Supply Air Humidity Ratio Input Method
    ,                         !- Zone Dehumidification Design Supply Air Humidity Ratio
    0.005,                    !- Zone Cooling Design Supply Air Humidity Ratio Difference
    HumidityRatioDifference,    !- Zone Latent Heating Design Supply Air Humidity Ratio Input Method
    ,                         !- Zone Humidification Design Supply Air Humidity Ratio
    0.005;                    !- Zone Humidification Design Supply Air Humidity Ratio Difference

SIZING:ZONE,
    19da1493f901936e_F1_dwelling_0,    !- Zone or ZoneList Name
    SupplyAirTemperature,     !- Zone Cooling Design Supply Air Temperature Input Method
    13,                       !- Zone Cooling Design Supply Air Temperature
    ,                         !- Zone Cooling Design Supply Air Temperature Difference
    SupplyAirTemperature,     !- Zone Heating Design Supply Air Temperature Input Method
    50,                       !- Zone Heating Design Supply Air Temperature
    ,                         !- Zone Heating Design Supply Air Temperature Difference
    0.008,                    !- Zone Cooling Design Supply Air Humidity Ratio
    0.008,                    !- Zone Heating Design Supply Air Humidity Ratio
    ,                         !- Design Specification Outdoor Air Object Name
    ,                         !- Zone Heating Sizing Factor
    ,                         !- Zone Cooling Sizing Factor
    DesignDay,                !- Cooling Design Air Flow Method
    0,                        !- Cooling Design Air Flow Rate
    0.000762,                 !- Cooling Minimum Air Flow per Zone Floor Area
    0,                        !- Cooling Minimum Air Flow
    0.2,                      !- Cooling Minimum Air Flow Fraction
    DesignDay,                !- Heating Design Air Flow Method
    0,                        !- Heating Design Air Flow Rate
    0.002032,                 !- Heating Maximum Air Flow per Zone Floor Area
    0.1415762,                !- Heating Maximum Air Flow
    0.3,                      !- Heating Maximum Air Flow Fraction
    ,                         !- Design Specification Zone Air Distribution Object Name
    No,                       !- Account for Dedicated Outdoor Air System
    NeutralSupplyAir,         !- Dedicated Outdoor Air System Control Strategy
    autosize,                 !- Dedicated Outdoor Air Low Setpoint Temperature for Design
    autosize,                 !- Dedicated Outdoor Air High Setpoint Temperature for Design
    Sensible Load Only No Latent Load,    !- Zone Load Sizing Method
    HumidityRatioDifference,    !- Zone Latent Cooling Design Supply Air Humidity Ratio Input Method
    ,                         !- Zone Dehumidification Design Supply Air Humidity Ratio
    0.005,                    !- Zone Cooling Design Supply Air Humidity Ratio Difference
    HumidityRatioDifference,    !- Zone Latent Heating Design Supply Air Humidity Ratio Input Method
    ,                         !- Zone Humidification Design Supply Air Humidity Ratio
    0.005;                    !- Zone Humidification Design Supply Air Humidity Ratio Difference

SIZING:ZONE,
    19da1493f901936e_F1_dwelling_1,    !- Zone or ZoneList Name
    SupplyAirTemperature,     !- Zone Cooling Design Supply Air Temperature Input Method
    13,                       !- Zone Cooling Design Supply Air Temperature
    ,                         !- Zone Cooling Design Supply Air Temperature Difference
    SupplyAirTemperature,     !- Zone Heating Design Supply Air Temperature Input Method
    50,                       !- Zone Heating Design Supply Air Temperature
    ,                         !- Zone Heating Design Supply Air Temperature Difference
    0.008,                    !- Zone Cooling Design Supply Air Humidity Ratio
    0.008,                    !- Zone Heating Design Supply Air Humidity Ratio
    ,                         !- Design Specification Outdoor Air Object Name
    ,                         !- Zone Heating Sizing Factor
    ,                         !- Zone Cooling Sizing Factor
    DesignDay,                !- Cooling Design Air Flow Method
    0,                        !- Cooling Design Air Flow Rate
    0.000762,                 !- Cooling Minimum Air Flow per Zone Floor Area
    0,                        !- Cooling Minimum Air Flow
    0.2,                      !- Cooling Minimum Air Flow Fraction
    DesignDay,                !- Heating Design Air Flow Method
    0,                        !- Heating Design Air Flow Rate
    0.002032,                 !- Heating Maximum Air Flow per Zone Floor Area
    0.1415762,                !- Heating Maximum Air Flow
    0.3,                      !- Heating Maximum Air Flow Fraction
    ,                         !- Design Specification Zone Air Distribution Object Name
    No,                       !- Account for Dedicated Outdoor Air System
    NeutralSupplyAir,         !- Dedicated Outdoor Air System Control Strategy
    autosize,                 !- Dedicated Outdoor Air Low Setpoint Temperature for Design
    autosize,                 !- Dedicated Outdoor Air High Setpoint Temperature for Design
    Sensible Load Only No Latent Load,    !- Zone Load Sizing Method
    HumidityRatioDifference,    !- Zone Latent Cooling Design Supply Air Humidity Ratio Input Method
    ,                         !- Zone Dehumidification Design Supply Air Humidity Ratio
    0.005,                    !- Zone Cooling Design Supply Air Humidity Ratio Difference
    HumidityRatioDifference,    !- Zone Latent Heating Design Supply Air Humidity Ratio Input Method
    ,                         !- Zone Humidification Design Supply Air Humidity Ratio
    0.005;                    !- Zone Humidification Design Supply Air Humidity Ratio Difference

SIZING:ZONE,
    19da1493f901936e_F2_dwelling_0,    !- Zone or ZoneList Name
    SupplyAirTemperature,     !- Zone Cooling Design Supply Air Temperature Input Method
    13,                       !- Zone Cooling Design Supply Air Temperature
    ,                         !- Zone Cooling Design Supply Air Temperature Difference
    SupplyAirTemperature,     !- Zone Heating Design Supply Air Temperature Input Method
    50,                       !- Zone Heating Design Supply Air Temperature
    ,                         !- Zone Heating Design Supply Air Temperature Difference
    0.008,                    !- Zone Cooling Design Supply Air Humidity Ratio
    0.008,                    !- Zone Heating Design Supply Air Humidity Ratio
    ,                         !- Design Specification Outdoor Air Object Name
    ,                         !- Zone Heating Sizing Factor
    ,                         !- Zone Cooling Sizing Factor
    DesignDay,                !- Cooling Design Air Flow Method
    0,                        !- Cooling Design Air Flow Rate
    0.000762,                 !- Cooling Minimum Air Flow per Zone Floor Area
    0,                        !- Cooling Minimum Air Flow
    0.2,                      !- Cooling Minimum Air Flow Fraction
    DesignDay,                !- Heating Design Air Flow Method
    0,                        !- Heating Design Air Flow Rate
    0.002032,                 !- Heating Maximum Air Flow per Zone Floor Area
    0.1415762,                !- Heating Maximum Air Flow
    0.3,                      !- Heating Maximum Air Flow Fraction
    ,                         !- Design Specification Zone Air Distribution Object Name
    No,                       !- Account for Dedicated Outdoor Air System
    NeutralSupplyAir,         !- Dedicated Outdoor Air System Control Strategy
    autosize,                 !- Dedicated Outdoor Air Low Setpoint Temperature for Design
    autosize,                 !- Dedicated Outdoor Air High Setpoint Temperature for Design
    Sensible Load Only No Latent Load,    !- Zone Load Sizing Method
    HumidityRatioDifference,    !- Zone Latent Cooling Design Supply Air Humidity Ratio Input Method
    ,                         !- Zone Dehumidification Design Supply Air Humidity Ratio
    0.005,                    !- Zone Cooling Design Supply Air Humidity Ratio Difference
    HumidityRatioDifference,    !- Zone Latent Heating Design Supply Air Humidity Ratio Input Method
    ,                         !- Zone Humidification Design Supply Air Humidity Ratio
    0.005;                    !- Zone Humidification Design Supply Air Humidity Ratio Difference

SIZING:ZONE,
    19da1493f901936e_F2_dwelling_1,    !- Zone or ZoneList Name
    SupplyAirTemperature,     !- Zone Cooling Design Supply Air Temperature Input Method
    13,                       !- Zone Cooling Design Supply Air Temperature
    ,                         !- Zone Cooling Design Supply Air Temperature Difference
    SupplyAirTemperature,     !- Zone Heating Design Supply Air Temperature Input Method
    50,                       !- Zone Heating Design Supply Air Temperature
    ,                         !- Zone Heating Design Supply Air Temperature Difference
    0.008,                    !- Zone Cooling Design Supply Air Humidity Ratio
    0.008,                    !- Zone Heating Design Supply Air Humidity Ratio
    ,                         !- Design Specification Outdoor Air Object Name
    ,                         !- Zone Heating Sizing Factor
    ,                         !- Zone Cooling Sizing Factor
    DesignDay,                !- Cooling Design Air Flow Method
    0,                        !- Cooling Design Air Flow Rate
    0.000762,                 !- Cooling Minimum Air Flow per Zone Floor Area
    0,                        !- Cooling Minimum Air Flow
    0.2,                      !- Cooling Minimum Air Flow Fraction
    DesignDay,                !- Heating Design Air Flow Method
    0,                        !- Heating Design Air Flow Rate
    0.002032,                 !- Heating Maximum Air Flow per Zone Floor Area
    0.1415762,                !- Heating Maximum Air Flow
    0.3,                      !- Heating Maximum Air Flow Fraction
    ,                         !- Design Specification Zone Air Distribution Object Name
    No,                       !- Account for Dedicated Outdoor Air System
    NeutralSupplyAir,         !- Dedicated Outdoor Air System Control Strategy
    autosize,                 !- Dedicated Outdoor Air Low Setpoint Temperature for Design
    autosize,                 !- Dedicated Outdoor Air High Setpoint Temperature for Design
    Sensible Load Only No Latent Load,    !- Zone Load Sizing Method
    HumidityRatioDifference,    !- Zone Latent Cooling Design Supply Air Humidity Ratio Input Method
    ,                         !- Zone Dehumidification Design Supply Air Humidity Ratio
    0.005,                    !- Zone Cooling Design Supply Air Humidity Ratio Difference
    HumidityRatioDifference,    !- Zone Latent Heating Design Supply Air Humidity Ratio Input Method
    ,                         !- Zone Humidification Design Supply Air Humidity Ratio
    0.005;                    !- Zone Humidification Design Supply Air Humidity Ratio Difference

SIZING:ZONE,
    19da1493f901936e_F3_dwelling_0,    !- Zone or ZoneList Name
    SupplyAirTemperature,     !- Zone Cooling Design Supply Air Temperature Input Method
    13,                       !- Zone Cooling Design Supply Air Temperature
    ,                         !- Zone Cooling Design Supply Air Temperature Difference
    SupplyAirTemperature,     !- Zone Heating Design Supply Air Temperature Input Method
    50,                       !- Zone Heating Design Supply Air Temperature
    ,                         !- Zone Heating Design Supply Air Temperature Difference
    0.008,                    !- Zone Cooling Design Supply Air Humidity Ratio
    0.008,                    !- Zone Heating Design Supply Air Humidity Ratio
    ,                         !- Design Specification Outdoor Air Object Name
    ,                         !- Zone Heating Sizing Factor
    ,                         !- Zone Cooling Sizing Factor
    DesignDay,                !- Cooling Design Air Flow Method
    0,                        !- Cooling Design Air Flow Rate
    0.000762,                 !- Cooling Minimum Air Flow per Zone Floor Area
    0,                        !- Cooling Minimum Air Flow
    0.2,                      !- Cooling Minimum Air Flow Fraction
    DesignDay,                !- Heating Design Air Flow Method
    0,                        !- Heating Design Air Flow Rate
    0.002032,                 !- Heating Maximum Air Flow per Zone Floor Area
    0.1415762,                !- Heating Maximum Air Flow
    0.3,                      !- Heating Maximum Air Flow Fraction
    ,                         !- Design Specification Zone Air Distribution Object Name
    No,                       !- Account for Dedicated Outdoor Air System
    NeutralSupplyAir,         !- Dedicated Outdoor Air System Control Strategy
    autosize,                 !- Dedicated Outdoor Air Low Setpoint Temperature for Design
    autosize,                 !- Dedicated Outdoor Air High Setpoint Temperature for Design
    Sensible Load Only No Latent Load,    !- Zone Load Sizing Method
    HumidityRatioDifference,    !- Zone Latent Cooling Design Supply Air Humidity Ratio Input Method
    ,                         !- Zone Dehumidification Design Supply Air Humidity Ratio
    0.005,                    !- Zone Cooling Design Supply Air Humidity Ratio Difference
    HumidityRatioDifference,    !- Zone Latent Heating Design Supply Air Humidity Ratio Input Method
    ,                         !- Zone Humidification Design Supply Air Humidity Ratio
    0.005;                    !- Zone Humidification Design Supply Air Humidity Ratio Difference

SIZING:ZONE,
    19da1493f901936e_F3_dwelling_1,    !- Zone or ZoneList Name
    SupplyAirTemperature,     !- Zone Cooling Design Supply Air Temperature Input Method
    13,                       !- Zone Cooling Design Supply Air Temperature
    ,                         !- Zone Cooling Design Supply Air Temperature Difference
    SupplyAirTemperature,     !- Zone Heating Design Supply Air Temperature Input Method
    50,                       !- Zone Heating Design Supply Air Temperature
    ,                         !- Zone Heating Design Supply Air Temperature Difference
    0.008,                    !- Zone Cooling Design Supply Air Humidity Ratio
    0.008,                    !- Zone Heating Design Supply Air Humidity Ratio
    ,                         !- Design Specification Outdoor Air Object Name
    ,                         !- Zone Heating Sizing Factor
    ,                         !- Zone Cooling Sizing Factor
    DesignDay,                !- Cooling Design Air Flow Method
    0,                        !- Cooling Design Air Flow Rate
    0.000762,                 !- Cooling Minimum Air Flow per Zone Floor Area
    0,                        !- Cooling Minimum Air Flow
    0.2,                      !- Cooling Minimum Air Flow Fraction
    DesignDay,                !- Heating Design Air Flow Method
    0,                        !- Heating Design Air Flow Rate
    0.002032,                 !- Heating Maximum Air Flow per Zone Floor Area
    0.1415762,                !- Heating Maximum Air Flow
    0.3,                      !- Heating Maximum Air Flow Fraction
    ,                         !- Design Specification Zone Air Distribution Object Name
    No,                       !- Account for Dedicated Outdoor Air System
    NeutralSupplyAir,         !- Dedicated Outdoor Air System Control Strategy
    autosize,                 !- Dedicated Outdoor Air Low Setpoint Temperature for Design
    autosize,                 !- Dedicated Outdoor Air High Setpoint Temperature for Design
    Sensible Load Only No Latent Load,    !- Zone Load Sizing Method
    HumidityRatioDifference,    !- Zone Latent Cooling Design Supply Air Humidity Ratio Input Method
    ,                         !- Zone Dehumidification Design Supply Air Humidity Ratio
    0.005,                    !- Zone Cooling Design Supply Air Humidity Ratio Difference
    HumidityRatioDifference,    !- Zone Latent Heating Design Supply Air Humidity Ratio Input Method
    ,                         !- Zone Humidification Design Supply Air Humidity Ratio
    0.005;                    !- Zone Humidification Design Supply Air Humidity Ratio Difference

SIZING:ZONE,
    19da1493f901936e_F4_dwelling_0,    !- Zone or ZoneList Name
    SupplyAirTemperature,     !- Zone Cooling Design Supply Air Temperature Input Method
    13,                       !- Zone Cooling Design Supply Air Temperature
    ,                         !- Zone Cooling Design Supply Air Temperature Difference
    SupplyAirTemperature,     !- Zone Heating Design Supply Air Temperature Input Method
    50,                       !- Zone Heating Design Supply Air Temperature
    ,                         !- Zone Heating Design Supply Air Temperature Difference
    0.008,                    !- Zone Cooling Design Supply Air Humidity Ratio
    0.008,                    !- Zone Heating Design Supply Air Humidity Ratio
    ,                         !- Design Specification Outdoor Air Object Name
    ,                         !- Zone Heating Sizing Factor
    ,                         !- Zone Cooling Sizing Factor
    DesignDay,                !- Cooling Design Air Flow Method
    0,                        !- Cooling Design Air Flow Rate
    0.000762,                 !- Cooling Minimum Air Flow per Zone Floor Area
    0,                        !- Cooling Minimum Air Flow
    0.2,                      !- Cooling Minimum Air Flow Fraction
    DesignDay,                !- Heating Design Air Flow Method
    0,                        !- Heating Design Air Flow Rate
    0.002032,                 !- Heating Maximum Air Flow per Zone Floor Area
    0.1415762,                !- Heating Maximum Air Flow
    0.3,                      !- Heating Maximum Air Flow Fraction
    ,                         !- Design Specification Zone Air Distribution Object Name
    No,                       !- Account for Dedicated Outdoor Air System
    NeutralSupplyAir,         !- Dedicated Outdoor Air System Control Strategy
    autosize,                 !- Dedicated Outdoor Air Low Setpoint Temperature for Design
    autosize,                 !- Dedicated Outdoor Air High Setpoint Temperature for Design
    Sensible Load Only No Latent Load,    !- Zone Load Sizing Method
    HumidityRatioDifference,    !- Zone Latent Cooling Design Supply Air Humidity Ratio Input Method
    ,                         !- Zone Dehumidification Design Supply Air Humidity Ratio
    0.005,                    !- Zone Cooling Design Supply Air Humidity Ratio Difference
    HumidityRatioDifference,    !- Zone Latent Heating Design Supply Air Humidity Ratio Input Method
    ,                         !- Zone Humidification Design Supply Air Humidity Ratio
    0.005;                    !- Zone Humidification Design Supply Air Humidity Ratio Difference

SIZING:ZONE,
    19da1493f901936e_F4_dwelling_1,    !- Zone or ZoneList Name
    SupplyAirTemperature,     !- Zone Cooling Design Supply Air Temperature Input Method
    13,                       !- Zone Cooling Design Supply Air Temperature
    ,                         !- Zone Cooling Design Supply Air Temperature Difference
    SupplyAirTemperature,     !- Zone Heating Design Supply Air Temperature Input Method
    50,                       !- Zone Heating Design Supply Air Temperature
    ,                         !- Zone Heating Design Supply Air Temperature Difference
    0.008,                    !- Zone Cooling Design Supply Air Humidity Ratio
    0.008,                    !- Zone Heating Design Supply Air Humidity Ratio
    ,                         !- Design Specification Outdoor Air Object Name
    ,                         !- Zone Heating Sizing Factor
    ,                         !- Zone Cooling Sizing Factor
    DesignDay,                !- Cooling Design Air Flow Method
    0,                        !- Cooling Design Air Flow Rate
    0.000762,                 !- Cooling Minimum Air Flow per Zone Floor Area
    0,                        !- Cooling Minimum Air Flow
    0.2,                      !- Cooling Minimum Air Flow Fraction
    DesignDay,                !- Heating Design Air Flow Method
    0,                        !- Heating Design Air Flow Rate
    0.002032,                 !- Heating Maximum Air Flow per Zone Floor Area
    0.1415762,                !- Heating Maximum Air Flow
    0.3,                      !- Heating Maximum Air Flow Fraction
    ,                         !- Design Specification Zone Air Distribution Object Name
    No,                       !- Account for Dedicated Outdoor Air System
    NeutralSupplyAir,         !- Dedicated Outdoor Air System Control Strategy
    autosize,                 !- Dedicated Outdoor Air Low Setpoint Temperature for Design
    autosize,                 !- Dedicated Outdoor Air High Setpoint Temperature for Design
    Sensible Load Only No Latent Load,    !- Zone Load Sizing Method
    HumidityRatioDifference,    !- Zone Latent Cooling Design Supply Air Humidity Ratio Input Method
    ,                         !- Zone Dehumidification Design Supply Air Humidity Ratio
    0.005,                    !- Zone Cooling Design Supply Air Humidity Ratio Difference
    HumidityRatioDifference,    !- Zone Latent Heating Design Supply Air Humidity Ratio Input Method
    ,                         !- Zone Humidification Design Supply Air Humidity Ratio
    0.005;                    !- Zone Humidification Design Supply Air Humidity Ratio Difference

SIZING:ZONE,
    19da1493f901936e_F5_dwelling_0,    !- Zone or ZoneList Name
    SupplyAirTemperature,     !- Zone Cooling Design Supply Air Temperature Input Method
    13,                       !- Zone Cooling Design Supply Air Temperature
    ,                         !- Zone Cooling Design Supply Air Temperature Difference
    SupplyAirTemperature,     !- Zone Heating Design Supply Air Temperature Input Method
    50,                       !- Zone Heating Design Supply Air Temperature
    ,                         !- Zone Heating Design Supply Air Temperature Difference
    0.008,                    !- Zone Cooling Design Supply Air Humidity Ratio
    0.008,                    !- Zone Heating Design Supply Air Humidity Ratio
    ,                         !- Design Specification Outdoor Air Object Name
    ,                         !- Zone Heating Sizing Factor
    ,                         !- Zone Cooling Sizing Factor
    DesignDay,                !- Cooling Design Air Flow Method
    0,                        !- Cooling Design Air Flow Rate
    0.000762,                 !- Cooling Minimum Air Flow per Zone Floor Area
    0,                        !- Cooling Minimum Air Flow
    0.2,                      !- Cooling Minimum Air Flow Fraction
    DesignDay,                !- Heating Design Air Flow Method
    0,                        !- Heating Design Air Flow Rate
    0.002032,                 !- Heating Maximum Air Flow per Zone Floor Area
    0.1415762,                !- Heating Maximum Air Flow
    0.3,                      !- Heating Maximum Air Flow Fraction
    ,                         !- Design Specification Zone Air Distribution Object Name
    No,                       !- Account for Dedicated Outdoor Air System
    NeutralSupplyAir,         !- Dedicated Outdoor Air System Control Strategy
    autosize,                 !- Dedicated Outdoor Air Low Setpoint Temperature for Design
    autosize,                 !- Dedicated Outdoor Air High Setpoint Temperature for Design
    Sensible Load Only No Latent Load,    !- Zone Load Sizing Method
    HumidityRatioDifference,    !- Zone Latent Cooling Design Supply Air Humidity Ratio Input Method
    ,                         !- Zone Dehumidification Design Supply Air Humidity Ratio
    0.005,                    !- Zone Cooling Design Supply Air Humidity Ratio Difference
    HumidityRatioDifference,    !- Zone Latent Heating Design Supply Air Humidity Ratio Input Method
    ,                         !- Zone Humidification Design Supply Air Humidity Ratio
    0.005;                    !- Zone Humidification Design Supply Air Humidity Ratio Difference

SIZING:ZONE,
    19da1493f901936e_F5_dwelling_1,    !- Zone or ZoneList Name
    SupplyAirTemperature,     !- Zone Cooling Design Supply Air Temperature Input Method
    13,                       !- Zone Cooling Design Supply Air Temperature
    ,                         !- Zone Cooling Design Supply Air Temperature Difference
    SupplyAirTemperature,     !- Zone Heating Design Supply Air Temperature Input Method
    50,                       !- Zone Heating Design Supply Air Temperature
    ,                         !- Zone Heating Design Supply Air Temperature Difference
    0.008,                    !- Zone Cooling Design Supply Air Humidity Ratio
    0.008,                    !- Zone Heating Design Supply Air Humidity Ratio
    ,                         !- Design Specification Outdoor Air Object Name
    ,                         !- Zone Heating Sizing Factor
    ,                         !- Zone Cooling Sizing Factor
    DesignDay,                !- Cooling Design Air Flow Method
    0,                        !- Cooling Design Air Flow Rate
    0.000762,                 !- Cooling Minimum Air Flow per Zone Floor Area
    0,                        !- Cooling Minimum Air Flow
    0.2,                      !- Cooling Minimum Air Flow Fraction
    DesignDay,                !- Heating Design Air Flow Method
    0,                        !- Heating Design Air Flow Rate
    0.002032,                 !- Heating Maximum Air Flow per Zone Floor Area
    0.1415762,                !- Heating Maximum Air Flow
    0.3,                      !- Heating Maximum Air Flow Fraction
    ,                         !- Design Specification Zone Air Distribution Object Name
    No,                       !- Account for Dedicated Outdoor Air System
    NeutralSupplyAir,         !- Dedicated Outdoor Air System Control Strategy
    autosize,                 !- Dedicated Outdoor Air Low Setpoint Temperature for Design
    autosize,                 !- Dedicated Outdoor Air High Setpoint Temperature for Design
    Sensible Load Only No Latent Load,    !- Zone Load Sizing Method
    HumidityRatioDifference,    !- Zone Latent Cooling Design Supply Air Humidity Ratio Input Method
    ,                         !- Zone Dehumidification Design Supply Air Humidity Ratio
    0.005,                    !- Zone Cooling Design Supply Air Humidity Ratio Difference
    HumidityRatioDifference,    !- Zone Latent Heating Design Supply Air Humidity Ratio Input Method
    ,                         !- Zone Humidification Design Supply Air Humidity Ratio
    0.005;                    !- Zone Humidification Design Supply Air Humidity Ratio Difference

SIZING:ZONE,
    19da1493f901936e_F6_dwelling_0,    !- Zone or ZoneList Name
    SupplyAirTemperature,     !- Zone Cooling Design Supply Air Temperature Input Method
    13,                       !- Zone Cooling Design Supply Air Temperature
    ,                         !- Zone Cooling Design Supply Air Temperature Difference
    SupplyAirTemperature,     !- Zone Heating Design Supply Air Temperature Input Method
    50,                       !- Zone Heating Design Supply Air Temperature
    ,                         !- Zone Heating Design Supply Air Temperature Difference
    0.008,                    !- Zone Cooling Design Supply Air Humidity Ratio
    0.008,                    !- Zone Heating Design Supply Air Humidity Ratio
    ,                         !- Design Specification Outdoor Air Object Name
    ,                         !- Zone Heating Sizing Factor
    ,                         !- Zone Cooling Sizing Factor
    DesignDay,                !- Cooling Design Air Flow Method
    0,                        !- Cooling Design Air Flow Rate
    0.000762,                 !- Cooling Minimum Air Flow per Zone Floor Area
    0,                        !- Cooling Minimum Air Flow
    0.2,                      !- Cooling Minimum Air Flow Fraction
    DesignDay,                !- Heating Design Air Flow Method
    0,                        !- Heating Design Air Flow Rate
    0.002032,                 !- Heating Maximum Air Flow per Zone Floor Area
    0.1415762,                !- Heating Maximum Air Flow
    0.3,                      !- Heating Maximum Air Flow Fraction
    ,                         !- Design Specification Zone Air Distribution Object Name
    No,                       !- Account for Dedicated Outdoor Air System
    NeutralSupplyAir,         !- Dedicated Outdoor Air System Control Strategy
    autosize,                 !- Dedicated Outdoor Air Low Setpoint Temperature for Design
    autosize,                 !- Dedicated Outdoor Air High Setpoint Temperature for Design
    Sensible Load Only No Latent Load,    !- Zone Load Sizing Method
    HumidityRatioDifference,    !- Zone Latent Cooling Design Supply Air Humidity Ratio Input Method
    ,                         !- Zone Dehumidification Design Supply Air Humidity Ratio
    0.005,                    !- Zone Cooling Design Supply Air Humidity Ratio Difference
    HumidityRatioDifference,    !- Zone Latent Heating Design Supply Air Humidity Ratio Input Method
    ,                         !- Zone Humidification Design Supply Air Humidity Ratio
    0.005;                    !- Zone Humidification Design Supply Air Humidity Ratio Difference

SIZING:ZONE,
    19da1493f901936e_F6_dwelling_1,    !- Zone or ZoneList Name
    SupplyAirTemperature,     !- Zone Cooling Design Supply Air Temperature Input Method
    13,                       !- Zone Cooling Design Supply Air Temperature
    ,                         !- Zone Cooling Design Supply Air Temperature Difference
    SupplyAirTemperature,     !- Zone Heating Design Supply Air Temperature Input Method
    50,                       !- Zone Heating Design Supply Air Temperature
    ,                         !- Zone Heating Design Supply Air Temperature Difference
    0.008,                    !- Zone Cooling Design Supply Air Humidity Ratio
    0.008,                    !- Zone Heating Design Supply Air Humidity Ratio
    ,                         !- Design Specification Outdoor Air Object Name
    ,                         !- Zone Heating Sizing Factor
    ,                         !- Zone Cooling Sizing Factor
    DesignDay,                !- Cooling Design Air Flow Method
    0,                        !- Cooling Design Air Flow Rate
    0.000762,                 !- Cooling Minimum Air Flow per Zone Floor Area
    0,                        !- Cooling Minimum Air Flow
    0.2,                      !- Cooling Minimum Air Flow Fraction
    DesignDay,                !- Heating Design Air Flow Method
    0,                        !- Heating Design Air Flow Rate
    0.002032,                 !- Heating Maximum Air Flow per Zone Floor Area
    0.1415762,                !- Heating Maximum Air Flow
    0.3,                      !- Heating Maximum Air Flow Fraction
    ,                         !- Design Specification Zone Air Distribution Object Name
    No,                       !- Account for Dedicated Outdoor Air System
    NeutralSupplyAir,         !- Dedicated Outdoor Air System Control Strategy
    autosize,                 !- Dedicated Outdoor Air Low Setpoint Temperature for Design
    autosize,                 !- Dedicated Outdoor Air High Setpoint Temperature for Design
    Sensible Load Only No Latent Load,    !- Zone Load Sizing Method
    HumidityRatioDifference,    !- Zone Latent Cooling Design Supply Air Humidity Ratio Input Method
    ,                         !- Zone Dehumidification Design Supply Air Humidity Ratio
    0.005,                    !- Zone Cooling Design Supply Air Humidity Ratio Difference
    HumidityRatioDifference,    !- Zone Latent Heating Design Supply Air Humidity Ratio Input Method
    ,                         !- Zone Humidification Design Supply Air Humidity Ratio
    0.005;                    !- Zone Humidification Design Supply Air Humidity Ratio Difference

SIZING:ZONE,
    19da1493f901936e_F7_dwelling_0,    !- Zone or ZoneList Name
    SupplyAirTemperature,     !- Zone Cooling Design Supply Air Temperature Input Method
    13,                       !- Zone Cooling Design Supply Air Temperature
    ,                         !- Zone Cooling Design Supply Air Temperature Difference
    SupplyAirTemperature,     !- Zone Heating Design Supply Air Temperature Input Method
    50,                       !- Zone Heating Design Supply Air Temperature
    ,                         !- Zone Heating Design Supply Air Temperature Difference
    0.008,                    !- Zone Cooling Design Supply Air Humidity Ratio
    0.008,                    !- Zone Heating Design Supply Air Humidity Ratio
    ,                         !- Design Specification Outdoor Air Object Name
    ,                         !- Zone Heating Sizing Factor
    ,                         !- Zone Cooling Sizing Factor
    DesignDay,                !- Cooling Design Air Flow Method
    0,                        !- Cooling Design Air Flow Rate
    0.000762,                 !- Cooling Minimum Air Flow per Zone Floor Area
    0,                        !- Cooling Minimum Air Flow
    0.2,                      !- Cooling Minimum Air Flow Fraction
    DesignDay,                !- Heating Design Air Flow Method
    0,                        !- Heating Design Air Flow Rate
    0.002032,                 !- Heating Maximum Air Flow per Zone Floor Area
    0.1415762,                !- Heating Maximum Air Flow
    0.3,                      !- Heating Maximum Air Flow Fraction
    ,                         !- Design Specification Zone Air Distribution Object Name
    No,                       !- Account for Dedicated Outdoor Air System
    NeutralSupplyAir,         !- Dedicated Outdoor Air System Control Strategy
    autosize,                 !- Dedicated Outdoor Air Low Setpoint Temperature for Design
    autosize,                 !- Dedicated Outdoor Air High Setpoint Temperature for Design
    Sensible Load Only No Latent Load,    !- Zone Load Sizing Method
    HumidityRatioDifference,    !- Zone Latent Cooling Design Supply Air Humidity Ratio Input Method
    ,                         !- Zone Dehumidification Design Supply Air Humidity Ratio
    0.005,                    !- Zone Cooling Design Supply Air Humidity Ratio Difference
    HumidityRatioDifference,    !- Zone Latent Heating Design Supply Air Humidity Ratio Input Method
    ,                         !- Zone Humidification Design Supply Air Humidity Ratio
    0.005;                    !- Zone Humidification Design Supply Air Humidity Ratio Difference

SIZING:ZONE,
    19da1493f901936e_F7_dwelling_1,    !- Zone or ZoneList Name
    SupplyAirTemperature,     !- Zone Cooling Design Supply Air Temperature Input Method
    13,                       !- Zone Cooling Design Supply Air Temperature
    ,                         !- Zone Cooling Design Supply Air Temperature Difference
    SupplyAirTemperature,     !- Zone Heating Design Supply Air Temperature Input Method
    50,                       !- Zone Heating Design Supply Air Temperature
    ,                         !- Zone Heating Design Supply Air Temperature Difference
    0.008,                    !- Zone Cooling Design Supply Air Humidity Ratio
    0.008,                    !- Zone Heating Design Supply Air Humidity Ratio
    ,                         !- Design Specification Outdoor Air Object Name
    ,                         !- Zone Heating Sizing Factor
    ,                         !- Zone Cooling Sizing Factor
    DesignDay,                !- Cooling Design Air Flow Method
    0,                        !- Cooling Design Air Flow Rate
    0.000762,                 !- Cooling Minimum Air Flow per Zone Floor Area
    0,                        !- Cooling Minimum Air Flow
    0.2,                      !- Cooling Minimum Air Flow Fraction
    DesignDay,                !- Heating Design Air Flow Method
    0,                        !- Heating Design Air Flow Rate
    0.002032,                 !- Heating Maximum Air Flow per Zone Floor Area
    0.1415762,                !- Heating Maximum Air Flow
    0.3,                      !- Heating Maximum Air Flow Fraction
    ,                         !- Design Specification Zone Air Distribution Object Name
    No,                       !- Account for Dedicated Outdoor Air System
    NeutralSupplyAir,         !- Dedicated Outdoor Air System Control Strategy
    autosize,                 !- Dedicated Outdoor Air Low Setpoint Temperature for Design
    autosize,                 !- Dedicated Outdoor Air High Setpoint Temperature for Design
    Sensible Load Only No Latent Load,    !- Zone Load Sizing Method
    HumidityRatioDifference,    !- Zone Latent Cooling Design Supply Air Humidity Ratio Input Method
    ,                         !- Zone Dehumidification Design Supply Air Humidity Ratio
    0.005,                    !- Zone Cooling Design Supply Air Humidity Ratio Difference
    HumidityRatioDifference,    !- Zone Latent Heating Design Supply Air Humidity Ratio Input Method
    ,                         !- Zone Humidification Design Supply Air Humidity Ratio
    0.005;                    !- Zone Humidification Design Supply Air Humidity Ratio Difference

OUTPUT:VARIABLE,
    *,                        !- Key Value
    Zone Ideal Loads Zone Total Heating Energy,    !- Variable Name
    Hourly;                   !- Reporting Frequency

OUTPUT:SQLITE,
    SimpleAndTabular,         !- Option Type
    UseOutputControlTableStyle;    !- Unit Conversion for Tabular Data