!- Windows Line endings 

Version,
    23.1;                     !- Version Identifier

SimulationControl,
    Yes,                      !- Do Zone Sizing Calculation
    Yes,                      !- Do System Sizing Calculation
    Yes,                      !- Do Plant Sizing Calculation
    No,                       !- Run Simulation for Sizing Periods
    Yes,                      !- Run Simulation for Weather File Run Periods
    No,                       !- Do HVAC Sizing Simulation for Sizing Periods
    1;                        !- Maximum Number of HVAC Sizing Simulation Passes

Building,
    EU S2 Campaign,           !- Name
    0,                        !- North Axis
    City,                     !- Terrain
    ,                         !- Loads Convergence Tolerance Value
    ,                         !- Temperature Convergence Tolerance Value
    FullExterior,             !- Solar Distribution
    ,                         !- Maximum Number of Warmup Days
    ;                         !- Minimum Number of Warmup Days

ShadowCalculation,
    PolygonClipping,          !- Shading Calculation Method
    Periodic,                 !- Shading Calculation Update Frequency Method
    1;                        !- Shading Calculation Update Frequency

HeatBalanceAlgorithm,
    ConductionTransferFunction,    !- Algorithm
    200,                      !- Surface Temperature Upper Limit
    0.1,                      !- Minimum Surface Convection Heat Transfer Coefficient Value
    10000000;                 !- Maximum Surface Convection Heat Transfer Coefficient Value

Timestep,
    12;                       !- Number of Timesteps per Hour

Site:Location,
    Bologna,                  !- Name
    44.5,                     !- Latitude
    11.25,                    !- Longitude
    1,                        !- Time Zone
    37;                       !- Elevation

SizingPeriod:WeatherFileDays,
    AnnualSizingPeriod,       !- Name
    1,                        !- Begin Month
    1,                        !- Begin Day of Month
    12,                       !- End Month
    31,                       !- End Day of Month
    Monday,                   !- Day of Week for Start Day
    No,                       !- Use Weather File Daylight Saving Period
    No;                       !- Use Weather File Rain and Snow Indicators

RunPeriod,
    RunPeriod1,               !- Name
    1,                        !- Begin Month
    1,                        !- Begin Day of Month
    ,                         !- Begin Year
    12,                       !- End Month
    31,                       !- End Day of Month
    ,                         !- End Year
    Sunday,                   !- Day of Week for Start Day
    No,                       !- Use Weather File Holidays and Special Days
    No,                       !- Use Weather File Daylight Saving Period
    No,                       !- Apply Weekend Holiday Rule
    Yes,                      !- Use Weather File Rain Indicators
    Yes;                      !- Use Weather File Snow Indicators

ScheduleTypeLimits,
    Any Number;               !- Name

SCHEDULETYPELIMITS,
    EU_Step8_AnyNumber_Wm2,    !- Name
    ,                         !- Lower Limit Value
    ,                         !- Upper Limit Value
    Continuous,               !- Numeric Type
    Dimensionless;            !- Unit Type

SCHEDULE:CONSTANT,
    EU_AlwaysOn,              !- Name
    ,                         !- Schedule Type Limits Name
    1;                        !- Hourly Value

SCHEDULE:CONSTANT,
    EU_CoolingOff,            !- Name
    ,                         !- Schedule Type Limits Name
    0;                        !- Hourly Value

SCHEDULE:FILE,
    EU_Step8_GainSchedule_af3917251b85a42e_F0_dwelling_0_f000,    !- Name
    EU_Step8_AnyNumber_Wm2,    !- Schedule Type Limits Name
    ../../schedules/af3917251b85a42e/af3917251b85a42e_F0_dwelling_0_f000_gain.csv,    !- File Name
    1,                        !- Column Number
    0,                        !- Rows to Skip at Top
    8760,                     !- Number of Hours of Data
    Comma,                    !- Column Separator
    No,                       !- Interpolate to Timestep
    60,                       !- Minutes per Item
    Yes;                      !- Adjust Schedule for Daylight Savings

SCHEDULE:FILE,
    EU_Step8_GainSchedule_af3917251b85a42e_F0_dwelling_1_f000,    !- Name
    EU_Step8_AnyNumber_Wm2,    !- Schedule Type Limits Name
    ../../schedules/af3917251b85a42e/af3917251b85a42e_F0_dwelling_1_f000_gain.csv,    !- File Name
    1,                        !- Column Number
    0,                        !- Rows to Skip at Top
    8760,                     !- Number of Hours of Data
    Comma,                    !- Column Separator
    No,                       !- Interpolate to Timestep
    60,                       !- Minutes per Item
    Yes;                      !- Adjust Schedule for Daylight Savings

SCHEDULE:FILE,
    EU_Step8_GainSchedule_af3917251b85a42e_F0_dwelling_2_f000,    !- Name
    EU_Step8_AnyNumber_Wm2,    !- Schedule Type Limits Name
    ../../schedules/af3917251b85a42e/af3917251b85a42e_F0_dwelling_2_f000_gain.csv,    !- File Name
    1,                        !- Column Number
    0,                        !- Rows to Skip at Top
    8760,                     !- Number of Hours of Data
    Comma,                    !- Column Separator
    No,                       !- Interpolate to Timestep
    60,                       !- Minutes per Item
    Yes;                      !- Adjust Schedule for Daylight Savings

SCHEDULE:FILE,
    EU_Step8_GainSchedule_af3917251b85a42e_F0_dwelling_3_f000,    !- Name
    EU_Step8_AnyNumber_Wm2,    !- Schedule Type Limits Name
    ../../schedules/af3917251b85a42e/af3917251b85a42e_F0_dwelling_3_f000_gain.csv,    !- File Name
    1,                        !- Column Number
    0,                        !- Rows to Skip at Top
    8760,                     !- Number of Hours of Data
    Comma,                    !- Column Separator
    No,                       !- Interpolate to Timestep
    60,                       !- Minutes per Item
    Yes;                      !- Adjust Schedule for Daylight Savings

SCHEDULE:FILE,
    EU_Step8_GainSchedule_af3917251b85a42e_F0_dwelling_4_f000,    !- Name
    EU_Step8_AnyNumber_Wm2,    !- Schedule Type Limits Name
    ../../schedules/af3917251b85a42e/af3917251b85a42e_F0_dwelling_4_f000_gain.csv,    !- File Name
    1,                        !- Column Number
    0,                        !- Rows to Skip at Top
    8760,                     !- Number of Hours of Data
    Comma,                    !- Column Separator
    No,                       !- Interpolate to Timestep
    60,                       !- Minutes per Item
    Yes;                      !- Adjust Schedule for Daylight Savings

SCHEDULE:FILE,
    EU_Step8_GainSchedule_af3917251b85a42e_F0_dwelling_5_f000,    !- Name
    EU_Step8_AnyNumber_Wm2,    !- Schedule Type Limits Name
    ../../schedules/af3917251b85a42e/af3917251b85a42e_F0_dwelling_5_f000_gain.csv,    !- File Name
    1,                        !- Column Number
    0,                        !- Rows to Skip at Top
    8760,                     !- Number of Hours of Data
    Comma,                    !- Column Separator
    No,                       !- Interpolate to Timestep
    60,                       !- Minutes per Item
    Yes;                      !- Adjust Schedule for Daylight Savings

SCHEDULE:FILE,
    EU_Step8_GainSchedule_af3917251b85a42e_F0_dwelling_6_f000,    !- Name
    EU_Step8_AnyNumber_Wm2,    !- Schedule Type Limits Name
    ../../schedules/af3917251b85a42e/af3917251b85a42e_F0_dwelling_6_f000_gain.csv,    !- File Name
    1,                        !- Column Number
    0,                        !- Rows to Skip at Top
    8760,                     !- Number of Hours of Data
    Comma,                    !- Column Separator
    No,                       !- Interpolate to Timestep
    60,                       !- Minutes per Item
    Yes;                      !- Adjust Schedule for Daylight Savings

SCHEDULE:FILE,
    EU_Step8_GainSchedule_af3917251b85a42e_F0_dwelling_7_f000,    !- Name
    EU_Step8_AnyNumber_Wm2,    !- Schedule Type Limits Name
    ../../schedules/af3917251b85a42e/af3917251b85a42e_F0_dwelling_7_f000_gain.csv,    !- File Name
    1,                        !- Column Number
    0,                        !- Rows to Skip at Top
    8760,                     !- Number of Hours of Data
    Comma,                    !- Column Separator
    No,                       !- Interpolate to Timestep
    60,                       !- Minutes per Item
    Yes;                      !- Adjust Schedule for Daylight Savings

SCHEDULE:FILE,
    EU_Step8_GainSchedule_af3917251b85a42e_F1_dwelling_0_f000,    !- Name
    EU_Step8_AnyNumber_Wm2,    !- Schedule Type Limits Name
    ../../schedules/af3917251b85a42e/af3917251b85a42e_F1_dwelling_0_f000_gain.csv,    !- File Name
    1,                        !- Column Number
    0,                        !- Rows to Skip at Top
    8760,                     !- Number of Hours of Data
    Comma,                    !- Column Separator
    No,                       !- Interpolate to Timestep
    60,                       !- Minutes per Item
    Yes;                      !- Adjust Schedule for Daylight Savings

SCHEDULE:FILE,
    EU_Step8_GainSchedule_af3917251b85a42e_F1_dwelling_1_f000,    !- Name
    EU_Step8_AnyNumber_Wm2,    !- Schedule Type Limits Name
    ../../schedules/af3917251b85a42e/af3917251b85a42e_F1_dwelling_1_f000_gain.csv,    !- File Name
    1,                        !- Column Number
    0,                        !- Rows to Skip at Top
    8760,                     !- Number of Hours of Data
    Comma,                    !- Column Separator
    No,                       !- Interpolate to Timestep
    60,                       !- Minutes per Item
    Yes;                      !- Adjust Schedule for Daylight Savings

SCHEDULE:FILE,
    EU_Step8_GainSchedule_af3917251b85a42e_F1_dwelling_2_f000,    !- Name
    EU_Step8_AnyNumber_Wm2,    !- Schedule Type Limits Name
    ../../schedules/af3917251b85a42e/af3917251b85a42e_F1_dwelling_2_f000_gain.csv,    !- File Name
    1,                        !- Column Number
    0,                        !- Rows to Skip at Top
    8760,                     !- Number of Hours of Data
    Comma,                    !- Column Separator
    No,                       !- Interpolate to Timestep
    60,                       !- Minutes per Item
    Yes;                      !- Adjust Schedule for Daylight Savings

SCHEDULE:FILE,
    EU_Step8_GainSchedule_af3917251b85a42e_F1_dwelling_3_f000,    !- Name
    EU_Step8_AnyNumber_Wm2,    !- Schedule Type Limits Name
    ../../schedules/af3917251b85a42e/af3917251b85a42e_F1_dwelling_3_f000_gain.csv,    !- File Name
    1,                        !- Column Number
    0,                        !- Rows to Skip at Top
    8760,                     !- Number of Hours of Data
    Comma,                    !- Column Separator
    No,                       !- Interpolate to Timestep
    60,                       !- Minutes per Item
    Yes;                      !- Adjust Schedule for Daylight Savings

SCHEDULE:FILE,
    EU_Step8_GainSchedule_af3917251b85a42e_F1_dwelling_4_f000,    !- Name
    EU_Step8_AnyNumber_Wm2,    !- Schedule Type Limits Name
    ../../schedules/af3917251b85a42e/af3917251b85a42e_F1_dwelling_4_f000_gain.csv,    !- File Name
    1,                        !- Column Number
    0,                        !- Rows to Skip at Top
    8760,                     !- Number of Hours of Data
    Comma,                    !- Column Separator
    No,                       !- Interpolate to Timestep
    60,                       !- Minutes per Item
    Yes;                      !- Adjust Schedule for Daylight Savings

SCHEDULE:FILE,
    EU_Step8_GainSchedule_af3917251b85a42e_F1_dwelling_5_f000,    !- Name
    EU_Step8_AnyNumber_Wm2,    !- Schedule Type Limits Name
    ../../schedules/af3917251b85a42e/af3917251b85a42e_F1_dwelling_5_f000_gain.csv,    !- File Name
    1,                        !- Column Number
    0,                        !- Rows to Skip at Top
    8760,                     !- Number of Hours of Data
    Comma,                    !- Column Separator
    No,                       !- Interpolate to Timestep
    60,                       !- Minutes per Item
    Yes;                      !- Adjust Schedule for Daylight Savings

SCHEDULE:FILE,
    EU_Step8_GainSchedule_af3917251b85a42e_F1_dwelling_6_f000,    !- Name
    EU_Step8_AnyNumber_Wm2,    !- Schedule Type Limits Name
    ../../schedules/af3917251b85a42e/af3917251b85a42e_F1_dwelling_6_f000_gain.csv,    !- File Name
    1,                        !- Column Number
    0,                        !- Rows to Skip at Top
    8760,                     !- Number of Hours of Data
    Comma,                    !- Column Separator
    No,                       !- Interpolate to Timestep
    60,                       !- Minutes per Item
    Yes;                      !- Adjust Schedule for Daylight Savings

SCHEDULE:FILE,
    EU_Step8_GainSchedule_af3917251b85a42e_F1_dwelling_7_f000,    !- Name
    EU_Step8_AnyNumber_Wm2,    !- Schedule Type Limits Name
    ../../schedules/af3917251b85a42e/af3917251b85a42e_F1_dwelling_7_f000_gain.csv,    !- File Name
    1,                        !- Column Number
    0,                        !- Rows to Skip at Top
    8760,                     !- Number of Hours of Data
    Comma,                    !- Column Separator
    No,                       !- Interpolate to Timestep
    60,                       !- Minutes per Item
    Yes;                      !- Adjust Schedule for Daylight Savings

SCHEDULE:FILE,
    EU_Step8_GainSchedule_af3917251b85a42e_F2_dwelling_0_f000,    !- Name
    EU_Step8_AnyNumber_Wm2,    !- Schedule Type Limits Name
    ../../schedules/af3917251b85a42e/af3917251b85a42e_F2_dwelling_0_f000_gain.csv,    !- File Name
    1,                        !- Column Number
    0,                        !- Rows to Skip at Top
    8760,                     !- Number of Hours of Data
    Comma,                    !- Column Separator
    No,                       !- Interpolate to Timestep
    60,                       !- Minutes per Item
    Yes;                      !- Adjust Schedule for Daylight Savings

SCHEDULE:FILE,
    EU_Step8_GainSchedule_af3917251b85a42e_F2_dwelling_1_f000,    !- Name
    EU_Step8_AnyNumber_Wm2,    !- Schedule Type Limits Name
    ../../schedules/af3917251b85a42e/af3917251b85a42e_F2_dwelling_1_f000_gain.csv,    !- File Name
    1,                        !- Column Number
    0,                        !- Rows to Skip at Top
    8760,                     !- Number of Hours of Data
    Comma,                    !- Column Separator
    No,                       !- Interpolate to Timestep
    60,                       !- Minutes per Item
    Yes;                      !- Adjust Schedule for Daylight Savings

SCHEDULE:FILE,
    EU_Step8_GainSchedule_af3917251b85a42e_F2_dwelling_2_f000,    !- Name
    EU_Step8_AnyNumber_Wm2,    !- Schedule Type Limits Name
    ../../schedules/af3917251b85a42e/af3917251b85a42e_F2_dwelling_2_f000_gain.csv,    !- File Name
    1,                        !- Column Number
    0,                        !- Rows to Skip at Top
    8760,                     !- Number of Hours of Data
    Comma,                    !- Column Separator
    No,                       !- Interpolate to Timestep
    60,                       !- Minutes per Item
    Yes;                      !- Adjust Schedule for Daylight Savings

SCHEDULE:FILE,
    EU_Step8_GainSchedule_af3917251b85a42e_F2_dwelling_3_f000,    !- Name
    EU_Step8_AnyNumber_Wm2,    !- Schedule Type Limits Name
    ../../schedules/af3917251b85a42e/af3917251b85a42e_F2_dwelling_3_f000_gain.csv,    !- File Name
    1,                        !- Column Number
    0,                        !- Rows to Skip at Top
    8760,                     !- Number of Hours of Data
    Comma,                    !- Column Separator
    No,                       !- Interpolate to Timestep
    60,                       !- Minutes per Item
    Yes;                      !- Adjust Schedule for Daylight Savings

SCHEDULE:FILE,
    EU_Step8_GainSchedule_af3917251b85a42e_F2_dwelling_4_f000,    !- Name
    EU_Step8_AnyNumber_Wm2,    !- Schedule Type Limits Name
    ../../schedules/af3917251b85a42e/af3917251b85a42e_F2_dwelling_4_f000_gain.csv,    !- File Name
    1,                        !- Column Number
    0,                        !- Rows to Skip at Top
    8760,                     !- Number of Hours of Data
    Comma,                    !- Column Separator
    No,                       !- Interpolate to Timestep
    60,                       !- Minutes per Item
    Yes;                      !- Adjust Schedule for Daylight Savings

SCHEDULE:FILE,
    EU_Step8_GainSchedule_af3917251b85a42e_F2_dwelling_5_f000,    !- Name
    EU_Step8_AnyNumber_Wm2,    !- Schedule Type Limits Name
    ../../schedules/af3917251b85a42e/af3917251b85a42e_F2_dwelling_5_f000_gain.csv,    !- File Name
    1,                        !- Column Number
    0,                        !- Rows to Skip at Top
    8760,                     !- Number of Hours of Data
    Comma,                    !- Column Separator
    No,                       !- Interpolate to Timestep
    60,                       !- Minutes per Item
    Yes;                      !- Adjust Schedule for Daylight Savings

SCHEDULE:FILE,
    EU_Step8_GainSchedule_af3917251b85a42e_F2_dwelling_6_f000,    !- Name
    EU_Step8_AnyNumber_Wm2,    !- Schedule Type Limits Name
    ../../schedules/af3917251b85a42e/af3917251b85a42e_F2_dwelling_6_f000_gain.csv,    !- File Name
    1,                        !- Column Number
    0,                        !- Rows to Skip at Top
    8760,                     !- Number of Hours of Data
    Comma,                    !- Column Separator
    No,                       !- Interpolate to Timestep
    60,                       !- Minutes per Item
    Yes;                      !- Adjust Schedule for Daylight Savings

SCHEDULE:FILE,
    EU_Step8_GainSchedule_af3917251b85a42e_F2_dwelling_7_f000,    !- Name
    EU_Step8_AnyNumber_Wm2,    !- Schedule Type Limits Name
    ../../schedules/af3917251b85a42e/af3917251b85a42e_F2_dwelling_7_f000_gain.csv,    !- File Name
    1,                        !- Column Number
    0,                        !- Rows to Skip at Top
    8760,                     !- Number of Hours of Data
    Comma,                    !- Column Separator
    No,                       !- Interpolate to Timestep
    60,                       !- Minutes per Item
    Yes;                      !- Adjust Schedule for Daylight Savings

SCHEDULE:FILE,
    EU_Step8_GainSchedule_af3917251b85a42e_F3_dwelling_0_f000,    !- Name
    EU_Step8_AnyNumber_Wm2,    !- Schedule Type Limits Name
    ../../schedules/af3917251b85a42e/af3917251b85a42e_F3_dwelling_0_f000_gain.csv,    !- File Name
    1,                        !- Column Number
    0,                        !- Rows to Skip at Top
    8760,                     !- Number of Hours of Data
    Comma,                    !- Column Separator
    No,                       !- Interpolate to Timestep
    60,                       !- Minutes per Item
    Yes;                      !- Adjust Schedule for Daylight Savings

SCHEDULE:FILE,
    EU_Step8_GainSchedule_af3917251b85a42e_F3_dwelling_1_f000,    !- Name
    EU_Step8_AnyNumber_Wm2,    !- Schedule Type Limits Name
    ../../schedules/af3917251b85a42e/af3917251b85a42e_F3_dwelling_1_f000_gain.csv,    !- File Name
    1,                        !- Column Number
    0,                        !- Rows to Skip at Top
    8760,                     !- Number of Hours of Data
    Comma,                    !- Column Separator
    No,                       !- Interpolate to Timestep
    60,                       !- Minutes per Item
    Yes;                      !- Adjust Schedule for Daylight Savings

SCHEDULE:FILE,
    EU_Step8_GainSchedule_af3917251b85a42e_F3_dwelling_2_f000,    !- Name
    EU_Step8_AnyNumber_Wm2,    !- Schedule Type Limits Name
    ../../schedules/af3917251b85a42e/af3917251b85a42e_F3_dwelling_2_f000_gain.csv,    !- File Name
    1,                        !- Column Number
    0,                        !- Rows to Skip at Top
    8760,                     !- Number of Hours of Data
    Comma,                    !- Column Separator
    No,                       !- Interpolate to Timestep
    60,                       !- Minutes per Item
    Yes;                      !- Adjust Schedule for Daylight Savings

SCHEDULE:FILE,
    EU_Step8_GainSchedule_af3917251b85a42e_F3_dwelling_3_f000,    !- Name
    EU_Step8_AnyNumber_Wm2,    !- Schedule Type Limits Name
    ../../schedules/af3917251b85a42e/af3917251b85a42e_F3_dwelling_3_f000_gain.csv,    !- File Name
    1,                        !- Column Number
    0,                        !- Rows to Skip at Top
    8760,                     !- Number of Hours of Data
    Comma,                    !- Column Separator
    No,                       !- Interpolate to Timestep
    60,                       !- Minutes per Item
    Yes;                      !- Adjust Schedule for Daylight Savings

SCHEDULE:FILE,
    EU_Step8_GainSchedule_af3917251b85a42e_F3_dwelling_4_f000,    !- Name
    EU_Step8_AnyNumber_Wm2,    !- Schedule Type Limits Name
    ../../schedules/af3917251b85a42e/af3917251b85a42e_F3_dwelling_4_f000_gain.csv,    !- File Name
    1,                        !- Column Number
    0,                        !- Rows to Skip at Top
    8760,                     !- Number of Hours of Data
    Comma,                    !- Column Separator
    No,                       !- Interpolate to Timestep
    60,                       !- Minutes per Item
    Yes;                      !- Adjust Schedule for Daylight Savings

SCHEDULE:FILE,
    EU_Step8_GainSchedule_af3917251b85a42e_F3_dwelling_5_f000,    !- Name
    EU_Step8_AnyNumber_Wm2,    !- Schedule Type Limits Name
    ../../schedules/af3917251b85a42e/af3917251b85a42e_F3_dwelling_5_f000_gain.csv,    !- File Name
    1,                        !- Column Number
    0,                        !- Rows to Skip at Top
    8760,                     !- Number of Hours of Data
    Comma,                    !- Column Separator
    No,                       !- Interpolate to Timestep
    60,                       !- Minutes per Item
    Yes;                      !- Adjust Schedule for Daylight Savings

SCHEDULE:FILE,
    EU_Step8_GainSchedule_af3917251b85a42e_F3_dwelling_6_f000,    !- Name
    EU_Step8_AnyNumber_Wm2,    !- Schedule Type Limits Name
    ../../schedules/af3917251b85a42e/af3917251b85a42e_F3_dwelling_6_f000_gain.csv,    !- File Name
    1,                        !- Column Number
    0,                        !- Rows to Skip at Top
    8760,                     !- Number of Hours of Data
    Comma,                    !- Column Separator
    No,                       !- Interpolate to Timestep
    60,                       !- Minutes per Item
    Yes;                      !- Adjust Schedule for Daylight Savings

SCHEDULE:FILE,
    EU_Step8_GainSchedule_af3917251b85a42e_F3_dwelling_7_f000,    !- Name
    EU_Step8_AnyNumber_Wm2,    !- Schedule Type Limits Name
    ../../schedules/af3917251b85a42e/af3917251b85a42e_F3_dwelling_7_f000_gain.csv,    !- File Name
    1,                        !- Column Number
    0,                        !- Rows to Skip at Top
    8760,                     !- Number of Hours of Data
    Comma,                    !- Column Separator
    No,                       !- Interpolate to Timestep
    60,                       !- Minutes per Item
    Yes;                      !- Adjust Schedule for Daylight Savings

SCHEDULE:FILE,
    EU_Step8_GainSchedule_af3917251b85a42e_F4_dwelling_0_f000,    !- Name
    EU_Step8_AnyNumber_Wm2,    !- Schedule Type Limits Name
    ../../schedules/af3917251b85a42e/af3917251b85a42e_F4_dwelling_0_f000_gain.csv,    !- File Name
    1,                        !- Column Number
    0,                        !- Rows to Skip at Top
    8760,                     !- Number of Hours of Data
    Comma,                    !- Column Separator
    No,                       !- Interpolate to Timestep
    60,                       !- Minutes per Item
    Yes;                      !- Adjust Schedule for Daylight Savings

SCHEDULE:FILE,
    EU_Step8_GainSchedule_af3917251b85a42e_F4_dwelling_1_f000,    !- Name
    EU_Step8_AnyNumber_Wm2,    !- Schedule Type Limits Name
    ../../schedules/af3917251b85a42e/af3917251b85a42e_F4_dwelling_1_f000_gain.csv,    !- File Name
    1,                        !- Column Number
    0,                        !- Rows to Skip at Top
    8760,                     !- Number of Hours of Data
    Comma,                    !- Column Separator
    No,                       !- Interpolate to Timestep
    60,                       !- Minutes per Item
    Yes;                      !- Adjust Schedule for Daylight Savings

SCHEDULE:FILE,
    EU_Step8_GainSchedule_af3917251b85a42e_F4_dwelling_2_f000,    !- Name
    EU_Step8_AnyNumber_Wm2,    !- Schedule Type Limits Name
    ../../schedules/af3917251b85a42e/af3917251b85a42e_F4_dwelling_2_f000_gain.csv,    !- File Name
    1,                        !- Column Number
    0,                        !- Rows to Skip at Top
    8760,                     !- Number of Hours of Data
    Comma,                    !- Column Separator
    No,                       !- Interpolate to Timestep
    60,                       !- Minutes per Item
    Yes;                      !- Adjust Schedule for Daylight Savings

SCHEDULE:FILE,
    EU_Step8_GainSchedule_af3917251b85a42e_F4_dwelling_3_f000,    !- Name
    EU_Step8_AnyNumber_Wm2,    !- Schedule Type Limits Name
    ../../schedules/af3917251b85a42e/af3917251b85a42e_F4_dwelling_3_f000_gain.csv,    !- File Name
    1,                        !- Column Number
    0,                        !- Rows to Skip at Top
    8760,                     !- Number of Hours of Data
    Comma,                    !- Column Separator
    No,                       !- Interpolate to Timestep
    60,                       !- Minutes per Item
    Yes;                      !- Adjust Schedule for Daylight Savings

SCHEDULE:FILE,
    EU_Step8_GainSchedule_af3917251b85a42e_F4_dwelling_4_f000,    !- Name
    EU_Step8_AnyNumber_Wm2,    !- Schedule Type Limits Name
    ../../schedules/af3917251b85a42e/af3917251b85a42e_F4_dwelling_4_f000_gain.csv,    !- File Name
    1,                        !- Column Number
    0,                        !- Rows to Skip at Top
    8760,                     !- Number of Hours of Data
    Comma,                    !- Column Separator
    No,                       !- Interpolate to Timestep
    60,                       !- Minutes per Item
    Yes;                      !- Adjust Schedule for Daylight Savings

SCHEDULE:FILE,
    EU_Step8_GainSchedule_af3917251b85a42e_F4_dwelling_5_f000,    !- Name
    EU_Step8_AnyNumber_Wm2,    !- Schedule Type Limits Name
    ../../schedules/af3917251b85a42e/af3917251b85a42e_F4_dwelling_5_f000_gain.csv,    !- File Name
    1,                        !- Column Number
    0,                        !- Rows to Skip at Top
    8760,                     !- Number of Hours of Data
    Comma,                    !- Column Separator
    No,                       !- Interpolate to Timestep
    60,                       !- Minutes per Item
    Yes;                      !- Adjust Schedule for Daylight Savings

SCHEDULE:FILE,
    EU_Step8_GainSchedule_af3917251b85a42e_F4_dwelling_6_f000,    !- Name
    EU_Step8_AnyNumber_Wm2,    !- Schedule Type Limits Name
    ../../schedules/af3917251b85a42e/af3917251b85a42e_F4_dwelling_6_f000_gain.csv,    !- File Name
    1,                        !- Column Number
    0,                        !- Rows to Skip at Top
    8760,                     !- Number of Hours of Data
    Comma,                    !- Column Separator
    No,                       !- Interpolate to Timestep
    60,                       !- Minutes per Item
    Yes;                      !- Adjust Schedule for Daylight Savings

SCHEDULE:FILE,
    EU_Step8_GainSchedule_af3917251b85a42e_F4_dwelling_7_f000,    !- Name
    EU_Step8_AnyNumber_Wm2,    !- Schedule Type Limits Name
    ../../schedules/af3917251b85a42e/af3917251b85a42e_F4_dwelling_7_f000_gain.csv,    !- File Name
    1,                        !- Column Number
    0,                        !- Rows to Skip at Top
    8760,                     !- Number of Hours of Data
    Comma,                    !- Column Separator
    No,                       !- Interpolate to Timestep
    60,                       !- Minutes per Item
    Yes;                      !- Adjust Schedule for Daylight Savings

MATERIAL,
    EU_InternalMass_Material,    !- Name
    MediumRough,              !- Roughness
    0.1,                      !- Thickness
    1,                        !- Conductivity
    1800,                     !- Density
    900,                      !- Specific Heat
    0.9,                      !- Thermal Absorptance
    0.7,                      !- Solar Absorptance
    0.7;                      !- Visible Absorptance

MATERIAL:NOMASS,
    EU_wall_NoMass,           !- Name
    MediumRough,              !- Roughness
    0.8902132002278446,       !- Thermal Resistance
    0.9,                      !- Thermal Absorptance
    0.7,                      !- Solar Absorptance
    0.7;                      !- Visible Absorptance

MATERIAL:NOMASS,
    EU_roof_NoMass,           !- Name
    MediumRough,              !- Roughness
    0.6361277588383281,       !- Thermal Resistance
    0.9,                      !- Thermal Absorptance
    0.7,                      !- Solar Absorptance
    0.7;                      !- Visible Absorptance

MATERIAL:NOMASS,
    EU_floor_NoMass,          !- Name
    MediumRough,              !- Roughness
    0.7951596985479099,       !- Thermal Resistance
    0.9,                      !- Thermal Absorptance
    0.7,                      !- Solar Absorptance
    0.7;                      !- Visible Absorptance

CONSTRUCTION,
    EU_wall_Construction,     !- Name
    EU_wall_NoMass;           !- Outside Layer

CONSTRUCTION,
    EU_roof_Construction,     !- Name
    EU_roof_NoMass;           !- Outside Layer

CONSTRUCTION,
    EU_floor_Construction,    !- Name
    EU_floor_NoMass;          !- Outside Layer

CONSTRUCTION,
    EU_InternalMass_Construction,    !- Name
    EU_InternalMass_Material;    !- Outside Layer

GlobalGeometryRules,
    UpperLeftCorner,          !- Starting Vertex Position
    CounterClockWise,         !- Vertex Entry Direction
    World;                    !- Coordinate System

ZONE,
    af3917251b85a42e_F0_dwelling_0,    !- Name
    0,                        !- Direction of Relative North
    0,                        !- X Origin
    0,                        !- Y Origin
    0,                        !- Z Origin
    1,                        !- Type
    1,                        !- Multiplier
    autocalculate,            !- Ceiling Height
    118.89990234375,          !- Volume
    autocalculate,            !- Floor Area
    ,                         !- Zone Inside Convection Algorithm
    ,                         !- Zone Outside Convection Algorithm
    Yes;                      !- Part of Total Floor Area

ZONE,
    af3917251b85a42e_F1_dwelling_0,    !- Name
    0,                        !- Direction of Relative North
    0,                        !- X Origin
    0,                        !- Y Origin
    0,                        !- Z Origin
    1,                        !- Type
    1,                        !- Multiplier
    autocalculate,            !- Ceiling Height
    118.8984375,              !- Volume
    autocalculate,            !- Floor Area
    ,                         !- Zone Inside Convection Algorithm
    ,                         !- Zone Outside Convection Algorithm
    Yes;                      !- Part of Total Floor Area

ZONE,
    af3917251b85a42e_F2_dwelling_0,    !- Name
    0,                        !- Direction of Relative North
    0,                        !- X Origin
    0,                        !- Y Origin
    0,                        !- Z Origin
    1,                        !- Type
    1,                        !- Multiplier
    autocalculate,            !- Ceiling Height
    118.8984375,              !- Volume
    autocalculate,            !- Floor Area
    ,                         !- Zone Inside Convection Algorithm
    ,                         !- Zone Outside Convection Algorithm
    Yes;                      !- Part of Total Floor Area

ZONE,
    af3917251b85a42e_F3_dwelling_0,    !- Name
    0,                        !- Direction of Relative North
    0,                        !- X Origin
    0,                        !- Y Origin
    0,                        !- Z Origin
    1,                        !- Type
    1,                        !- Multiplier
    autocalculate,            !- Ceiling Height
    118.8984375,              !- Volume
    autocalculate,            !- Floor Area
    ,                         !- Zone Inside Convection Algorithm
    ,                         !- Zone Outside Convection Algorithm
    Yes;                      !- Part of Total Floor Area

ZONE,
    af3917251b85a42e_F4_dwelling_0,    !- Name
    0,                        !- Direction of Relative North
    0,                        !- X Origin
    0,                        !- Y Origin
    0,                        !- Z Origin
    1,                        !- Type
    1,                        !- Multiplier
    autocalculate,            !- Ceiling Height
    118.8984375,              !- Volume
    autocalculate,            !- Floor Area
    ,                         !- Zone Inside Convection Algorithm
    ,                         !- Zone Outside Convection Algorithm
    Yes;                      !- Part of Total Floor Area

ZONE,
    af3917251b85a42e_F0_dwelling_1,    !- Name
    0,                        !- Direction of Relative North
    0,                        !- X Origin
    0,                        !- Y Origin
    0,                        !- Z Origin
    1,                        !- Type
    1,                        !- Multiplier
    autocalculate,            !- Ceiling Height
    125.90185546875,          !- Volume
    autocalculate,            !- Floor Area
    ,                         !- Zone Inside Convection Algorithm
    ,                         !- Zone Outside Convection Algorithm
    Yes;                      !- Part of Total Floor Area

ZONE,
    af3917251b85a42e_F1_dwelling_1,    !- Name
    0,                        !- Direction of Relative North
    0,                        !- X Origin
    0,                        !- Y Origin
    0,                        !- Z Origin
    1,                        !- Type
    1,                        !- Multiplier
    autocalculate,            !- Ceiling Height
    125.90185546875,          !- Volume
    autocalculate,            !- Floor Area
    ,                         !- Zone Inside Convection Algorithm
    ,                         !- Zone Outside Convection Algorithm
    Yes;                      !- Part of Total Floor Area

ZONE,
    af3917251b85a42e_F2_dwelling_1,    !- Name
    0,                        !- Direction of Relative North
    0,                        !- X Origin
    0,                        !- Y Origin
    0,                        !- Z Origin
    1,                        !- Type
    1,                        !- Multiplier
    autocalculate,            !- Ceiling Height
    125.90185546875,          !- Volume
    autocalculate,            !- Floor Area
    ,                         !- Zone Inside Convection Algorithm
    ,                         !- Zone Outside Convection Algorithm
    Yes;                      !- Part of Total Floor Area

ZONE,
    af3917251b85a42e_F3_dwelling_1,    !- Name
    0,                        !- Direction of Relative North
    0,                        !- X Origin
    0,                        !- Y Origin
    0,                        !- Z Origin
    1,                        !- Type
    1,                        !- Multiplier
    autocalculate,            !- Ceiling Height
    125.90185546875,          !- Volume
    autocalculate,            !- Floor Area
    ,                         !- Zone Inside Convection Algorithm
    ,                         !- Zone Outside Convection Algorithm
    Yes;                      !- Part of Total Floor Area

ZONE,
    af3917251b85a42e_F4_dwelling_1,    !- Name
    0,                        !- Direction of Relative North
    0,                        !- X Origin
    0,                        !- Y Origin
    0,                        !- Z Origin
    1,                        !- Type
    1,                        !- Multiplier
    autocalculate,            !- Ceiling Height
    125.90185546875,          !- Volume
    autocalculate,            !- Floor Area
    ,                         !- Zone Inside Convection Algorithm
    ,                         !- Zone Outside Convection Algorithm
    Yes;                      !- Part of Total Floor Area

ZONE,
    af3917251b85a42e_F0_dwelling_2,    !- Name
    0,                        !- Direction of Relative North
    0,                        !- X Origin
    0,                        !- Y Origin
    0,                        !- Z Origin
    1,                        !- Type
    1,                        !- Multiplier
    autocalculate,            !- Ceiling Height
    125.90185546875,          !- Volume
    autocalculate,            !- Floor Area
    ,                         !- Zone Inside Convection Algorithm
    ,                         !- Zone Outside Convection Algorithm
    Yes;                      !- Part of Total Floor Area

ZONE,
    af3917251b85a42e_F1_dwelling_2,    !- Name
    0,                        !- Direction of Relative North
    0,                        !- X Origin
    0,                        !- Y Origin
    0,                        !- Z Origin
    1,                        !- Type
    1,                        !- Multiplier
    autocalculate,            !- Ceiling Height
    125.901123046875,         !- Volume
    autocalculate,            !- Floor Area
    ,                         !- Zone Inside Convection Algorithm
    ,                         !- Zone Outside Convection Algorithm
    Yes;                      !- Part of Total Floor Area

ZONE,
    af3917251b85a42e_F2_dwelling_2,    !- Name
    0,                        !- Direction of Relative North
    0,                        !- X Origin
    0,                        !- Y Origin
    0,                        !- Z Origin
    1,                        !- Type
    1,                        !- Multiplier
    autocalculate,            !- Ceiling Height
    125.901123046875,         !- Volume
    autocalculate,            !- Floor Area
    ,                         !- Zone Inside Convection Algorithm
    ,                         !- Zone Outside Convection Algorithm
    Yes;                      !- Part of Total Floor Area

ZONE,
    af3917251b85a42e_F3_dwelling_2,    !- Name
    0,                        !- Direction of Relative North
    0,                        !- X Origin
    0,                        !- Y Origin
    0,                        !- Z Origin
    1,                        !- Type
    1,                        !- Multiplier
    autocalculate,            !- Ceiling Height
    125.901123046875,         !- Volume
    autocalculate,            !- Floor Area
    ,                         !- Zone Inside Convection Algorithm
    ,                         !- Zone Outside Convection Algorithm
    Yes;                      !- Part of Total Floor Area

ZONE,
    af3917251b85a42e_F4_dwelling_2,    !- Name
    0,                        !- Direction of Relative North
    0,                        !- X Origin
    0,                        !- Y Origin
    0,                        !- Z Origin
    1,                        !- Type
    1,                        !- Multiplier
    autocalculate,            !- Ceiling Height
    125.901123046875,         !- Volume
    autocalculate,            !- Floor Area
    ,                         !- Zone Inside Convection Algorithm
    ,                         !- Zone Outside Convection Algorithm
    Yes;                      !- Part of Total Floor Area

ZONE,
    af3917251b85a42e_F0_dwelling_3,    !- Name
    0,                        !- Direction of Relative North
    0,                        !- X Origin
    0,                        !- Y Origin
    0,                        !- Z Origin
    1,                        !- Type
    1,                        !- Multiplier
    autocalculate,            !- Ceiling Height
    116.858642578125,         !- Volume
    autocalculate,            !- Floor Area
    ,                         !- Zone Inside Convection Algorithm
    ,                         !- Zone Outside Convection Algorithm
    Yes;                      !- Part of Total Floor Area

ZONE,
    af3917251b85a42e_F1_dwelling_3,    !- Name
    0,                        !- Direction of Relative North
    0,                        !- X Origin
    0,                        !- Y Origin
    0,                        !- Z Origin
    1,                        !- Type
    1,                        !- Multiplier
    autocalculate,            !- Ceiling Height
    116.859375,               !- Volume
    autocalculate,            !- Floor Area
    ,                         !- Zone Inside Convection Algorithm
    ,                         !- Zone Outside Convection Algorithm
    Yes;                      !- Part of Total Floor Area

ZONE,
    af3917251b85a42e_F2_dwelling_3,    !- Name
    0,                        !- Direction of Relative North
    0,                        !- X Origin
    0,                        !- Y Origin
    0,                        !- Z Origin
    1,                        !- Type
    1,                        !- Multiplier
    autocalculate,            !- Ceiling Height
    116.859375,               !- Volume
    autocalculate,            !- Floor Area
    ,                         !- Zone Inside Convection Algorithm
    ,                         !- Zone Outside Convection Algorithm
    Yes;                      !- Part of Total Floor Area

ZONE,
    af3917251b85a42e_F3_dwelling_3,    !- Name
    0,                        !- Direction of Relative North
    0,                        !- X Origin
    0,                        !- Y Origin
    0,                        !- Z Origin
    1,                        !- Type
    1,                        !- Multiplier
    autocalculate,            !- Ceiling Height
    116.859375,               !- Volume
    autocalculate,            !- Floor Area
    ,                         !- Zone Inside Convection Algorithm
    ,                         !- Zone Outside Convection Algorithm
    Yes;                      !- Part of Total Floor Area

ZONE,
    af3917251b85a42e_F4_dwelling_3,    !- Name
    0,                        !- Direction of Relative North
    0,                        !- X Origin
    0,                        !- Y Origin
    0,                        !- Z Origin
    1,                        !- Type
    1,                        !- Multiplier
    autocalculate,            !- Ceiling Height
    116.859375,               !- Volume
    autocalculate,            !- Floor Area
    ,                         !- Zone Inside Convection Algorithm
    ,                         !- Zone Outside Convection Algorithm
    Yes;                      !- Part of Total Floor Area

ZONE,
    af3917251b85a42e_F0_dwelling_4,    !- Name
    0,                        !- Direction of Relative North
    0,                        !- X Origin
    0,                        !- Y Origin
    0,                        !- Z Origin
    1,                        !- Type
    1,                        !- Multiplier
    autocalculate,            !- Ceiling Height
    117.0322265625,           !- Volume
    autocalculate,            !- Floor Area
    ,                         !- Zone Inside Convection Algorithm
    ,                         !- Zone Outside Convection Algorithm
    Yes;                      !- Part of Total Floor Area

ZONE,
    af3917251b85a42e_F1_dwelling_4,    !- Name
    0,                        !- Direction of Relative North
    0,                        !- X Origin
    0,                        !- Y Origin
    0,                        !- Z Origin
    1,                        !- Type
    1,                        !- Multiplier
    autocalculate,            !- Ceiling Height
    117.031494140625,         !- Volume
    autocalculate,            !- Floor Area
    ,                         !- Zone Inside Convection Algorithm
    ,                         !- Zone Outside Convection Algorithm
    Yes;                      !- Part of Total Floor Area

ZONE,
    af3917251b85a42e_F2_dwelling_4,    !- Name
    0,                        !- Direction of Relative North
    0,                        !- X Origin
    0,                        !- Y Origin
    0,                        !- Z Origin
    1,                        !- Type
    1,                        !- Multiplier
    autocalculate,            !- Ceiling Height
    117.031494140625,         !- Volume
    autocalculate,            !- Floor Area
    ,                         !- Zone Inside Convection Algorithm
    ,                         !- Zone Outside Convection Algorithm
    Yes;                      !- Part of Total Floor Area

ZONE,
    af3917251b85a42e_F3_dwelling_4,    !- Name
    0,                        !- Direction of Relative North
    0,                        !- X Origin
    0,                        !- Y Origin
    0,                        !- Z Origin
    1,                        !- Type
    1,                        !- Multiplier
    autocalculate,            !- Ceiling Height
    117.031494140625,         !- Volume
    autocalculate,            !- Floor Area
    ,                         !- Zone Inside Convection Algorithm
    ,                         !- Zone Outside Convection Algorithm
    Yes;                      !- Part of Total Floor Area

ZONE,
    af3917251b85a42e_F4_dwelling_4,    !- Name
    0,                        !- Direction of Relative North
    0,                        !- X Origin
    0,                        !- Y Origin
    0,                        !- Z Origin
    1,                        !- Type
    1,                        !- Multiplier
    autocalculate,            !- Ceiling Height
    117.031494140625,         !- Volume
    autocalculate,            !- Floor Area
    ,                         !- Zone Inside Convection Algorithm
    ,                         !- Zone Outside Convection Algorithm
    Yes;                      !- Part of Total Floor Area

ZONE,
    af3917251b85a42e_F0_dwelling_5,    !- Name
    0,                        !- Direction of Relative North
    0,                        !- X Origin
    0,                        !- Y Origin
    0,                        !- Z Origin
    1,                        !- Type
    1,                        !- Multiplier
    autocalculate,            !- Ceiling Height
    117.834228515625,         !- Volume
    autocalculate,            !- Floor Area
    ,                         !- Zone Inside Convection Algorithm
    ,                         !- Zone Outside Convection Algorithm
    Yes;                      !- Part of Total Floor Area

ZONE,
    af3917251b85a42e_F1_dwelling_5,    !- Name
    0,                        !- Direction of Relative North
    0,                        !- X Origin
    0,                        !- Y Origin
    0,                        !- Z Origin
    1,                        !- Type
    1,                        !- Multiplier
    autocalculate,            !- Ceiling Height
    117.834228515625,         !- Volume
    autocalculate,            !- Floor Area
    ,                         !- Zone Inside Convection Algorithm
    ,                         !- Zone Outside Convection Algorithm
    Yes;                      !- Part of Total Floor Area

ZONE,
    af3917251b85a42e_F2_dwelling_5,    !- Name
    0,                        !- Direction of Relative North
    0,                        !- X Origin
    0,                        !- Y Origin
    0,                        !- Z Origin
    1,                        !- Type
    1,                        !- Multiplier
    autocalculate,            !- Ceiling Height
    117.834228515625,         !- Volume
    autocalculate,            !- Floor Area
    ,                         !- Zone Inside Convection Algorithm
    ,                         !- Zone Outside Convection Algorithm
    Yes;                      !- Part of Total Floor Area

ZONE,
    af3917251b85a42e_F3_dwelling_5,    !- Name
    0,                        !- Direction of Relative North
    0,                        !- X Origin
    0,                        !- Y Origin
    0,                        !- Z Origin
    1,                        !- Type
    1,                        !- Multiplier
    autocalculate,            !- Ceiling Height
    117.834228515625,         !- Volume
    autocalculate,            !- Floor Area
    ,                         !- Zone Inside Convection Algorithm
    ,                         !- Zone Outside Convection Algorithm
    Yes;                      !- Part of Total Floor Area

ZONE,
    af3917251b85a42e_F4_dwelling_5,    !- Name
    0,                        !- Direction of Relative North
    0,                        !- X Origin
    0,                        !- Y Origin
    0,                        !- Z Origin
    1,                        !- Type
    1,                        !- Multiplier
    autocalculate,            !- Ceiling Height
    117.834228515625,         !- Volume
    autocalculate,            !- Floor Area
    ,                         !- Zone Inside Convection Algorithm
    ,                         !- Zone Outside Convection Algorithm
    Yes;                      !- Part of Total Floor Area

ZONE,
    af3917251b85a42e_F0_dwelling_6,    !- Name
    0,                        !- Direction of Relative North
    0,                        !- X Origin
    0,                        !- Y Origin
    0,                        !- Z Origin
    1,                        !- Type
    1,                        !- Multiplier
    autocalculate,            !- Ceiling Height
    146.253662109375,         !- Volume
    autocalculate,            !- Floor Area
    ,                         !- Zone Inside Convection Algorithm
    ,                         !- Zone Outside Convection Algorithm
    Yes;                      !- Part of Total Floor Area

ZONE,
    af3917251b85a42e_F1_dwelling_6,    !- Name
    0,                        !- Direction of Relative North
    0,                        !- X Origin
    0,                        !- Y Origin
    0,                        !- Z Origin
    1,                        !- Type
    1,                        !- Multiplier
    autocalculate,            !- Ceiling Height
    146.25439453125,          !- Volume
    autocalculate,            !- Floor Area
    ,                         !- Zone Inside Convection Algorithm
    ,                         !- Zone Outside Convection Algorithm
    Yes;                      !- Part of Total Floor Area

ZONE,
    af3917251b85a42e_F2_dwelling_6,    !- Name
    0,                        !- Direction of Relative North
    0,                        !- X Origin
    0,                        !- Y Origin
    0,                        !- Z Origin
    1,                        !- Type
    1,                        !- Multiplier
    autocalculate,            !- Ceiling Height
    146.25439453125,          !- Volume
    autocalculate,            !- Floor Area
    ,                         !- Zone Inside Convection Algorithm
    ,                         !- Zone Outside Convection Algorithm
    Yes;                      !- Part of Total Floor Area

ZONE,
    af3917251b85a42e_F3_dwelling_6,    !- Name
    0,                        !- Direction of Relative North
    0,                        !- X Origin
    0,                        !- Y Origin
    0,                        !- Z Origin
    1,                        !- Type
    1,                        !- Multiplier
    autocalculate,            !- Ceiling Height
    146.25439453125,          !- Volume
    autocalculate,            !- Floor Area
    ,                         !- Zone Inside Convection Algorithm
    ,                         !- Zone Outside Convection Algorithm
    Yes;                      !- Part of Total Floor Area

ZONE,
    af3917251b85a42e_F4_dwelling_6,    !- Name
    0,                        !- Direction of Relative North
    0,                        !- X Origin
    0,                        !- Y Origin
    0,                        !- Z Origin
    1,                        !- Type
    1,                        !- Multiplier
    autocalculate,            !- Ceiling Height
    146.25439453125,          !- Volume
    autocalculate,            !- Floor Area
    ,                         !- Zone Inside Convection Algorithm
    ,                         !- Zone Outside Convection Algorithm
    Yes;                      !- Part of Total Floor Area

ZONE,
    af3917251b85a42e_F0_dwelling_7,    !- Name
    0,                        !- Direction of Relative North
    0,                        !- X Origin
    0,                        !- Y Origin
    0,                        !- Z Origin
    1,                        !- Type
    1,                        !- Multiplier
    autocalculate,            !- Ceiling Height
    1923.64306640625,         !- Volume
    autocalculate,            !- Floor Area
    ,                         !- Zone Inside Convection Algorithm
    ,                         !- Zone Outside Convection Algorithm
    Yes;                      !- Part of Total Floor Area

ZONE,
    af3917251b85a42e_F1_dwelling_7,    !- Name
    0,                        !- Direction of Relative North
    0,                        !- X Origin
    0,                        !- Y Origin
    0,                        !- Z Origin
    1,                        !- Type
    1,                        !- Multiplier
    autocalculate,            !- Ceiling Height
    1923.642333984375,        !- Volume
    autocalculate,            !- Floor Area
    ,                         !- Zone Inside Convection Algorithm
    ,                         !- Zone Outside Convection Algorithm
    Yes;                      !- Part of Total Floor Area

ZONE,
    af3917251b85a42e_F2_dwelling_7,    !- Name
    0,                        !- Direction of Relative North
    0,                        !- X Origin
    0,                        !- Y Origin
    0,                        !- Z Origin
    1,                        !- Type
    1,                        !- Multiplier
    autocalculate,            !- Ceiling Height
    1923.642333984375,        !- Volume
    autocalculate,            !- Floor Area
    ,                         !- Zone Inside Convection Algorithm
    ,                         !- Zone Outside Convection Algorithm
    Yes;                      !- Part of Total Floor Area

ZONE,
    af3917251b85a42e_F3_dwelling_7,    !- Name
    0,                        !- Direction of Relative North
    0,                        !- X Origin
    0,                        !- Y Origin
    0,                        !- Z Origin
    1,                        !- Type
    1,                        !- Multiplier
    autocalculate,            !- Ceiling Height
    1923.642333984375,        !- Volume
    autocalculate,            !- Floor Area
    ,                         !- Zone Inside Convection Algorithm
    ,                         !- Zone Outside Convection Algorithm
    Yes;                      !- Part of Total Floor Area

ZONE,
    af3917251b85a42e_F4_dwelling_7,    !- Name
    0,                        !- Direction of Relative North
    0,                        !- X Origin
    0,                        !- Y Origin
    0,                        !- Z Origin
    1,                        !- Type
    1,                        !- Multiplier
    autocalculate,            !- Ceiling Height
    1923.642333984375,        !- Volume
    autocalculate,            !- Floor Area
    ,                         !- Zone Inside Convection Algorithm
    ,                         !- Zone Outside Convection Algorithm
    Yes;                      !- Part of Total Floor Area

BUILDINGSURFACE:DETAILED,
    Block af3917251b85a42e_0 Storey 0 Wall 0002,    !- Name
    wall,                     !- Surface Type
    EU_wall_Construction,     !- Construction Name
    af3917251b85a42e_F0_dwelling_0,    !- Zone Name
    ,                         !- Space Name
    outdoors,                 !- Outside Boundary Condition
    ,                         !- Outside Boundary Condition Object
    SunExposed,               !- Sun Exposure
    WindExposed,              !- Wind Exposure
    autocalculate,            !- View Factor to Ground
    autocalculate,            !- Number of Vertices
    687122.044,               !- Vertex 1 Xcoordinate
    4928957.101,              !- Vertex 1 Ycoordinate
    3,                        !- Vertex 1 Zcoordinate
    687122.044,               !- Vertex 2 Xcoordinate
    4928957.101,              !- Vertex 2 Ycoordinate
    0,                        !- Vertex 2 Zcoordinate
    687125.516,               !- Vertex 3 Xcoordinate
    4928954.968,              !- Vertex 3 Ycoordinate
    0,                        !- Vertex 3 Zcoordinate
    687125.516,               !- Vertex 4 Xcoordinate
    4928954.968,              !- Vertex 4 Ycoordinate
    3;                        !- Vertex 4 Zcoordinate

BUILDINGSURFACE:DETAILED,
    Block af3917251b85a42e_0 Storey 0 Wall 0003,    !- Name
    wall,                     !- Surface Type
    EU_wall_Construction,     !- Construction Name
    af3917251b85a42e_F0_dwelling_0,    !- Zone Name
    ,                         !- Space Name
    Adiabatic,                !- Outside Boundary Condition
    ,                         !- Outside Boundary Condition Object
    NoSun,                    !- Sun Exposure
    NoWind,                   !- Wind Exposure
    autocalculate,            !- View Factor to Ground
    autocalculate,            !- Number of Vertices
    687125.516,               !- Vertex 1 Xcoordinate
    4928954.968,              !- Vertex 1 Ycoordinate
    3,                        !- Vertex 1 Zcoordinate
    687125.516,               !- Vertex 2 Xcoordinate
    4928954.968,              !- Vertex 2 Ycoordinate
    0,                        !- Vertex 2 Zcoordinate
    687120.506,               !- Vertex 3 Xcoordinate
    4928946.698,              !- Vertex 3 Ycoordinate
    0,                        !- Vertex 3 Zcoordinate
    687120.506,               !- Vertex 4 Xcoordinate
    4928946.698,              !- Vertex 4 Ycoordinate
    3;                        !- Vertex 4 Zcoordinate

BUILDINGSURFACE:DETAILED,
    Block af3917251b85a42e_0 Storey 0 Wall 0004,    !- Name
    wall,                     !- Surface Type
    EU_wall_Construction,     !- Construction Name
    af3917251b85a42e_F0_dwelling_0,    !- Zone Name
    ,                         !- Space Name
    outdoors,                 !- Outside Boundary Condition
    ,                         !- Outside Boundary Condition Object
    SunExposed,               !- Sun Exposure
    WindExposed,              !- Wind Exposure
    autocalculate,            !- View Factor to Ground
    autocalculate,            !- Number of Vertices
    687120.506,               !- Vertex 1 Xcoordinate
    4928946.698,              !- Vertex 1 Ycoordinate
    3,                        !- Vertex 1 Zcoordinate
    687120.506,               !- Vertex 2 Xcoordinate
    4928946.698,              !- Vertex 2 Ycoordinate
    0,                        !- Vertex 2 Zcoordinate
    687116.992,               !- Vertex 3 Xcoordinate
    4928948.85,               !- Vertex 3 Ycoordinate
    0,                        !- Vertex 3 Zcoordinate
    687116.992,               !- Vertex 4 Xcoordinate
    4928948.85,               !- Vertex 4 Ycoordinate
    3;                        !- Vertex 4 Zcoordinate

BUILDINGSURFACE:DETAILED,
    Block af3917251b85a42e_0 Storey 0 Floor 0001,    !- Name
    floor,                    !- Surface Type
    EU_floor_Construction,    !- Construction Name
    af3917251b85a42e_F0_dwelling_0,    !- Zone Name
    ,                         !- Space Name
    ground,                   !- Outside Boundary Condition
    ,                         !- Outside Boundary Condition Object
    NoSun,                    !- Sun Exposure
    NoWind,                   !- Wind Exposure
    autocalculate,            !- View Factor to Ground
    autocalculate,            !- Number of Vertices
    687120.506,               !- Vertex 1 Xcoordinate
    4928946.698,              !- Vertex 1 Ycoordinate
    0,                        !- Vertex 1 Zcoordinate
    687125.516,               !- Vertex 2 Xcoordinate
    4928954.968,              !- Vertex 2 Ycoordinate
    0,                        !- Vertex 2 Zcoordinate
    687122.044,               !- Vertex 3 Xcoordinate
    4928957.101,              !- Vertex 3 Ycoordinate
    0,                        !- Vertex 3 Zcoordinate
    687116.992,               !- Vertex 4 Xcoordinate
    4928948.85,               !- Vertex 4 Ycoordinate
    0;                        !- Vertex 4 Zcoordinate

BUILDINGSURFACE:DETAILED,
    Block af3917251b85a42e_0 Storey 1 Wall 0002,    !- Name
    wall,                     !- Surface Type
    EU_wall_Construction,     !- Construction Name
    af3917251b85a42e_F1_dwelling_0,    !- Zone Name
    ,                         !- Space Name
    outdoors,                 !- Outside Boundary Condition
    ,                         !- Outside Boundary Condition Object
    SunExposed,               !- Sun Exposure
    WindExposed,              !- Wind Exposure
    autocalculate,            !- View Factor to Ground
    autocalculate,            !- Number of Vertices
    687122.044,               !- Vertex 1 Xcoordinate
    4928957.101,              !- Vertex 1 Ycoordinate
    6,                        !- Vertex 1 Zcoordinate
    687122.044,               !- Vertex 2 Xcoordinate
    4928957.101,              !- Vertex 2 Ycoordinate
    3,                        !- Vertex 2 Zcoordinate
    687125.516,               !- Vertex 3 Xcoordinate
    4928954.968,              !- Vertex 3 Ycoordinate
    3,                        !- Vertex 3 Zcoordinate
    687125.516,               !- Vertex 4 Xcoordinate
    4928954.968,              !- Vertex 4 Ycoordinate
    6;                        !- Vertex 4 Zcoordinate

BUILDINGSURFACE:DETAILED,
    Block af3917251b85a42e_0 Storey 1 Wall 0003,    !- Name
    wall,                     !- Surface Type
    EU_wall_Construction,     !- Construction Name
    af3917251b85a42e_F1_dwelling_0,    !- Zone Name
    ,                         !- Space Name
    Adiabatic,                !- Outside Boundary Condition
    ,                         !- Outside Boundary Condition Object
    NoSun,                    !- Sun Exposure
    NoWind,                   !- Wind Exposure
    autocalculate,            !- View Factor to Ground
    autocalculate,            !- Number of Vertices
    687125.516,               !- Vertex 1 Xcoordinate
    4928954.968,              !- Vertex 1 Ycoordinate
    6,                        !- Vertex 1 Zcoordinate
    687125.516,               !- Vertex 2 Xcoordinate
    4928954.968,              !- Vertex 2 Ycoordinate
    3,                        !- Vertex 2 Zcoordinate
    687120.506,               !- Vertex 3 Xcoordinate
    4928946.698,              !- Vertex 3 Ycoordinate
    3,                        !- Vertex 3 Zcoordinate
    687120.506,               !- Vertex 4 Xcoordinate
    4928946.698,              !- Vertex 4 Ycoordinate
    6;                        !- Vertex 4 Zcoordinate

BUILDINGSURFACE:DETAILED,
    Block af3917251b85a42e_0 Storey 1 Wall 0004,    !- Name
    wall,                     !- Surface Type
    EU_wall_Construction,     !- Construction Name
    af3917251b85a42e_F1_dwelling_0,    !- Zone Name
    ,                         !- Space Name
    outdoors,                 !- Outside Boundary Condition
    ,                         !- Outside Boundary Condition Object
    SunExposed,               !- Sun Exposure
    WindExposed,              !- Wind Exposure
    autocalculate,            !- View Factor to Ground
    autocalculate,            !- Number of Vertices
    687120.506,               !- Vertex 1 Xcoordinate
    4928946.698,              !- Vertex 1 Ycoordinate
    6,                        !- Vertex 1 Zcoordinate
    687120.506,               !- Vertex 2 Xcoordinate
    4928946.698,              !- Vertex 2 Ycoordinate
    3,                        !- Vertex 2 Zcoordinate
    687116.992,               !- Vertex 3 Xcoordinate
    4928948.85,               !- Vertex 3 Ycoordinate
    3,                        !- Vertex 3 Zcoordinate
    687116.992,               !- Vertex 4 Xcoordinate
    4928948.85,               !- Vertex 4 Ycoordinate
    6;                        !- Vertex 4 Zcoordinate

BUILDINGSURFACE:DETAILED,
    Block af3917251b85a42e_0 Storey 2 Wall 0002,    !- Name
    wall,                     !- Surface Type
    EU_wall_Construction,     !- Construction Name
    af3917251b85a42e_F2_dwelling_0,    !- Zone Name
    ,                         !- Space Name
    outdoors,                 !- Outside Boundary Condition
    ,                         !- Outside Boundary Condition Object
    SunExposed,               !- Sun Exposure
    WindExposed,              !- Wind Exposure
    autocalculate,            !- View Factor to Ground
    autocalculate,            !- Number of Vertices
    687122.044,               !- Vertex 1 Xcoordinate
    4928957.101,              !- Vertex 1 Ycoordinate
    9,                        !- Vertex 1 Zcoordinate
    687122.044,               !- Vertex 2 Xcoordinate
    4928957.101,              !- Vertex 2 Ycoordinate
    6,                        !- Vertex 2 Zcoordinate
    687125.516,               !- Vertex 3 Xcoordinate
    4928954.968,              !- Vertex 3 Ycoordinate
    6,                        !- Vertex 3 Zcoordinate
    687125.516,               !- Vertex 4 Xcoordinate
    4928954.968,              !- Vertex 4 Ycoordinate
    9;                        !- Vertex 4 Zcoordinate

BUILDINGSURFACE:DETAILED,
    Block af3917251b85a42e_0 Storey 2 Wall 0003,    !- Name
    wall,                     !- Surface Type
    EU_wall_Construction,     !- Construction Name
    af3917251b85a42e_F2_dwelling_0,    !- Zone Name
    ,                         !- Space Name
    Adiabatic,                !- Outside Boundary Condition
    ,                         !- Outside Boundary Condition Object
    NoSun,                    !- Sun Exposure
    NoWind,                   !- Wind Exposure
    autocalculate,            !- View Factor to Ground
    autocalculate,            !- Number of Vertices
    687125.516,               !- Vertex 1 Xcoordinate
    4928954.968,              !- Vertex 1 Ycoordinate
    9,                        !- Vertex 1 Zcoordinate
    687125.516,               !- Vertex 2 Xcoordinate
    4928954.968,              !- Vertex 2 Ycoordinate
    6,                        !- Vertex 2 Zcoordinate
    687120.506,               !- Vertex 3 Xcoordinate
    4928946.698,              !- Vertex 3 Ycoordinate
    6,                        !- Vertex 3 Zcoordinate
    687120.506,               !- Vertex 4 Xcoordinate
    4928946.698,              !- Vertex 4 Ycoordinate
    9;                        !- Vertex 4 Zcoordinate

BUILDINGSURFACE:DETAILED,
    Block af3917251b85a42e_0 Storey 2 Wall 0004,    !- Name
    wall,                     !- Surface Type
    EU_wall_Construction,     !- Construction Name
    af3917251b85a42e_F2_dwelling_0,    !- Zone Name
    ,                         !- Space Name
    outdoors,                 !- Outside Boundary Condition
    ,                         !- Outside Boundary Condition Object
    SunExposed,               !- Sun Exposure
    WindExposed,              !- Wind Exposure
    autocalculate,            !- View Factor to Ground
    autocalculate,            !- Number of Vertices
    687120.506,               !- Vertex 1 Xcoordinate
    4928946.698,              !- Vertex 1 Ycoordinate
    9,                        !- Vertex 1 Zcoordinate
    687120.506,               !- Vertex 2 Xcoordinate
    4928946.698,              !- Vertex 2 Ycoordinate
    6,                        !- Vertex 2 Zcoordinate
    687116.992,               !- Vertex 3 Xcoordinate
    4928948.85,               !- Vertex 3 Ycoordinate
    6,                        !- Vertex 3 Zcoordinate
    687116.992,               !- Vertex 4 Xcoordinate
    4928948.85,               !- Vertex 4 Ycoordinate
    9;                        !- Vertex 4 Zcoordinate

BUILDINGSURFACE:DETAILED,
    Block af3917251b85a42e_0 Storey 3 Wall 0002,    !- Name
    wall,                     !- Surface Type
    EU_wall_Construction,     !- Construction Name
    af3917251b85a42e_F3_dwelling_0,    !- Zone Name
    ,                         !- Space Name
    outdoors,                 !- Outside Boundary Condition
    ,                         !- Outside Boundary Condition Object
    SunExposed,               !- Sun Exposure
    WindExposed,              !- Wind Exposure
    autocalculate,            !- View Factor to Ground
    autocalculate,            !- Number of Vertices
    687122.044,               !- Vertex 1 Xcoordinate
    4928957.101,              !- Vertex 1 Ycoordinate
    12,                       !- Vertex 1 Zcoordinate
    687122.044,               !- Vertex 2 Xcoordinate
    4928957.101,              !- Vertex 2 Ycoordinate
    9,                        !- Vertex 2 Zcoordinate
    687125.516,               !- Vertex 3 Xcoordinate
    4928954.968,              !- Vertex 3 Ycoordinate
    9,                        !- Vertex 3 Zcoordinate
    687125.516,               !- Vertex 4 Xcoordinate
    4928954.968,              !- Vertex 4 Ycoordinate
    12;                       !- Vertex 4 Zcoordinate

BUILDINGSURFACE:DETAILED,
    Block af3917251b85a42e_0 Storey 3 Wall 0003,    !- Name
    wall,                     !- Surface Type
    EU_wall_Construction,     !- Construction Name
    af3917251b85a42e_F3_dwelling_0,    !- Zone Name
    ,                         !- Space Name
    Adiabatic,                !- Outside Boundary Condition
    ,                         !- Outside Boundary Condition Object
    NoSun,                    !- Sun Exposure
    NoWind,                   !- Wind Exposure
    autocalculate,            !- View Factor to Ground
    autocalculate,            !- Number of Vertices
    687125.516,               !- Vertex 1 Xcoordinate
    4928954.968,              !- Vertex 1 Ycoordinate
    12,                       !- Vertex 1 Zcoordinate
    687125.516,               !- Vertex 2 Xcoordinate
    4928954.968,              !- Vertex 2 Ycoordinate
    9,                        !- Vertex 2 Zcoordinate
    687120.506,               !- Vertex 3 Xcoordinate
    4928946.698,              !- Vertex 3 Ycoordinate
    9,                        !- Vertex 3 Zcoordinate
    687120.506,               !- Vertex 4 Xcoordinate
    4928946.698,              !- Vertex 4 Ycoordinate
    12;                       !- Vertex 4 Zcoordinate

BUILDINGSURFACE:DETAILED,
    Block af3917251b85a42e_0 Storey 3 Wall 0004,    !- Name
    wall,                     !- Surface Type
    EU_wall_Construction,     !- Construction Name
    af3917251b85a42e_F3_dwelling_0,    !- Zone Name
    ,                         !- Space Name
    outdoors,                 !- Outside Boundary Condition
    ,                         !- Outside Boundary Condition Object
    SunExposed,               !- Sun Exposure
    WindExposed,              !- Wind Exposure
    autocalculate,            !- View Factor to Ground
    autocalculate,            !- Number of Vertices
    687120.506,               !- Vertex 1 Xcoordinate
    4928946.698,              !- Vertex 1 Ycoordinate
    12,                       !- Vertex 1 Zcoordinate
    687120.506,               !- Vertex 2 Xcoordinate
    4928946.698,              !- Vertex 2 Ycoordinate
    9,                        !- Vertex 2 Zcoordinate
    687116.992,               !- Vertex 3 Xcoordinate
    4928948.85,               !- Vertex 3 Ycoordinate
    9,                        !- Vertex 3 Zcoordinate
    687116.992,               !- Vertex 4 Xcoordinate
    4928948.85,               !- Vertex 4 Ycoordinate
    12;                       !- Vertex 4 Zcoordinate

BUILDINGSURFACE:DETAILED,
    Block af3917251b85a42e_0 Storey 4 Wall 0002,    !- Name
    wall,                     !- Surface Type
    EU_wall_Construction,     !- Construction Name
    af3917251b85a42e_F4_dwelling_0,    !- Zone Name
    ,                         !- Space Name
    outdoors,                 !- Outside Boundary Condition
    ,                         !- Outside Boundary Condition Object
    SunExposed,               !- Sun Exposure
    WindExposed,              !- Wind Exposure
    autocalculate,            !- View Factor to Ground
    autocalculate,            !- Number of Vertices
    687122.044,               !- Vertex 1 Xcoordinate
    4928957.101,              !- Vertex 1 Ycoordinate
    15,                       !- Vertex 1 Zcoordinate
    687122.044,               !- Vertex 2 Xcoordinate
    4928957.101,              !- Vertex 2 Ycoordinate
    12,                       !- Vertex 2 Zcoordinate
    687125.516,               !- Vertex 3 Xcoordinate
    4928954.968,              !- Vertex 3 Ycoordinate
    12,                       !- Vertex 3 Zcoordinate
    687125.516,               !- Vertex 4 Xcoordinate
    4928954.968,              !- Vertex 4 Ycoordinate
    15;                       !- Vertex 4 Zcoordinate

BUILDINGSURFACE:DETAILED,
    Block af3917251b85a42e_0 Storey 4 Wall 0003,    !- Name
    wall,                     !- Surface Type
    EU_wall_Construction,     !- Construction Name
    af3917251b85a42e_F4_dwelling_0,    !- Zone Name
    ,                         !- Space Name
    Adiabatic,                !- Outside Boundary Condition
    ,                         !- Outside Boundary Condition Object
    NoSun,                    !- Sun Exposure
    NoWind,                   !- Wind Exposure
    autocalculate,            !- View Factor to Ground
    autocalculate,            !- Number of Vertices
    687125.516,               !- Vertex 1 Xcoordinate
    4928954.968,              !- Vertex 1 Ycoordinate
    15,                       !- Vertex 1 Zcoordinate
    687125.516,               !- Vertex 2 Xcoordinate
    4928954.968,              !- Vertex 2 Ycoordinate
    12,                       !- Vertex 2 Zcoordinate
    687120.506,               !- Vertex 3 Xcoordinate
    4928946.698,              !- Vertex 3 Ycoordinate
    12,                       !- Vertex 3 Zcoordinate
    687120.506,               !- Vertex 4 Xcoordinate
    4928946.698,              !- Vertex 4 Ycoordinate
    15;                       !- Vertex 4 Zcoordinate

BUILDINGSURFACE:DETAILED,
    Block af3917251b85a42e_0 Storey 4 Wall 0004,    !- Name
    wall,                     !- Surface Type
    EU_wall_Construction,     !- Construction Name
    af3917251b85a42e_F4_dwelling_0,    !- Zone Name
    ,                         !- Space Name
    outdoors,                 !- Outside Boundary Condition
    ,                         !- Outside Boundary Condition Object
    SunExposed,               !- Sun Exposure
    WindExposed,              !- Wind Exposure
    autocalculate,            !- View Factor to Ground
    autocalculate,            !- Number of Vertices
    687120.506,               !- Vertex 1 Xcoordinate
    4928946.698,              !- Vertex 1 Ycoordinate
    15,                       !- Vertex 1 Zcoordinate
    687120.506,               !- Vertex 2 Xcoordinate
    4928946.698,              !- Vertex 2 Ycoordinate
    12,                       !- Vertex 2 Zcoordinate
    687116.992,               !- Vertex 3 Xcoordinate
    4928948.85,               !- Vertex 3 Ycoordinate
    12,                       !- Vertex 3 Zcoordinate
    687116.992,               !- Vertex 4 Xcoordinate
    4928948.85,               !- Vertex 4 Ycoordinate
    15;                       !- Vertex 4 Zcoordinate

BUILDINGSURFACE:DETAILED,
    Block af3917251b85a42e_0 Storey 4 Roof 0001,    !- Name
    roof,                     !- Surface Type
    EU_roof_Construction,     !- Construction Name
    af3917251b85a42e_F4_dwelling_0,    !- Zone Name
    ,                         !- Space Name
    outdoors,                 !- Outside Boundary Condition
    ,                         !- Outside Boundary Condition Object
    NoSun,                    !- Sun Exposure
    WindExposed,              !- Wind Exposure
    autocalculate,            !- View Factor to Ground
    autocalculate,            !- Number of Vertices
    687125.516,               !- Vertex 1 Xcoordinate
    4928954.968,              !- Vertex 1 Ycoordinate
    15,                       !- Vertex 1 Zcoordinate
    687120.506,               !- Vertex 2 Xcoordinate
    4928946.698,              !- Vertex 2 Ycoordinate
    15,                       !- Vertex 2 Zcoordinate
    687116.992,               !- Vertex 3 Xcoordinate
    4928948.85,               !- Vertex 3 Ycoordinate
    15,                       !- Vertex 3 Zcoordinate
    687122.044,               !- Vertex 4 Xcoordinate
    4928957.101,              !- Vertex 4 Ycoordinate
    15;                       !- Vertex 4 Zcoordinate

BUILDINGSURFACE:DETAILED,
    Block af3917251b85a42e_1 Storey 0 Wall 0002,    !- Name
    wall,                     !- Surface Type
    EU_wall_Construction,     !- Construction Name
    af3917251b85a42e_F0_dwelling_1,    !- Zone Name
    ,                         !- Space Name
    outdoors,                 !- Outside Boundary Condition
    ,                         !- Outside Boundary Condition Object
    SunExposed,               !- Sun Exposure
    WindExposed,              !- Wind Exposure
    autocalculate,            !- View Factor to Ground
    autocalculate,            !- Number of Vertices
    687118.349,               !- Vertex 1 Xcoordinate
    4928959.371,              !- Vertex 1 Ycoordinate
    3,                        !- Vertex 1 Zcoordinate
    687118.349,               !- Vertex 2 Xcoordinate
    4928959.371,              !- Vertex 2 Ycoordinate
    0,                        !- Vertex 2 Zcoordinate
    687122.044,               !- Vertex 3 Xcoordinate
    4928957.101,              !- Vertex 3 Ycoordinate
    0,                        !- Vertex 3 Zcoordinate
    687122.044,               !- Vertex 4 Xcoordinate
    4928957.101,              !- Vertex 4 Ycoordinate
    3;                        !- Vertex 4 Zcoordinate

BUILDINGSURFACE:DETAILED,
    Block af3917251b85a42e_1 Storey 0 Wall 0004,    !- Name
    wall,                     !- Surface Type
    EU_wall_Construction,     !- Construction Name
    af3917251b85a42e_F0_dwelling_1,    !- Zone Name
    ,                         !- Space Name
    outdoors,                 !- Outside Boundary Condition
    ,                         !- Outside Boundary Condition Object
    SunExposed,               !- Sun Exposure
    WindExposed,              !- Wind Exposure
    autocalculate,            !- View Factor to Ground
    autocalculate,            !- Number of Vertices
    687116.992,               !- Vertex 1 Xcoordinate
    4928948.85,               !- Vertex 1 Ycoordinate
    3,                        !- Vertex 1 Zcoordinate
    687116.992,               !- Vertex 2 Xcoordinate
    4928948.85,               !- Vertex 2 Ycoordinate
    0,                        !- Vertex 2 Zcoordinate
    687113.294,               !- Vertex 3 Xcoordinate
    4928951.114,              !- Vertex 3 Ycoordinate
    0,                        !- Vertex 3 Zcoordinate
    687113.294,               !- Vertex 4 Xcoordinate
    4928951.114,              !- Vertex 4 Ycoordinate
    3;                        !- Vertex 4 Zcoordinate

BUILDINGSURFACE:DETAILED,
    Block af3917251b85a42e_1 Storey 0 Floor 0001,    !- Name
    floor,                    !- Surface Type
    EU_floor_Construction,    !- Construction Name
    af3917251b85a42e_F0_dwelling_1,    !- Zone Name
    ,                         !- Space Name
    ground,                   !- Outside Boundary Condition
    ,                         !- Outside Boundary Condition Object
    NoSun,                    !- Sun Exposure
    NoWind,                   !- Wind Exposure
    autocalculate,            !- View Factor to Ground
    autocalculate,            !- Number of Vertices
    687116.992,               !- Vertex 1 Xcoordinate
    4928948.85,               !- Vertex 1 Ycoordinate
    0,                        !- Vertex 1 Zcoordinate
    687122.044,               !- Vertex 2 Xcoordinate
    4928957.101,              !- Vertex 2 Ycoordinate
    0,                        !- Vertex 2 Zcoordinate
    687118.349,               !- Vertex 3 Xcoordinate
    4928959.371,              !- Vertex 3 Ycoordinate
    0,                        !- Vertex 3 Zcoordinate
    687113.294,               !- Vertex 4 Xcoordinate
    4928951.114,              !- Vertex 4 Ycoordinate
    0;                        !- Vertex 4 Zcoordinate

BUILDINGSURFACE:DETAILED,
    Block af3917251b85a42e_1 Storey 1 Wall 0002,    !- Name
    wall,                     !- Surface Type
    EU_wall_Construction,     !- Construction Name
    af3917251b85a42e_F1_dwelling_1,    !- Zone Name
    ,                         !- Space Name
    outdoors,                 !- Outside Boundary Condition
    ,                         !- Outside Boundary Condition Object
    SunExposed,               !- Sun Exposure
    WindExposed,              !- Wind Exposure
    autocalculate,            !- View Factor to Ground
    autocalculate,            !- Number of Vertices
    687118.349,               !- Vertex 1 Xcoordinate
    4928959.371,              !- Vertex 1 Ycoordinate
    6,                        !- Vertex 1 Zcoordinate
    687118.349,               !- Vertex 2 Xcoordinate
    4928959.371,              !- Vertex 2 Ycoordinate
    3,                        !- Vertex 2 Zcoordinate
    687122.044,               !- Vertex 3 Xcoordinate
    4928957.101,              !- Vertex 3 Ycoordinate
    3,                        !- Vertex 3 Zcoordinate
    687122.044,               !- Vertex 4 Xcoordinate
    4928957.101,              !- Vertex 4 Ycoordinate
    6;                        !- Vertex 4 Zcoordinate

BUILDINGSURFACE:DETAILED,
    Block af3917251b85a42e_1 Storey 1 Wall 0004,    !- Name
    wall,                     !- Surface Type
    EU_wall_Construction,     !- Construction Name
    af3917251b85a42e_F1_dwelling_1,    !- Zone Name
    ,                         !- Space Name
    outdoors,                 !- Outside Boundary Condition
    ,                         !- Outside Boundary Condition Object
    SunExposed,               !- Sun Exposure
    WindExposed,              !- Wind Exposure
    autocalculate,            !- View Factor to Ground
    autocalculate,            !- Number of Vertices
    687116.992,               !- Vertex 1 Xcoordinate
    4928948.85,               !- Vertex 1 Ycoordinate
    6,                        !- Vertex 1 Zcoordinate
    687116.992,               !- Vertex 2 Xcoordinate
    4928948.85,               !- Vertex 2 Ycoordinate
    3,                        !- Vertex 2 Zcoordinate
    687113.294,               !- Vertex 3 Xcoordinate
    4928951.114,              !- Vertex 3 Ycoordinate
    3,                        !- Vertex 3 Zcoordinate
    687113.294,               !- Vertex 4 Xcoordinate
    4928951.114,              !- Vertex 4 Ycoordinate
    6;                        !- Vertex 4 Zcoordinate

BUILDINGSURFACE:DETAILED,
    Block af3917251b85a42e_1 Storey 2 Wall 0002,    !- Name
    wall,                     !- Surface Type
    EU_wall_Construction,     !- Construction Name
    af3917251b85a42e_F2_dwelling_1,    !- Zone Name
    ,                         !- Space Name
    outdoors,                 !- Outside Boundary Condition
    ,                         !- Outside Boundary Condition Object
    SunExposed,               !- Sun Exposure
    WindExposed,              !- Wind Exposure
    autocalculate,            !- View Factor to Ground
    autocalculate,            !- Number of Vertices
    687118.349,               !- Vertex 1 Xcoordinate
    4928959.371,              !- Vertex 1 Ycoordinate
    9,                        !- Vertex 1 Zcoordinate
    687118.349,               !- Vertex 2 Xcoordinate
    4928959.371,              !- Vertex 2 Ycoordinate
    6,                        !- Vertex 2 Zcoordinate
    687122.044,               !- Vertex 3 Xcoordinate
    4928957.101,              !- Vertex 3 Ycoordinate
    6,                        !- Vertex 3 Zcoordinate
    687122.044,               !- Vertex 4 Xcoordinate
    4928957.101,              !- Vertex 4 Ycoordinate
    9;                        !- Vertex 4 Zcoordinate

BUILDINGSURFACE:DETAILED,
    Block af3917251b85a42e_1 Storey 2 Wall 0004,    !- Name
    wall,                     !- Surface Type
    EU_wall_Construction,     !- Construction Name
    af3917251b85a42e_F2_dwelling_1,    !- Zone Name
    ,                         !- Space Name
    outdoors,                 !- Outside Boundary Condition
    ,                         !- Outside Boundary Condition Object
    SunExposed,               !- Sun Exposure
    WindExposed,              !- Wind Exposure
    autocalculate,            !- View Factor to Ground
    autocalculate,            !- Number of Vertices
    687116.992,               !- Vertex 1 Xcoordinate
    4928948.85,               !- Vertex 1 Ycoordinate
    9,                        !- Vertex 1 Zcoordinate
    687116.992,               !- Vertex 2 Xcoordinate
    4928948.85,               !- Vertex 2 Ycoordinate
    6,                        !- Vertex 2 Zcoordinate
    687113.294,               !- Vertex 3 Xcoordinate
    4928951.114,              !- Vertex 3 Ycoordinate
    6,                        !- Vertex 3 Zcoordinate
    687113.294,               !- Vertex 4 Xcoordinate
    4928951.114,              !- Vertex 4 Ycoordinate
    9;                        !- Vertex 4 Zcoordinate

BUILDINGSURFACE:DETAILED,
    Block af3917251b85a42e_1 Storey 3 Wall 0002,    !- Name
    wall,                     !- Surface Type
    EU_wall_Construction,     !- Construction Name
    af3917251b85a42e_F3_dwelling_1,    !- Zone Name
    ,                         !- Space Name
    outdoors,                 !- Outside Boundary Condition
    ,                         !- Outside Boundary Condition Object
    SunExposed,               !- Sun Exposure
    WindExposed,              !- Wind Exposure
    autocalculate,            !- View Factor to Ground
    autocalculate,            !- Number of Vertices
    687118.349,               !- Vertex 1 Xcoordinate
    4928959.371,              !- Vertex 1 Ycoordinate
    12,                       !- Vertex 1 Zcoordinate
    687118.349,               !- Vertex 2 Xcoordinate
    4928959.371,              !- Vertex 2 Ycoordinate
    9,                        !- Vertex 2 Zcoordinate
    687122.044,               !- Vertex 3 Xcoordinate
    4928957.101,              !- Vertex 3 Ycoordinate
    9,                        !- Vertex 3 Zcoordinate
    687122.044,               !- Vertex 4 Xcoordinate
    4928957.101,              !- Vertex 4 Ycoordinate
    12;                       !- Vertex 4 Zcoordinate

BUILDINGSURFACE:DETAILED,
    Block af3917251b85a42e_1 Storey 3 Wall 0004,    !- Name
    wall,                     !- Surface Type
    EU_wall_Construction,     !- Construction Name
    af3917251b85a42e_F3_dwelling_1,    !- Zone Name
    ,                         !- Space Name
    outdoors,                 !- Outside Boundary Condition
    ,                         !- Outside Boundary Condition Object
    SunExposed,               !- Sun Exposure
    WindExposed,              !- Wind Exposure
    autocalculate,            !- View Factor to Ground
    autocalculate,            !- Number of Vertices
    687116.992,               !- Vertex 1 Xcoordinate
    4928948.85,               !- Vertex 1 Ycoordinate
    12,                       !- Vertex 1 Zcoordinate
    687116.992,               !- Vertex 2 Xcoordinate
    4928948.85,               !- Vertex 2 Ycoordinate
    9,                        !- Vertex 2 Zcoordinate
    687113.294,               !- Vertex 3 Xcoordinate
    4928951.114,              !- Vertex 3 Ycoordinate
    9,                        !- Vertex 3 Zcoordinate
    687113.294,               !- Vertex 4 Xcoordinate
    4928951.114,              !- Vertex 4 Ycoordinate
    12;                       !- Vertex 4 Zcoordinate

BUILDINGSURFACE:DETAILED,
    Block af3917251b85a42e_1 Storey 4 Wall 0002,    !- Name
    wall,                     !- Surface Type
    EU_wall_Construction,     !- Construction Name
    af3917251b85a42e_F4_dwelling_1,    !- Zone Name
    ,                         !- Space Name
    outdoors,                 !- Outside Boundary Condition
    ,                         !- Outside Boundary Condition Object
    SunExposed,               !- Sun Exposure
    WindExposed,              !- Wind Exposure
    autocalculate,            !- View Factor to Ground
    autocalculate,            !- Number of Vertices
    687118.349,               !- Vertex 1 Xcoordinate
    4928959.371,              !- Vertex 1 Ycoordinate
    15,                       !- Vertex 1 Zcoordinate
    687118.349,               !- Vertex 2 Xcoordinate
    4928959.371,              !- Vertex 2 Ycoordinate
    12,                       !- Vertex 2 Zcoordinate
    687122.044,               !- Vertex 3 Xcoordinate
    4928957.101,              !- Vertex 3 Ycoordinate
    12,                       !- Vertex 3 Zcoordinate
    687122.044,               !- Vertex 4 Xcoordinate
    4928957.101,              !- Vertex 4 Ycoordinate
    15;                       !- Vertex 4 Zcoordinate

BUILDINGSURFACE:DETAILED,
    Block af3917251b85a42e_1 Storey 4 Wall 0004,    !- Name
    wall,                     !- Surface Type
    EU_wall_Construction,     !- Construction Name
    af3917251b85a42e_F4_dwelling_1,    !- Zone Name
    ,                         !- Space Name
    outdoors,                 !- Outside Boundary Condition
    ,                         !- Outside Boundary Condition Object
    SunExposed,               !- Sun Exposure
    WindExposed,              !- Wind Exposure
    autocalculate,            !- View Factor to Ground
    autocalculate,            !- Number of Vertices
    687116.992,               !- Vertex 1 Xcoordinate
    4928948.85,               !- Vertex 1 Ycoordinate
    15,                       !- Vertex 1 Zcoordinate
    687116.992,               !- Vertex 2 Xcoordinate
    4928948.85,               !- Vertex 2 Ycoordinate
    12,                       !- Vertex 2 Zcoordinate
    687113.294,               !- Vertex 3 Xcoordinate
    4928951.114,              !- Vertex 3 Ycoordinate
    12,                       !- Vertex 3 Zcoordinate
    687113.294,               !- Vertex 4 Xcoordinate
    4928951.114,              !- Vertex 4 Ycoordinate
    15;                       !- Vertex 4 Zcoordinate

BUILDINGSURFACE:DETAILED,
    Block af3917251b85a42e_1 Storey 4 Roof 0001,    !- Name
    roof,                     !- Surface Type
    EU_roof_Construction,     !- Construction Name
    af3917251b85a42e_F4_dwelling_1,    !- Zone Name
    ,                         !- Space Name
    outdoors,                 !- Outside Boundary Condition
    ,                         !- Outside Boundary Condition Object
    NoSun,                    !- Sun Exposure
    WindExposed,              !- Wind Exposure
    autocalculate,            !- View Factor to Ground
    autocalculate,            !- Number of Vertices
    687122.044,               !- Vertex 1 Xcoordinate
    4928957.101,              !- Vertex 1 Ycoordinate
    15,                       !- Vertex 1 Zcoordinate
    687116.992,               !- Vertex 2 Xcoordinate
    4928948.85,               !- Vertex 2 Ycoordinate
    15,                       !- Vertex 2 Zcoordinate
    687113.294,               !- Vertex 3 Xcoordinate
    4928951.114,              !- Vertex 3 Ycoordinate
    15,                       !- Vertex 3 Zcoordinate
    687118.349,               !- Vertex 4 Xcoordinate
    4928959.371,              !- Vertex 4 Ycoordinate
    15;                       !- Vertex 4 Zcoordinate

BUILDINGSURFACE:DETAILED,
    Block af3917251b85a42e_2 Storey 0 Wall 0002,    !- Name
    wall,                     !- Surface Type
    EU_wall_Construction,     !- Construction Name
    af3917251b85a42e_F0_dwelling_2,    !- Zone Name
    ,                         !- Space Name
    outdoors,                 !- Outside Boundary Condition
    ,                         !- Outside Boundary Condition Object
    SunExposed,               !- Sun Exposure
    WindExposed,              !- Wind Exposure
    autocalculate,            !- View Factor to Ground
    autocalculate,            !- Number of Vertices
    687114.657,               !- Vertex 1 Xcoordinate
    4928961.639,              !- Vertex 1 Ycoordinate
    3,                        !- Vertex 1 Zcoordinate
    687114.657,               !- Vertex 2 Xcoordinate
    4928961.639,              !- Vertex 2 Ycoordinate
    0,                        !- Vertex 2 Zcoordinate
    687118.349,               !- Vertex 3 Xcoordinate
    4928959.371,              !- Vertex 3 Ycoordinate
    0,                        !- Vertex 3 Zcoordinate
    687118.349,               !- Vertex 4 Xcoordinate
    4928959.371,              !- Vertex 4 Ycoordinate
    3;                        !- Vertex 4 Zcoordinate

BUILDINGSURFACE:DETAILED,
    Block af3917251b85a42e_2 Storey 0 Wall 0004,    !- Name
    wall,                     !- Surface Type
    EU_wall_Construction,     !- Construction Name
    af3917251b85a42e_F0_dwelling_2,    !- Zone Name
    ,                         !- Space Name
    outdoors,                 !- Outside Boundary Condition
    ,                         !- Outside Boundary Condition Object
    SunExposed,               !- Sun Exposure
    WindExposed,              !- Wind Exposure
    autocalculate,            !- View Factor to Ground
    autocalculate,            !- Number of Vertices
    687113.294,               !- Vertex 1 Xcoordinate
    4928951.114,              !- Vertex 1 Ycoordinate
    3,                        !- Vertex 1 Zcoordinate
    687113.294,               !- Vertex 2 Xcoordinate
    4928951.114,              !- Vertex 2 Ycoordinate
    0,                        !- Vertex 2 Zcoordinate
    687109.598,               !- Vertex 3 Xcoordinate
    4928953.377,              !- Vertex 3 Ycoordinate
    0,                        !- Vertex 3 Zcoordinate
    687109.598,               !- Vertex 4 Xcoordinate
    4928953.377,              !- Vertex 4 Ycoordinate
    3;                        !- Vertex 4 Zcoordinate

BUILDINGSURFACE:DETAILED,
    Block af3917251b85a42e_2 Storey 0 Floor 0001,    !- Name
    floor,                    !- Surface Type
    EU_floor_Construction,    !- Construction Name
    af3917251b85a42e_F0_dwelling_2,    !- Zone Name
    ,                         !- Space Name
    ground,                   !- Outside Boundary Condition
    ,                         !- Outside Boundary Condition Object
    NoSun,                    !- Sun Exposure
    NoWind,                   !- Wind Exposure
    autocalculate,            !- View Factor to Ground
    autocalculate,            !- Number of Vertices
    687113.294,               !- Vertex 1 Xcoordinate
    4928951.114,              !- Vertex 1 Ycoordinate
    0,                        !- Vertex 1 Zcoordinate
    687118.349,               !- Vertex 2 Xcoordinate
    4928959.371,              !- Vertex 2 Ycoordinate
    0,                        !- Vertex 2 Zcoordinate
    687114.657,               !- Vertex 3 Xcoordinate
    4928961.639,              !- Vertex 3 Ycoordinate
    0,                        !- Vertex 3 Zcoordinate
    687109.598,               !- Vertex 4 Xcoordinate
    4928953.377,              !- Vertex 4 Ycoordinate
    0;                        !- Vertex 4 Zcoordinate

BUILDINGSURFACE:DETAILED,
    Block af3917251b85a42e_2 Storey 1 Wall 0002,    !- Name
    wall,                     !- Surface Type
    EU_wall_Construction,     !- Construction Name
    af3917251b85a42e_F1_dwelling_2,    !- Zone Name
    ,                         !- Space Name
    outdoors,                 !- Outside Boundary Condition
    ,                         !- Outside Boundary Condition Object
    SunExposed,               !- Sun Exposure
    WindExposed,              !- Wind Exposure
    autocalculate,            !- View Factor to Ground
    autocalculate,            !- Number of Vertices
    687114.657,               !- Vertex 1 Xcoordinate
    4928961.639,              !- Vertex 1 Ycoordinate
    6,                        !- Vertex 1 Zcoordinate
    687114.657,               !- Vertex 2 Xcoordinate
    4928961.639,              !- Vertex 2 Ycoordinate
    3,                        !- Vertex 2 Zcoordinate
    687118.349,               !- Vertex 3 Xcoordinate
    4928959.371,              !- Vertex 3 Ycoordinate
    3,                        !- Vertex 3 Zcoordinate
    687118.349,               !- Vertex 4 Xcoordinate
    4928959.371,              !- Vertex 4 Ycoordinate
    6;                        !- Vertex 4 Zcoordinate

BUILDINGSURFACE:DETAILED,
    Block af3917251b85a42e_2 Storey 1 Wall 0004,    !- Name
    wall,                     !- Surface Type
    EU_wall_Construction,     !- Construction Name
    af3917251b85a42e_F1_dwelling_2,    !- Zone Name
    ,                         !- Space Name
    outdoors,                 !- Outside Boundary Condition
    ,                         !- Outside Boundary Condition Object
    SunExposed,               !- Sun Exposure
    WindExposed,              !- Wind Exposure
    autocalculate,            !- View Factor to Ground
    autocalculate,            !- Number of Vertices
    687113.294,               !- Vertex 1 Xcoordinate
    4928951.114,              !- Vertex 1 Ycoordinate
    6,                        !- Vertex 1 Zcoordinate
    687113.294,               !- Vertex 2 Xcoordinate
    4928951.114,              !- Vertex 2 Ycoordinate
    3,                        !- Vertex 2 Zcoordinate
    687109.598,               !- Vertex 3 Xcoordinate
    4928953.377,              !- Vertex 3 Ycoordinate
    3,                        !- Vertex 3 Zcoordinate
    687109.598,               !- Vertex 4 Xcoordinate
    4928953.377,              !- Vertex 4 Ycoordinate
    6;                        !- Vertex 4 Zcoordinate

BUILDINGSURFACE:DETAILED,
    Block af3917251b85a42e_2 Storey 2 Wall 0002,    !- Name
    wall,                     !- Surface Type
    EU_wall_Construction,     !- Construction Name
    af3917251b85a42e_F2_dwelling_2,    !- Zone Name
    ,                         !- Space Name
    outdoors,                 !- Outside Boundary Condition
    ,                         !- Outside Boundary Condition Object
    SunExposed,               !- Sun Exposure
    WindExposed,              !- Wind Exposure
    autocalculate,            !- View Factor to Ground
    autocalculate,            !- Number of Vertices
    687114.657,               !- Vertex 1 Xcoordinate
    4928961.639,              !- Vertex 1 Ycoordinate
    9,                        !- Vertex 1 Zcoordinate
    687114.657,               !- Vertex 2 Xcoordinate
    4928961.639,              !- Vertex 2 Ycoordinate
    6,                        !- Vertex 2 Zcoordinate
    687118.349,               !- Vertex 3 Xcoordinate
    4928959.371,              !- Vertex 3 Ycoordinate
    6,                        !- Vertex 3 Zcoordinate
    687118.349,               !- Vertex 4 Xcoordinate
    4928959.371,              !- Vertex 4 Ycoordinate
    9;                        !- Vertex 4 Zcoordinate

BUILDINGSURFACE:DETAILED,
    Block af3917251b85a42e_2 Storey 2 Wall 0004,    !- Name
    wall,                     !- Surface Type
    EU_wall_Construction,     !- Construction Name
    af3917251b85a42e_F2_dwelling_2,    !- Zone Name
    ,                         !- Space Name
    outdoors,                 !- Outside Boundary Condition
    ,                         !- Outside Boundary Condition Object
    SunExposed,               !- Sun Exposure
    WindExposed,              !- Wind Exposure
    autocalculate,            !- View Factor to Ground
    autocalculate,            !- Number of Vertices
    687113.294,               !- Vertex 1 Xcoordinate
    4928951.114,              !- Vertex 1 Ycoordinate
    9,                        !- Vertex 1 Zcoordinate
    687113.294,               !- Vertex 2 Xcoordinate
    4928951.114,              !- Vertex 2 Ycoordinate
    6,                        !- Vertex 2 Zcoordinate
    687109.598,               !- Vertex 3 Xcoordinate
    4928953.377,              !- Vertex 3 Ycoordinate
    6,                        !- Vertex 3 Zcoordinate
    687109.598,               !- Vertex 4 Xcoordinate
    4928953.377,              !- Vertex 4 Ycoordinate
    9;                        !- Vertex 4 Zcoordinate

BUILDINGSURFACE:DETAILED,
    Block af3917251b85a42e_2 Storey 3 Wall 0002,    !- Name
    wall,                     !- Surface Type
    EU_wall_Construction,     !- Construction Name
    af3917251b85a42e_F3_dwelling_2,    !- Zone Name
    ,                         !- Space Name
    outdoors,                 !- Outside Boundary Condition
    ,                         !- Outside Boundary Condition Object
    SunExposed,               !- Sun Exposure
    WindExposed,              !- Wind Exposure
    autocalculate,            !- View Factor to Ground
    autocalculate,            !- Number of Vertices
    687114.657,               !- Vertex 1 Xcoordinate
    4928961.639,              !- Vertex 1 Ycoordinate
    12,                       !- Vertex 1 Zcoordinate
    687114.657,               !- Vertex 2 Xcoordinate
    4928961.639,              !- Vertex 2 Ycoordinate
    9,                        !- Vertex 2 Zcoordinate
    687118.349,               !- Vertex 3 Xcoordinate
    4928959.371,              !- Vertex 3 Ycoordinate
    9,                        !- Vertex 3 Zcoordinate
    687118.349,               !- Vertex 4 Xcoordinate
    4928959.371,              !- Vertex 4 Ycoordinate
    12;                       !- Vertex 4 Zcoordinate

BUILDINGSURFACE:DETAILED,
    Block af3917251b85a42e_2 Storey 3 Wall 0004,    !- Name
    wall,                     !- Surface Type
    EU_wall_Construction,     !- Construction Name
    af3917251b85a42e_F3_dwelling_2,    !- Zone Name
    ,                         !- Space Name
    outdoors,                 !- Outside Boundary Condition
    ,                         !- Outside Boundary Condition Object
    SunExposed,               !- Sun Exposure
    WindExposed,              !- Wind Exposure
    autocalculate,            !- View Factor to Ground
    autocalculate,            !- Number of Vertices
    687113.294,               !- Vertex 1 Xcoordinate
    4928951.114,              !- Vertex 1 Ycoordinate
    12,                       !- Vertex 1 Zcoordinate
    687113.294,               !- Vertex 2 Xcoordinate
    4928951.114,              !- Vertex 2 Ycoordinate
    9,                        !- Vertex 2 Zcoordinate
    687109.598,               !- Vertex 3 Xcoordinate
    4928953.377,              !- Vertex 3 Ycoordinate
    9,                        !- Vertex 3 Zcoordinate
    687109.598,               !- Vertex 4 Xcoordinate
    4928953.377,              !- Vertex 4 Ycoordinate
    12;                       !- Vertex 4 Zcoordinate

BUILDINGSURFACE:DETAILED,
    Block af3917251b85a42e_2 Storey 4 Wall 0002,    !- Name
    wall,                     !- Surface Type
    EU_wall_Construction,     !- Construction Name
    af3917251b85a42e_F4_dwelling_2,    !- Zone Name
    ,                         !- Space Name
    outdoors,                 !- Outside Boundary Condition
    ,                         !- Outside Boundary Condition Object
    SunExposed,               !- Sun Exposure
    WindExposed,              !- Wind Exposure
    autocalculate,            !- View Factor to Ground
    autocalculate,            !- Number of Vertices
    687114.657,               !- Vertex 1 Xcoordinate
    4928961.639,              !- Vertex 1 Ycoordinate
    15,                       !- Vertex 1 Zcoordinate
    687114.657,               !- Vertex 2 Xcoordinate
    4928961.639,              !- Vertex 2 Ycoordinate
    12,                       !- Vertex 2 Zcoordinate
    687118.349,               !- Vertex 3 Xcoordinate
    4928959.371,              !- Vertex 3 Ycoordinate
    12,                       !- Vertex 3 Zcoordinate
    687118.349,               !- Vertex 4 Xcoordinate
    4928959.371,              !- Vertex 4 Ycoordinate
    15;                       !- Vertex 4 Zcoordinate

BUILDINGSURFACE:DETAILED,
    Block af3917251b85a42e_2 Storey 4 Wall 0004,    !- Name
    wall,                     !- Surface Type
    EU_wall_Construction,     !- Construction Name
    af3917251b85a42e_F4_dwelling_2,    !- Zone Name
    ,                         !- Space Name
    outdoors,                 !- Outside Boundary Condition
    ,                         !- Outside Boundary Condition Object
    SunExposed,               !- Sun Exposure
    WindExposed,              !- Wind Exposure
    autocalculate,            !- View Factor to Ground
    autocalculate,            !- Number of Vertices
    687113.294,               !- Vertex 1 Xcoordinate
    4928951.114,              !- Vertex 1 Ycoordinate
    15,                       !- Vertex 1 Zcoordinate
    687113.294,               !- Vertex 2 Xcoordinate
    4928951.114,              !- Vertex 2 Ycoordinate
    12,                       !- Vertex 2 Zcoordinate
    687109.598,               !- Vertex 3 Xcoordinate
    4928953.377,              !- Vertex 3 Ycoordinate
    12,                       !- Vertex 3 Zcoordinate
    687109.598,               !- Vertex 4 Xcoordinate
    4928953.377,              !- Vertex 4 Ycoordinate
    15;                       !- Vertex 4 Zcoordinate

BUILDINGSURFACE:DETAILED,
    Block af3917251b85a42e_2 Storey 4 Roof 0001,    !- Name
    roof,                     !- Surface Type
    EU_roof_Construction,     !- Construction Name
    af3917251b85a42e_F4_dwelling_2,    !- Zone Name
    ,                         !- Space Name
    outdoors,                 !- Outside Boundary Condition
    ,                         !- Outside Boundary Condition Object
    NoSun,                    !- Sun Exposure
    WindExposed,              !- Wind Exposure
    autocalculate,            !- View Factor to Ground
    autocalculate,            !- Number of Vertices
    687118.349,               !- Vertex 1 Xcoordinate
    4928959.371,              !- Vertex 1 Ycoordinate
    15,                       !- Vertex 1 Zcoordinate
    687113.294,               !- Vertex 2 Xcoordinate
    4928951.114,              !- Vertex 2 Ycoordinate
    15,                       !- Vertex 2 Zcoordinate
    687109.598,               !- Vertex 3 Xcoordinate
    4928953.377,              !- Vertex 3 Ycoordinate
    15,                       !- Vertex 3 Zcoordinate
    687114.657,               !- Vertex 4 Xcoordinate
    4928961.639,              !- Vertex 4 Ycoordinate
    15;                       !- Vertex 4 Zcoordinate

BUILDINGSURFACE:DETAILED,
    Block af3917251b85a42e_3 Storey 0 Wall 0002,    !- Name
    wall,                     !- Surface Type
    EU_wall_Construction,     !- Construction Name
    af3917251b85a42e_F0_dwelling_3,    !- Zone Name
    ,                         !- Space Name
    outdoors,                 !- Outside Boundary Condition
    ,                         !- Outside Boundary Condition Object
    SunExposed,               !- Sun Exposure
    WindExposed,              !- Wind Exposure
    autocalculate,            !- View Factor to Ground
    autocalculate,            !- Number of Vertices
    687111.232,               !- Vertex 1 Xcoordinate
    4928963.743,              !- Vertex 1 Ycoordinate
    3,                        !- Vertex 1 Zcoordinate
    687111.232,               !- Vertex 2 Xcoordinate
    4928963.743,              !- Vertex 2 Ycoordinate
    0,                        !- Vertex 2 Zcoordinate
    687114.657,               !- Vertex 3 Xcoordinate
    4928961.639,              !- Vertex 3 Ycoordinate
    0,                        !- Vertex 3 Zcoordinate
    687114.657,               !- Vertex 4 Xcoordinate
    4928961.639,              !- Vertex 4 Ycoordinate
    3;                        !- Vertex 4 Zcoordinate

BUILDINGSURFACE:DETAILED,
    Block af3917251b85a42e_3 Storey 0 Wall 0004,    !- Name
    wall,                     !- Surface Type
    EU_wall_Construction,     !- Construction Name
    af3917251b85a42e_F0_dwelling_3,    !- Zone Name
    ,                         !- Space Name
    outdoors,                 !- Outside Boundary Condition
    ,                         !- Outside Boundary Condition Object
    SunExposed,               !- Sun Exposure
    WindExposed,              !- Wind Exposure
    autocalculate,            !- View Factor to Ground
    autocalculate,            !- Number of Vertices
    687109.598,               !- Vertex 1 Xcoordinate
    4928953.377,              !- Vertex 1 Ycoordinate
    3,                        !- Vertex 1 Zcoordinate
    687109.598,               !- Vertex 2 Xcoordinate
    4928953.377,              !- Vertex 2 Ycoordinate
    0,                        !- Vertex 2 Zcoordinate
    687106.17,                !- Vertex 3 Xcoordinate
    4928955.476,              !- Vertex 3 Ycoordinate
    0,                        !- Vertex 3 Zcoordinate
    687106.17,                !- Vertex 4 Xcoordinate
    4928955.476,              !- Vertex 4 Ycoordinate
    3;                        !- Vertex 4 Zcoordinate

BUILDINGSURFACE:DETAILED,
    Block af3917251b85a42e_3 Storey 0 Floor 0001,    !- Name
    floor,                    !- Surface Type
    EU_floor_Construction,    !- Construction Name
    af3917251b85a42e_F0_dwelling_3,    !- Zone Name
    ,                         !- Space Name
    ground,                   !- Outside Boundary Condition
    ,                         !- Outside Boundary Condition Object
    NoSun,                    !- Sun Exposure
    NoWind,                   !- Wind Exposure
    autocalculate,            !- View Factor to Ground
    autocalculate,            !- Number of Vertices
    687109.598,               !- Vertex 1 Xcoordinate
    4928953.377,              !- Vertex 1 Ycoordinate
    0,                        !- Vertex 1 Zcoordinate
    687114.657,               !- Vertex 2 Xcoordinate
    4928961.639,              !- Vertex 2 Ycoordinate
    0,                        !- Vertex 2 Zcoordinate
    687111.232,               !- Vertex 3 Xcoordinate
    4928963.743,              !- Vertex 3 Ycoordinate
    0,                        !- Vertex 3 Zcoordinate
    687106.17,                !- Vertex 4 Xcoordinate
    4928955.476,              !- Vertex 4 Ycoordinate
    0;                        !- Vertex 4 Zcoordinate

BUILDINGSURFACE:DETAILED,
    Block af3917251b85a42e_3 Storey 1 Wall 0002,    !- Name
    wall,                     !- Surface Type
    EU_wall_Construction,     !- Construction Name
    af3917251b85a42e_F1_dwelling_3,    !- Zone Name
    ,                         !- Space Name
    outdoors,                 !- Outside Boundary Condition
    ,                         !- Outside Boundary Condition Object
    SunExposed,               !- Sun Exposure
    WindExposed,              !- Wind Exposure
    autocalculate,            !- View Factor to Ground
    autocalculate,            !- Number of Vertices
    687111.232,               !- Vertex 1 Xcoordinate
    4928963.743,              !- Vertex 1 Ycoordinate
    6,                        !- Vertex 1 Zcoordinate
    687111.232,               !- Vertex 2 Xcoordinate
    4928963.743,              !- Vertex 2 Ycoordinate
    3,                        !- Vertex 2 Zcoordinate
    687114.657,               !- Vertex 3 Xcoordinate
    4928961.639,              !- Vertex 3 Ycoordinate
    3,                        !- Vertex 3 Zcoordinate
    687114.657,               !- Vertex 4 Xcoordinate
    4928961.639,              !- Vertex 4 Ycoordinate
    6;                        !- Vertex 4 Zcoordinate

BUILDINGSURFACE:DETAILED,
    Block af3917251b85a42e_3 Storey 1 Wall 0004,    !- Name
    wall,                     !- Surface Type
    EU_wall_Construction,     !- Construction Name
    af3917251b85a42e_F1_dwelling_3,    !- Zone Name
    ,                         !- Space Name
    outdoors,                 !- Outside Boundary Condition
    ,                         !- Outside Boundary Condition Object
    SunExposed,               !- Sun Exposure
    WindExposed,              !- Wind Exposure
    autocalculate,            !- View Factor to Ground
    autocalculate,            !- Number of Vertices
    687109.598,               !- Vertex 1 Xcoordinate
    4928953.377,              !- Vertex 1 Ycoordinate
    6,                        !- Vertex 1 Zcoordinate
    687109.598,               !- Vertex 2 Xcoordinate
    4928953.377,              !- Vertex 2 Ycoordinate
    3,                        !- Vertex 2 Zcoordinate
    687106.17,                !- Vertex 3 Xcoordinate
    4928955.476,              !- Vertex 3 Ycoordinate
    3,                        !- Vertex 3 Zcoordinate
    687106.17,                !- Vertex 4 Xcoordinate
    4928955.476,              !- Vertex 4 Ycoordinate
    6;                        !- Vertex 4 Zcoordinate

BUILDINGSURFACE:DETAILED,
    Block af3917251b85a42e_3 Storey 2 Wall 0002,    !- Name
    wall,                     !- Surface Type
    EU_wall_Construction,     !- Construction Name
    af3917251b85a42e_F2_dwelling_3,    !- Zone Name
    ,                         !- Space Name
    outdoors,                 !- Outside Boundary Condition
    ,                         !- Outside Boundary Condition Object
    SunExposed,               !- Sun Exposure
    WindExposed,              !- Wind Exposure
    autocalculate,            !- View Factor to Ground
    autocalculate,            !- Number of Vertices
    687111.232,               !- Vertex 1 Xcoordinate
    4928963.743,              !- Vertex 1 Ycoordinate
    9,                        !- Vertex 1 Zcoordinate
    687111.232,               !- Vertex 2 Xcoordinate
    4928963.743,              !- Vertex 2 Ycoordinate
    6,                        !- Vertex 2 Zcoordinate
    687114.657,               !- Vertex 3 Xcoordinate
    4928961.639,              !- Vertex 3 Ycoordinate
    6,                        !- Vertex 3 Zcoordinate
    687114.657,               !- Vertex 4 Xcoordinate
    4928961.639,              !- Vertex 4 Ycoordinate
    9;                        !- Vertex 4 Zcoordinate

BUILDINGSURFACE:DETAILED,
    Block af3917251b85a42e_3 Storey 2 Wall 0004,    !- Name
    wall,                     !- Surface Type
    EU_wall_Construction,     !- Construction Name
    af3917251b85a42e_F2_dwelling_3,    !- Zone Name
    ,                         !- Space Name
    outdoors,                 !- Outside Boundary Condition
    ,                         !- Outside Boundary Condition Object
    SunExposed,               !- Sun Exposure
    WindExposed,              !- Wind Exposure
    autocalculate,            !- View Factor to Ground
    autocalculate,            !- Number of Vertices
    687109.598,               !- Vertex 1 Xcoordinate
    4928953.377,              !- Vertex 1 Ycoordinate
    9,                        !- Vertex 1 Zcoordinate
    687109.598,               !- Vertex 2 Xcoordinate
    4928953.377,              !- Vertex 2 Ycoordinate
    6,                        !- Vertex 2 Zcoordinate
    687106.17,                !- Vertex 3 Xcoordinate
    4928955.476,              !- Vertex 3 Ycoordinate
    6,                        !- Vertex 3 Zcoordinate
    687106.17,                !- Vertex 4 Xcoordinate
    4928955.476,              !- Vertex 4 Ycoordinate
    9;                        !- Vertex 4 Zcoordinate

BUILDINGSURFACE:DETAILED,
    Block af3917251b85a42e_3 Storey 3 Wall 0002,    !- Name
    wall,                     !- Surface Type
    EU_wall_Construction,     !- Construction Name
    af3917251b85a42e_F3_dwelling_3,    !- Zone Name
    ,                         !- Space Name
    outdoors,                 !- Outside Boundary Condition
    ,                         !- Outside Boundary Condition Object
    SunExposed,               !- Sun Exposure
    WindExposed,              !- Wind Exposure
    autocalculate,            !- View Factor to Ground
    autocalculate,            !- Number of Vertices
    687111.232,               !- Vertex 1 Xcoordinate
    4928963.743,              !- Vertex 1 Ycoordinate
    12,                       !- Vertex 1 Zcoordinate
    687111.232,               !- Vertex 2 Xcoordinate
    4928963.743,              !- Vertex 2 Ycoordinate
    9,                        !- Vertex 2 Zcoordinate
    687114.657,               !- Vertex 3 Xcoordinate
    4928961.639,              !- Vertex 3 Ycoordinate
    9,                        !- Vertex 3 Zcoordinate
    687114.657,               !- Vertex 4 Xcoordinate
    4928961.639,              !- Vertex 4 Ycoordinate
    12;                       !- Vertex 4 Zcoordinate

BUILDINGSURFACE:DETAILED,
    Block af3917251b85a42e_3 Storey 3 Wall 0004,    !- Name
    wall,                     !- Surface Type
    EU_wall_Construction,     !- Construction Name
    af3917251b85a42e_F3_dwelling_3,    !- Zone Name
    ,                         !- Space Name
    outdoors,                 !- Outside Boundary Condition
    ,                         !- Outside Boundary Condition Object
    SunExposed,               !- Sun Exposure
    WindExposed,              !- Wind Exposure
    autocalculate,            !- View Factor to Ground
    autocalculate,            !- Number of Vertices
    687109.598,               !- Vertex 1 Xcoordinate
    4928953.377,              !- Vertex 1 Ycoordinate
    12,                       !- Vertex 1 Zcoordinate
    687109.598,               !- Vertex 2 Xcoordinate
    4928953.377,              !- Vertex 2 Ycoordinate
    9,                        !- Vertex 2 Zcoordinate
    687106.17,                !- Vertex 3 Xcoordinate
    4928955.476,              !- Vertex 3 Ycoordinate
    9,                        !- Vertex 3 Zcoordinate
    687106.17,                !- Vertex 4 Xcoordinate
    4928955.476,              !- Vertex 4 Ycoordinate
    12;                       !- Vertex 4 Zcoordinate

BUILDINGSURFACE:DETAILED,
    Block af3917251b85a42e_3 Storey 4 Wall 0002,    !- Name
    wall,                     !- Surface Type
    EU_wall_Construction,     !- Construction Name
    af3917251b85a42e_F4_dwelling_3,    !- Zone Name
    ,                         !- Space Name
    outdoors,                 !- Outside Boundary Condition
    ,                         !- Outside Boundary Condition Object
    SunExposed,               !- Sun Exposure
    WindExposed,              !- Wind Exposure
    autocalculate,            !- View Factor to Ground
    autocalculate,            !- Number of Vertices
    687111.232,               !- Vertex 1 Xcoordinate
    4928963.743,              !- Vertex 1 Ycoordinate
    15,                       !- Vertex 1 Zcoordinate
    687111.232,               !- Vertex 2 Xcoordinate
    4928963.743,              !- Vertex 2 Ycoordinate
    12,                       !- Vertex 2 Zcoordinate
    687114.657,               !- Vertex 3 Xcoordinate
    4928961.639,              !- Vertex 3 Ycoordinate
    12,                       !- Vertex 3 Zcoordinate
    687114.657,               !- Vertex 4 Xcoordinate
    4928961.639,              !- Vertex 4 Ycoordinate
    15;                       !- Vertex 4 Zcoordinate

BUILDINGSURFACE:DETAILED,
    Block af3917251b85a42e_3 Storey 4 Wall 0004,    !- Name
    wall,                     !- Surface Type
    EU_wall_Construction,     !- Construction Name
    af3917251b85a42e_F4_dwelling_3,    !- Zone Name
    ,                         !- Space Name
    outdoors,                 !- Outside Boundary Condition
    ,                         !- Outside Boundary Condition Object
    SunExposed,               !- Sun Exposure
    WindExposed,              !- Wind Exposure
    autocalculate,            !- View Factor to Ground
    autocalculate,            !- Number of Vertices
    687109.598,               !- Vertex 1 Xcoordinate
    4928953.377,              !- Vertex 1 Ycoordinate
    15,                       !- Vertex 1 Zcoordinate
    687109.598,               !- Vertex 2 Xcoordinate
    4928953.377,              !- Vertex 2 Ycoordinate
    12,                       !- Vertex 2 Zcoordinate
    687106.17,                !- Vertex 3 Xcoordinate
    4928955.476,              !- Vertex 3 Ycoordinate
    12,                       !- Vertex 3 Zcoordinate
    687106.17,                !- Vertex 4 Xcoordinate
    4928955.476,              !- Vertex 4 Ycoordinate
    15;                       !- Vertex 4 Zcoordinate

BUILDINGSURFACE:DETAILED,
    Block af3917251b85a42e_3 Storey 4 Roof 0001,    !- Name
    roof,                     !- Surface Type
    EU_roof_Construction,     !- Construction Name
    af3917251b85a42e_F4_dwelling_3,    !- Zone Name
    ,                         !- Space Name
    outdoors,                 !- Outside Boundary Condition
    ,                         !- Outside Boundary Condition Object
    NoSun,                    !- Sun Exposure
    WindExposed,              !- Wind Exposure
    autocalculate,            !- View Factor to Ground
    autocalculate,            !- Number of Vertices
    687114.657,               !- Vertex 1 Xcoordinate
    4928961.639,              !- Vertex 1 Ycoordinate
    15,                       !- Vertex 1 Zcoordinate
    687109.598,               !- Vertex 2 Xcoordinate
    4928953.377,              !- Vertex 2 Ycoordinate
    15,                       !- Vertex 2 Zcoordinate
    687106.17,                !- Vertex 3 Xcoordinate
    4928955.476,              !- Vertex 3 Ycoordinate
    15,                       !- Vertex 3 Zcoordinate
    687111.232,               !- Vertex 4 Xcoordinate
    4928963.743,              !- Vertex 4 Ycoordinate
    15;                       !- Vertex 4 Zcoordinate

BUILDINGSURFACE:DETAILED,
    Block af3917251b85a42e_4 Storey 0 Wall 0002,    !- Name
    wall,                     !- Surface Type
    EU_wall_Construction,     !- Construction Name
    af3917251b85a42e_F0_dwelling_4,    !- Zone Name
    ,                         !- Space Name
    outdoors,                 !- Outside Boundary Condition
    ,                         !- Outside Boundary Condition Object
    SunExposed,               !- Sun Exposure
    WindExposed,              !- Wind Exposure
    autocalculate,            !- View Factor to Ground
    autocalculate,            !- Number of Vertices
    687107.804,               !- Vertex 1 Xcoordinate
    4928965.849,              !- Vertex 1 Ycoordinate
    3,                        !- Vertex 1 Zcoordinate
    687107.804,               !- Vertex 2 Xcoordinate
    4928965.849,              !- Vertex 2 Ycoordinate
    0,                        !- Vertex 2 Zcoordinate
    687111.232,               !- Vertex 3 Xcoordinate
    4928963.743,              !- Vertex 3 Ycoordinate
    0,                        !- Vertex 3 Zcoordinate
    687111.232,               !- Vertex 4 Xcoordinate
    4928963.743,              !- Vertex 4 Ycoordinate
    3;                        !- Vertex 4 Zcoordinate

BUILDINGSURFACE:DETAILED,
    Block af3917251b85a42e_4 Storey 0 Wall 0004,    !- Name
    wall,                     !- Surface Type
    EU_wall_Construction,     !- Construction Name
    af3917251b85a42e_F0_dwelling_4,    !- Zone Name
    ,                         !- Space Name
    outdoors,                 !- Outside Boundary Condition
    ,                         !- Outside Boundary Condition Object
    SunExposed,               !- Sun Exposure
    WindExposed,              !- Wind Exposure
    autocalculate,            !- View Factor to Ground
    autocalculate,            !- Number of Vertices
    687106.17,                !- Vertex 1 Xcoordinate
    4928955.476,              !- Vertex 1 Ycoordinate
    3,                        !- Vertex 1 Zcoordinate
    687106.17,                !- Vertex 2 Xcoordinate
    4928955.476,              !- Vertex 2 Ycoordinate
    0,                        !- Vertex 2 Zcoordinate
    687102.739,               !- Vertex 3 Xcoordinate
    4928957.576,              !- Vertex 3 Ycoordinate
    0,                        !- Vertex 3 Zcoordinate
    687102.739,               !- Vertex 4 Xcoordinate
    4928957.576,              !- Vertex 4 Ycoordinate
    3;                        !- Vertex 4 Zcoordinate

BUILDINGSURFACE:DETAILED,
    Block af3917251b85a42e_4 Storey 0 Floor 0001,    !- Name
    floor,                    !- Surface Type
    EU_floor_Construction,    !- Construction Name
    af3917251b85a42e_F0_dwelling_4,    !- Zone Name
    ,                         !- Space Name
    ground,                   !- Outside Boundary Condition
    ,                         !- Outside Boundary Condition Object
    NoSun,                    !- Sun Exposure
    NoWind,                   !- Wind Exposure
    autocalculate,            !- View Factor to Ground
    autocalculate,            !- Number of Vertices
    687106.17,                !- Vertex 1 Xcoordinate
    4928955.476,              !- Vertex 1 Ycoordinate
    0,                        !- Vertex 1 Zcoordinate
    687111.232,               !- Vertex 2 Xcoordinate
    4928963.743,              !- Vertex 2 Ycoordinate
    0,                        !- Vertex 2 Zcoordinate
    687107.804,               !- Vertex 3 Xcoordinate
    4928965.849,              !- Vertex 3 Ycoordinate
    0,                        !- Vertex 3 Zcoordinate
    687102.739,               !- Vertex 4 Xcoordinate
    4928957.576,              !- Vertex 4 Ycoordinate
    0;                        !- Vertex 4 Zcoordinate

BUILDINGSURFACE:DETAILED,
    Block af3917251b85a42e_4 Storey 1 Wall 0002,    !- Name
    wall,                     !- Surface Type
    EU_wall_Construction,     !- Construction Name
    af3917251b85a42e_F1_dwelling_4,    !- Zone Name
    ,                         !- Space Name
    outdoors,                 !- Outside Boundary Condition
    ,                         !- Outside Boundary Condition Object
    SunExposed,               !- Sun Exposure
    WindExposed,              !- Wind Exposure
    autocalculate,            !- View Factor to Ground
    autocalculate,            !- Number of Vertices
    687107.804,               !- Vertex 1 Xcoordinate
    4928965.849,              !- Vertex 1 Ycoordinate
    6,                        !- Vertex 1 Zcoordinate
    687107.804,               !- Vertex 2 Xcoordinate
    4928965.849,              !- Vertex 2 Ycoordinate
    3,                        !- Vertex 2 Zcoordinate
    687111.232,               !- Vertex 3 Xcoordinate
    4928963.743,              !- Vertex 3 Ycoordinate
    3,                        !- Vertex 3 Zcoordinate
    687111.232,               !- Vertex 4 Xcoordinate
    4928963.743,              !- Vertex 4 Ycoordinate
    6;                        !- Vertex 4 Zcoordinate

BUILDINGSURFACE:DETAILED,
    Block af3917251b85a42e_4 Storey 1 Wall 0004,    !- Name
    wall,                     !- Surface Type
    EU_wall_Construction,     !- Construction Name
    af3917251b85a42e_F1_dwelling_4,    !- Zone Name
    ,                         !- Space Name
    outdoors,                 !- Outside Boundary Condition
    ,                         !- Outside Boundary Condition Object
    SunExposed,               !- Sun Exposure
    WindExposed,              !- Wind Exposure
    autocalculate,            !- View Factor to Ground
    autocalculate,            !- Number of Vertices
    687106.17,                !- Vertex 1 Xcoordinate
    4928955.476,              !- Vertex 1 Ycoordinate
    6,                        !- Vertex 1 Zcoordinate
    687106.17,                !- Vertex 2 Xcoordinate
    4928955.476,              !- Vertex 2 Ycoordinate
    3,                        !- Vertex 2 Zcoordinate
    687102.739,               !- Vertex 3 Xcoordinate
    4928957.576,              !- Vertex 3 Ycoordinate
    3,                        !- Vertex 3 Zcoordinate
    687102.739,               !- Vertex 4 Xcoordinate
    4928957.576,              !- Vertex 4 Ycoordinate
    6;                        !- Vertex 4 Zcoordinate

BUILDINGSURFACE:DETAILED,
    Block af3917251b85a42e_4 Storey 2 Wall 0002,    !- Name
    wall,                     !- Surface Type
    EU_wall_Construction,     !- Construction Name
    af3917251b85a42e_F2_dwelling_4,    !- Zone Name
    ,                         !- Space Name
    outdoors,                 !- Outside Boundary Condition
    ,                         !- Outside Boundary Condition Object
    SunExposed,               !- Sun Exposure
    WindExposed,              !- Wind Exposure
    autocalculate,            !- View Factor to Ground
    autocalculate,            !- Number of Vertices
    687107.804,               !- Vertex 1 Xcoordinate
    4928965.849,              !- Vertex 1 Ycoordinate
    9,                        !- Vertex 1 Zcoordinate
    687107.804,               !- Vertex 2 Xcoordinate
    4928965.849,              !- Vertex 2 Ycoordinate
    6,                        !- Vertex 2 Zcoordinate
    687111.232,               !- Vertex 3 Xcoordinate
    4928963.743,              !- Vertex 3 Ycoordinate
    6,                        !- Vertex 3 Zcoordinate
    687111.232,               !- Vertex 4 Xcoordinate
    4928963.743,              !- Vertex 4 Ycoordinate
    9;                        !- Vertex 4 Zcoordinate

BUILDINGSURFACE:DETAILED,
    Block af3917251b85a42e_4 Storey 2 Wall 0004,    !- Name
    wall,                     !- Surface Type
    EU_wall_Construction,     !- Construction Name
    af3917251b85a42e_F2_dwelling_4,    !- Zone Name
    ,                         !- Space Name
    outdoors,                 !- Outside Boundary Condition
    ,                         !- Outside Boundary Condition Object
    SunExposed,               !- Sun Exposure
    WindExposed,              !- Wind Exposure
    autocalculate,            !- View Factor to Ground
    autocalculate,            !- Number of Vertices
    687106.17,                !- Vertex 1 Xcoordinate
    4928955.476,              !- Vertex 1 Ycoordinate
    9,                        !- Vertex 1 Zcoordinate
    687106.17,                !- Vertex 2 Xcoordinate
    4928955.476,              !- Vertex 2 Ycoordinate
    6,                        !- Vertex 2 Zcoordinate
    687102.739,               !- Vertex 3 Xcoordinate
    4928957.576,              !- Vertex 3 Ycoordinate
    6,                        !- Vertex 3 Zcoordinate
    687102.739,               !- Vertex 4 Xcoordinate
    4928957.576,              !- Vertex 4 Ycoordinate
    9;                        !- Vertex 4 Zcoordinate

BUILDINGSURFACE:DETAILED,
    Block af3917251b85a42e_4 Storey 3 Wall 0002,    !- Name
    wall,                     !- Surface Type
    EU_wall_Construction,     !- Construction Name
    af3917251b85a42e_F3_dwelling_4,    !- Zone Name
    ,                         !- Space Name
    outdoors,                 !- Outside Boundary Condition
    ,                         !- Outside Boundary Condition Object
    SunExposed,               !- Sun Exposure
    WindExposed,              !- Wind Exposure
    autocalculate,            !- View Factor to Ground
    autocalculate,            !- Number of Vertices
    687107.804,               !- Vertex 1 Xcoordinate
    4928965.849,              !- Vertex 1 Ycoordinate
    12,                       !- Vertex 1 Zcoordinate
    687107.804,               !- Vertex 2 Xcoordinate
    4928965.849,              !- Vertex 2 Ycoordinate
    9,                        !- Vertex 2 Zcoordinate
    687111.232,               !- Vertex 3 Xcoordinate
    4928963.743,              !- Vertex 3 Ycoordinate
    9,                        !- Vertex 3 Zcoordinate
    687111.232,               !- Vertex 4 Xcoordinate
    4928963.743,              !- Vertex 4 Ycoordinate
    12;                       !- Vertex 4 Zcoordinate

BUILDINGSURFACE:DETAILED,
    Block af3917251b85a42e_4 Storey 3 Wall 0004,    !- Name
    wall,                     !- Surface Type
    EU_wall_Construction,     !- Construction Name
    af3917251b85a42e_F3_dwelling_4,    !- Zone Name
    ,                         !- Space Name
    outdoors,                 !- Outside Boundary Condition
    ,                         !- Outside Boundary Condition Object
    SunExposed,               !- Sun Exposure
    WindExposed,              !- Wind Exposure
    autocalculate,            !- View Factor to Ground
    autocalculate,            !- Number of Vertices
    687106.17,                !- Vertex 1 Xcoordinate
    4928955.476,              !- Vertex 1 Ycoordinate
    12,                       !- Vertex 1 Zcoordinate
    687106.17,                !- Vertex 2 Xcoordinate
    4928955.476,              !- Vertex 2 Ycoordinate
    9,                        !- Vertex 2 Zcoordinate
    687102.739,               !- Vertex 3 Xcoordinate
    4928957.576,              !- Vertex 3 Ycoordinate
    9,                        !- Vertex 3 Zcoordinate
    687102.739,               !- Vertex 4 Xcoordinate
    4928957.576,              !- Vertex 4 Ycoordinate
    12;                       !- Vertex 4 Zcoordinate

BUILDINGSURFACE:DETAILED,
    Block af3917251b85a42e_4 Storey 4 Wall 0002,    !- Name
    wall,                     !- Surface Type
    EU_wall_Construction,     !- Construction Name
    af3917251b85a42e_F4_dwelling_4,    !- Zone Name
    ,                         !- Space Name
    outdoors,                 !- Outside Boundary Condition
    ,                         !- Outside Boundary Condition Object
    SunExposed,               !- Sun Exposure
    WindExposed,              !- Wind Exposure
    autocalculate,            !- View Factor to Ground
    autocalculate,            !- Number of Vertices
    687107.804,               !- Vertex 1 Xcoordinate
    4928965.849,              !- Vertex 1 Ycoordinate
    15,                       !- Vertex 1 Zcoordinate
    687107.804,               !- Vertex 2 Xcoordinate
    4928965.849,              !- Vertex 2 Ycoordinate
    12,                       !- Vertex 2 Zcoordinate
    687111.232,               !- Vertex 3 Xcoordinate
    4928963.743,              !- Vertex 3 Ycoordinate
    12,                       !- Vertex 3 Zcoordinate
    687111.232,               !- Vertex 4 Xcoordinate
    4928963.743,              !- Vertex 4 Ycoordinate
    15;                       !- Vertex 4 Zcoordinate

BUILDINGSURFACE:DETAILED,
    Block af3917251b85a42e_4 Storey 4 Wall 0004,    !- Name
    wall,                     !- Surface Type
    EU_wall_Construction,     !- Construction Name
    af3917251b85a42e_F4_dwelling_4,    !- Zone Name
    ,                         !- Space Name
    outdoors,                 !- Outside Boundary Condition
    ,                         !- Outside Boundary Condition Object
    SunExposed,               !- Sun Exposure
    WindExposed,              !- Wind Exposure
    autocalculate,            !- View Factor to Ground
    autocalculate,            !- Number of Vertices
    687106.17,                !- Vertex 1 Xcoordinate
    4928955.476,              !- Vertex 1 Ycoordinate
    15,                       !- Vertex 1 Zcoordinate
    687106.17,                !- Vertex 2 Xcoordinate
    4928955.476,              !- Vertex 2 Ycoordinate
    12,                       !- Vertex 2 Zcoordinate
    687102.739,               !- Vertex 3 Xcoordinate
    4928957.576,              !- Vertex 3 Ycoordinate
    12,                       !- Vertex 3 Zcoordinate
    687102.739,               !- Vertex 4 Xcoordinate
    4928957.576,              !- Vertex 4 Ycoordinate
    15;                       !- Vertex 4 Zcoordinate

BUILDINGSURFACE:DETAILED,
    Block af3917251b85a42e_4 Storey 4 Roof 0001,    !- Name
    roof,                     !- Surface Type
    EU_roof_Construction,     !- Construction Name
    af3917251b85a42e_F4_dwelling_4,    !- Zone Name
    ,                         !- Space Name
    outdoors,                 !- Outside Boundary Condition
    ,                         !- Outside Boundary Condition Object
    NoSun,                    !- Sun Exposure
    WindExposed,              !- Wind Exposure
    autocalculate,            !- View Factor to Ground
    autocalculate,            !- Number of Vertices
    687111.232,               !- Vertex 1 Xcoordinate
    4928963.743,              !- Vertex 1 Ycoordinate
    15,                       !- Vertex 1 Zcoordinate
    687106.17,                !- Vertex 2 Xcoordinate
    4928955.476,              !- Vertex 2 Ycoordinate
    15,                       !- Vertex 2 Zcoordinate
    687102.739,               !- Vertex 3 Xcoordinate
    4928957.576,              !- Vertex 3 Ycoordinate
    15,                       !- Vertex 3 Zcoordinate
    687107.804,               !- Vertex 4 Xcoordinate
    4928965.849,              !- Vertex 4 Ycoordinate
    15;                       !- Vertex 4 Zcoordinate

BUILDINGSURFACE:DETAILED,
    Block af3917251b85a42e_5 Storey 0 Wall 0002,    !- Name
    wall,                     !- Surface Type
    EU_wall_Construction,     !- Construction Name
    af3917251b85a42e_F0_dwelling_5,    !- Zone Name
    ,                         !- Space Name
    outdoors,                 !- Outside Boundary Condition
    ,                         !- Outside Boundary Condition Object
    SunExposed,               !- Sun Exposure
    WindExposed,              !- Wind Exposure
    autocalculate,            !- View Factor to Ground
    autocalculate,            !- Number of Vertices
    687104.355,               !- Vertex 1 Xcoordinate
    4928967.968,              !- Vertex 1 Ycoordinate
    3,                        !- Vertex 1 Zcoordinate
    687104.355,               !- Vertex 2 Xcoordinate
    4928967.968,              !- Vertex 2 Ycoordinate
    0,                        !- Vertex 2 Zcoordinate
    687107.804,               !- Vertex 3 Xcoordinate
    4928965.849,              !- Vertex 3 Ycoordinate
    0,                        !- Vertex 3 Zcoordinate
    687107.804,               !- Vertex 4 Xcoordinate
    4928965.849,              !- Vertex 4 Ycoordinate
    3;                        !- Vertex 4 Zcoordinate

BUILDINGSURFACE:DETAILED,
    Block af3917251b85a42e_5 Storey 0 Wall 0004,    !- Name
    wall,                     !- Surface Type
    EU_wall_Construction,     !- Construction Name
    af3917251b85a42e_F0_dwelling_5,    !- Zone Name
    ,                         !- Space Name
    outdoors,                 !- Outside Boundary Condition
    ,                         !- Outside Boundary Condition Object
    SunExposed,               !- Sun Exposure
    WindExposed,              !- Wind Exposure
    autocalculate,            !- View Factor to Ground
    autocalculate,            !- Number of Vertices
    687102.739,               !- Vertex 1 Xcoordinate
    4928957.576,              !- Vertex 1 Ycoordinate
    3,                        !- Vertex 1 Zcoordinate
    687102.739,               !- Vertex 2 Xcoordinate
    4928957.576,              !- Vertex 2 Ycoordinate
    0,                        !- Vertex 2 Zcoordinate
    687099.287,               !- Vertex 3 Xcoordinate
    4928959.69,               !- Vertex 3 Ycoordinate
    0,                        !- Vertex 3 Zcoordinate
    687099.287,               !- Vertex 4 Xcoordinate
    4928959.69,               !- Vertex 4 Ycoordinate
    3;                        !- Vertex 4 Zcoordinate

BUILDINGSURFACE:DETAILED,
    Block af3917251b85a42e_5 Storey 0 Floor 0001,    !- Name
    floor,                    !- Surface Type
    EU_floor_Construction,    !- Construction Name
    af3917251b85a42e_F0_dwelling_5,    !- Zone Name
    ,                         !- Space Name
    ground,                   !- Outside Boundary Condition
    ,                         !- Outside Boundary Condition Object
    NoSun,                    !- Sun Exposure
    NoWind,                   !- Wind Exposure
    autocalculate,            !- View Factor to Ground
    autocalculate,            !- Number of Vertices
    687102.739,               !- Vertex 1 Xcoordinate
    4928957.576,              !- Vertex 1 Ycoordinate
    0,                        !- Vertex 1 Zcoordinate
    687107.804,               !- Vertex 2 Xcoordinate
    4928965.849,              !- Vertex 2 Ycoordinate
    0,                        !- Vertex 2 Zcoordinate
    687104.355,               !- Vertex 3 Xcoordinate
    4928967.968,              !- Vertex 3 Ycoordinate
    0,                        !- Vertex 3 Zcoordinate
    687099.287,               !- Vertex 4 Xcoordinate
    4928959.69,               !- Vertex 4 Ycoordinate
    0;                        !- Vertex 4 Zcoordinate

BUILDINGSURFACE:DETAILED,
    Block af3917251b85a42e_5 Storey 1 Wall 0002,    !- Name
    wall,                     !- Surface Type
    EU_wall_Construction,     !- Construction Name
    af3917251b85a42e_F1_dwelling_5,    !- Zone Name
    ,                         !- Space Name
    outdoors,                 !- Outside Boundary Condition
    ,                         !- Outside Boundary Condition Object
    SunExposed,               !- Sun Exposure
    WindExposed,              !- Wind Exposure
    autocalculate,            !- View Factor to Ground
    autocalculate,            !- Number of Vertices
    687104.355,               !- Vertex 1 Xcoordinate
    4928967.968,              !- Vertex 1 Ycoordinate
    6,                        !- Vertex 1 Zcoordinate
    687104.355,               !- Vertex 2 Xcoordinate
    4928967.968,              !- Vertex 2 Ycoordinate
    3,                        !- Vertex 2 Zcoordinate
    687107.804,               !- Vertex 3 Xcoordinate
    4928965.849,              !- Vertex 3 Ycoordinate
    3,                        !- Vertex 3 Zcoordinate
    687107.804,               !- Vertex 4 Xcoordinate
    4928965.849,              !- Vertex 4 Ycoordinate
    6;                        !- Vertex 4 Zcoordinate

BUILDINGSURFACE:DETAILED,
    Block af3917251b85a42e_5 Storey 1 Wall 0004,    !- Name
    wall,                     !- Surface Type
    EU_wall_Construction,     !- Construction Name
    af3917251b85a42e_F1_dwelling_5,    !- Zone Name
    ,                         !- Space Name
    outdoors,                 !- Outside Boundary Condition
    ,                         !- Outside Boundary Condition Object
    SunExposed,               !- Sun Exposure
    WindExposed,              !- Wind Exposure
    autocalculate,            !- View Factor to Ground
    autocalculate,            !- Number of Vertices
    687102.739,               !- Vertex 1 Xcoordinate
    4928957.576,              !- Vertex 1 Ycoordinate
    6,                        !- Vertex 1 Zcoordinate
    687102.739,               !- Vertex 2 Xcoordinate
    4928957.576,              !- Vertex 2 Ycoordinate
    3,                        !- Vertex 2 Zcoordinate
    687099.287,               !- Vertex 3 Xcoordinate
    4928959.69,               !- Vertex 3 Ycoordinate
    3,                        !- Vertex 3 Zcoordinate
    687099.287,               !- Vertex 4 Xcoordinate
    4928959.69,               !- Vertex 4 Ycoordinate
    6;                        !- Vertex 4 Zcoordinate

BUILDINGSURFACE:DETAILED,
    Block af3917251b85a42e_5 Storey 2 Wall 0002,    !- Name
    wall,                     !- Surface Type
    EU_wall_Construction,     !- Construction Name
    af3917251b85a42e_F2_dwelling_5,    !- Zone Name
    ,                         !- Space Name
    outdoors,                 !- Outside Boundary Condition
    ,                         !- Outside Boundary Condition Object
    SunExposed,               !- Sun Exposure
    WindExposed,              !- Wind Exposure
    autocalculate,            !- View Factor to Ground
    autocalculate,            !- Number of Vertices
    687104.355,               !- Vertex 1 Xcoordinate
    4928967.968,              !- Vertex 1 Ycoordinate
    9,                        !- Vertex 1 Zcoordinate
    687104.355,               !- Vertex 2 Xcoordinate
    4928967.968,              !- Vertex 2 Ycoordinate
    6,                        !- Vertex 2 Zcoordinate
    687107.804,               !- Vertex 3 Xcoordinate
    4928965.849,              !- Vertex 3 Ycoordinate
    6,                        !- Vertex 3 Zcoordinate
    687107.804,               !- Vertex 4 Xcoordinate
    4928965.849,              !- Vertex 4 Ycoordinate
    9;                        !- Vertex 4 Zcoordinate

BUILDINGSURFACE:DETAILED,
    Block af3917251b85a42e_5 Storey 2 Wall 0004,    !- Name
    wall,                     !- Surface Type
    EU_wall_Construction,     !- Construction Name
    af3917251b85a42e_F2_dwelling_5,    !- Zone Name
    ,                         !- Space Name
    outdoors,                 !- Outside Boundary Condition
    ,                         !- Outside Boundary Condition Object
    SunExposed,               !- Sun Exposure
    WindExposed,              !- Wind Exposure
    autocalculate,            !- View Factor to Ground
    autocalculate,            !- Number of Vertices
    687102.739,               !- Vertex 1 Xcoordinate
    4928957.576,              !- Vertex 1 Ycoordinate
    9,                        !- Vertex 1 Zcoordinate
    687102.739,               !- Vertex 2 Xcoordinate
    4928957.576,              !- Vertex 2 Ycoordinate
    6,                        !- Vertex 2 Zcoordinate
    687099.287,               !- Vertex 3 Xcoordinate
    4928959.69,               !- Vertex 3 Ycoordinate
    6,                        !- Vertex 3 Zcoordinate
    687099.287,               !- Vertex 4 Xcoordinate
    4928959.69,               !- Vertex 4 Ycoordinate
    9;                        !- Vertex 4 Zcoordinate

BUILDINGSURFACE:DETAILED,
    Block af3917251b85a42e_5 Storey 3 Wall 0002,    !- Name
    wall,                     !- Surface Type
    EU_wall_Construction,     !- Construction Name
    af3917251b85a42e_F3_dwelling_5,    !- Zone Name
    ,                         !- Space Name
    outdoors,                 !- Outside Boundary Condition
    ,                         !- Outside Boundary Condition Object
    SunExposed,               !- Sun Exposure
    WindExposed,              !- Wind Exposure
    autocalculate,            !- View Factor to Ground
    autocalculate,            !- Number of Vertices
    687104.355,               !- Vertex 1 Xcoordinate
    4928967.968,              !- Vertex 1 Ycoordinate
    12,                       !- Vertex 1 Zcoordinate
    687104.355,               !- Vertex 2 Xcoordinate
    4928967.968,              !- Vertex 2 Ycoordinate
    9,                        !- Vertex 2 Zcoordinate
    687107.804,               !- Vertex 3 Xcoordinate
    4928965.849,              !- Vertex 3 Ycoordinate
    9,                        !- Vertex 3 Zcoordinate
    687107.804,               !- Vertex 4 Xcoordinate
    4928965.849,              !- Vertex 4 Ycoordinate
    12;                       !- Vertex 4 Zcoordinate

BUILDINGSURFACE:DETAILED,
    Block af3917251b85a42e_5 Storey 3 Wall 0004,    !- Name
    wall,                     !- Surface Type
    EU_wall_Construction,     !- Construction Name
    af3917251b85a42e_F3_dwelling_5,    !- Zone Name
    ,                         !- Space Name
    outdoors,                 !- Outside Boundary Condition
    ,                         !- Outside Boundary Condition Object
    SunExposed,               !- Sun Exposure
    WindExposed,              !- Wind Exposure
    autocalculate,            !- View Factor to Ground
    autocalculate,            !- Number of Vertices
    687102.739,               !- Vertex 1 Xcoordinate
    4928957.576,              !- Vertex 1 Ycoordinate
    12,                       !- Vertex 1 Zcoordinate
    687102.739,               !- Vertex 2 Xcoordinate
    4928957.576,              !- Vertex 2 Ycoordinate
    9,                        !- Vertex 2 Zcoordinate
    687099.287,               !- Vertex 3 Xcoordinate
    4928959.69,               !- Vertex 3 Ycoordinate
    9,                        !- Vertex 3 Zcoordinate
    687099.287,               !- Vertex 4 Xcoordinate
    4928959.69,               !- Vertex 4 Ycoordinate
    12;                       !- Vertex 4 Zcoordinate

BUILDINGSURFACE:DETAILED,
    Block af3917251b85a42e_5 Storey 4 Wall 0002,    !- Name
    wall,                     !- Surface Type
    EU_wall_Construction,     !- Construction Name
    af3917251b85a42e_F4_dwelling_5,    !- Zone Name
    ,                         !- Space Name
    outdoors,                 !- Outside Boundary Condition
    ,                         !- Outside Boundary Condition Object
    SunExposed,               !- Sun Exposure
    WindExposed,              !- Wind Exposure
    autocalculate,            !- View Factor to Ground
    autocalculate,            !- Number of Vertices
    687104.355,               !- Vertex 1 Xcoordinate
    4928967.968,              !- Vertex 1 Ycoordinate
    15,                       !- Vertex 1 Zcoordinate
    687104.355,               !- Vertex 2 Xcoordinate
    4928967.968,              !- Vertex 2 Ycoordinate
    12,                       !- Vertex 2 Zcoordinate
    687107.804,               !- Vertex 3 Xcoordinate
    4928965.849,              !- Vertex 3 Ycoordinate
    12,                       !- Vertex 3 Zcoordinate
    687107.804,               !- Vertex 4 Xcoordinate
    4928965.849,              !- Vertex 4 Ycoordinate
    15;                       !- Vertex 4 Zcoordinate

BUILDINGSURFACE:DETAILED,
    Block af3917251b85a42e_5 Storey 4 Wall 0004,    !- Name
    wall,                     !- Surface Type
    EU_wall_Construction,     !- Construction Name
    af3917251b85a42e_F4_dwelling_5,    !- Zone Name
    ,                         !- Space Name
    outdoors,                 !- Outside Boundary Condition
    ,                         !- Outside Boundary Condition Object
    SunExposed,               !- Sun Exposure
    WindExposed,              !- Wind Exposure
    autocalculate,            !- View Factor to Ground
    autocalculate,            !- Number of Vertices
    687102.739,               !- Vertex 1 Xcoordinate
    4928957.576,              !- Vertex 1 Ycoordinate
    15,                       !- Vertex 1 Zcoordinate
    687102.739,               !- Vertex 2 Xcoordinate
    4928957.576,              !- Vertex 2 Ycoordinate
    12,                       !- Vertex 2 Zcoordinate
    687099.287,               !- Vertex 3 Xcoordinate
    4928959.69,               !- Vertex 3 Ycoordinate
    12,                       !- Vertex 3 Zcoordinate
    687099.287,               !- Vertex 4 Xcoordinate
    4928959.69,               !- Vertex 4 Ycoordinate
    15;                       !- Vertex 4 Zcoordinate

BUILDINGSURFACE:DETAILED,
    Block af3917251b85a42e_5 Storey 4 Roof 0001,    !- Name
    roof,                     !- Surface Type
    EU_roof_Construction,     !- Construction Name
    af3917251b85a42e_F4_dwelling_5,    !- Zone Name
    ,                         !- Space Name
    outdoors,                 !- Outside Boundary Condition
    ,                         !- Outside Boundary Condition Object
    NoSun,                    !- Sun Exposure
    WindExposed,              !- Wind Exposure
    autocalculate,            !- View Factor to Ground
    autocalculate,            !- Number of Vertices
    687107.804,               !- Vertex 1 Xcoordinate
    4928965.849,              !- Vertex 1 Ycoordinate
    15,                       !- Vertex 1 Zcoordinate
    687102.739,               !- Vertex 2 Xcoordinate
    4928957.576,              !- Vertex 2 Ycoordinate
    15,                       !- Vertex 2 Zcoordinate
    687099.287,               !- Vertex 3 Xcoordinate
    4928959.69,               !- Vertex 3 Ycoordinate
    15,                       !- Vertex 3 Zcoordinate
    687104.355,               !- Vertex 4 Xcoordinate
    4928967.968,              !- Vertex 4 Ycoordinate
    15;                       !- Vertex 4 Zcoordinate

BUILDINGSURFACE:DETAILED,
    Block af3917251b85a42e_6 Storey 0 Wall 0002,    !- Name
    wall,                     !- Surface Type
    EU_wall_Construction,     !- Construction Name
    af3917251b85a42e_F0_dwelling_6,    !- Zone Name
    ,                         !- Space Name
    outdoors,                 !- Outside Boundary Condition
    ,                         !- Outside Boundary Condition Object
    SunExposed,               !- Sun Exposure
    WindExposed,              !- Wind Exposure
    autocalculate,            !- View Factor to Ground
    autocalculate,            !- Number of Vertices
    687100.077,               !- Vertex 1 Xcoordinate
    4928970.596,              !- Vertex 1 Ycoordinate
    3,                        !- Vertex 1 Zcoordinate
    687100.077,               !- Vertex 2 Xcoordinate
    4928970.596,              !- Vertex 2 Ycoordinate
    0,                        !- Vertex 2 Zcoordinate
    687104.355,               !- Vertex 3 Xcoordinate
    4928967.968,              !- Vertex 3 Ycoordinate
    0,                        !- Vertex 3 Zcoordinate
    687104.355,               !- Vertex 4 Xcoordinate
    4928967.968,              !- Vertex 4 Ycoordinate
    3;                        !- Vertex 4 Zcoordinate

BUILDINGSURFACE:DETAILED,
    Block af3917251b85a42e_6 Storey 0 Wall 0004,    !- Name
    wall,                     !- Surface Type
    EU_wall_Construction,     !- Construction Name
    af3917251b85a42e_F0_dwelling_6,    !- Zone Name
    ,                         !- Space Name
    outdoors,                 !- Outside Boundary Condition
    ,                         !- Outside Boundary Condition Object
    SunExposed,               !- Sun Exposure
    WindExposed,              !- Wind Exposure
    autocalculate,            !- View Factor to Ground
    autocalculate,            !- Number of Vertices
    687099.287,               !- Vertex 1 Xcoordinate
    4928959.69,               !- Vertex 1 Ycoordinate
    3,                        !- Vertex 1 Zcoordinate
    687099.287,               !- Vertex 2 Xcoordinate
    4928959.69,               !- Vertex 2 Ycoordinate
    0,                        !- Vertex 2 Zcoordinate
    687095.005,               !- Vertex 3 Xcoordinate
    4928962.312,              !- Vertex 3 Ycoordinate
    0,                        !- Vertex 3 Zcoordinate
    687095.005,               !- Vertex 4 Xcoordinate
    4928962.312,              !- Vertex 4 Ycoordinate
    3;                        !- Vertex 4 Zcoordinate

BUILDINGSURFACE:DETAILED,
    Block af3917251b85a42e_6 Storey 0 Floor 0001,    !- Name
    floor,                    !- Surface Type
    EU_floor_Construction,    !- Construction Name
    af3917251b85a42e_F0_dwelling_6,    !- Zone Name
    ,                         !- Space Name
    ground,                   !- Outside Boundary Condition
    ,                         !- Outside Boundary Condition Object
    NoSun,                    !- Sun Exposure
    NoWind,                   !- Wind Exposure
    autocalculate,            !- View Factor to Ground
    autocalculate,            !- Number of Vertices
    687099.287,               !- Vertex 1 Xcoordinate
    4928959.69,               !- Vertex 1 Ycoordinate
    0,                        !- Vertex 1 Zcoordinate
    687104.355,               !- Vertex 2 Xcoordinate
    4928967.968,              !- Vertex 2 Ycoordinate
    0,                        !- Vertex 2 Zcoordinate
    687100.077,               !- Vertex 3 Xcoordinate
    4928970.596,              !- Vertex 3 Ycoordinate
    0,                        !- Vertex 3 Zcoordinate
    687095.005,               !- Vertex 4 Xcoordinate
    4928962.312,              !- Vertex 4 Ycoordinate
    0;                        !- Vertex 4 Zcoordinate

BUILDINGSURFACE:DETAILED,
    Block af3917251b85a42e_6 Storey 1 Wall 0002,    !- Name
    wall,                     !- Surface Type
    EU_wall_Construction,     !- Construction Name
    af3917251b85a42e_F1_dwelling_6,    !- Zone Name
    ,                         !- Space Name
    outdoors,                 !- Outside Boundary Condition
    ,                         !- Outside Boundary Condition Object
    SunExposed,               !- Sun Exposure
    WindExposed,              !- Wind Exposure
    autocalculate,            !- View Factor to Ground
    autocalculate,            !- Number of Vertices
    687100.077,               !- Vertex 1 Xcoordinate
    4928970.596,              !- Vertex 1 Ycoordinate
    6,                        !- Vertex 1 Zcoordinate
    687100.077,               !- Vertex 2 Xcoordinate
    4928970.596,              !- Vertex 2 Ycoordinate
    3,                        !- Vertex 2 Zcoordinate
    687104.355,               !- Vertex 3 Xcoordinate
    4928967.968,              !- Vertex 3 Ycoordinate
    3,                        !- Vertex 3 Zcoordinate
    687104.355,               !- Vertex 4 Xcoordinate
    4928967.968,              !- Vertex 4 Ycoordinate
    6;                        !- Vertex 4 Zcoordinate

BUILDINGSURFACE:DETAILED,
    Block af3917251b85a42e_6 Storey 1 Wall 0004,    !- Name
    wall,                     !- Surface Type
    EU_wall_Construction,     !- Construction Name
    af3917251b85a42e_F1_dwelling_6,    !- Zone Name
    ,                         !- Space Name
    outdoors,                 !- Outside Boundary Condition
    ,                         !- Outside Boundary Condition Object
    SunExposed,               !- Sun Exposure
    WindExposed,              !- Wind Exposure
    autocalculate,            !- View Factor to Ground
    autocalculate,            !- Number of Vertices
    687099.287,               !- Vertex 1 Xcoordinate
    4928959.69,               !- Vertex 1 Ycoordinate
    6,                        !- Vertex 1 Zcoordinate
    687099.287,               !- Vertex 2 Xcoordinate
    4928959.69,               !- Vertex 2 Ycoordinate
    3,                        !- Vertex 2 Zcoordinate
    687095.005,               !- Vertex 3 Xcoordinate
    4928962.312,              !- Vertex 3 Ycoordinate
    3,                        !- Vertex 3 Zcoordinate
    687095.005,               !- Vertex 4 Xcoordinate
    4928962.312,              !- Vertex 4 Ycoordinate
    6;                        !- Vertex 4 Zcoordinate

BUILDINGSURFACE:DETAILED,
    Block af3917251b85a42e_6 Storey 2 Wall 0002,    !- Name
    wall,                     !- Surface Type
    EU_wall_Construction,     !- Construction Name
    af3917251b85a42e_F2_dwelling_6,    !- Zone Name
    ,                         !- Space Name
    outdoors,                 !- Outside Boundary Condition
    ,                         !- Outside Boundary Condition Object
    SunExposed,               !- Sun Exposure
    WindExposed,              !- Wind Exposure
    autocalculate,            !- View Factor to Ground
    autocalculate,            !- Number of Vertices
    687100.077,               !- Vertex 1 Xcoordinate
    4928970.596,              !- Vertex 1 Ycoordinate
    9,                        !- Vertex 1 Zcoordinate
    687100.077,               !- Vertex 2 Xcoordinate
    4928970.596,              !- Vertex 2 Ycoordinate
    6,                        !- Vertex 2 Zcoordinate
    687104.355,               !- Vertex 3 Xcoordinate
    4928967.968,              !- Vertex 3 Ycoordinate
    6,                        !- Vertex 3 Zcoordinate
    687104.355,               !- Vertex 4 Xcoordinate
    4928967.968,              !- Vertex 4 Ycoordinate
    9;                        !- Vertex 4 Zcoordinate

BUILDINGSURFACE:DETAILED,
    Block af3917251b85a42e_6 Storey 2 Wall 0004,    !- Name
    wall,                     !- Surface Type
    EU_wall_Construction,     !- Construction Name
    af3917251b85a42e_F2_dwelling_6,    !- Zone Name
    ,                         !- Space Name
    outdoors,                 !- Outside Boundary Condition
    ,                         !- Outside Boundary Condition Object
    SunExposed,               !- Sun Exposure
    WindExposed,              !- Wind Exposure
    autocalculate,            !- View Factor to Ground
    autocalculate,            !- Number of Vertices
    687099.287,               !- Vertex 1 Xcoordinate
    4928959.69,               !- Vertex 1 Ycoordinate
    9,                        !- Vertex 1 Zcoordinate
    687099.287,               !- Vertex 2 Xcoordinate
    4928959.69,               !- Vertex 2 Ycoordinate
    6,                        !- Vertex 2 Zcoordinate
    687095.005,               !- Vertex 3 Xcoordinate
    4928962.312,              !- Vertex 3 Ycoordinate
    6,                        !- Vertex 3 Zcoordinate
    687095.005,               !- Vertex 4 Xcoordinate
    4928962.312,              !- Vertex 4 Ycoordinate
    9;                        !- Vertex 4 Zcoordinate

BUILDINGSURFACE:DETAILED,
    Block af3917251b85a42e_6 Storey 3 Wall 0002,    !- Name
    wall,                     !- Surface Type
    EU_wall_Construction,     !- Construction Name
    af3917251b85a42e_F3_dwelling_6,    !- Zone Name
    ,                         !- Space Name
    outdoors,                 !- Outside Boundary Condition
    ,                         !- Outside Boundary Condition Object
    SunExposed,               !- Sun Exposure
    WindExposed,              !- Wind Exposure
    autocalculate,            !- View Factor to Ground
    autocalculate,            !- Number of Vertices
    687100.077,               !- Vertex 1 Xcoordinate
    4928970.596,              !- Vertex 1 Ycoordinate
    12,                       !- Vertex 1 Zcoordinate
    687100.077,               !- Vertex 2 Xcoordinate
    4928970.596,              !- Vertex 2 Ycoordinate
    9,                        !- Vertex 2 Zcoordinate
    687104.355,               !- Vertex 3 Xcoordinate
    4928967.968,              !- Vertex 3 Ycoordinate
    9,                        !- Vertex 3 Zcoordinate
    687104.355,               !- Vertex 4 Xcoordinate
    4928967.968,              !- Vertex 4 Ycoordinate
    12;                       !- Vertex 4 Zcoordinate

BUILDINGSURFACE:DETAILED,
    Block af3917251b85a42e_6 Storey 3 Wall 0004,    !- Name
    wall,                     !- Surface Type
    EU_wall_Construction,     !- Construction Name
    af3917251b85a42e_F3_dwelling_6,    !- Zone Name
    ,                         !- Space Name
    outdoors,                 !- Outside Boundary Condition
    ,                         !- Outside Boundary Condition Object
    SunExposed,               !- Sun Exposure
    WindExposed,              !- Wind Exposure
    autocalculate,            !- View Factor to Ground
    autocalculate,            !- Number of Vertices
    687099.287,               !- Vertex 1 Xcoordinate
    4928959.69,               !- Vertex 1 Ycoordinate
    12,                       !- Vertex 1 Zcoordinate
    687099.287,               !- Vertex 2 Xcoordinate
    4928959.69,               !- Vertex 2 Ycoordinate
    9,                        !- Vertex 2 Zcoordinate
    687095.005,               !- Vertex 3 Xcoordinate
    4928962.312,              !- Vertex 3 Ycoordinate
    9,                        !- Vertex 3 Zcoordinate
    687095.005,               !- Vertex 4 Xcoordinate
    4928962.312,              !- Vertex 4 Ycoordinate
    12;                       !- Vertex 4 Zcoordinate

BUILDINGSURFACE:DETAILED,
    Block af3917251b85a42e_6 Storey 4 Wall 0002,    !- Name
    wall,                     !- Surface Type
    EU_wall_Construction,     !- Construction Name
    af3917251b85a42e_F4_dwelling_6,    !- Zone Name
    ,                         !- Space Name
    outdoors,                 !- Outside Boundary Condition
    ,                         !- Outside Boundary Condition Object
    SunExposed,               !- Sun Exposure
    WindExposed,              !- Wind Exposure
    autocalculate,            !- View Factor to Ground
    autocalculate,            !- Number of Vertices
    687100.077,               !- Vertex 1 Xcoordinate
    4928970.596,              !- Vertex 1 Ycoordinate
    15,                       !- Vertex 1 Zcoordinate
    687100.077,               !- Vertex 2 Xcoordinate
    4928970.596,              !- Vertex 2 Ycoordinate
    12,                       !- Vertex 2 Zcoordinate
    687104.355,               !- Vertex 3 Xcoordinate
    4928967.968,              !- Vertex 3 Ycoordinate
    12,                       !- Vertex 3 Zcoordinate
    687104.355,               !- Vertex 4 Xcoordinate
    4928967.968,              !- Vertex 4 Ycoordinate
    15;                       !- Vertex 4 Zcoordinate

BUILDINGSURFACE:DETAILED,
    Block af3917251b85a42e_6 Storey 4 Wall 0004,    !- Name
    wall,                     !- Surface Type
    EU_wall_Construction,     !- Construction Name
    af3917251b85a42e_F4_dwelling_6,    !- Zone Name
    ,                         !- Space Name
    outdoors,                 !- Outside Boundary Condition
    ,                         !- Outside Boundary Condition Object
    SunExposed,               !- Sun Exposure
    WindExposed,              !- Wind Exposure
    autocalculate,            !- View Factor to Ground
    autocalculate,            !- Number of Vertices
    687099.287,               !- Vertex 1 Xcoordinate
    4928959.69,               !- Vertex 1 Ycoordinate
    15,                       !- Vertex 1 Zcoordinate
    687099.287,               !- Vertex 2 Xcoordinate
    4928959.69,               !- Vertex 2 Ycoordinate
    12,                       !- Vertex 2 Zcoordinate
    687095.005,               !- Vertex 3 Xcoordinate
    4928962.312,              !- Vertex 3 Ycoordinate
    12,                       !- Vertex 3 Zcoordinate
    687095.005,               !- Vertex 4 Xcoordinate
    4928962.312,              !- Vertex 4 Ycoordinate
    15;                       !- Vertex 4 Zcoordinate

BUILDINGSURFACE:DETAILED,
    Block af3917251b85a42e_6 Storey 4 Roof 0001,    !- Name
    roof,                     !- Surface Type
    EU_roof_Construction,     !- Construction Name
    af3917251b85a42e_F4_dwelling_6,    !- Zone Name
    ,                         !- Space Name
    outdoors,                 !- Outside Boundary Condition
    ,                         !- Outside Boundary Condition Object
    NoSun,                    !- Sun Exposure
    WindExposed,              !- Wind Exposure
    autocalculate,            !- View Factor to Ground
    autocalculate,            !- Number of Vertices
    687104.355,               !- Vertex 1 Xcoordinate
    4928967.968,              !- Vertex 1 Ycoordinate
    15,                       !- Vertex 1 Zcoordinate
    687099.287,               !- Vertex 2 Xcoordinate
    4928959.69,               !- Vertex 2 Ycoordinate
    15,                       !- Vertex 2 Zcoordinate
    687095.005,               !- Vertex 3 Xcoordinate
    4928962.312,              !- Vertex 3 Ycoordinate
    15,                       !- Vertex 3 Zcoordinate
    687100.077,               !- Vertex 4 Xcoordinate
    4928970.596,              !- Vertex 4 Ycoordinate
    15;                       !- Vertex 4 Zcoordinate

BUILDINGSURFACE:DETAILED,
    Block af3917251b85a42e_7 Storey 0 Wall 0001,    !- Name
    wall,                     !- Surface Type
    EU_wall_Construction,     !- Construction Name
    af3917251b85a42e_F0_dwelling_7,    !- Zone Name
    ,                         !- Space Name
    outdoors,                 !- Outside Boundary Condition
    ,                         !- Outside Boundary Condition Object
    SunExposed,               !- Sun Exposure
    WindExposed,              !- Wind Exposure
    autocalculate,            !- View Factor to Ground
    autocalculate,            !- Number of Vertices
    687095.005,               !- Vertex 1 Xcoordinate
    4928962.312,              !- Vertex 1 Ycoordinate
    3,                        !- Vertex 1 Zcoordinate
    687095.005,               !- Vertex 2 Xcoordinate
    4928962.312,              !- Vertex 2 Ycoordinate
    0,                        !- Vertex 2 Zcoordinate
    687048.757,               !- Vertex 3 Xcoordinate
    4928990.629,              !- Vertex 3 Ycoordinate
    0,                        !- Vertex 3 Zcoordinate
    687048.757,               !- Vertex 4 Xcoordinate
    4928990.629,              !- Vertex 4 Ycoordinate
    3;                        !- Vertex 4 Zcoordinate

BUILDINGSURFACE:DETAILED,
    Block af3917251b85a42e_7 Storey 0 Wall 0002,    !- Name
    wall,                     !- Surface Type
    EU_wall_Construction,     !- Construction Name
    af3917251b85a42e_F0_dwelling_7,    !- Zone Name
    ,                         !- Space Name
    outdoors,                 !- Outside Boundary Condition
    ,                         !- Outside Boundary Condition Object
    SunExposed,               !- Sun Exposure
    WindExposed,              !- Wind Exposure
    autocalculate,            !- View Factor to Ground
    autocalculate,            !- Number of Vertices
    687048.757,               !- Vertex 1 Xcoordinate
    4928990.629,              !- Vertex 1 Ycoordinate
    3,                        !- Vertex 1 Zcoordinate
    687048.757,               !- Vertex 2 Xcoordinate
    4928990.629,              !- Vertex 2 Ycoordinate
    0,                        !- Vertex 2 Zcoordinate
    687054.667,               !- Vertex 3 Xcoordinate
    4928999.998,              !- Vertex 3 Ycoordinate
    0,                        !- Vertex 3 Zcoordinate
    687054.667,               !- Vertex 4 Xcoordinate
    4928999.998,              !- Vertex 4 Ycoordinate
    3;                        !- Vertex 4 Zcoordinate

BUILDINGSURFACE:DETAILED,
    Block af3917251b85a42e_7 Storey 0 Wall 0003,    !- Name
    wall,                     !- Surface Type
    EU_wall_Construction,     !- Construction Name
    af3917251b85a42e_F0_dwelling_7,    !- Zone Name
    ,                         !- Space Name
    outdoors,                 !- Outside Boundary Condition
    ,                         !- Outside Boundary Condition Object
    SunExposed,               !- Sun Exposure
    WindExposed,              !- Wind Exposure
    autocalculate,            !- View Factor to Ground
    autocalculate,            !- Number of Vertices
    687054.667,               !- Vertex 1 Xcoordinate
    4928999.998,              !- Vertex 1 Ycoordinate
    3,                        !- Vertex 1 Zcoordinate
    687054.667,               !- Vertex 2 Xcoordinate
    4928999.998,              !- Vertex 2 Ycoordinate
    0,                        !- Vertex 2 Zcoordinate
    687055.947,               !- Vertex 3 Xcoordinate
    4929002.008,              !- Vertex 3 Ycoordinate
    0,                        !- Vertex 3 Zcoordinate
    687055.947,               !- Vertex 4 Xcoordinate
    4929002.008,              !- Vertex 4 Ycoordinate
    3;                        !- Vertex 4 Zcoordinate

BUILDINGSURFACE:DETAILED,
    Block af3917251b85a42e_7 Storey 0 Wall 0004,    !- Name
    wall,                     !- Surface Type
    EU_wall_Construction,     !- Construction Name
    af3917251b85a42e_F0_dwelling_7,    !- Zone Name
    ,                         !- Space Name
    outdoors,                 !- Outside Boundary Condition
    ,                         !- Outside Boundary Condition Object
    SunExposed,               !- Sun Exposure
    WindExposed,              !- Wind Exposure
    autocalculate,            !- View Factor to Ground
    autocalculate,            !- Number of Vertices
    687055.947,               !- Vertex 1 Xcoordinate
    4929002.008,              !- Vertex 1 Ycoordinate
    3,                        !- Vertex 1 Zcoordinate
    687055.947,               !- Vertex 2 Xcoordinate
    4929002.008,              !- Vertex 2 Ycoordinate
    0,                        !- Vertex 2 Zcoordinate
    687063.577,               !- Vertex 3 Xcoordinate
    4929014.098,              !- Vertex 3 Ycoordinate
    0,                        !- Vertex 3 Zcoordinate
    687063.577,               !- Vertex 4 Xcoordinate
    4929014.098,              !- Vertex 4 Ycoordinate
    3;                        !- Vertex 4 Zcoordinate

BUILDINGSURFACE:DETAILED,
    Block af3917251b85a42e_7 Storey 0 Wall 0005,    !- Name
    wall,                     !- Surface Type
    EU_wall_Construction,     !- Construction Name
    af3917251b85a42e_F0_dwelling_7,    !- Zone Name
    ,                         !- Space Name
    Adiabatic,                !- Outside Boundary Condition
    ,                         !- Outside Boundary Condition Object
    NoSun,                    !- Sun Exposure
    NoWind,                   !- Wind Exposure
    autocalculate,            !- View Factor to Ground
    autocalculate,            !- Number of Vertices
    687063.577,               !- Vertex 1 Xcoordinate
    4929014.098,              !- Vertex 1 Ycoordinate
    3,                        !- Vertex 1 Zcoordinate
    687063.577,               !- Vertex 2 Xcoordinate
    4929014.098,              !- Vertex 2 Ycoordinate
    0,                        !- Vertex 2 Zcoordinate
    687068.917,               !- Vertex 3 Xcoordinate
    4929010.488,              !- Vertex 3 Ycoordinate
    0,                        !- Vertex 3 Zcoordinate
    687068.917,               !- Vertex 4 Xcoordinate
    4929010.488,              !- Vertex 4 Ycoordinate
    3;                        !- Vertex 4 Zcoordinate

BUILDINGSURFACE:DETAILED,
    Block af3917251b85a42e_7 Storey 0 Wall 0006,    !- Name
    wall,                     !- Surface Type
    EU_wall_Construction,     !- Construction Name
    af3917251b85a42e_F0_dwelling_7,    !- Zone Name
    ,                         !- Space Name
    outdoors,                 !- Outside Boundary Condition
    ,                         !- Outside Boundary Condition Object
    SunExposed,               !- Sun Exposure
    WindExposed,              !- Wind Exposure
    autocalculate,            !- View Factor to Ground
    autocalculate,            !- Number of Vertices
    687068.917,               !- Vertex 1 Xcoordinate
    4929010.488,              !- Vertex 1 Ycoordinate
    3,                        !- Vertex 1 Zcoordinate
    687068.917,               !- Vertex 2 Xcoordinate
    4929010.488,              !- Vertex 2 Ycoordinate
    0,                        !- Vertex 2 Zcoordinate
    687059.297,               !- Vertex 3 Xcoordinate
    4928995.648,              !- Vertex 3 Ycoordinate
    0,                        !- Vertex 3 Zcoordinate
    687059.297,               !- Vertex 4 Xcoordinate
    4928995.648,              !- Vertex 4 Ycoordinate
    3;                        !- Vertex 4 Zcoordinate

BUILDINGSURFACE:DETAILED,
    Block af3917251b85a42e_7 Storey 0 Wall 0007,    !- Name
    wall,                     !- Surface Type
    EU_wall_Construction,     !- Construction Name
    af3917251b85a42e_F0_dwelling_7,    !- Zone Name
    ,                         !- Space Name
    outdoors,                 !- Outside Boundary Condition
    ,                         !- Outside Boundary Condition Object
    SunExposed,               !- Sun Exposure
    WindExposed,              !- Wind Exposure
    autocalculate,            !- View Factor to Ground
    autocalculate,            !- Number of Vertices
    687059.297,               !- Vertex 1 Xcoordinate
    4928995.648,              !- Vertex 1 Ycoordinate
    3,                        !- Vertex 1 Zcoordinate
    687059.297,               !- Vertex 2 Xcoordinate
    4928995.648,              !- Vertex 2 Ycoordinate
    0,                        !- Vertex 2 Zcoordinate
    687100.077,               !- Vertex 3 Xcoordinate
    4928970.596,              !- Vertex 3 Ycoordinate
    0,                        !- Vertex 3 Zcoordinate
    687100.077,               !- Vertex 4 Xcoordinate
    4928970.596,              !- Vertex 4 Ycoordinate
    3;                        !- Vertex 4 Zcoordinate

BUILDINGSURFACE:DETAILED,
    Block af3917251b85a42e_7 Storey 0 Floor 0001,    !- Name
    floor,                    !- Surface Type
    EU_floor_Construction,    !- Construction Name
    af3917251b85a42e_F0_dwelling_7,    !- Zone Name
    ,                         !- Space Name
    ground,                   !- Outside Boundary Condition
    ,                         !- Outside Boundary Condition Object
    NoSun,                    !- Sun Exposure
    NoWind,                   !- Wind Exposure
    autocalculate,            !- View Factor to Ground
    autocalculate,            !- Number of Vertices
    687095.005,               !- Vertex 1 Xcoordinate
    4928962.312,              !- Vertex 1 Ycoordinate
    0,                        !- Vertex 1 Zcoordinate
    687100.077,               !- Vertex 2 Xcoordinate
    4928970.596,              !- Vertex 2 Ycoordinate
    0,                        !- Vertex 2 Zcoordinate
    687059.297,               !- Vertex 3 Xcoordinate
    4928995.648,              !- Vertex 3 Ycoordinate
    0,                        !- Vertex 3 Zcoordinate
    687068.917,               !- Vertex 4 Xcoordinate
    4929010.488,              !- Vertex 4 Ycoordinate
    0,                        !- Vertex 4 Zcoordinate
    687063.577,               !- Vertex 5 Xcoordinate
    4929014.098,              !- Vertex 5 Ycoordinate
    0,                        !- Vertex 5 Zcoordinate
    687055.947,               !- Vertex 6 Xcoordinate
    4929002.008,              !- Vertex 6 Ycoordinate
    0,                        !- Vertex 6 Zcoordinate
    687054.667,               !- Vertex 7 Xcoordinate
    4928999.998,              !- Vertex 7 Ycoordinate
    0,                        !- Vertex 7 Zcoordinate
    687048.757,               !- Vertex 8 Xcoordinate
    4928990.629,              !- Vertex 8 Ycoordinate
    0;                        !- Vertex 8 Zcoordinate

BUILDINGSURFACE:DETAILED,
    Block af3917251b85a42e_7 Storey 1 Wall 0001,    !- Name
    wall,                     !- Surface Type
    EU_wall_Construction,     !- Construction Name
    af3917251b85a42e_F1_dwelling_7,    !- Zone Name
    ,                         !- Space Name
    outdoors,                 !- Outside Boundary Condition
    ,                         !- Outside Boundary Condition Object
    SunExposed,               !- Sun Exposure
    WindExposed,              !- Wind Exposure
    autocalculate,            !- View Factor to Ground
    autocalculate,            !- Number of Vertices
    687095.005,               !- Vertex 1 Xcoordinate
    4928962.312,              !- Vertex 1 Ycoordinate
    6,                        !- Vertex 1 Zcoordinate
    687095.005,               !- Vertex 2 Xcoordinate
    4928962.312,              !- Vertex 2 Ycoordinate
    3,                        !- Vertex 2 Zcoordinate
    687048.757,               !- Vertex 3 Xcoordinate
    4928990.629,              !- Vertex 3 Ycoordinate
    3,                        !- Vertex 3 Zcoordinate
    687048.757,               !- Vertex 4 Xcoordinate
    4928990.629,              !- Vertex 4 Ycoordinate
    6;                        !- Vertex 4 Zcoordinate

BUILDINGSURFACE:DETAILED,
    Block af3917251b85a42e_7 Storey 1 Wall 0002,    !- Name
    wall,                     !- Surface Type
    EU_wall_Construction,     !- Construction Name
    af3917251b85a42e_F1_dwelling_7,    !- Zone Name
    ,                         !- Space Name
    outdoors,                 !- Outside Boundary Condition
    ,                         !- Outside Boundary Condition Object
    SunExposed,               !- Sun Exposure
    WindExposed,              !- Wind Exposure
    autocalculate,            !- View Factor to Ground
    autocalculate,            !- Number of Vertices
    687048.757,               !- Vertex 1 Xcoordinate
    4928990.629,              !- Vertex 1 Ycoordinate
    6,                        !- Vertex 1 Zcoordinate
    687048.757,               !- Vertex 2 Xcoordinate
    4928990.629,              !- Vertex 2 Ycoordinate
    3,                        !- Vertex 2 Zcoordinate
    687054.667,               !- Vertex 3 Xcoordinate
    4928999.998,              !- Vertex 3 Ycoordinate
    3,                        !- Vertex 3 Zcoordinate
    687054.667,               !- Vertex 4 Xcoordinate
    4928999.998,              !- Vertex 4 Ycoordinate
    6;                        !- Vertex 4 Zcoordinate

BUILDINGSURFACE:DETAILED,
    Block af3917251b85a42e_7 Storey 1 Wall 0003,    !- Name
    wall,                     !- Surface Type
    EU_wall_Construction,     !- Construction Name
    af3917251b85a42e_F1_dwelling_7,    !- Zone Name
    ,                         !- Space Name
    outdoors,                 !- Outside Boundary Condition
    ,                         !- Outside Boundary Condition Object
    SunExposed,               !- Sun Exposure
    WindExposed,              !- Wind Exposure
    autocalculate,            !- View Factor to Ground
    autocalculate,            !- Number of Vertices
    687054.667,               !- Vertex 1 Xcoordinate
    4928999.998,              !- Vertex 1 Ycoordinate
    6,                        !- Vertex 1 Zcoordinate
    687054.667,               !- Vertex 2 Xcoordinate
    4928999.998,              !- Vertex 2 Ycoordinate
    3,                        !- Vertex 2 Zcoordinate
    687055.947,               !- Vertex 3 Xcoordinate
    4929002.008,              !- Vertex 3 Ycoordinate
    3,                        !- Vertex 3 Zcoordinate
    687055.947,               !- Vertex 4 Xcoordinate
    4929002.008,              !- Vertex 4 Ycoordinate
    6;                        !- Vertex 4 Zcoordinate

BUILDINGSURFACE:DETAILED,
    Block af3917251b85a42e_7 Storey 1 Wall 0004,    !- Name
    wall,                     !- Surface Type
    EU_wall_Construction,     !- Construction Name
    af3917251b85a42e_F1_dwelling_7,    !- Zone Name
    ,                         !- Space Name
    outdoors,                 !- Outside Boundary Condition
    ,                         !- Outside Boundary Condition Object
    SunExposed,               !- Sun Exposure
    WindExposed,              !- Wind Exposure
    autocalculate,            !- View Factor to Ground
    autocalculate,            !- Number of Vertices
    687055.947,               !- Vertex 1 Xcoordinate
    4929002.008,              !- Vertex 1 Ycoordinate
    6,                        !- Vertex 1 Zcoordinate
    687055.947,               !- Vertex 2 Xcoordinate
    4929002.008,              !- Vertex 2 Ycoordinate
    3,                        !- Vertex 2 Zcoordinate
    687063.577,               !- Vertex 3 Xcoordinate
    4929014.098,              !- Vertex 3 Ycoordinate
    3,                        !- Vertex 3 Zcoordinate
    687063.577,               !- Vertex 4 Xcoordinate
    4929014.098,              !- Vertex 4 Ycoordinate
    6;                        !- Vertex 4 Zcoordinate

BUILDINGSURFACE:DETAILED,
    Block af3917251b85a42e_7 Storey 1 Wall 0005,    !- Name
    wall,                     !- Surface Type
    EU_wall_Construction,     !- Construction Name
    af3917251b85a42e_F1_dwelling_7,    !- Zone Name
    ,                         !- Space Name
    Adiabatic,                !- Outside Boundary Condition
    ,                         !- Outside Boundary Condition Object
    NoSun,                    !- Sun Exposure
    NoWind,                   !- Wind Exposure
    autocalculate,            !- View Factor to Ground
    autocalculate,            !- Number of Vertices
    687063.577,               !- Vertex 1 Xcoordinate
    4929014.098,              !- Vertex 1 Ycoordinate
    6,                        !- Vertex 1 Zcoordinate
    687063.577,               !- Vertex 2 Xcoordinate
    4929014.098,              !- Vertex 2 Ycoordinate
    3,                        !- Vertex 2 Zcoordinate
    687068.917,               !- Vertex 3 Xcoordinate
    4929010.488,              !- Vertex 3 Ycoordinate
    3,                        !- Vertex 3 Zcoordinate
    687068.917,               !- Vertex 4 Xcoordinate
    4929010.488,              !- Vertex 4 Ycoordinate
    6;                        !- Vertex 4 Zcoordinate

BUILDINGSURFACE:DETAILED,
    Block af3917251b85a42e_7 Storey 1 Wall 0006,    !- Name
    wall,                     !- Surface Type
    EU_wall_Construction,     !- Construction Name
    af3917251b85a42e_F1_dwelling_7,    !- Zone Name
    ,                         !- Space Name
    outdoors,                 !- Outside Boundary Condition
    ,                         !- Outside Boundary Condition Object
    SunExposed,               !- Sun Exposure
    WindExposed,              !- Wind Exposure
    autocalculate,            !- View Factor to Ground
    autocalculate,            !- Number of Vertices
    687068.917,               !- Vertex 1 Xcoordinate
    4929010.488,              !- Vertex 1 Ycoordinate
    6,                        !- Vertex 1 Zcoordinate
    687068.917,               !- Vertex 2 Xcoordinate
    4929010.488,              !- Vertex 2 Ycoordinate
    3,                        !- Vertex 2 Zcoordinate
    687059.297,               !- Vertex 3 Xcoordinate
    4928995.648,              !- Vertex 3 Ycoordinate
    3,                        !- Vertex 3 Zcoordinate
    687059.297,               !- Vertex 4 Xcoordinate
    4928995.648,              !- Vertex 4 Ycoordinate
    6;                        !- Vertex 4 Zcoordinate

BUILDINGSURFACE:DETAILED,
    Block af3917251b85a42e_7 Storey 1 Wall 0007,    !- Name
    wall,                     !- Surface Type
    EU_wall_Construction,     !- Construction Name
    af3917251b85a42e_F1_dwelling_7,    !- Zone Name
    ,                         !- Space Name
    outdoors,                 !- Outside Boundary Condition
    ,                         !- Outside Boundary Condition Object
    SunExposed,               !- Sun Exposure
    WindExposed,              !- Wind Exposure
    autocalculate,            !- View Factor to Ground
    autocalculate,            !- Number of Vertices
    687059.297,               !- Vertex 1 Xcoordinate
    4928995.648,              !- Vertex 1 Ycoordinate
    6,                        !- Vertex 1 Zcoordinate
    687059.297,               !- Vertex 2 Xcoordinate
    4928995.648,              !- Vertex 2 Ycoordinate
    3,                        !- Vertex 2 Zcoordinate
    687100.077,               !- Vertex 3 Xcoordinate
    4928970.596,              !- Vertex 3 Ycoordinate
    3,                        !- Vertex 3 Zcoordinate
    687100.077,               !- Vertex 4 Xcoordinate
    4928970.596,              !- Vertex 4 Ycoordinate
    6;                        !- Vertex 4 Zcoordinate

BUILDINGSURFACE:DETAILED,
    Block af3917251b85a42e_7 Storey 2 Wall 0001,    !- Name
    wall,                     !- Surface Type
    EU_wall_Construction,     !- Construction Name
    af3917251b85a42e_F2_dwelling_7,    !- Zone Name
    ,                         !- Space Name
    outdoors,                 !- Outside Boundary Condition
    ,                         !- Outside Boundary Condition Object
    SunExposed,               !- Sun Exposure
    WindExposed,              !- Wind Exposure
    autocalculate,            !- View Factor to Ground
    autocalculate,            !- Number of Vertices
    687095.005,               !- Vertex 1 Xcoordinate
    4928962.312,              !- Vertex 1 Ycoordinate
    9,                        !- Vertex 1 Zcoordinate
    687095.005,               !- Vertex 2 Xcoordinate
    4928962.312,              !- Vertex 2 Ycoordinate
    6,                        !- Vertex 2 Zcoordinate
    687048.757,               !- Vertex 3 Xcoordinate
    4928990.629,              !- Vertex 3 Ycoordinate
    6,                        !- Vertex 3 Zcoordinate
    687048.757,               !- Vertex 4 Xcoordinate
    4928990.629,              !- Vertex 4 Ycoordinate
    9;                        !- Vertex 4 Zcoordinate

BUILDINGSURFACE:DETAILED,
    Block af3917251b85a42e_7 Storey 2 Wall 0002,    !- Name
    wall,                     !- Surface Type
    EU_wall_Construction,     !- Construction Name
    af3917251b85a42e_F2_dwelling_7,    !- Zone Name
    ,                         !- Space Name
    outdoors,                 !- Outside Boundary Condition
    ,                         !- Outside Boundary Condition Object
    SunExposed,               !- Sun Exposure
    WindExposed,              !- Wind Exposure
    autocalculate,            !- View Factor to Ground
    autocalculate,            !- Number of Vertices
    687048.757,               !- Vertex 1 Xcoordinate
    4928990.629,              !- Vertex 1 Ycoordinate
    9,                        !- Vertex 1 Zcoordinate
    687048.757,               !- Vertex 2 Xcoordinate
    4928990.629,              !- Vertex 2 Ycoordinate
    6,                        !- Vertex 2 Zcoordinate
    687054.667,               !- Vertex 3 Xcoordinate
    4928999.998,              !- Vertex 3 Ycoordinate
    6,                        !- Vertex 3 Zcoordinate
    687054.667,               !- Vertex 4 Xcoordinate
    4928999.998,              !- Vertex 4 Ycoordinate
    9;                        !- Vertex 4 Zcoordinate

BUILDINGSURFACE:DETAILED,
    Block af3917251b85a42e_7 Storey 2 Wall 0003,    !- Name
    wall,                     !- Surface Type
    EU_wall_Construction,     !- Construction Name
    af3917251b85a42e_F2_dwelling_7,    !- Zone Name
    ,                         !- Space Name
    outdoors,                 !- Outside Boundary Condition
    ,                         !- Outside Boundary Condition Object
    SunExposed,               !- Sun Exposure
    WindExposed,              !- Wind Exposure
    autocalculate,            !- View Factor to Ground
    autocalculate,            !- Number of Vertices
    687054.667,               !- Vertex 1 Xcoordinate
    4928999.998,              !- Vertex 1 Ycoordinate
    9,                        !- Vertex 1 Zcoordinate
    687054.667,               !- Vertex 2 Xcoordinate
    4928999.998,              !- Vertex 2 Ycoordinate
    6,                        !- Vertex 2 Zcoordinate
    687055.947,               !- Vertex 3 Xcoordinate
    4929002.008,              !- Vertex 3 Ycoordinate
    6,                        !- Vertex 3 Zcoordinate
    687055.947,               !- Vertex 4 Xcoordinate
    4929002.008,              !- Vertex 4 Ycoordinate
    9;                        !- Vertex 4 Zcoordinate

BUILDINGSURFACE:DETAILED,
    Block af3917251b85a42e_7 Storey 2 Wall 0004,    !- Name
    wall,                     !- Surface Type
    EU_wall_Construction,     !- Construction Name
    af3917251b85a42e_F2_dwelling_7,    !- Zone Name
    ,                         !- Space Name
    outdoors,                 !- Outside Boundary Condition
    ,                         !- Outside Boundary Condition Object
    SunExposed,               !- Sun Exposure
    WindExposed,              !- Wind Exposure
    autocalculate,            !- View Factor to Ground
    autocalculate,            !- Number of Vertices
    687055.947,               !- Vertex 1 Xcoordinate
    4929002.008,              !- Vertex 1 Ycoordinate
    9,                        !- Vertex 1 Zcoordinate
    687055.947,               !- Vertex 2 Xcoordinate
    4929002.008,              !- Vertex 2 Ycoordinate
    6,                        !- Vertex 2 Zcoordinate
    687063.577,               !- Vertex 3 Xcoordinate
    4929014.098,              !- Vertex 3 Ycoordinate
    6,                        !- Vertex 3 Zcoordinate
    687063.577,               !- Vertex 4 Xcoordinate
    4929014.098,              !- Vertex 4 Ycoordinate
    9;                        !- Vertex 4 Zcoordinate

BUILDINGSURFACE:DETAILED,
    Block af3917251b85a42e_7 Storey 2 Wall 0005,    !- Name
    wall,                     !- Surface Type
    EU_wall_Construction,     !- Construction Name
    af3917251b85a42e_F2_dwelling_7,    !- Zone Name
    ,                         !- Space Name
    Adiabatic,                !- Outside Boundary Condition
    ,                         !- Outside Boundary Condition Object
    NoSun,                    !- Sun Exposure
    NoWind,                   !- Wind Exposure
    autocalculate,            !- View Factor to Ground
    autocalculate,            !- Number of Vertices
    687063.577,               !- Vertex 1 Xcoordinate
    4929014.098,              !- Vertex 1 Ycoordinate
    9,                        !- Vertex 1 Zcoordinate
    687063.577,               !- Vertex 2 Xcoordinate
    4929014.098,              !- Vertex 2 Ycoordinate
    6,                        !- Vertex 2 Zcoordinate
    687068.917,               !- Vertex 3 Xcoordinate
    4929010.488,              !- Vertex 3 Ycoordinate
    6,                        !- Vertex 3 Zcoordinate
    687068.917,               !- Vertex 4 Xcoordinate
    4929010.488,              !- Vertex 4 Ycoordinate
    9;                        !- Vertex 4 Zcoordinate

BUILDINGSURFACE:DETAILED,
    Block af3917251b85a42e_7 Storey 2 Wall 0006,    !- Name
    wall,                     !- Surface Type
    EU_wall_Construction,     !- Construction Name
    af3917251b85a42e_F2_dwelling_7,    !- Zone Name
    ,                         !- Space Name
    outdoors,                 !- Outside Boundary Condition
    ,                         !- Outside Boundary Condition Object
    SunExposed,               !- Sun Exposure
    WindExposed,              !- Wind Exposure
    autocalculate,            !- View Factor to Ground
    autocalculate,            !- Number of Vertices
    687068.917,               !- Vertex 1 Xcoordinate
    4929010.488,              !- Vertex 1 Ycoordinate
    9,                        !- Vertex 1 Zcoordinate
    687068.917,               !- Vertex 2 Xcoordinate
    4929010.488,              !- Vertex 2 Ycoordinate
    6,                        !- Vertex 2 Zcoordinate
    687059.297,               !- Vertex 3 Xcoordinate
    4928995.648,              !- Vertex 3 Ycoordinate
    6,                        !- Vertex 3 Zcoordinate
    687059.297,               !- Vertex 4 Xcoordinate
    4928995.648,              !- Vertex 4 Ycoordinate
    9;                        !- Vertex 4 Zcoordinate

BUILDINGSURFACE:DETAILED,
    Block af3917251b85a42e_7 Storey 2 Wall 0007,    !- Name
    wall,                     !- Surface Type
    EU_wall_Construction,     !- Construction Name
    af3917251b85a42e_F2_dwelling_7,    !- Zone Name
    ,                         !- Space Name
    outdoors,                 !- Outside Boundary Condition
    ,                         !- Outside Boundary Condition Object
    SunExposed,               !- Sun Exposure
    WindExposed,              !- Wind Exposure
    autocalculate,            !- View Factor to Ground
    autocalculate,            !- Number of Vertices
    687059.297,               !- Vertex 1 Xcoordinate
    4928995.648,              !- Vertex 1 Ycoordinate
    9,                        !- Vertex 1 Zcoordinate
    687059.297,               !- Vertex 2 Xcoordinate
    4928995.648,              !- Vertex 2 Ycoordinate
    6,                        !- Vertex 2 Zcoordinate
    687100.077,               !- Vertex 3 Xcoordinate
    4928970.596,              !- Vertex 3 Ycoordinate
    6,                        !- Vertex 3 Zcoordinate
    687100.077,               !- Vertex 4 Xcoordinate
    4928970.596,              !- Vertex 4 Ycoordinate
    9;                        !- Vertex 4 Zcoordinate

BUILDINGSURFACE:DETAILED,
    Block af3917251b85a42e_7 Storey 3 Wall 0001,    !- Name
    wall,                     !- Surface Type
    EU_wall_Construction,     !- Construction Name
    af3917251b85a42e_F3_dwelling_7,    !- Zone Name
    ,                         !- Space Name
    outdoors,                 !- Outside Boundary Condition
    ,                         !- Outside Boundary Condition Object
    SunExposed,               !- Sun Exposure
    WindExposed,              !- Wind Exposure
    autocalculate,            !- View Factor to Ground
    autocalculate,            !- Number of Vertices
    687095.005,               !- Vertex 1 Xcoordinate
    4928962.312,              !- Vertex 1 Ycoordinate
    12,                       !- Vertex 1 Zcoordinate
    687095.005,               !- Vertex 2 Xcoordinate
    4928962.312,              !- Vertex 2 Ycoordinate
    9,                        !- Vertex 2 Zcoordinate
    687048.757,               !- Vertex 3 Xcoordinate
    4928990.629,              !- Vertex 3 Ycoordinate
    9,                        !- Vertex 3 Zcoordinate
    687048.757,               !- Vertex 4 Xcoordinate
    4928990.629,              !- Vertex 4 Ycoordinate
    12;                       !- Vertex 4 Zcoordinate

BUILDINGSURFACE:DETAILED,
    Block af3917251b85a42e_7 Storey 3 Wall 0002,    !- Name
    wall,                     !- Surface Type
    EU_wall_Construction,     !- Construction Name
    af3917251b85a42e_F3_dwelling_7,    !- Zone Name
    ,                         !- Space Name
    outdoors,                 !- Outside Boundary Condition
    ,                         !- Outside Boundary Condition Object
    SunExposed,               !- Sun Exposure
    WindExposed,              !- Wind Exposure
    autocalculate,            !- View Factor to Ground
    autocalculate,            !- Number of Vertices
    687048.757,               !- Vertex 1 Xcoordinate
    4928990.629,              !- Vertex 1 Ycoordinate
    12,                       !- Vertex 1 Zcoordinate
    687048.757,               !- Vertex 2 Xcoordinate
    4928990.629,              !- Vertex 2 Ycoordinate
    9,                        !- Vertex 2 Zcoordinate
    687054.667,               !- Vertex 3 Xcoordinate
    4928999.998,              !- Vertex 3 Ycoordinate
    9,                        !- Vertex 3 Zcoordinate
    687054.667,               !- Vertex 4 Xcoordinate
    4928999.998,              !- Vertex 4 Ycoordinate
    12;                       !- Vertex 4 Zcoordinate

BUILDINGSURFACE:DETAILED,
    Block af3917251b85a42e_7 Storey 3 Wall 0003,    !- Name
    wall,                     !- Surface Type
    EU_wall_Construction,     !- Construction Name
    af3917251b85a42e_F3_dwelling_7,    !- Zone Name
    ,                         !- Space Name
    outdoors,                 !- Outside Boundary Condition
    ,                         !- Outside Boundary Condition Object
    SunExposed,               !- Sun Exposure
    WindExposed,              !- Wind Exposure
    autocalculate,            !- View Factor to Ground
    autocalculate,            !- Number of Vertices
    687054.667,               !- Vertex 1 Xcoordinate
    4928999.998,              !- Vertex 1 Ycoordinate
    12,                       !- Vertex 1 Zcoordinate
    687054.667,               !- Vertex 2 Xcoordinate
    4928999.998,              !- Vertex 2 Ycoordinate
    9,                        !- Vertex 2 Zcoordinate
    687055.947,               !- Vertex 3 Xcoordinate
    4929002.008,              !- Vertex 3 Ycoordinate
    9,                        !- Vertex 3 Zcoordinate
    687055.947,               !- Vertex 4 Xcoordinate
    4929002.008,              !- Vertex 4 Ycoordinate
    12;                       !- Vertex 4 Zcoordinate

BUILDINGSURFACE:DETAILED,
    Block af3917251b85a42e_7 Storey 3 Wall 0004,    !- Name
    wall,                     !- Surface Type
    EU_wall_Construction,     !- Construction Name
    af3917251b85a42e_F3_dwelling_7,    !- Zone Name
    ,                         !- Space Name
    outdoors,                 !- Outside Boundary Condition
    ,                         !- Outside Boundary Condition Object
    SunExposed,               !- Sun Exposure
    WindExposed,              !- Wind Exposure
    autocalculate,            !- View Factor to Ground
    autocalculate,            !- Number of Vertices
    687055.947,               !- Vertex 1 Xcoordinate
    4929002.008,              !- Vertex 1 Ycoordinate
    12,                       !- Vertex 1 Zcoordinate
    687055.947,               !- Vertex 2 Xcoordinate
    4929002.008,              !- Vertex 2 Ycoordinate
    9,                        !- Vertex 2 Zcoordinate
    687063.577,               !- Vertex 3 Xcoordinate
    4929014.098,              !- Vertex 3 Ycoordinate
    9,                        !- Vertex 3 Zcoordinate
    687063.577,               !- Vertex 4 Xcoordinate
    4929014.098,              !- Vertex 4 Ycoordinate
    12;                       !- Vertex 4 Zcoordinate

BUILDINGSURFACE:DETAILED,
    Block af3917251b85a42e_7 Storey 3 Wall 0005,    !- Name
    wall,                     !- Surface Type
    EU_wall_Construction,     !- Construction Name
    af3917251b85a42e_F3_dwelling_7,    !- Zone Name
    ,                         !- Space Name
    Adiabatic,                !- Outside Boundary Condition
    ,                         !- Outside Boundary Condition Object
    NoSun,                    !- Sun Exposure
    NoWind,                   !- Wind Exposure
    autocalculate,            !- View Factor to Ground
    autocalculate,            !- Number of Vertices
    687063.577,               !- Vertex 1 Xcoordinate
    4929014.098,              !- Vertex 1 Ycoordinate
    12,                       !- Vertex 1 Zcoordinate
    687063.577,               !- Vertex 2 Xcoordinate
    4929014.098,              !- Vertex 2 Ycoordinate
    9,                        !- Vertex 2 Zcoordinate
    687068.917,               !- Vertex 3 Xcoordinate
    4929010.488,              !- Vertex 3 Ycoordinate
    9,                        !- Vertex 3 Zcoordinate
    687068.917,               !- Vertex 4 Xcoordinate
    4929010.488,              !- Vertex 4 Ycoordinate
    12;                       !- Vertex 4 Zcoordinate

BUILDINGSURFACE:DETAILED,
    Block af3917251b85a42e_7 Storey 3 Wall 0006,    !- Name
    wall,                     !- Surface Type
    EU_wall_Construction,     !- Construction Name
    af3917251b85a42e_F3_dwelling_7,    !- Zone Name
    ,                         !- Space Name
    outdoors,                 !- Outside Boundary Condition
    ,                         !- Outside Boundary Condition Object
    SunExposed,               !- Sun Exposure
    WindExposed,              !- Wind Exposure
    autocalculate,            !- View Factor to Ground
    autocalculate,            !- Number of Vertices
    687068.917,               !- Vertex 1 Xcoordinate
    4929010.488,              !- Vertex 1 Ycoordinate
    12,                       !- Vertex 1 Zcoordinate
    687068.917,               !- Vertex 2 Xcoordinate
    4929010.488,              !- Vertex 2 Ycoordinate
    9,                        !- Vertex 2 Zcoordinate
    687059.297,               !- Vertex 3 Xcoordinate
    4928995.648,              !- Vertex 3 Ycoordinate
    9,                        !- Vertex 3 Zcoordinate
    687059.297,               !- Vertex 4 Xcoordinate
    4928995.648,              !- Vertex 4 Ycoordinate
    12;                       !- Vertex 4 Zcoordinate

BUILDINGSURFACE:DETAILED,
    Block af3917251b85a42e_7 Storey 3 Wall 0007,    !- Name
    wall,                     !- Surface Type
    EU_wall_Construction,     !- Construction Name
    af3917251b85a42e_F3_dwelling_7,    !- Zone Name
    ,                         !- Space Name
    outdoors,                 !- Outside Boundary Condition
    ,                         !- Outside Boundary Condition Object
    SunExposed,               !- Sun Exposure
    WindExposed,              !- Wind Exposure
    autocalculate,            !- View Factor to Ground
    autocalculate,            !- Number of Vertices
    687059.297,               !- Vertex 1 Xcoordinate
    4928995.648,              !- Vertex 1 Ycoordinate
    12,                       !- Vertex 1 Zcoordinate
    687059.297,               !- Vertex 2 Xcoordinate
    4928995.648,              !- Vertex 2 Ycoordinate
    9,                        !- Vertex 2 Zcoordinate
    687100.077,               !- Vertex 3 Xcoordinate
    4928970.596,              !- Vertex 3 Ycoordinate
    9,                        !- Vertex 3 Zcoordinate
    687100.077,               !- Vertex 4 Xcoordinate
    4928970.596,              !- Vertex 4 Ycoordinate
    12;                       !- Vertex 4 Zcoordinate

BUILDINGSURFACE:DETAILED,
    Block af3917251b85a42e_7 Storey 4 Wall 0001,    !- Name
    wall,                     !- Surface Type
    EU_wall_Construction,     !- Construction Name
    af3917251b85a42e_F4_dwelling_7,    !- Zone Name
    ,                         !- Space Name
    outdoors,                 !- Outside Boundary Condition
    ,                         !- Outside Boundary Condition Object
    SunExposed,               !- Sun Exposure
    WindExposed,              !- Wind Exposure
    autocalculate,            !- View Factor to Ground
    autocalculate,            !- Number of Vertices
    687095.005,               !- Vertex 1 Xcoordinate
    4928962.312,              !- Vertex 1 Ycoordinate
    15,                       !- Vertex 1 Zcoordinate
    687095.005,               !- Vertex 2 Xcoordinate
    4928962.312,              !- Vertex 2 Ycoordinate
    12,                       !- Vertex 2 Zcoordinate
    687048.757,               !- Vertex 3 Xcoordinate
    4928990.629,              !- Vertex 3 Ycoordinate
    12,                       !- Vertex 3 Zcoordinate
    687048.757,               !- Vertex 4 Xcoordinate
    4928990.629,              !- Vertex 4 Ycoordinate
    15;                       !- Vertex 4 Zcoordinate

BUILDINGSURFACE:DETAILED,
    Block af3917251b85a42e_7 Storey 4 Wall 0002,    !- Name
    wall,                     !- Surface Type
    EU_wall_Construction,     !- Construction Name
    af3917251b85a42e_F4_dwelling_7,    !- Zone Name
    ,                         !- Space Name
    outdoors,                 !- Outside Boundary Condition
    ,                         !- Outside Boundary Condition Object
    SunExposed,               !- Sun Exposure
    WindExposed,              !- Wind Exposure
    autocalculate,            !- View Factor to Ground
    autocalculate,            !- Number of Vertices
    687048.757,               !- Vertex 1 Xcoordinate
    4928990.629,              !- Vertex 1 Ycoordinate
    15,                       !- Vertex 1 Zcoordinate
    687048.757,               !- Vertex 2 Xcoordinate
    4928990.629,              !- Vertex 2 Ycoordinate
    12,                       !- Vertex 2 Zcoordinate
    687054.667,               !- Vertex 3 Xcoordinate
    4928999.998,              !- Vertex 3 Ycoordinate
    12,                       !- Vertex 3 Zcoordinate
    687054.667,               !- Vertex 4 Xcoordinate
    4928999.998,              !- Vertex 4 Ycoordinate
    15;                       !- Vertex 4 Zcoordinate

BUILDINGSURFACE:DETAILED,
    Block af3917251b85a42e_7 Storey 4 Wall 0003,    !- Name
    wall,                     !- Surface Type
    EU_wall_Construction,     !- Construction Name
    af3917251b85a42e_F4_dwelling_7,    !- Zone Name
    ,                         !- Space Name
    outdoors,                 !- Outside Boundary Condition
    ,                         !- Outside Boundary Condition Object
    SunExposed,               !- Sun Exposure
    WindExposed,              !- Wind Exposure
    autocalculate,            !- View Factor to Ground
    autocalculate,            !- Number of Vertices
    687054.667,               !- Vertex 1 Xcoordinate
    4928999.998,              !- Vertex 1 Ycoordinate
    15,                       !- Vertex 1 Zcoordinate
    687054.667,               !- Vertex 2 Xcoordinate
    4928999.998,              !- Vertex 2 Ycoordinate
    12,                       !- Vertex 2 Zcoordinate
    687055.947,               !- Vertex 3 Xcoordinate
    4929002.008,              !- Vertex 3 Ycoordinate
    12,                       !- Vertex 3 Zcoordinate
    687055.947,               !- Vertex 4 Xcoordinate
    4929002.008,              !- Vertex 4 Ycoordinate
    15;                       !- Vertex 4 Zcoordinate

BUILDINGSURFACE:DETAILED,
    Block af3917251b85a42e_7 Storey 4 Wall 0004,    !- Name
    wall,                     !- Surface Type
    EU_wall_Construction,     !- Construction Name
    af3917251b85a42e_F4_dwelling_7,    !- Zone Name
    ,                         !- Space Name
    outdoors,                 !- Outside Boundary Condition
    ,                         !- Outside Boundary Condition Object
    SunExposed,               !- Sun Exposure
    WindExposed,              !- Wind Exposure
    autocalculate,            !- View Factor to Ground
    autocalculate,            !- Number of Vertices
    687055.947,               !- Vertex 1 Xcoordinate
    4929002.008,              !- Vertex 1 Ycoordinate
    15,                       !- Vertex 1 Zcoordinate
    687055.947,               !- Vertex 2 Xcoordinate
    4929002.008,              !- Vertex 2 Ycoordinate
    12,                       !- Vertex 2 Zcoordinate
    687063.577,               !- Vertex 3 Xcoordinate
    4929014.098,              !- Vertex 3 Ycoordinate
    12,                       !- Vertex 3 Zcoordinate
    687063.577,               !- Vertex 4 Xcoordinate
    4929014.098,              !- Vertex 4 Ycoordinate
    15;                       !- Vertex 4 Zcoordinate

BUILDINGSURFACE:DETAILED,
    Block af3917251b85a42e_7 Storey 4 Wall 0005,    !- Name
    wall,                     !- Surface Type
    EU_wall_Construction,     !- Construction Name
    af3917251b85a42e_F4_dwelling_7,    !- Zone Name
    ,                         !- Space Name
    Adiabatic,                !- Outside Boundary Condition
    ,                         !- Outside Boundary Condition Object
    NoSun,                    !- Sun Exposure
    NoWind,                   !- Wind Exposure
    autocalculate,            !- View Factor to Ground
    autocalculate,            !- Number of Vertices
    687063.577,               !- Vertex 1 Xcoordinate
    4929014.098,              !- Vertex 1 Ycoordinate
    15,                       !- Vertex 1 Zcoordinate
    687063.577,               !- Vertex 2 Xcoordinate
    4929014.098,              !- Vertex 2 Ycoordinate
    12,                       !- Vertex 2 Zcoordinate
    687068.917,               !- Vertex 3 Xcoordinate
    4929010.488,              !- Vertex 3 Ycoordinate
    12,                       !- Vertex 3 Zcoordinate
    687068.917,               !- Vertex 4 Xcoordinate
    4929010.488,              !- Vertex 4 Ycoordinate
    15;                       !- Vertex 4 Zcoordinate

BUILDINGSURFACE:DETAILED,
    Block af3917251b85a42e_7 Storey 4 Wall 0006,    !- Name
    wall,                     !- Surface Type
    EU_wall_Construction,     !- Construction Name
    af3917251b85a42e_F4_dwelling_7,    !- Zone Name
    ,                         !- Space Name
    outdoors,                 !- Outside Boundary Condition
    ,                         !- Outside Boundary Condition Object
    SunExposed,               !- Sun Exposure
    WindExposed,              !- Wind Exposure
    autocalculate,            !- View Factor to Ground
    autocalculate,            !- Number of Vertices
    687068.917,               !- Vertex 1 Xcoordinate
    4929010.488,              !- Vertex 1 Ycoordinate
    15,                       !- Vertex 1 Zcoordinate
    687068.917,               !- Vertex 2 Xcoordinate
    4929010.488,              !- Vertex 2 Ycoordinate
    12,                       !- Vertex 2 Zcoordinate
    687059.297,               !- Vertex 3 Xcoordinate
    4928995.648,              !- Vertex 3 Ycoordinate
    12,                       !- Vertex 3 Zcoordinate
    687059.297,               !- Vertex 4 Xcoordinate
    4928995.648,              !- Vertex 4 Ycoordinate
    15;                       !- Vertex 4 Zcoordinate

BUILDINGSURFACE:DETAILED,
    Block af3917251b85a42e_7 Storey 4 Wall 0007,    !- Name
    wall,                     !- Surface Type
    EU_wall_Construction,     !- Construction Name
    af3917251b85a42e_F4_dwelling_7,    !- Zone Name
    ,                         !- Space Name
    outdoors,                 !- Outside Boundary Condition
    ,                         !- Outside Boundary Condition Object
    SunExposed,               !- Sun Exposure
    WindExposed,              !- Wind Exposure
    autocalculate,            !- View Factor to Ground
    autocalculate,            !- Number of Vertices
    687059.297,               !- Vertex 1 Xcoordinate
    4928995.648,              !- Vertex 1 Ycoordinate
    15,                       !- Vertex 1 Zcoordinate
    687059.297,               !- Vertex 2 Xcoordinate
    4928995.648,              !- Vertex 2 Ycoordinate
    12,                       !- Vertex 2 Zcoordinate
    687100.077,               !- Vertex 3 Xcoordinate
    4928970.596,              !- Vertex 3 Ycoordinate
    12,                       !- Vertex 3 Zcoordinate
    687100.077,               !- Vertex 4 Xcoordinate
    4928970.596,              !- Vertex 4 Ycoordinate
    15;                       !- Vertex 4 Zcoordinate

BUILDINGSURFACE:DETAILED,
    Block af3917251b85a42e_7 Storey 4 Roof 0001,    !- Name
    roof,                     !- Surface Type
    EU_roof_Construction,     !- Construction Name
    af3917251b85a42e_F4_dwelling_7,    !- Zone Name
    ,                         !- Space Name
    outdoors,                 !- Outside Boundary Condition
    ,                         !- Outside Boundary Condition Object
    NoSun,                    !- Sun Exposure
    WindExposed,              !- Wind Exposure
    autocalculate,            !- View Factor to Ground
    autocalculate,            !- Number of Vertices
    687068.917,               !- Vertex 1 Xcoordinate
    4929010.488,              !- Vertex 1 Ycoordinate
    15,                       !- Vertex 1 Zcoordinate
    687059.297,               !- Vertex 2 Xcoordinate
    4928995.648,              !- Vertex 2 Ycoordinate
    15,                       !- Vertex 2 Zcoordinate
    687100.077,               !- Vertex 3 Xcoordinate
    4928970.596,              !- Vertex 3 Ycoordinate
    15,                       !- Vertex 3 Zcoordinate
    687095.005,               !- Vertex 4 Xcoordinate
    4928962.312,              !- Vertex 4 Ycoordinate
    15,                       !- Vertex 4 Zcoordinate
    687048.757,               !- Vertex 5 Xcoordinate
    4928990.629,              !- Vertex 5 Ycoordinate
    15,                       !- Vertex 5 Zcoordinate
    687054.667,               !- Vertex 6 Xcoordinate
    4928999.998,              !- Vertex 6 Ycoordinate
    15,                       !- Vertex 6 Zcoordinate
    687055.947,               !- Vertex 7 Xcoordinate
    4929002.008,              !- Vertex 7 Ycoordinate
    15,                       !- Vertex 7 Zcoordinate
    687063.577,               !- Vertex 8 Xcoordinate
    4929014.098,              !- Vertex 8 Ycoordinate
    15;                       !- Vertex 8 Zcoordinate

BUILDINGSURFACE:DETAILED,
    Block af3917251b85a42e_0 Storey 0 Wall 0001_1,    !- Name
    wall,                     !- Surface Type
    EU_wall_Construction,     !- Construction Name
    af3917251b85a42e_F0_dwelling_0,    !- Zone Name
    ,                         !- Space Name
    outdoors,                 !- Outside Boundary Condition
    ,                         !- Outside Boundary Condition Object
    SunExposed,               !- Sun Exposure
    WindExposed,              !- Wind Exposure
    autocalculate,            !- View Factor to Ground
    autocalculate,            !- Number of Vertices
    687116.9920000001,        !- Vertex 1 Xcoordinate
    4928948.85,               !- Vertex 1 Ycoordinate
    3,                        !- Vertex 1 Zcoordinate
    687116.9920000001,        !- Vertex 2 Xcoordinate
    4928948.85,               !- Vertex 2 Ycoordinate
    0,                        !- Vertex 2 Zcoordinate
    687122.0439999999,        !- Vertex 3 Xcoordinate
    4928957.101,              !- Vertex 3 Ycoordinate
    0,                        !- Vertex 3 Zcoordinate
    687122.0439999999,        !- Vertex 4 Xcoordinate
    4928957.101,              !- Vertex 4 Ycoordinate
    3;                        !- Vertex 4 Zcoordinate

BUILDINGSURFACE:DETAILED,
    Block af3917251b85a42e_1 Storey 0 Wall 0003_1,    !- Name
    wall,                     !- Surface Type
    EU_wall_Construction,     !- Construction Name
    af3917251b85a42e_F0_dwelling_1,    !- Zone Name
    ,                         !- Space Name
    outdoors,                 !- Outside Boundary Condition
    ,                         !- Outside Boundary Condition Object
    SunExposed,               !- Sun Exposure
    WindExposed,              !- Wind Exposure
    autocalculate,            !- View Factor to Ground
    autocalculate,            !- Number of Vertices
    687122.044,               !- Vertex 1 Xcoordinate
    4928957.101,              !- Vertex 1 Ycoordinate
    3,                        !- Vertex 1 Zcoordinate
    687122.044,               !- Vertex 2 Xcoordinate
    4928957.101,              !- Vertex 2 Ycoordinate
    0,                        !- Vertex 2 Zcoordinate
    687116.9920000002,        !- Vertex 3 Xcoordinate
    4928948.85,               !- Vertex 3 Ycoordinate
    0,                        !- Vertex 3 Zcoordinate
    687116.9920000002,        !- Vertex 4 Xcoordinate
    4928948.85,               !- Vertex 4 Ycoordinate
    3;                        !- Vertex 4 Zcoordinate

BUILDINGSURFACE:DETAILED,
    Block af3917251b85a42e_0 Storey 0 Ceiling 0001_1,    !- Name
    ceiling,                  !- Surface Type
    EU_floor_Construction,    !- Construction Name
    af3917251b85a42e_F0_dwelling_0,    !- Zone Name
    ,                         !- Space Name
    Surface,                  !- Outside Boundary Condition
    Block af3917251b85a42e_0 Storey 1 Floor 0001_1,    !- Outside Boundary Condition Object
    NoSun,                    !- Sun Exposure
    NoWind,                   !- Wind Exposure
    autocalculate,            !- View Factor to Ground
    autocalculate,            !- Number of Vertices
    687125.5159999998,        !- Vertex 1 Xcoordinate
    4928954.968,              !- Vertex 1 Ycoordinate
    3,                        !- Vertex 1 Zcoordinate
    687120.506,               !- Vertex 2 Xcoordinate
    4928946.698,              !- Vertex 2 Ycoordinate
    3,                        !- Vertex 2 Zcoordinate
    687116.9919999996,        !- Vertex 3 Xcoordinate
    4928948.85,               !- Vertex 3 Ycoordinate
    3,                        !- Vertex 3 Zcoordinate
    687122.0439999998,        !- Vertex 4 Xcoordinate
    4928957.101,              !- Vertex 4 Ycoordinate
    3;                        !- Vertex 4 Zcoordinate

BUILDINGSURFACE:DETAILED,
    Block af3917251b85a42e_0 Storey 1 Floor 0001_1,    !- Name
    floor,                    !- Surface Type
    EU_floor_Construction,    !- Construction Name
    af3917251b85a42e_F1_dwelling_0,    !- Zone Name
    ,                         !- Space Name
    Surface,                  !- Outside Boundary Condition
    Block af3917251b85a42e_0 Storey 0 Ceiling 0001_1,    !- Outside Boundary Condition Object
    NoSun,                    !- Sun Exposure
    NoWind,                   !- Wind Exposure
    autocalculate,            !- View Factor to Ground
    autocalculate,            !- Number of Vertices
    687120.506,               !- Vertex 1 Xcoordinate
    4928946.698,              !- Vertex 1 Ycoordinate
    3,                        !- Vertex 1 Zcoordinate
    687125.5159999998,        !- Vertex 2 Xcoordinate
    4928954.968,              !- Vertex 2 Ycoordinate
    3,                        !- Vertex 2 Zcoordinate
    687122.0439999998,        !- Vertex 3 Xcoordinate
    4928957.101,              !- Vertex 3 Ycoordinate
    3,                        !- Vertex 3 Zcoordinate
    687116.9919999996,        !- Vertex 4 Xcoordinate
    4928948.85,               !- Vertex 4 Ycoordinate
    3;                        !- Vertex 4 Zcoordinate

BUILDINGSURFACE:DETAILED,
    Block af3917251b85a42e_0 Storey 1 Wall 0001_1,    !- Name
    wall,                     !- Surface Type
    EU_wall_Construction,     !- Construction Name
    af3917251b85a42e_F1_dwelling_0,    !- Zone Name
    ,                         !- Space Name
    outdoors,                 !- Outside Boundary Condition
    ,                         !- Outside Boundary Condition Object
    SunExposed,               !- Sun Exposure
    WindExposed,              !- Wind Exposure
    autocalculate,            !- View Factor to Ground
    autocalculate,            !- Number of Vertices
    687116.9920000001,        !- Vertex 1 Xcoordinate
    4928948.85,               !- Vertex 1 Ycoordinate
    6,                        !- Vertex 1 Zcoordinate
    687116.9920000001,        !- Vertex 2 Xcoordinate
    4928948.85,               !- Vertex 2 Ycoordinate
    3,                        !- Vertex 2 Zcoordinate
    687122.0439999999,        !- Vertex 3 Xcoordinate
    4928957.101,              !- Vertex 3 Ycoordinate
    3,                        !- Vertex 3 Zcoordinate
    687122.0439999999,        !- Vertex 4 Xcoordinate
    4928957.101,              !- Vertex 4 Ycoordinate
    6;                        !- Vertex 4 Zcoordinate

BUILDINGSURFACE:DETAILED,
    Block af3917251b85a42e_1 Storey 1 Wall 0003_1,    !- Name
    wall,                     !- Surface Type
    EU_wall_Construction,     !- Construction Name
    af3917251b85a42e_F1_dwelling_1,    !- Zone Name
    ,                         !- Space Name
    outdoors,                 !- Outside Boundary Condition
    ,                         !- Outside Boundary Condition Object
    SunExposed,               !- Sun Exposure
    WindExposed,              !- Wind Exposure
    autocalculate,            !- View Factor to Ground
    autocalculate,            !- Number of Vertices
    687122.044,               !- Vertex 1 Xcoordinate
    4928957.101,              !- Vertex 1 Ycoordinate
    6,                        !- Vertex 1 Zcoordinate
    687122.044,               !- Vertex 2 Xcoordinate
    4928957.101,              !- Vertex 2 Ycoordinate
    3,                        !- Vertex 2 Zcoordinate
    687116.9920000002,        !- Vertex 3 Xcoordinate
    4928948.85,               !- Vertex 3 Ycoordinate
    3,                        !- Vertex 3 Zcoordinate
    687116.9920000002,        !- Vertex 4 Xcoordinate
    4928948.85,               !- Vertex 4 Ycoordinate
    6;                        !- Vertex 4 Zcoordinate

BUILDINGSURFACE:DETAILED,
    Block af3917251b85a42e_0 Storey 1 Ceiling 0001_1,    !- Name
    ceiling,                  !- Surface Type
    EU_floor_Construction,    !- Construction Name
    af3917251b85a42e_F1_dwelling_0,    !- Zone Name
    ,                         !- Space Name
    Surface,                  !- Outside Boundary Condition
    Block af3917251b85a42e_0 Storey 2 Floor 0001_1,    !- Outside Boundary Condition Object
    NoSun,                    !- Sun Exposure
    NoWind,                   !- Wind Exposure
    autocalculate,            !- View Factor to Ground
    autocalculate,            !- Number of Vertices
    687125.5159999998,        !- Vertex 1 Xcoordinate
    4928954.968,              !- Vertex 1 Ycoordinate
    6,                        !- Vertex 1 Zcoordinate
    687120.506,               !- Vertex 2 Xcoordinate
    4928946.698,              !- Vertex 2 Ycoordinate
    6,                        !- Vertex 2 Zcoordinate
    687116.9919999996,        !- Vertex 3 Xcoordinate
    4928948.85,               !- Vertex 3 Ycoordinate
    6,                        !- Vertex 3 Zcoordinate
    687122.0439999998,        !- Vertex 4 Xcoordinate
    4928957.101,              !- Vertex 4 Ycoordinate
    6;                        !- Vertex 4 Zcoordinate

BUILDINGSURFACE:DETAILED,
    Block af3917251b85a42e_0 Storey 2 Floor 0001_1,    !- Name
    floor,                    !- Surface Type
    EU_floor_Construction,    !- Construction Name
    af3917251b85a42e_F2_dwelling_0,    !- Zone Name
    ,                         !- Space Name
    Surface,                  !- Outside Boundary Condition
    Block af3917251b85a42e_0 Storey 1 Ceiling 0001_1,    !- Outside Boundary Condition Object
    NoSun,                    !- Sun Exposure
    NoWind,                   !- Wind Exposure
    autocalculate,            !- View Factor to Ground
    autocalculate,            !- Number of Vertices
    687120.506,               !- Vertex 1 Xcoordinate
    4928946.698,              !- Vertex 1 Ycoordinate
    6,                        !- Vertex 1 Zcoordinate
    687125.5159999998,        !- Vertex 2 Xcoordinate
    4928954.968,              !- Vertex 2 Ycoordinate
    6,                        !- Vertex 2 Zcoordinate
    687122.0439999998,        !- Vertex 3 Xcoordinate
    4928957.101,              !- Vertex 3 Ycoordinate
    6,                        !- Vertex 3 Zcoordinate
    687116.9919999996,        !- Vertex 4 Xcoordinate
    4928948.85,               !- Vertex 4 Ycoordinate
    6;                        !- Vertex 4 Zcoordinate

BUILDINGSURFACE:DETAILED,
    Block af3917251b85a42e_0 Storey 2 Wall 0001_1,    !- Name
    wall,                     !- Surface Type
    EU_wall_Construction,     !- Construction Name
    af3917251b85a42e_F2_dwelling_0,    !- Zone Name
    ,                         !- Space Name
    outdoors,                 !- Outside Boundary Condition
    ,                         !- Outside Boundary Condition Object
    SunExposed,               !- Sun Exposure
    WindExposed,              !- Wind Exposure
    autocalculate,            !- View Factor to Ground
    autocalculate,            !- Number of Vertices
    687116.9920000001,        !- Vertex 1 Xcoordinate
    4928948.85,               !- Vertex 1 Ycoordinate
    9,                        !- Vertex 1 Zcoordinate
    687116.9920000001,        !- Vertex 2 Xcoordinate
    4928948.85,               !- Vertex 2 Ycoordinate
    6,                        !- Vertex 2 Zcoordinate
    687122.0439999999,        !- Vertex 3 Xcoordinate
    4928957.101,              !- Vertex 3 Ycoordinate
    6,                        !- Vertex 3 Zcoordinate
    687122.0439999999,        !- Vertex 4 Xcoordinate
    4928957.101,              !- Vertex 4 Ycoordinate
    9;                        !- Vertex 4 Zcoordinate

BUILDINGSURFACE:DETAILED,
    Block af3917251b85a42e_1 Storey 2 Wall 0003_1,    !- Name
    wall,                     !- Surface Type
    EU_wall_Construction,     !- Construction Name
    af3917251b85a42e_F2_dwelling_1,    !- Zone Name
    ,                         !- Space Name
    outdoors,                 !- Outside Boundary Condition
    ,                         !- Outside Boundary Condition Object
    SunExposed,               !- Sun Exposure
    WindExposed,              !- Wind Exposure
    autocalculate,            !- View Factor to Ground
    autocalculate,            !- Number of Vertices
    687122.044,               !- Vertex 1 Xcoordinate
    4928957.101,              !- Vertex 1 Ycoordinate
    9,                        !- Vertex 1 Zcoordinate
    687122.044,               !- Vertex 2 Xcoordinate
    4928957.101,              !- Vertex 2 Ycoordinate
    6,                        !- Vertex 2 Zcoordinate
    687116.9920000002,        !- Vertex 3 Xcoordinate
    4928948.85,               !- Vertex 3 Ycoordinate
    6,                        !- Vertex 3 Zcoordinate
    687116.9920000002,        !- Vertex 4 Xcoordinate
    4928948.85,               !- Vertex 4 Ycoordinate
    9;                        !- Vertex 4 Zcoordinate

BUILDINGSURFACE:DETAILED,
    Block af3917251b85a42e_0 Storey 2 Ceiling 0001_1,    !- Name
    ceiling,                  !- Surface Type
    EU_floor_Construction,    !- Construction Name
    af3917251b85a42e_F2_dwelling_0,    !- Zone Name
    ,                         !- Space Name
    Surface,                  !- Outside Boundary Condition
    Block af3917251b85a42e_0 Storey 3 Floor 0001_1,    !- Outside Boundary Condition Object
    NoSun,                    !- Sun Exposure
    NoWind,                   !- Wind Exposure
    autocalculate,            !- View Factor to Ground
    autocalculate,            !- Number of Vertices
    687125.5159999998,        !- Vertex 1 Xcoordinate
    4928954.968,              !- Vertex 1 Ycoordinate
    9,                        !- Vertex 1 Zcoordinate
    687120.506,               !- Vertex 2 Xcoordinate
    4928946.698,              !- Vertex 2 Ycoordinate
    9,                        !- Vertex 2 Zcoordinate
    687116.9919999996,        !- Vertex 3 Xcoordinate
    4928948.85,               !- Vertex 3 Ycoordinate
    9,                        !- Vertex 3 Zcoordinate
    687122.0439999998,        !- Vertex 4 Xcoordinate
    4928957.101,              !- Vertex 4 Ycoordinate
    9;                        !- Vertex 4 Zcoordinate

BUILDINGSURFACE:DETAILED,
    Block af3917251b85a42e_0 Storey 3 Floor 0001_1,    !- Name
    floor,                    !- Surface Type
    EU_floor_Construction,    !- Construction Name
    af3917251b85a42e_F3_dwelling_0,    !- Zone Name
    ,                         !- Space Name
    Surface,                  !- Outside Boundary Condition
    Block af3917251b85a42e_0 Storey 2 Ceiling 0001_1,    !- Outside Boundary Condition Object
    NoSun,                    !- Sun Exposure
    NoWind,                   !- Wind Exposure
    autocalculate,            !- View Factor to Ground
    autocalculate,            !- Number of Vertices
    687120.506,               !- Vertex 1 Xcoordinate
    4928946.698,              !- Vertex 1 Ycoordinate
    9,                        !- Vertex 1 Zcoordinate
    687125.5159999998,        !- Vertex 2 Xcoordinate
    4928954.968,              !- Vertex 2 Ycoordinate
    9,                        !- Vertex 2 Zcoordinate
    687122.0439999998,        !- Vertex 3 Xcoordinate
    4928957.101,              !- Vertex 3 Ycoordinate
    9,                        !- Vertex 3 Zcoordinate
    687116.9919999996,        !- Vertex 4 Xcoordinate
    4928948.85,               !- Vertex 4 Ycoordinate
    9;                        !- Vertex 4 Zcoordinate

BUILDINGSURFACE:DETAILED,
    Block af3917251b85a42e_0 Storey 3 Wall 0001_1,    !- Name
    wall,                     !- Surface Type
    EU_wall_Construction,     !- Construction Name
    af3917251b85a42e_F3_dwelling_0,    !- Zone Name
    ,                         !- Space Name
    outdoors,                 !- Outside Boundary Condition
    ,                         !- Outside Boundary Condition Object
    SunExposed,               !- Sun Exposure
    WindExposed,              !- Wind Exposure
    autocalculate,            !- View Factor to Ground
    autocalculate,            !- Number of Vertices
    687116.9920000001,        !- Vertex 1 Xcoordinate
    4928948.85,               !- Vertex 1 Ycoordinate
    12,                       !- Vertex 1 Zcoordinate
    687116.9920000001,        !- Vertex 2 Xcoordinate
    4928948.85,               !- Vertex 2 Ycoordinate
    9,                        !- Vertex 2 Zcoordinate
    687122.0439999999,        !- Vertex 3 Xcoordinate
    4928957.101,              !- Vertex 3 Ycoordinate
    9,                        !- Vertex 3 Zcoordinate
    687122.0439999999,        !- Vertex 4 Xcoordinate
    4928957.101,              !- Vertex 4 Ycoordinate
    12;                       !- Vertex 4 Zcoordinate

BUILDINGSURFACE:DETAILED,
    Block af3917251b85a42e_1 Storey 3 Wall 0003_1,    !- Name
    wall,                     !- Surface Type
    EU_wall_Construction,     !- Construction Name
    af3917251b85a42e_F3_dwelling_1,    !- Zone Name
    ,                         !- Space Name
    outdoors,                 !- Outside Boundary Condition
    ,                         !- Outside Boundary Condition Object
    SunExposed,               !- Sun Exposure
    WindExposed,              !- Wind Exposure
    autocalculate,            !- View Factor to Ground
    autocalculate,            !- Number of Vertices
    687122.044,               !- Vertex 1 Xcoordinate
    4928957.101,              !- Vertex 1 Ycoordinate
    12,                       !- Vertex 1 Zcoordinate
    687122.044,               !- Vertex 2 Xcoordinate
    4928957.101,              !- Vertex 2 Ycoordinate
    9,                        !- Vertex 2 Zcoordinate
    687116.9920000002,        !- Vertex 3 Xcoordinate
    4928948.85,               !- Vertex 3 Ycoordinate
    9,                        !- Vertex 3 Zcoordinate
    687116.9920000002,        !- Vertex 4 Xcoordinate
    4928948.85,               !- Vertex 4 Ycoordinate
    12;                       !- Vertex 4 Zcoordinate

BUILDINGSURFACE:DETAILED,
    Block af3917251b85a42e_0 Storey 3 Ceiling 0001_1,    !- Name
    ceiling,                  !- Surface Type
    EU_floor_Construction,    !- Construction Name
    af3917251b85a42e_F3_dwelling_0,    !- Zone Name
    ,                         !- Space Name
    Surface,                  !- Outside Boundary Condition
    Block af3917251b85a42e_0 Storey 4 Floor 0001_1,    !- Outside Boundary Condition Object
    NoSun,                    !- Sun Exposure
    NoWind,                   !- Wind Exposure
    autocalculate,            !- View Factor to Ground
    autocalculate,            !- Number of Vertices
    687125.5159999998,        !- Vertex 1 Xcoordinate
    4928954.968,              !- Vertex 1 Ycoordinate
    12,                       !- Vertex 1 Zcoordinate
    687120.506,               !- Vertex 2 Xcoordinate
    4928946.698,              !- Vertex 2 Ycoordinate
    12,                       !- Vertex 2 Zcoordinate
    687116.9919999996,        !- Vertex 3 Xcoordinate
    4928948.85,               !- Vertex 3 Ycoordinate
    12,                       !- Vertex 3 Zcoordinate
    687122.0439999998,        !- Vertex 4 Xcoordinate
    4928957.101,              !- Vertex 4 Ycoordinate
    12;                       !- Vertex 4 Zcoordinate

BUILDINGSURFACE:DETAILED,
    Block af3917251b85a42e_0 Storey 4 Floor 0001_1,    !- Name
    floor,                    !- Surface Type
    EU_floor_Construction,    !- Construction Name
    af3917251b85a42e_F4_dwelling_0,    !- Zone Name
    ,                         !- Space Name
    Surface,                  !- Outside Boundary Condition
    Block af3917251b85a42e_0 Storey 3 Ceiling 0001_1,    !- Outside Boundary Condition Object
    NoSun,                    !- Sun Exposure
    NoWind,                   !- Wind Exposure
    autocalculate,            !- View Factor to Ground
    autocalculate,            !- Number of Vertices
    687120.506,               !- Vertex 1 Xcoordinate
    4928946.698,              !- Vertex 1 Ycoordinate
    12,                       !- Vertex 1 Zcoordinate
    687125.5159999998,        !- Vertex 2 Xcoordinate
    4928954.968,              !- Vertex 2 Ycoordinate
    12,                       !- Vertex 2 Zcoordinate
    687122.0439999998,        !- Vertex 3 Xcoordinate
    4928957.101,              !- Vertex 3 Ycoordinate
    12,                       !- Vertex 3 Zcoordinate
    687116.9919999996,        !- Vertex 4 Xcoordinate
    4928948.85,               !- Vertex 4 Ycoordinate
    12;                       !- Vertex 4 Zcoordinate

BUILDINGSURFACE:DETAILED,
    Block af3917251b85a42e_0 Storey 4 Wall 0001_1,    !- Name
    wall,                     !- Surface Type
    EU_wall_Construction,     !- Construction Name
    af3917251b85a42e_F4_dwelling_0,    !- Zone Name
    ,                         !- Space Name
    outdoors,                 !- Outside Boundary Condition
    ,                         !- Outside Boundary Condition Object
    SunExposed,               !- Sun Exposure
    WindExposed,              !- Wind Exposure
    autocalculate,            !- View Factor to Ground
    autocalculate,            !- Number of Vertices
    687116.9920000001,        !- Vertex 1 Xcoordinate
    4928948.85,               !- Vertex 1 Ycoordinate
    15,                       !- Vertex 1 Zcoordinate
    687116.9920000001,        !- Vertex 2 Xcoordinate
    4928948.85,               !- Vertex 2 Ycoordinate
    12,                       !- Vertex 2 Zcoordinate
    687122.0439999999,        !- Vertex 3 Xcoordinate
    4928957.101,              !- Vertex 3 Ycoordinate
    12,                       !- Vertex 3 Zcoordinate
    687122.0439999999,        !- Vertex 4 Xcoordinate
    4928957.101,              !- Vertex 4 Ycoordinate
    15;                       !- Vertex 4 Zcoordinate

BUILDINGSURFACE:DETAILED,
    Block af3917251b85a42e_1 Storey 4 Wall 0003_1,    !- Name
    wall,                     !- Surface Type
    EU_wall_Construction,     !- Construction Name
    af3917251b85a42e_F4_dwelling_1,    !- Zone Name
    ,                         !- Space Name
    outdoors,                 !- Outside Boundary Condition
    ,                         !- Outside Boundary Condition Object
    SunExposed,               !- Sun Exposure
    WindExposed,              !- Wind Exposure
    autocalculate,            !- View Factor to Ground
    autocalculate,            !- Number of Vertices
    687122.044,               !- Vertex 1 Xcoordinate
    4928957.101,              !- Vertex 1 Ycoordinate
    15,                       !- Vertex 1 Zcoordinate
    687122.044,               !- Vertex 2 Xcoordinate
    4928957.101,              !- Vertex 2 Ycoordinate
    12,                       !- Vertex 2 Zcoordinate
    687116.9920000002,        !- Vertex 3 Xcoordinate
    4928948.85,               !- Vertex 3 Ycoordinate
    12,                       !- Vertex 3 Zcoordinate
    687116.9920000002,        !- Vertex 4 Xcoordinate
    4928948.85,               !- Vertex 4 Ycoordinate
    15;                       !- Vertex 4 Zcoordinate

BUILDINGSURFACE:DETAILED,
    Block af3917251b85a42e_1 Storey 0 Wall 0001_1,    !- Name
    wall,                     !- Surface Type
    EU_wall_Construction,     !- Construction Name
    af3917251b85a42e_F0_dwelling_1,    !- Zone Name
    ,                         !- Space Name
    outdoors,                 !- Outside Boundary Condition
    ,                         !- Outside Boundary Condition Object
    SunExposed,               !- Sun Exposure
    WindExposed,              !- Wind Exposure
    autocalculate,            !- View Factor to Ground
    autocalculate,            !- Number of Vertices
    687113.2939999999,        !- Vertex 1 Xcoordinate
    4928951.114,              !- Vertex 1 Ycoordinate
    3,                        !- Vertex 1 Zcoordinate
    687113.2939999999,        !- Vertex 2 Xcoordinate
    4928951.114,              !- Vertex 2 Ycoordinate
    0,                        !- Vertex 2 Zcoordinate
    687118.3490000002,        !- Vertex 3 Xcoordinate
    4928959.371,              !- Vertex 3 Ycoordinate
    0,                        !- Vertex 3 Zcoordinate
    687118.3490000002,        !- Vertex 4 Xcoordinate
    4928959.371,              !- Vertex 4 Ycoordinate
    3;                        !- Vertex 4 Zcoordinate

BUILDINGSURFACE:DETAILED,
    Block af3917251b85a42e_2 Storey 0 Wall 0003_1,    !- Name
    wall,                     !- Surface Type
    EU_wall_Construction,     !- Construction Name
    af3917251b85a42e_F0_dwelling_2,    !- Zone Name
    ,                         !- Space Name
    outdoors,                 !- Outside Boundary Condition
    ,                         !- Outside Boundary Condition Object
    SunExposed,               !- Sun Exposure
    WindExposed,              !- Wind Exposure
    autocalculate,            !- View Factor to Ground
    autocalculate,            !- Number of Vertices
    687118.349,               !- Vertex 1 Xcoordinate
    4928959.371,              !- Vertex 1 Ycoordinate
    3,                        !- Vertex 1 Zcoordinate
    687118.349,               !- Vertex 2 Xcoordinate
    4928959.371,              !- Vertex 2 Ycoordinate
    0,                        !- Vertex 2 Zcoordinate
    687113.2939999996,        !- Vertex 3 Xcoordinate
    4928951.114,              !- Vertex 3 Ycoordinate
    0,                        !- Vertex 3 Zcoordinate
    687113.2939999996,        !- Vertex 4 Xcoordinate
    4928951.114,              !- Vertex 4 Ycoordinate
    3;                        !- Vertex 4 Zcoordinate

BUILDINGSURFACE:DETAILED,
    Block af3917251b85a42e_1 Storey 0 Ceiling 0001_1,    !- Name
    ceiling,                  !- Surface Type
    EU_floor_Construction,    !- Construction Name
    af3917251b85a42e_F0_dwelling_1,    !- Zone Name
    ,                         !- Space Name
    Surface,                  !- Outside Boundary Condition
    Block af3917251b85a42e_1 Storey 1 Floor 0001_1,    !- Outside Boundary Condition Object
    NoSun,                    !- Sun Exposure
    NoWind,                   !- Wind Exposure
    autocalculate,            !- View Factor to Ground
    autocalculate,            !- Number of Vertices
    687122.0439999998,        !- Vertex 1 Xcoordinate
    4928957.101,              !- Vertex 1 Ycoordinate
    3,                        !- Vertex 1 Zcoordinate
    687116.9919999996,        !- Vertex 2 Xcoordinate
    4928948.85,               !- Vertex 2 Ycoordinate
    3,                        !- Vertex 2 Zcoordinate
    687113.2939999998,        !- Vertex 3 Xcoordinate
    4928951.114,              !- Vertex 3 Ycoordinate
    3,                        !- Vertex 3 Zcoordinate
    687118.3489999999,        !- Vertex 4 Xcoordinate
    4928959.371,              !- Vertex 4 Ycoordinate
    3;                        !- Vertex 4 Zcoordinate

BUILDINGSURFACE:DETAILED,
    Block af3917251b85a42e_1 Storey 1 Floor 0001_1,    !- Name
    floor,                    !- Surface Type
    EU_floor_Construction,    !- Construction Name
    af3917251b85a42e_F1_dwelling_1,    !- Zone Name
    ,                         !- Space Name
    Surface,                  !- Outside Boundary Condition
    Block af3917251b85a42e_1 Storey 0 Ceiling 0001_1,    !- Outside Boundary Condition Object
    NoSun,                    !- Sun Exposure
    NoWind,                   !- Wind Exposure
    autocalculate,            !- View Factor to Ground
    autocalculate,            !- Number of Vertices
    687116.9919999996,        !- Vertex 1 Xcoordinate
    4928948.85,               !- Vertex 1 Ycoordinate
    3,                        !- Vertex 1 Zcoordinate
    687122.0439999998,        !- Vertex 2 Xcoordinate
    4928957.101,              !- Vertex 2 Ycoordinate
    3,                        !- Vertex 2 Zcoordinate
    687118.3489999999,        !- Vertex 3 Xcoordinate
    4928959.371,              !- Vertex 3 Ycoordinate
    3,                        !- Vertex 3 Zcoordinate
    687113.2939999998,        !- Vertex 4 Xcoordinate
    4928951.114,              !- Vertex 4 Ycoordinate
    3;                        !- Vertex 4 Zcoordinate

BUILDINGSURFACE:DETAILED,
    Block af3917251b85a42e_1 Storey 1 Wall 0001_1,    !- Name
    wall,                     !- Surface Type
    EU_wall_Construction,     !- Construction Name
    af3917251b85a42e_F1_dwelling_1,    !- Zone Name
    ,                         !- Space Name
    outdoors,                 !- Outside Boundary Condition
    ,                         !- Outside Boundary Condition Object
    SunExposed,               !- Sun Exposure
    WindExposed,              !- Wind Exposure
    autocalculate,            !- View Factor to Ground
    autocalculate,            !- Number of Vertices
    687113.2939999999,        !- Vertex 1 Xcoordinate
    4928951.114,              !- Vertex 1 Ycoordinate
    6,                        !- Vertex 1 Zcoordinate
    687113.2939999999,        !- Vertex 2 Xcoordinate
    4928951.114,              !- Vertex 2 Ycoordinate
    3,                        !- Vertex 2 Zcoordinate
    687118.3490000002,        !- Vertex 3 Xcoordinate
    4928959.371,              !- Vertex 3 Ycoordinate
    3,                        !- Vertex 3 Zcoordinate
    687118.3490000002,        !- Vertex 4 Xcoordinate
    4928959.371,              !- Vertex 4 Ycoordinate
    6;                        !- Vertex 4 Zcoordinate

BUILDINGSURFACE:DETAILED,
    Block af3917251b85a42e_2 Storey 1 Wall 0003_1,    !- Name
    wall,                     !- Surface Type
    EU_wall_Construction,     !- Construction Name
    af3917251b85a42e_F1_dwelling_2,    !- Zone Name
    ,                         !- Space Name
    outdoors,                 !- Outside Boundary Condition
    ,                         !- Outside Boundary Condition Object
    SunExposed,               !- Sun Exposure
    WindExposed,              !- Wind Exposure
    autocalculate,            !- View Factor to Ground
    autocalculate,            !- Number of Vertices
    687118.349,               !- Vertex 1 Xcoordinate
    4928959.371,              !- Vertex 1 Ycoordinate
    6,                        !- Vertex 1 Zcoordinate
    687118.349,               !- Vertex 2 Xcoordinate
    4928959.371,              !- Vertex 2 Ycoordinate
    3,                        !- Vertex 2 Zcoordinate
    687113.2939999996,        !- Vertex 3 Xcoordinate
    4928951.114,              !- Vertex 3 Ycoordinate
    3,                        !- Vertex 3 Zcoordinate
    687113.2939999996,        !- Vertex 4 Xcoordinate
    4928951.114,              !- Vertex 4 Ycoordinate
    6;                        !- Vertex 4 Zcoordinate

BUILDINGSURFACE:DETAILED,
    Block af3917251b85a42e_1 Storey 1 Ceiling 0001_1,    !- Name
    ceiling,                  !- Surface Type
    EU_floor_Construction,    !- Construction Name
    af3917251b85a42e_F1_dwelling_1,    !- Zone Name
    ,                         !- Space Name
    Surface,                  !- Outside Boundary Condition
    Block af3917251b85a42e_1 Storey 2 Floor 0001_1,    !- Outside Boundary Condition Object
    NoSun,                    !- Sun Exposure
    NoWind,                   !- Wind Exposure
    autocalculate,            !- View Factor to Ground
    autocalculate,            !- Number of Vertices
    687122.0439999998,        !- Vertex 1 Xcoordinate
    4928957.101,              !- Vertex 1 Ycoordinate
    6,                        !- Vertex 1 Zcoordinate
    687116.9919999996,        !- Vertex 2 Xcoordinate
    4928948.85,               !- Vertex 2 Ycoordinate
    6,                        !- Vertex 2 Zcoordinate
    687113.2939999998,        !- Vertex 3 Xcoordinate
    4928951.114,              !- Vertex 3 Ycoordinate
    6,                        !- Vertex 3 Zcoordinate
    687118.3489999999,        !- Vertex 4 Xcoordinate
    4928959.371,              !- Vertex 4 Ycoordinate
    6;                        !- Vertex 4 Zcoordinate

BUILDINGSURFACE:DETAILED,
    Block af3917251b85a42e_1 Storey 2 Floor 0001_1,    !- Name
    floor,                    !- Surface Type
    EU_floor_Construction,    !- Construction Name
    af3917251b85a42e_F2_dwelling_1,    !- Zone Name
    ,                         !- Space Name
    Surface,                  !- Outside Boundary Condition
    Block af3917251b85a42e_1 Storey 1 Ceiling 0001_1,    !- Outside Boundary Condition Object
    NoSun,                    !- Sun Exposure
    NoWind,                   !- Wind Exposure
    autocalculate,            !- View Factor to Ground
    autocalculate,            !- Number of Vertices
    687116.9919999996,        !- Vertex 1 Xcoordinate
    4928948.85,               !- Vertex 1 Ycoordinate
    6,                        !- Vertex 1 Zcoordinate
    687122.0439999998,        !- Vertex 2 Xcoordinate
    4928957.101,              !- Vertex 2 Ycoordinate
    6,                        !- Vertex 2 Zcoordinate
    687118.3489999999,        !- Vertex 3 Xcoordinate
    4928959.371,              !- Vertex 3 Ycoordinate
    6,                        !- Vertex 3 Zcoordinate
    687113.2939999998,        !- Vertex 4 Xcoordinate
    4928951.114,              !- Vertex 4 Ycoordinate
    6;                        !- Vertex 4 Zcoordinate

BUILDINGSURFACE:DETAILED,
    Block af3917251b85a42e_1 Storey 2 Wall 0001_1,    !- Name
    wall,                     !- Surface Type
    EU_wall_Construction,     !- Construction Name
    af3917251b85a42e_F2_dwelling_1,    !- Zone Name
    ,                         !- Space Name
    outdoors,                 !- Outside Boundary Condition
    ,                         !- Outside Boundary Condition Object
    SunExposed,               !- Sun Exposure
    WindExposed,              !- Wind Exposure
    autocalculate,            !- View Factor to Ground
    autocalculate,            !- Number of Vertices
    687113.2939999999,        !- Vertex 1 Xcoordinate
    4928951.114,              !- Vertex 1 Ycoordinate
    9,                        !- Vertex 1 Zcoordinate
    687113.2939999999,        !- Vertex 2 Xcoordinate
    4928951.114,              !- Vertex 2 Ycoordinate
    6,                        !- Vertex 2 Zcoordinate
    687118.3490000002,        !- Vertex 3 Xcoordinate
    4928959.371,              !- Vertex 3 Ycoordinate
    6,                        !- Vertex 3 Zcoordinate
    687118.3490000002,        !- Vertex 4 Xcoordinate
    4928959.371,              !- Vertex 4 Ycoordinate
    9;                        !- Vertex 4 Zcoordinate

BUILDINGSURFACE:DETAILED,
    Block af3917251b85a42e_2 Storey 2 Wall 0003_1,    !- Name
    wall,                     !- Surface Type
    EU_wall_Construction,     !- Construction Name
    af3917251b85a42e_F2_dwelling_2,    !- Zone Name
    ,                         !- Space Name
    outdoors,                 !- Outside Boundary Condition
    ,                         !- Outside Boundary Condition Object
    SunExposed,               !- Sun Exposure
    WindExposed,              !- Wind Exposure
    autocalculate,            !- View Factor to Ground
    autocalculate,            !- Number of Vertices
    687118.349,               !- Vertex 1 Xcoordinate
    4928959.371,              !- Vertex 1 Ycoordinate
    9,                        !- Vertex 1 Zcoordinate
    687118.349,               !- Vertex 2 Xcoordinate
    4928959.371,              !- Vertex 2 Ycoordinate
    6,                        !- Vertex 2 Zcoordinate
    687113.2939999996,        !- Vertex 3 Xcoordinate
    4928951.114,              !- Vertex 3 Ycoordinate
    6,                        !- Vertex 3 Zcoordinate
    687113.2939999996,        !- Vertex 4 Xcoordinate
    4928951.114,              !- Vertex 4 Ycoordinate
    9;                        !- Vertex 4 Zcoordinate

BUILDINGSURFACE:DETAILED,
    Block af3917251b85a42e_1 Storey 2 Ceiling 0001_1,    !- Name
    ceiling,                  !- Surface Type
    EU_floor_Construction,    !- Construction Name
    af3917251b85a42e_F2_dwelling_1,    !- Zone Name
    ,                         !- Space Name
    Surface,                  !- Outside Boundary Condition
    Block af3917251b85a42e_1 Storey 3 Floor 0001_1,    !- Outside Boundary Condition Object
    NoSun,                    !- Sun Exposure
    NoWind,                   !- Wind Exposure
    autocalculate,            !- View Factor to Ground
    autocalculate,            !- Number of Vertices
    687122.0439999998,        !- Vertex 1 Xcoordinate
    4928957.101,              !- Vertex 1 Ycoordinate
    9,                        !- Vertex 1 Zcoordinate
    687116.9919999996,        !- Vertex 2 Xcoordinate
    4928948.85,               !- Vertex 2 Ycoordinate
    9,                        !- Vertex 2 Zcoordinate
    687113.2939999998,        !- Vertex 3 Xcoordinate
    4928951.114,              !- Vertex 3 Ycoordinate
    9,                        !- Vertex 3 Zcoordinate
    687118.3489999999,        !- Vertex 4 Xcoordinate
    4928959.371,              !- Vertex 4 Ycoordinate
    9;                        !- Vertex 4 Zcoordinate

BUILDINGSURFACE:DETAILED,
    Block af3917251b85a42e_1 Storey 3 Floor 0001_1,    !- Name
    floor,                    !- Surface Type
    EU_floor_Construction,    !- Construction Name
    af3917251b85a42e_F3_dwelling_1,    !- Zone Name
    ,                         !- Space Name
    Surface,                  !- Outside Boundary Condition
    Block af3917251b85a42e_1 Storey 2 Ceiling 0001_1,    !- Outside Boundary Condition Object
    NoSun,                    !- Sun Exposure
    NoWind,                   !- Wind Exposure
    autocalculate,            !- View Factor to Ground
    autocalculate,            !- Number of Vertices
    687116.9919999996,        !- Vertex 1 Xcoordinate
    4928948.85,               !- Vertex 1 Ycoordinate
    9,                        !- Vertex 1 Zcoordinate
    687122.0439999998,        !- Vertex 2 Xcoordinate
    4928957.101,              !- Vertex 2 Ycoordinate
    9,                        !- Vertex 2 Zcoordinate
    687118.3489999999,        !- Vertex 3 Xcoordinate
    4928959.371,              !- Vertex 3 Ycoordinate
    9,                        !- Vertex 3 Zcoordinate
    687113.2939999998,        !- Vertex 4 Xcoordinate
    4928951.114,              !- Vertex 4 Ycoordinate
    9;                        !- Vertex 4 Zcoordinate

BUILDINGSURFACE:DETAILED,
    Block af3917251b85a42e_1 Storey 3 Wall 0001_1,    !- Name
    wall,                     !- Surface Type
    EU_wall_Construction,     !- Construction Name
    af3917251b85a42e_F3_dwelling_1,    !- Zone Name
    ,                         !- Space Name
    outdoors,                 !- Outside Boundary Condition
    ,                         !- Outside Boundary Condition Object
    SunExposed,               !- Sun Exposure
    WindExposed,              !- Wind Exposure
    autocalculate,            !- View Factor to Ground
    autocalculate,            !- Number of Vertices
    687113.2939999999,        !- Vertex 1 Xcoordinate
    4928951.114,              !- Vertex 1 Ycoordinate
    12,                       !- Vertex 1 Zcoordinate
    687113.2939999999,        !- Vertex 2 Xcoordinate
    4928951.114,              !- Vertex 2 Ycoordinate
    9,                        !- Vertex 2 Zcoordinate
    687118.3490000002,        !- Vertex 3 Xcoordinate
    4928959.371,              !- Vertex 3 Ycoordinate
    9,                        !- Vertex 3 Zcoordinate
    687118.3490000002,        !- Vertex 4 Xcoordinate
    4928959.371,              !- Vertex 4 Ycoordinate
    12;                       !- Vertex 4 Zcoordinate

BUILDINGSURFACE:DETAILED,
    Block af3917251b85a42e_2 Storey 3 Wall 0003_1,    !- Name
    wall,                     !- Surface Type
    EU_wall_Construction,     !- Construction Name
    af3917251b85a42e_F3_dwelling_2,    !- Zone Name
    ,                         !- Space Name
    outdoors,                 !- Outside Boundary Condition
    ,                         !- Outside Boundary Condition Object
    SunExposed,               !- Sun Exposure
    WindExposed,              !- Wind Exposure
    autocalculate,            !- View Factor to Ground
    autocalculate,            !- Number of Vertices
    687118.349,               !- Vertex 1 Xcoordinate
    4928959.371,              !- Vertex 1 Ycoordinate
    12,                       !- Vertex 1 Zcoordinate
    687118.349,               !- Vertex 2 Xcoordinate
    4928959.371,              !- Vertex 2 Ycoordinate
    9,                        !- Vertex 2 Zcoordinate
    687113.2939999996,        !- Vertex 3 Xcoordinate
    4928951.114,              !- Vertex 3 Ycoordinate
    9,                        !- Vertex 3 Zcoordinate
    687113.2939999996,        !- Vertex 4 Xcoordinate
    4928951.114,              !- Vertex 4 Ycoordinate
    12;                       !- Vertex 4 Zcoordinate

BUILDINGSURFACE:DETAILED,
    Block af3917251b85a42e_1 Storey 3 Ceiling 0001_1,    !- Name
    ceiling,                  !- Surface Type
    EU_floor_Construction,    !- Construction Name
    af3917251b85a42e_F3_dwelling_1,    !- Zone Name
    ,                         !- Space Name
    Surface,                  !- Outside Boundary Condition
    Block af3917251b85a42e_1 Storey 4 Floor 0001_1,    !- Outside Boundary Condition Object
    NoSun,                    !- Sun Exposure
    NoWind,                   !- Wind Exposure
    autocalculate,            !- View Factor to Ground
    autocalculate,            !- Number of Vertices
    687122.0439999998,        !- Vertex 1 Xcoordinate
    4928957.101,              !- Vertex 1 Ycoordinate
    12,                       !- Vertex 1 Zcoordinate
    687116.9919999996,        !- Vertex 2 Xcoordinate
    4928948.85,               !- Vertex 2 Ycoordinate
    12,                       !- Vertex 2 Zcoordinate
    687113.2939999998,        !- Vertex 3 Xcoordinate
    4928951.114,              !- Vertex 3 Ycoordinate
    12,                       !- Vertex 3 Zcoordinate
    687118.3489999999,        !- Vertex 4 Xcoordinate
    4928959.371,              !- Vertex 4 Ycoordinate
    12;                       !- Vertex 4 Zcoordinate

BUILDINGSURFACE:DETAILED,
    Block af3917251b85a42e_1 Storey 4 Floor 0001_1,    !- Name
    floor,                    !- Surface Type
    EU_floor_Construction,    !- Construction Name
    af3917251b85a42e_F4_dwelling_1,    !- Zone Name
    ,                         !- Space Name
    Surface,                  !- Outside Boundary Condition
    Block af3917251b85a42e_1 Storey 3 Ceiling 0001_1,    !- Outside Boundary Condition Object
    NoSun,                    !- Sun Exposure
    NoWind,                   !- Wind Exposure
    autocalculate,            !- View Factor to Ground
    autocalculate,            !- Number of Vertices
    687116.9919999996,        !- Vertex 1 Xcoordinate
    4928948.85,               !- Vertex 1 Ycoordinate
    12,                       !- Vertex 1 Zcoordinate
    687122.0439999998,        !- Vertex 2 Xcoordinate
    4928957.101,              !- Vertex 2 Ycoordinate
    12,                       !- Vertex 2 Zcoordinate
    687118.3489999999,        !- Vertex 3 Xcoordinate
    4928959.371,              !- Vertex 3 Ycoordinate
    12,                       !- Vertex 3 Zcoordinate
    687113.2939999998,        !- Vertex 4 Xcoordinate
    4928951.114,              !- Vertex 4 Ycoordinate
    12;                       !- Vertex 4 Zcoordinate

BUILDINGSURFACE:DETAILED,
    Block af3917251b85a42e_1 Storey 4 Wall 0001_1,    !- Name
    wall,                     !- Surface Type
    EU_wall_Construction,     !- Construction Name
    af3917251b85a42e_F4_dwelling_1,    !- Zone Name
    ,                         !- Space Name
    outdoors,                 !- Outside Boundary Condition
    ,                         !- Outside Boundary Condition Object
    SunExposed,               !- Sun Exposure
    WindExposed,              !- Wind Exposure
    autocalculate,            !- View Factor to Ground
    autocalculate,            !- Number of Vertices
    687113.2939999999,        !- Vertex 1 Xcoordinate
    4928951.114,              !- Vertex 1 Ycoordinate
    15,                       !- Vertex 1 Zcoordinate
    687113.2939999999,        !- Vertex 2 Xcoordinate
    4928951.114,              !- Vertex 2 Ycoordinate
    12,                       !- Vertex 2 Zcoordinate
    687118.3490000002,        !- Vertex 3 Xcoordinate
    4928959.371,              !- Vertex 3 Ycoordinate
    12,                       !- Vertex 3 Zcoordinate
    687118.3490000002,        !- Vertex 4 Xcoordinate
    4928959.371,              !- Vertex 4 Ycoordinate
    15;                       !- Vertex 4 Zcoordinate

BUILDINGSURFACE:DETAILED,
    Block af3917251b85a42e_2 Storey 4 Wall 0003_1,    !- Name
    wall,                     !- Surface Type
    EU_wall_Construction,     !- Construction Name
    af3917251b85a42e_F4_dwelling_2,    !- Zone Name
    ,                         !- Space Name
    outdoors,                 !- Outside Boundary Condition
    ,                         !- Outside Boundary Condition Object
    SunExposed,               !- Sun Exposure
    WindExposed,              !- Wind Exposure
    autocalculate,            !- View Factor to Ground
    autocalculate,            !- Number of Vertices
    687118.349,               !- Vertex 1 Xcoordinate
    4928959.371,              !- Vertex 1 Ycoordinate
    15,                       !- Vertex 1 Zcoordinate
    687118.349,               !- Vertex 2 Xcoordinate
    4928959.371,              !- Vertex 2 Ycoordinate
    12,                       !- Vertex 2 Zcoordinate
    687113.2939999996,        !- Vertex 3 Xcoordinate
    4928951.114,              !- Vertex 3 Ycoordinate
    12,                       !- Vertex 3 Zcoordinate
    687113.2939999996,        !- Vertex 4 Xcoordinate
    4928951.114,              !- Vertex 4 Ycoordinate
    15;                       !- Vertex 4 Zcoordinate

BUILDINGSURFACE:DETAILED,
    Block af3917251b85a42e_2 Storey 0 Wall 0001_1,    !- Name
    wall,                     !- Surface Type
    EU_wall_Construction,     !- Construction Name
    af3917251b85a42e_F0_dwelling_2,    !- Zone Name
    ,                         !- Space Name
    surface,                  !- Outside Boundary Condition
    Block af3917251b85a42e_3 Storey 0 Wall 0003_1,    !- Outside Boundary Condition Object
    NoSun,                    !- Sun Exposure
    NoWind,                   !- Wind Exposure
    autocalculate,            !- View Factor to Ground
    autocalculate,            !- Number of Vertices
    687109.598,               !- Vertex 1 Xcoordinate
    4928953.377,              !- Vertex 1 Ycoordinate
    3,                        !- Vertex 1 Zcoordinate
    687109.598,               !- Vertex 2 Xcoordinate
    4928953.377,              !- Vertex 2 Ycoordinate
    0,                        !- Vertex 2 Zcoordinate
    687114.657,               !- Vertex 3 Xcoordinate
    4928961.639,              !- Vertex 3 Ycoordinate
    0,                        !- Vertex 3 Zcoordinate
    687114.657,               !- Vertex 4 Xcoordinate
    4928961.639,              !- Vertex 4 Ycoordinate
    3;                        !- Vertex 4 Zcoordinate

BUILDINGSURFACE:DETAILED,
    Block af3917251b85a42e_3 Storey 0 Wall 0003_1,    !- Name
    wall,                     !- Surface Type
    EU_wall_Construction,     !- Construction Name
    af3917251b85a42e_F0_dwelling_3,    !- Zone Name
    ,                         !- Space Name
    surface,                  !- Outside Boundary Condition
    Block af3917251b85a42e_2 Storey 0 Wall 0001_1,    !- Outside Boundary Condition Object
    NoSun,                    !- Sun Exposure
    NoWind,                   !- Wind Exposure
    autocalculate,            !- View Factor to Ground
    autocalculate,            !- Number of Vertices
    687114.657,               !- Vertex 1 Xcoordinate
    4928961.639,              !- Vertex 1 Ycoordinate
    3,                        !- Vertex 1 Zcoordinate
    687114.657,               !- Vertex 2 Xcoordinate
    4928961.639,              !- Vertex 2 Ycoordinate
    0,                        !- Vertex 2 Zcoordinate
    687109.598,               !- Vertex 3 Xcoordinate
    4928953.377,              !- Vertex 3 Ycoordinate
    0,                        !- Vertex 3 Zcoordinate
    687109.598,               !- Vertex 4 Xcoordinate
    4928953.377,              !- Vertex 4 Ycoordinate
    3;                        !- Vertex 4 Zcoordinate

BUILDINGSURFACE:DETAILED,
    Block af3917251b85a42e_2 Storey 0 Ceiling 0001_1,    !- Name
    ceiling,                  !- Surface Type
    EU_floor_Construction,    !- Construction Name
    af3917251b85a42e_F0_dwelling_2,    !- Zone Name
    ,                         !- Space Name
    Surface,                  !- Outside Boundary Condition
    Block af3917251b85a42e_2 Storey 1 Floor 0001_1,    !- Outside Boundary Condition Object
    NoSun,                    !- Sun Exposure
    NoWind,                   !- Wind Exposure
    autocalculate,            !- View Factor to Ground
    autocalculate,            !- Number of Vertices
    687118.3489999999,        !- Vertex 1 Xcoordinate
    4928959.371,              !- Vertex 1 Ycoordinate
    3,                        !- Vertex 1 Zcoordinate
    687113.2939999998,        !- Vertex 2 Xcoordinate
    4928951.114,              !- Vertex 2 Ycoordinate
    3,                        !- Vertex 2 Zcoordinate
    687109.5979999998,        !- Vertex 3 Xcoordinate
    4928953.377,              !- Vertex 3 Ycoordinate
    3,                        !- Vertex 3 Zcoordinate
    687114.6569999997,        !- Vertex 4 Xcoordinate
    4928961.639,              !- Vertex 4 Ycoordinate
    3;                        !- Vertex 4 Zcoordinate

BUILDINGSURFACE:DETAILED,
    Block af3917251b85a42e_2 Storey 1 Floor 0001_1,    !- Name
    floor,                    !- Surface Type
    EU_floor_Construction,    !- Construction Name
    af3917251b85a42e_F1_dwelling_2,    !- Zone Name
    ,                         !- Space Name
    Surface,                  !- Outside Boundary Condition
    Block af3917251b85a42e_2 Storey 0 Ceiling 0001_1,    !- Outside Boundary Condition Object
    NoSun,                    !- Sun Exposure
    NoWind,                   !- Wind Exposure
    autocalculate,            !- View Factor to Ground
    autocalculate,            !- Number of Vertices
    687113.2939999998,        !- Vertex 1 Xcoordinate
    4928951.114,              !- Vertex 1 Ycoordinate
    3,                        !- Vertex 1 Zcoordinate
    687118.3489999999,        !- Vertex 2 Xcoordinate
    4928959.371,              !- Vertex 2 Ycoordinate
    3,                        !- Vertex 2 Zcoordinate
    687114.6569999997,        !- Vertex 3 Xcoordinate
    4928961.639,              !- Vertex 3 Ycoordinate
    3,                        !- Vertex 3 Zcoordinate
    687109.5979999998,        !- Vertex 4 Xcoordinate
    4928953.377,              !- Vertex 4 Ycoordinate
    3;                        !- Vertex 4 Zcoordinate

BUILDINGSURFACE:DETAILED,
    Block af3917251b85a42e_2 Storey 1 Wall 0001_1,    !- Name
    wall,                     !- Surface Type
    EU_wall_Construction,     !- Construction Name
    af3917251b85a42e_F1_dwelling_2,    !- Zone Name
    ,                         !- Space Name
    surface,                  !- Outside Boundary Condition
    Block af3917251b85a42e_3 Storey 1 Wall 0003_1,    !- Outside Boundary Condition Object
    NoSun,                    !- Sun Exposure
    NoWind,                   !- Wind Exposure
    autocalculate,            !- View Factor to Ground
    autocalculate,            !- Number of Vertices
    687109.598,               !- Vertex 1 Xcoordinate
    4928953.377,              !- Vertex 1 Ycoordinate
    6,                        !- Vertex 1 Zcoordinate
    687109.598,               !- Vertex 2 Xcoordinate
    4928953.377,              !- Vertex 2 Ycoordinate
    3,                        !- Vertex 2 Zcoordinate
    687114.657,               !- Vertex 3 Xcoordinate
    4928961.639,              !- Vertex 3 Ycoordinate
    3,                        !- Vertex 3 Zcoordinate
    687114.657,               !- Vertex 4 Xcoordinate
    4928961.639,              !- Vertex 4 Ycoordinate
    6;                        !- Vertex 4 Zcoordinate

BUILDINGSURFACE:DETAILED,
    Block af3917251b85a42e_3 Storey 1 Wall 0003_1,    !- Name
    wall,                     !- Surface Type
    EU_wall_Construction,     !- Construction Name
    af3917251b85a42e_F1_dwelling_3,    !- Zone Name
    ,                         !- Space Name
    surface,                  !- Outside Boundary Condition
    Block af3917251b85a42e_2 Storey 1 Wall 0001_1,    !- Outside Boundary Condition Object
    NoSun,                    !- Sun Exposure
    NoWind,                   !- Wind Exposure
    autocalculate,            !- View Factor to Ground
    autocalculate,            !- Number of Vertices
    687114.657,               !- Vertex 1 Xcoordinate
    4928961.639,              !- Vertex 1 Ycoordinate
    6,                        !- Vertex 1 Zcoordinate
    687114.657,               !- Vertex 2 Xcoordinate
    4928961.639,              !- Vertex 2 Ycoordinate
    3,                        !- Vertex 2 Zcoordinate
    687109.598,               !- Vertex 3 Xcoordinate
    4928953.377,              !- Vertex 3 Ycoordinate
    3,                        !- Vertex 3 Zcoordinate
    687109.598,               !- Vertex 4 Xcoordinate
    4928953.377,              !- Vertex 4 Ycoordinate
    6;                        !- Vertex 4 Zcoordinate

BUILDINGSURFACE:DETAILED,
    Block af3917251b85a42e_2 Storey 1 Ceiling 0001_1,    !- Name
    ceiling,                  !- Surface Type
    EU_floor_Construction,    !- Construction Name
    af3917251b85a42e_F1_dwelling_2,    !- Zone Name
    ,                         !- Space Name
    Surface,                  !- Outside Boundary Condition
    Block af3917251b85a42e_2 Storey 2 Floor 0001_1,    !- Outside Boundary Condition Object
    NoSun,                    !- Sun Exposure
    NoWind,                   !- Wind Exposure
    autocalculate,            !- View Factor to Ground
    autocalculate,            !- Number of Vertices
    687118.3489999999,        !- Vertex 1 Xcoordinate
    4928959.371,              !- Vertex 1 Ycoordinate
    6,                        !- Vertex 1 Zcoordinate
    687113.2939999998,        !- Vertex 2 Xcoordinate
    4928951.114,              !- Vertex 2 Ycoordinate
    6,                        !- Vertex 2 Zcoordinate
    687109.5979999998,        !- Vertex 3 Xcoordinate
    4928953.377,              !- Vertex 3 Ycoordinate
    6,                        !- Vertex 3 Zcoordinate
    687114.6569999997,        !- Vertex 4 Xcoordinate
    4928961.639,              !- Vertex 4 Ycoordinate
    6;                        !- Vertex 4 Zcoordinate

BUILDINGSURFACE:DETAILED,
    Block af3917251b85a42e_2 Storey 2 Floor 0001_1,    !- Name
    floor,                    !- Surface Type
    EU_floor_Construction,    !- Construction Name
    af3917251b85a42e_F2_dwelling_2,    !- Zone Name
    ,                         !- Space Name
    Surface,                  !- Outside Boundary Condition
    Block af3917251b85a42e_2 Storey 1 Ceiling 0001_1,    !- Outside Boundary Condition Object
    NoSun,                    !- Sun Exposure
    NoWind,                   !- Wind Exposure
    autocalculate,            !- View Factor to Ground
    autocalculate,            !- Number of Vertices
    687113.2939999998,        !- Vertex 1 Xcoordinate
    4928951.114,              !- Vertex 1 Ycoordinate
    6,                        !- Vertex 1 Zcoordinate
    687118.3489999999,        !- Vertex 2 Xcoordinate
    4928959.371,              !- Vertex 2 Ycoordinate
    6,                        !- Vertex 2 Zcoordinate
    687114.6569999997,        !- Vertex 3 Xcoordinate
    4928961.639,              !- Vertex 3 Ycoordinate
    6,                        !- Vertex 3 Zcoordinate
    687109.5979999998,        !- Vertex 4 Xcoordinate
    4928953.377,              !- Vertex 4 Ycoordinate
    6;                        !- Vertex 4 Zcoordinate

BUILDINGSURFACE:DETAILED,
    Block af3917251b85a42e_2 Storey 2 Wall 0001_1,    !- Name
    wall,                     !- Surface Type
    EU_wall_Construction,     !- Construction Name
    af3917251b85a42e_F2_dwelling_2,    !- Zone Name
    ,                         !- Space Name
    surface,                  !- Outside Boundary Condition
    Block af3917251b85a42e_3 Storey 2 Wall 0003_1,    !- Outside Boundary Condition Object
    NoSun,                    !- Sun Exposure
    NoWind,                   !- Wind Exposure
    autocalculate,            !- View Factor to Ground
    autocalculate,            !- Number of Vertices
    687109.598,               !- Vertex 1 Xcoordinate
    4928953.377,              !- Vertex 1 Ycoordinate
    9,                        !- Vertex 1 Zcoordinate
    687109.598,               !- Vertex 2 Xcoordinate
    4928953.377,              !- Vertex 2 Ycoordinate
    6,                        !- Vertex 2 Zcoordinate
    687114.657,               !- Vertex 3 Xcoordinate
    4928961.639,              !- Vertex 3 Ycoordinate
    6,                        !- Vertex 3 Zcoordinate
    687114.657,               !- Vertex 4 Xcoordinate
    4928961.639,              !- Vertex 4 Ycoordinate
    9;                        !- Vertex 4 Zcoordinate

BUILDINGSURFACE:DETAILED,
    Block af3917251b85a42e_3 Storey 2 Wall 0003_1,    !- Name
    wall,                     !- Surface Type
    EU_wall_Construction,     !- Construction Name
    af3917251b85a42e_F2_dwelling_3,    !- Zone Name
    ,                         !- Space Name
    surface,                  !- Outside Boundary Condition
    Block af3917251b85a42e_2 Storey 2 Wall 0001_1,    !- Outside Boundary Condition Object
    NoSun,                    !- Sun Exposure
    NoWind,                   !- Wind Exposure
    autocalculate,            !- View Factor to Ground
    autocalculate,            !- Number of Vertices
    687114.657,               !- Vertex 1 Xcoordinate
    4928961.639,              !- Vertex 1 Ycoordinate
    9,                        !- Vertex 1 Zcoordinate
    687114.657,               !- Vertex 2 Xcoordinate
    4928961.639,              !- Vertex 2 Ycoordinate
    6,                        !- Vertex 2 Zcoordinate
    687109.598,               !- Vertex 3 Xcoordinate
    4928953.377,              !- Vertex 3 Ycoordinate
    6,                        !- Vertex 3 Zcoordinate
    687109.598,               !- Vertex 4 Xcoordinate
    4928953.377,              !- Vertex 4 Ycoordinate
    9;                        !- Vertex 4 Zcoordinate

BUILDINGSURFACE:DETAILED,
    Block af3917251b85a42e_2 Storey 2 Ceiling 0001_1,    !- Name
    ceiling,                  !- Surface Type
    EU_floor_Construction,    !- Construction Name
    af3917251b85a42e_F2_dwelling_2,    !- Zone Name
    ,                         !- Space Name
    Surface,                  !- Outside Boundary Condition
    Block af3917251b85a42e_2 Storey 3 Floor 0001_1,    !- Outside Boundary Condition Object
    NoSun,                    !- Sun Exposure
    NoWind,                   !- Wind Exposure
    autocalculate,            !- View Factor to Ground
    autocalculate,            !- Number of Vertices
    687118.3489999999,        !- Vertex 1 Xcoordinate
    4928959.371,              !- Vertex 1 Ycoordinate
    9,                        !- Vertex 1 Zcoordinate
    687113.2939999998,        !- Vertex 2 Xcoordinate
    4928951.114,              !- Vertex 2 Ycoordinate
    9,                        !- Vertex 2 Zcoordinate
    687109.5979999998,        !- Vertex 3 Xcoordinate
    4928953.377,              !- Vertex 3 Ycoordinate
    9,                        !- Vertex 3 Zcoordinate
    687114.6569999997,        !- Vertex 4 Xcoordinate
    4928961.639,              !- Vertex 4 Ycoordinate
    9;                        !- Vertex 4 Zcoordinate

BUILDINGSURFACE:DETAILED,
    Block af3917251b85a42e_2 Storey 3 Floor 0001_1,    !- Name
    floor,                    !- Surface Type
    EU_floor_Construction,    !- Construction Name
    af3917251b85a42e_F3_dwelling_2,    !- Zone Name
    ,                         !- Space Name
    Surface,                  !- Outside Boundary Condition
    Block af3917251b85a42e_2 Storey 2 Ceiling 0001_1,    !- Outside Boundary Condition Object
    NoSun,                    !- Sun Exposure
    NoWind,                   !- Wind Exposure
    autocalculate,            !- View Factor to Ground
    autocalculate,            !- Number of Vertices
    687113.2939999998,        !- Vertex 1 Xcoordinate
    4928951.114,              !- Vertex 1 Ycoordinate
    9,                        !- Vertex 1 Zcoordinate
    687118.3489999999,        !- Vertex 2 Xcoordinate
    4928959.371,              !- Vertex 2 Ycoordinate
    9,                        !- Vertex 2 Zcoordinate
    687114.6569999997,        !- Vertex 3 Xcoordinate
    4928961.639,              !- Vertex 3 Ycoordinate
    9,                        !- Vertex 3 Zcoordinate
    687109.5979999998,        !- Vertex 4 Xcoordinate
    4928953.377,              !- Vertex 4 Ycoordinate
    9;                        !- Vertex 4 Zcoordinate

BUILDINGSURFACE:DETAILED,
    Block af3917251b85a42e_2 Storey 3 Wall 0001_1,    !- Name
    wall,                     !- Surface Type
    EU_wall_Construction,     !- Construction Name
    af3917251b85a42e_F3_dwelling_2,    !- Zone Name
    ,                         !- Space Name
    surface,                  !- Outside Boundary Condition
    Block af3917251b85a42e_3 Storey 3 Wall 0003_1,    !- Outside Boundary Condition Object
    NoSun,                    !- Sun Exposure
    NoWind,                   !- Wind Exposure
    autocalculate,            !- View Factor to Ground
    autocalculate,            !- Number of Vertices
    687109.598,               !- Vertex 1 Xcoordinate
    4928953.377,              !- Vertex 1 Ycoordinate
    12,                       !- Vertex 1 Zcoordinate
    687109.598,               !- Vertex 2 Xcoordinate
    4928953.377,              !- Vertex 2 Ycoordinate
    9,                        !- Vertex 2 Zcoordinate
    687114.657,               !- Vertex 3 Xcoordinate
    4928961.639,              !- Vertex 3 Ycoordinate
    9,                        !- Vertex 3 Zcoordinate
    687114.657,               !- Vertex 4 Xcoordinate
    4928961.639,              !- Vertex 4 Ycoordinate
    12;                       !- Vertex 4 Zcoordinate

BUILDINGSURFACE:DETAILED,
    Block af3917251b85a42e_3 Storey 3 Wall 0003_1,    !- Name
    wall,                     !- Surface Type
    EU_wall_Construction,     !- Construction Name
    af3917251b85a42e_F3_dwelling_3,    !- Zone Name
    ,                         !- Space Name
    surface,                  !- Outside Boundary Condition
    Block af3917251b85a42e_2 Storey 3 Wall 0001_1,    !- Outside Boundary Condition Object
    NoSun,                    !- Sun Exposure
    NoWind,                   !- Wind Exposure
    autocalculate,            !- View Factor to Ground
    autocalculate,            !- Number of Vertices
    687114.657,               !- Vertex 1 Xcoordinate
    4928961.639,              !- Vertex 1 Ycoordinate
    12,                       !- Vertex 1 Zcoordinate
    687114.657,               !- Vertex 2 Xcoordinate
    4928961.639,              !- Vertex 2 Ycoordinate
    9,                        !- Vertex 2 Zcoordinate
    687109.598,               !- Vertex 3 Xcoordinate
    4928953.377,              !- Vertex 3 Ycoordinate
    9,                        !- Vertex 3 Zcoordinate
    687109.598,               !- Vertex 4 Xcoordinate
    4928953.377,              !- Vertex 4 Ycoordinate
    12;                       !- Vertex 4 Zcoordinate

BUILDINGSURFACE:DETAILED,
    Block af3917251b85a42e_2 Storey 3 Ceiling 0001_1,    !- Name
    ceiling,                  !- Surface Type
    EU_floor_Construction,    !- Construction Name
    af3917251b85a42e_F3_dwelling_2,    !- Zone Name
    ,                         !- Space Name
    Surface,                  !- Outside Boundary Condition
    Block af3917251b85a42e_2 Storey 4 Floor 0001_1,    !- Outside Boundary Condition Object
    NoSun,                    !- Sun Exposure
    NoWind,                   !- Wind Exposure
    autocalculate,            !- View Factor to Ground
    autocalculate,            !- Number of Vertices
    687118.3489999999,        !- Vertex 1 Xcoordinate
    4928959.371,              !- Vertex 1 Ycoordinate
    12,                       !- Vertex 1 Zcoordinate
    687113.2939999998,        !- Vertex 2 Xcoordinate
    4928951.114,              !- Vertex 2 Ycoordinate
    12,                       !- Vertex 2 Zcoordinate
    687109.5979999998,        !- Vertex 3 Xcoordinate
    4928953.377,              !- Vertex 3 Ycoordinate
    12,                       !- Vertex 3 Zcoordinate
    687114.6569999997,        !- Vertex 4 Xcoordinate
    4928961.639,              !- Vertex 4 Ycoordinate
    12;                       !- Vertex 4 Zcoordinate

BUILDINGSURFACE:DETAILED,
    Block af3917251b85a42e_2 Storey 4 Floor 0001_1,    !- Name
    floor,                    !- Surface Type
    EU_floor_Construction,    !- Construction Name
    af3917251b85a42e_F4_dwelling_2,    !- Zone Name
    ,                         !- Space Name
    Surface,                  !- Outside Boundary Condition
    Block af3917251b85a42e_2 Storey 3 Ceiling 0001_1,    !- Outside Boundary Condition Object
    NoSun,                    !- Sun Exposure
    NoWind,                   !- Wind Exposure
    autocalculate,            !- View Factor to Ground
    autocalculate,            !- Number of Vertices
    687113.2939999998,        !- Vertex 1 Xcoordinate
    4928951.114,              !- Vertex 1 Ycoordinate
    12,                       !- Vertex 1 Zcoordinate
    687118.3489999999,        !- Vertex 2 Xcoordinate
    4928959.371,              !- Vertex 2 Ycoordinate
    12,                       !- Vertex 2 Zcoordinate
    687114.6569999997,        !- Vertex 3 Xcoordinate
    4928961.639,              !- Vertex 3 Ycoordinate
    12,                       !- Vertex 3 Zcoordinate
    687109.5979999998,        !- Vertex 4 Xcoordinate
    4928953.377,              !- Vertex 4 Ycoordinate
    12;                       !- Vertex 4 Zcoordinate

BUILDINGSURFACE:DETAILED,
    Block af3917251b85a42e_2 Storey 4 Wall 0001_1,    !- Name
    wall,                     !- Surface Type
    EU_wall_Construction,     !- Construction Name
    af3917251b85a42e_F4_dwelling_2,    !- Zone Name
    ,                         !- Space Name
    surface,                  !- Outside Boundary Condition
    Block af3917251b85a42e_3 Storey 4 Wall 0003_1,    !- Outside Boundary Condition Object
    NoSun,                    !- Sun Exposure
    NoWind,                   !- Wind Exposure
    autocalculate,            !- View Factor to Ground
    autocalculate,            !- Number of Vertices
    687109.598,               !- Vertex 1 Xcoordinate
    4928953.377,              !- Vertex 1 Ycoordinate
    15,                       !- Vertex 1 Zcoordinate
    687109.598,               !- Vertex 2 Xcoordinate
    4928953.377,              !- Vertex 2 Ycoordinate
    12,                       !- Vertex 2 Zcoordinate
    687114.657,               !- Vertex 3 Xcoordinate
    4928961.639,              !- Vertex 3 Ycoordinate
    12,                       !- Vertex 3 Zcoordinate
    687114.657,               !- Vertex 4 Xcoordinate
    4928961.639,              !- Vertex 4 Ycoordinate
    15;                       !- Vertex 4 Zcoordinate

BUILDINGSURFACE:DETAILED,
    Block af3917251b85a42e_3 Storey 4 Wall 0003_1,    !- Name
    wall,                     !- Surface Type
    EU_wall_Construction,     !- Construction Name
    af3917251b85a42e_F4_dwelling_3,    !- Zone Name
    ,                         !- Space Name
    surface,                  !- Outside Boundary Condition
    Block af3917251b85a42e_2 Storey 4 Wall 0001_1,    !- Outside Boundary Condition Object
    NoSun,                    !- Sun Exposure
    NoWind,                   !- Wind Exposure
    autocalculate,            !- View Factor to Ground
    autocalculate,            !- Number of Vertices
    687114.657,               !- Vertex 1 Xcoordinate
    4928961.639,              !- Vertex 1 Ycoordinate
    15,                       !- Vertex 1 Zcoordinate
    687114.657,               !- Vertex 2 Xcoordinate
    4928961.639,              !- Vertex 2 Ycoordinate
    12,                       !- Vertex 2 Zcoordinate
    687109.598,               !- Vertex 3 Xcoordinate
    4928953.377,              !- Vertex 3 Ycoordinate
    12,                       !- Vertex 3 Zcoordinate
    687109.598,               !- Vertex 4 Xcoordinate
    4928953.377,              !- Vertex 4 Ycoordinate
    15;                       !- Vertex 4 Zcoordinate

BUILDINGSURFACE:DETAILED,
    Block af3917251b85a42e_3 Storey 0 Wall 0001_1,    !- Name
    wall,                     !- Surface Type
    EU_wall_Construction,     !- Construction Name
    af3917251b85a42e_F0_dwelling_3,    !- Zone Name
    ,                         !- Space Name
    outdoors,                 !- Outside Boundary Condition
    ,                         !- Outside Boundary Condition Object
    SunExposed,               !- Sun Exposure
    WindExposed,              !- Wind Exposure
    autocalculate,            !- View Factor to Ground
    autocalculate,            !- Number of Vertices
    687106.1700000002,        !- Vertex 1 Xcoordinate
    4928955.476,              !- Vertex 1 Ycoordinate
    3,                        !- Vertex 1 Zcoordinate
    687106.1700000002,        !- Vertex 2 Xcoordinate
    4928955.476,              !- Vertex 2 Ycoordinate
    0,                        !- Vertex 2 Zcoordinate
    687111.2319999995,        !- Vertex 3 Xcoordinate
    4928963.743,              !- Vertex 3 Ycoordinate
    0,                        !- Vertex 3 Zcoordinate
    687111.2319999995,        !- Vertex 4 Xcoordinate
    4928963.743,              !- Vertex 4 Ycoordinate
    3;                        !- Vertex 4 Zcoordinate

BUILDINGSURFACE:DETAILED,
    Block af3917251b85a42e_4 Storey 0 Wall 0003_1,    !- Name
    wall,                     !- Surface Type
    EU_wall_Construction,     !- Construction Name
    af3917251b85a42e_F0_dwelling_4,    !- Zone Name
    ,                         !- Space Name
    outdoors,                 !- Outside Boundary Condition
    ,                         !- Outside Boundary Condition Object
    SunExposed,               !- Sun Exposure
    WindExposed,              !- Wind Exposure
    autocalculate,            !- View Factor to Ground
    autocalculate,            !- Number of Vertices
    687111.2320000002,        !- Vertex 1 Xcoordinate
    4928963.743,              !- Vertex 1 Ycoordinate
    3,                        !- Vertex 1 Zcoordinate
    687111.2320000002,        !- Vertex 2 Xcoordinate
    4928963.743,              !- Vertex 2 Ycoordinate
    0,                        !- Vertex 2 Zcoordinate
    687106.1700000007,        !- Vertex 3 Xcoordinate
    4928955.476,              !- Vertex 3 Ycoordinate
    0,                        !- Vertex 3 Zcoordinate
    687106.1700000007,        !- Vertex 4 Xcoordinate
    4928955.476,              !- Vertex 4 Ycoordinate
    3;                        !- Vertex 4 Zcoordinate

BUILDINGSURFACE:DETAILED,
    Block af3917251b85a42e_3 Storey 0 Ceiling 0001_1,    !- Name
    ceiling,                  !- Surface Type
    EU_floor_Construction,    !- Construction Name
    af3917251b85a42e_F0_dwelling_3,    !- Zone Name
    ,                         !- Space Name
    Surface,                  !- Outside Boundary Condition
    Block af3917251b85a42e_3 Storey 1 Floor 0001_1,    !- Outside Boundary Condition Object
    NoSun,                    !- Sun Exposure
    NoWind,                   !- Wind Exposure
    autocalculate,            !- View Factor to Ground
    autocalculate,            !- Number of Vertices
    687114.6569999997,        !- Vertex 1 Xcoordinate
    4928961.639,              !- Vertex 1 Ycoordinate
    3,                        !- Vertex 1 Zcoordinate
    687109.5979999998,        !- Vertex 2 Xcoordinate
    4928953.377,              !- Vertex 2 Ycoordinate
    3,                        !- Vertex 2 Zcoordinate
    687106.1699999999,        !- Vertex 3 Xcoordinate
    4928955.476,              !- Vertex 3 Ycoordinate
    3,                        !- Vertex 3 Zcoordinate
    687111.2319999998,        !- Vertex 4 Xcoordinate
    4928963.743,              !- Vertex 4 Ycoordinate
    3;                        !- Vertex 4 Zcoordinate

BUILDINGSURFACE:DETAILED,
    Block af3917251b85a42e_3 Storey 1 Floor 0001_1,    !- Name
    floor,                    !- Surface Type
    EU_floor_Construction,    !- Construction Name
    af3917251b85a42e_F1_dwelling_3,    !- Zone Name
    ,                         !- Space Name
    Surface,                  !- Outside Boundary Condition
    Block af3917251b85a42e_3 Storey 0 Ceiling 0001_1,    !- Outside Boundary Condition Object
    NoSun,                    !- Sun Exposure
    NoWind,                   !- Wind Exposure
    autocalculate,            !- View Factor to Ground
    autocalculate,            !- Number of Vertices
    687109.5979999998,        !- Vertex 1 Xcoordinate
    4928953.377,              !- Vertex 1 Ycoordinate
    3,                        !- Vertex 1 Zcoordinate
    687114.6569999997,        !- Vertex 2 Xcoordinate
    4928961.639,              !- Vertex 2 Ycoordinate
    3,                        !- Vertex 2 Zcoordinate
    687111.2319999998,        !- Vertex 3 Xcoordinate
    4928963.743,              !- Vertex 3 Ycoordinate
    3,                        !- Vertex 3 Zcoordinate
    687106.1699999999,        !- Vertex 4 Xcoordinate
    4928955.476,              !- Vertex 4 Ycoordinate
    3;                        !- Vertex 4 Zcoordinate

BUILDINGSURFACE:DETAILED,
    Block af3917251b85a42e_3 Storey 1 Wall 0001_1,    !- Name
    wall,                     !- Surface Type
    EU_wall_Construction,     !- Construction Name
    af3917251b85a42e_F1_dwelling_3,    !- Zone Name
    ,                         !- Space Name
    outdoors,                 !- Outside Boundary Condition
    ,                         !- Outside Boundary Condition Object
    SunExposed,               !- Sun Exposure
    WindExposed,              !- Wind Exposure
    autocalculate,            !- View Factor to Ground
    autocalculate,            !- Number of Vertices
    687106.1700000002,        !- Vertex 1 Xcoordinate
    4928955.476,              !- Vertex 1 Ycoordinate
    6,                        !- Vertex 1 Zcoordinate
    687106.1700000002,        !- Vertex 2 Xcoordinate
    4928955.476,              !- Vertex 2 Ycoordinate
    3,                        !- Vertex 2 Zcoordinate
    687111.2319999995,        !- Vertex 3 Xcoordinate
    4928963.743,              !- Vertex 3 Ycoordinate
    3,                        !- Vertex 3 Zcoordinate
    687111.2319999995,        !- Vertex 4 Xcoordinate
    4928963.743,              !- Vertex 4 Ycoordinate
    6;                        !- Vertex 4 Zcoordinate

BUILDINGSURFACE:DETAILED,
    Block af3917251b85a42e_4 Storey 1 Wall 0003_1,    !- Name
    wall,                     !- Surface Type
    EU_wall_Construction,     !- Construction Name
    af3917251b85a42e_F1_dwelling_4,    !- Zone Name
    ,                         !- Space Name
    outdoors,                 !- Outside Boundary Condition
    ,                         !- Outside Boundary Condition Object
    SunExposed,               !- Sun Exposure
    WindExposed,              !- Wind Exposure
    autocalculate,            !- View Factor to Ground
    autocalculate,            !- Number of Vertices
    687111.2320000002,        !- Vertex 1 Xcoordinate
    4928963.743,              !- Vertex 1 Ycoordinate
    6,                        !- Vertex 1 Zcoordinate
    687111.2320000002,        !- Vertex 2 Xcoordinate
    4928963.743,              !- Vertex 2 Ycoordinate
    3,                        !- Vertex 2 Zcoordinate
    687106.1700000007,        !- Vertex 3 Xcoordinate
    4928955.476,              !- Vertex 3 Ycoordinate
    3,                        !- Vertex 3 Zcoordinate
    687106.1700000007,        !- Vertex 4 Xcoordinate
    4928955.476,              !- Vertex 4 Ycoordinate
    6;                        !- Vertex 4 Zcoordinate

BUILDINGSURFACE:DETAILED,
    Block af3917251b85a42e_3 Storey 1 Ceiling 0001_1,    !- Name
    ceiling,                  !- Surface Type
    EU_floor_Construction,    !- Construction Name
    af3917251b85a42e_F1_dwelling_3,    !- Zone Name
    ,                         !- Space Name
    Surface,                  !- Outside Boundary Condition
    Block af3917251b85a42e_3 Storey 2 Floor 0001_1,    !- Outside Boundary Condition Object
    NoSun,                    !- Sun Exposure
    NoWind,                   !- Wind Exposure
    autocalculate,            !- View Factor to Ground
    autocalculate,            !- Number of Vertices
    687114.6569999997,        !- Vertex 1 Xcoordinate
    4928961.639,              !- Vertex 1 Ycoordinate
    6,                        !- Vertex 1 Zcoordinate
    687109.5979999998,        !- Vertex 2 Xcoordinate
    4928953.377,              !- Vertex 2 Ycoordinate
    6,                        !- Vertex 2 Zcoordinate
    687106.1699999999,        !- Vertex 3 Xcoordinate
    4928955.476,              !- Vertex 3 Ycoordinate
    6,                        !- Vertex 3 Zcoordinate
    687111.2319999998,        !- Vertex 4 Xcoordinate
    4928963.743,              !- Vertex 4 Ycoordinate
    6;                        !- Vertex 4 Zcoordinate

BUILDINGSURFACE:DETAILED,
    Block af3917251b85a42e_3 Storey 2 Floor 0001_1,    !- Name
    floor,                    !- Surface Type
    EU_floor_Construction,    !- Construction Name
    af3917251b85a42e_F2_dwelling_3,    !- Zone Name
    ,                         !- Space Name
    Surface,                  !- Outside Boundary Condition
    Block af3917251b85a42e_3 Storey 1 Ceiling 0001_1,    !- Outside Boundary Condition Object
    NoSun,                    !- Sun Exposure
    NoWind,                   !- Wind Exposure
    autocalculate,            !- View Factor to Ground
    autocalculate,            !- Number of Vertices
    687109.5979999998,        !- Vertex 1 Xcoordinate
    4928953.377,              !- Vertex 1 Ycoordinate
    6,                        !- Vertex 1 Zcoordinate
    687114.6569999997,        !- Vertex 2 Xcoordinate
    4928961.639,              !- Vertex 2 Ycoordinate
    6,                        !- Vertex 2 Zcoordinate
    687111.2319999998,        !- Vertex 3 Xcoordinate
    4928963.743,              !- Vertex 3 Ycoordinate
    6,                        !- Vertex 3 Zcoordinate
    687106.1699999999,        !- Vertex 4 Xcoordinate
    4928955.476,              !- Vertex 4 Ycoordinate
    6;                        !- Vertex 4 Zcoordinate

BUILDINGSURFACE:DETAILED,
    Block af3917251b85a42e_3 Storey 2 Wall 0001_1,    !- Name
    wall,                     !- Surface Type
    EU_wall_Construction,     !- Construction Name
    af3917251b85a42e_F2_dwelling_3,    !- Zone Name
    ,                         !- Space Name
    outdoors,                 !- Outside Boundary Condition
    ,                         !- Outside Boundary Condition Object
    SunExposed,               !- Sun Exposure
    WindExposed,              !- Wind Exposure
    autocalculate,            !- View Factor to Ground
    autocalculate,            !- Number of Vertices
    687106.1700000002,        !- Vertex 1 Xcoordinate
    4928955.476,              !- Vertex 1 Ycoordinate
    9,                        !- Vertex 1 Zcoordinate
    687106.1700000002,        !- Vertex 2 Xcoordinate
    4928955.476,              !- Vertex 2 Ycoordinate
    6,                        !- Vertex 2 Zcoordinate
    687111.2319999995,        !- Vertex 3 Xcoordinate
    4928963.743,              !- Vertex 3 Ycoordinate
    6,                        !- Vertex 3 Zcoordinate
    687111.2319999995,        !- Vertex 4 Xcoordinate
    4928963.743,              !- Vertex 4 Ycoordinate
    9;                        !- Vertex 4 Zcoordinate

BUILDINGSURFACE:DETAILED,
    Block af3917251b85a42e_4 Storey 2 Wall 0003_1,    !- Name
    wall,                     !- Surface Type
    EU_wall_Construction,     !- Construction Name
    af3917251b85a42e_F2_dwelling_4,    !- Zone Name
    ,                         !- Space Name
    outdoors,                 !- Outside Boundary Condition
    ,                         !- Outside Boundary Condition Object
    SunExposed,               !- Sun Exposure
    WindExposed,              !- Wind Exposure
    autocalculate,            !- View Factor to Ground
    autocalculate,            !- Number of Vertices
    687111.2320000002,        !- Vertex 1 Xcoordinate
    4928963.743,              !- Vertex 1 Ycoordinate
    9,                        !- Vertex 1 Zcoordinate
    687111.2320000002,        !- Vertex 2 Xcoordinate
    4928963.743,              !- Vertex 2 Ycoordinate
    6,                        !- Vertex 2 Zcoordinate
    687106.1700000007,        !- Vertex 3 Xcoordinate
    4928955.476,              !- Vertex 3 Ycoordinate
    6,                        !- Vertex 3 Zcoordinate
    687106.1700000007,        !- Vertex 4 Xcoordinate
    4928955.476,              !- Vertex 4 Ycoordinate
    9;                        !- Vertex 4 Zcoordinate

BUILDINGSURFACE:DETAILED,
    Block af3917251b85a42e_3 Storey 2 Ceiling 0001_1,    !- Name
    ceiling,                  !- Surface Type
    EU_floor_Construction,    !- Construction Name
    af3917251b85a42e_F2_dwelling_3,    !- Zone Name
    ,                         !- Space Name
    Surface,                  !- Outside Boundary Condition
    Block af3917251b85a42e_3 Storey 3 Floor 0001_1,    !- Outside Boundary Condition Object
    NoSun,                    !- Sun Exposure
    NoWind,                   !- Wind Exposure
    autocalculate,            !- View Factor to Ground
    autocalculate,            !- Number of Vertices
    687114.6569999997,        !- Vertex 1 Xcoordinate
    4928961.639,              !- Vertex 1 Ycoordinate
    9,                        !- Vertex 1 Zcoordinate
    687109.5979999998,        !- Vertex 2 Xcoordinate
    4928953.377,              !- Vertex 2 Ycoordinate
    9,                        !- Vertex 2 Zcoordinate
    687106.1699999999,        !- Vertex 3 Xcoordinate
    4928955.476,              !- Vertex 3 Ycoordinate
    9,                        !- Vertex 3 Zcoordinate
    687111.2319999998,        !- Vertex 4 Xcoordinate
    4928963.743,              !- Vertex 4 Ycoordinate
    9;                        !- Vertex 4 Zcoordinate

BUILDINGSURFACE:DETAILED,
    Block af3917251b85a42e_3 Storey 3 Floor 0001_1,    !- Name
    floor,                    !- Surface Type
    EU_floor_Construction,    !- Construction Name
    af3917251b85a42e_F3_dwelling_3,    !- Zone Name
    ,                         !- Space Name
    Surface,                  !- Outside Boundary Condition
    Block af3917251b85a42e_3 Storey 2 Ceiling 0001_1,    !- Outside Boundary Condition Object
    NoSun,                    !- Sun Exposure
    NoWind,                   !- Wind Exposure
    autocalculate,            !- View Factor to Ground
    autocalculate,            !- Number of Vertices
    687109.5979999998,        !- Vertex 1 Xcoordinate
    4928953.377,              !- Vertex 1 Ycoordinate
    9,                        !- Vertex 1 Zcoordinate
    687114.6569999997,        !- Vertex 2 Xcoordinate
    4928961.639,              !- Vertex 2 Ycoordinate
    9,                        !- Vertex 2 Zcoordinate
    687111.2319999998,        !- Vertex 3 Xcoordinate
    4928963.743,              !- Vertex 3 Ycoordinate
    9,                        !- Vertex 3 Zcoordinate
    687106.1699999999,        !- Vertex 4 Xcoordinate
    4928955.476,              !- Vertex 4 Ycoordinate
    9;                        !- Vertex 4 Zcoordinate

BUILDINGSURFACE:DETAILED,
    Block af3917251b85a42e_3 Storey 3 Wall 0001_1,    !- Name
    wall,                     !- Surface Type
    EU_wall_Construction,     !- Construction Name
    af3917251b85a42e_F3_dwelling_3,    !- Zone Name
    ,                         !- Space Name
    outdoors,                 !- Outside Boundary Condition
    ,                         !- Outside Boundary Condition Object
    SunExposed,               !- Sun Exposure
    WindExposed,              !- Wind Exposure
    autocalculate,            !- View Factor to Ground
    autocalculate,            !- Number of Vertices
    687106.1700000002,        !- Vertex 1 Xcoordinate
    4928955.476,              !- Vertex 1 Ycoordinate
    12,                       !- Vertex 1 Zcoordinate
    687106.1700000002,        !- Vertex 2 Xcoordinate
    4928955.476,              !- Vertex 2 Ycoordinate
    9,                        !- Vertex 2 Zcoordinate
    687111.2319999995,        !- Vertex 3 Xcoordinate
    4928963.743,              !- Vertex 3 Ycoordinate
    9,                        !- Vertex 3 Zcoordinate
    687111.2319999995,        !- Vertex 4 Xcoordinate
    4928963.743,              !- Vertex 4 Ycoordinate
    12;                       !- Vertex 4 Zcoordinate

BUILDINGSURFACE:DETAILED,
    Block af3917251b85a42e_4 Storey 3 Wall 0003_1,    !- Name
    wall,                     !- Surface Type
    EU_wall_Construction,     !- Construction Name
    af3917251b85a42e_F3_dwelling_4,    !- Zone Name
    ,                         !- Space Name
    outdoors,                 !- Outside Boundary Condition
    ,                         !- Outside Boundary Condition Object
    SunExposed,               !- Sun Exposure
    WindExposed,              !- Wind Exposure
    autocalculate,            !- View Factor to Ground
    autocalculate,            !- Number of Vertices
    687111.2320000002,        !- Vertex 1 Xcoordinate
    4928963.743,              !- Vertex 1 Ycoordinate
    12,                       !- Vertex 1 Zcoordinate
    687111.2320000002,        !- Vertex 2 Xcoordinate
    4928963.743,              !- Vertex 2 Ycoordinate
    9,                        !- Vertex 2 Zcoordinate
    687106.1700000007,        !- Vertex 3 Xcoordinate
    4928955.476,              !- Vertex 3 Ycoordinate
    9,                        !- Vertex 3 Zcoordinate
    687106.1700000007,        !- Vertex 4 Xcoordinate
    4928955.476,              !- Vertex 4 Ycoordinate
    12;                       !- Vertex 4 Zcoordinate

BUILDINGSURFACE:DETAILED,
    Block af3917251b85a42e_3 Storey 3 Ceiling 0001_1,    !- Name
    ceiling,                  !- Surface Type
    EU_floor_Construction,    !- Construction Name
    af3917251b85a42e_F3_dwelling_3,    !- Zone Name
    ,                         !- Space Name
    Surface,                  !- Outside Boundary Condition
    Block af3917251b85a42e_3 Storey 4 Floor 0001_1,    !- Outside Boundary Condition Object
    NoSun,                    !- Sun Exposure
    NoWind,                   !- Wind Exposure
    autocalculate,            !- View Factor to Ground
    autocalculate,            !- Number of Vertices
    687114.6569999997,        !- Vertex 1 Xcoordinate
    4928961.639,              !- Vertex 1 Ycoordinate
    12,                       !- Vertex 1 Zcoordinate
    687109.5979999998,        !- Vertex 2 Xcoordinate
    4928953.377,              !- Vertex 2 Ycoordinate
    12,                       !- Vertex 2 Zcoordinate
    687106.1699999999,        !- Vertex 3 Xcoordinate
    4928955.476,              !- Vertex 3 Ycoordinate
    12,                       !- Vertex 3 Zcoordinate
    687111.2319999998,        !- Vertex 4 Xcoordinate
    4928963.743,              !- Vertex 4 Ycoordinate
    12;                       !- Vertex 4 Zcoordinate

BUILDINGSURFACE:DETAILED,
    Block af3917251b85a42e_3 Storey 4 Floor 0001_1,    !- Name
    floor,                    !- Surface Type
    EU_floor_Construction,    !- Construction Name
    af3917251b85a42e_F4_dwelling_3,    !- Zone Name
    ,                         !- Space Name
    Surface,                  !- Outside Boundary Condition
    Block af3917251b85a42e_3 Storey 3 Ceiling 0001_1,    !- Outside Boundary Condition Object
    NoSun,                    !- Sun Exposure
    NoWind,                   !- Wind Exposure
    autocalculate,            !- View Factor to Ground
    autocalculate,            !- Number of Vertices
    687109.5979999998,        !- Vertex 1 Xcoordinate
    4928953.377,              !- Vertex 1 Ycoordinate
    12,                       !- Vertex 1 Zcoordinate
    687114.6569999997,        !- Vertex 2 Xcoordinate
    4928961.639,              !- Vertex 2 Ycoordinate
    12,                       !- Vertex 2 Zcoordinate
    687111.2319999998,        !- Vertex 3 Xcoordinate
    4928963.743,              !- Vertex 3 Ycoordinate
    12,                       !- Vertex 3 Zcoordinate
    687106.1699999999,        !- Vertex 4 Xcoordinate
    4928955.476,              !- Vertex 4 Ycoordinate
    12;                       !- Vertex 4 Zcoordinate

BUILDINGSURFACE:DETAILED,
    Block af3917251b85a42e_3 Storey 4 Wall 0001_1,    !- Name
    wall,                     !- Surface Type
    EU_wall_Construction,     !- Construction Name
    af3917251b85a42e_F4_dwelling_3,    !- Zone Name
    ,                         !- Space Name
    outdoors,                 !- Outside Boundary Condition
    ,                         !- Outside Boundary Condition Object
    SunExposed,               !- Sun Exposure
    WindExposed,              !- Wind Exposure
    autocalculate,            !- View Factor to Ground
    autocalculate,            !- Number of Vertices
    687106.1700000002,        !- Vertex 1 Xcoordinate
    4928955.476,              !- Vertex 1 Ycoordinate
    15,                       !- Vertex 1 Zcoordinate
    687106.1700000002,        !- Vertex 2 Xcoordinate
    4928955.476,              !- Vertex 2 Ycoordinate
    12,                       !- Vertex 2 Zcoordinate
    687111.2319999995,        !- Vertex 3 Xcoordinate
    4928963.743,              !- Vertex 3 Ycoordinate
    12,                       !- Vertex 3 Zcoordinate
    687111.2319999995,        !- Vertex 4 Xcoordinate
    4928963.743,              !- Vertex 4 Ycoordinate
    15;                       !- Vertex 4 Zcoordinate

BUILDINGSURFACE:DETAILED,
    Block af3917251b85a42e_4 Storey 4 Wall 0003_1,    !- Name
    wall,                     !- Surface Type
    EU_wall_Construction,     !- Construction Name
    af3917251b85a42e_F4_dwelling_4,    !- Zone Name
    ,                         !- Space Name
    outdoors,                 !- Outside Boundary Condition
    ,                         !- Outside Boundary Condition Object
    SunExposed,               !- Sun Exposure
    WindExposed,              !- Wind Exposure
    autocalculate,            !- View Factor to Ground
    autocalculate,            !- Number of Vertices
    687111.2320000002,        !- Vertex 1 Xcoordinate
    4928963.743,              !- Vertex 1 Ycoordinate
    15,                       !- Vertex 1 Zcoordinate
    687111.2320000002,        !- Vertex 2 Xcoordinate
    4928963.743,              !- Vertex 2 Ycoordinate
    12,                       !- Vertex 2 Zcoordinate
    687106.1700000007,        !- Vertex 3 Xcoordinate
    4928955.476,              !- Vertex 3 Ycoordinate
    12,                       !- Vertex 3 Zcoordinate
    687106.1700000007,        !- Vertex 4 Xcoordinate
    4928955.476,              !- Vertex 4 Ycoordinate
    15;                       !- Vertex 4 Zcoordinate

BUILDINGSURFACE:DETAILED,
    Block af3917251b85a42e_4 Storey 0 Wall 0001_1,    !- Name
    wall,                     !- Surface Type
    EU_wall_Construction,     !- Construction Name
    af3917251b85a42e_F0_dwelling_4,    !- Zone Name
    ,                         !- Space Name
    surface,                  !- Outside Boundary Condition
    Block af3917251b85a42e_5 Storey 0 Wall 0003_1,    !- Outside Boundary Condition Object
    NoSun,                    !- Sun Exposure
    NoWind,                   !- Wind Exposure
    autocalculate,            !- View Factor to Ground
    autocalculate,            !- Number of Vertices
    687102.739,               !- Vertex 1 Xcoordinate
    4928957.576,              !- Vertex 1 Ycoordinate
    3,                        !- Vertex 1 Zcoordinate
    687102.739,               !- Vertex 2 Xcoordinate
    4928957.576,              !- Vertex 2 Ycoordinate
    0,                        !- Vertex 2 Zcoordinate
    687107.8040000001,        !- Vertex 3 Xcoordinate
    4928965.849,              !- Vertex 3 Ycoordinate
    0,                        !- Vertex 3 Zcoordinate
    687107.8040000001,        !- Vertex 4 Xcoordinate
    4928965.849,              !- Vertex 4 Ycoordinate
    3;                        !- Vertex 4 Zcoordinate

BUILDINGSURFACE:DETAILED,
    Block af3917251b85a42e_5 Storey 0 Wall 0003_1,    !- Name
    wall,                     !- Surface Type
    EU_wall_Construction,     !- Construction Name
    af3917251b85a42e_F0_dwelling_5,    !- Zone Name
    ,                         !- Space Name
    surface,                  !- Outside Boundary Condition
    Block af3917251b85a42e_4 Storey 0 Wall 0001_1,    !- Outside Boundary Condition Object
    NoSun,                    !- Sun Exposure
    NoWind,                   !- Wind Exposure
    autocalculate,            !- View Factor to Ground
    autocalculate,            !- Number of Vertices
    687107.8040000001,        !- Vertex 1 Xcoordinate
    4928965.849,              !- Vertex 1 Ycoordinate
    3,                        !- Vertex 1 Zcoordinate
    687107.8040000001,        !- Vertex 2 Xcoordinate
    4928965.849,              !- Vertex 2 Ycoordinate
    0,                        !- Vertex 2 Zcoordinate
    687102.739,               !- Vertex 3 Xcoordinate
    4928957.576,              !- Vertex 3 Ycoordinate
    0,                        !- Vertex 3 Zcoordinate
    687102.739,               !- Vertex 4 Xcoordinate
    4928957.576,              !- Vertex 4 Ycoordinate
    3;                        !- Vertex 4 Zcoordinate

BUILDINGSURFACE:DETAILED,
    Block af3917251b85a42e_4 Storey 0 Ceiling 0001_1,    !- Name
    ceiling,                  !- Surface Type
    EU_floor_Construction,    !- Construction Name
    af3917251b85a42e_F0_dwelling_4,    !- Zone Name
    ,                         !- Space Name
    Surface,                  !- Outside Boundary Condition
    Block af3917251b85a42e_4 Storey 1 Floor 0001_1,    !- Outside Boundary Condition Object
    NoSun,                    !- Sun Exposure
    NoWind,                   !- Wind Exposure
    autocalculate,            !- View Factor to Ground
    autocalculate,            !- Number of Vertices
    687111.2319999998,        !- Vertex 1 Xcoordinate
    4928963.743,              !- Vertex 1 Ycoordinate
    3,                        !- Vertex 1 Zcoordinate
    687106.1699999999,        !- Vertex 2 Xcoordinate
    4928955.476,              !- Vertex 2 Ycoordinate
    3,                        !- Vertex 2 Zcoordinate
    687102.7389999996,        !- Vertex 3 Xcoordinate
    4928957.576,              !- Vertex 3 Ycoordinate
    3,                        !- Vertex 3 Zcoordinate
    687107.804,               !- Vertex 4 Xcoordinate
    4928965.849,              !- Vertex 4 Ycoordinate
    3;                        !- Vertex 4 Zcoordinate

BUILDINGSURFACE:DETAILED,
    Block af3917251b85a42e_4 Storey 1 Floor 0001_1,    !- Name
    floor,                    !- Surface Type
    EU_floor_Construction,    !- Construction Name
    af3917251b85a42e_F1_dwelling_4,    !- Zone Name
    ,                         !- Space Name
    Surface,                  !- Outside Boundary Condition
    Block af3917251b85a42e_4 Storey 0 Ceiling 0001_1,    !- Outside Boundary Condition Object
    NoSun,                    !- Sun Exposure
    NoWind,                   !- Wind Exposure
    autocalculate,            !- View Factor to Ground
    autocalculate,            !- Number of Vertices
    687106.1699999999,        !- Vertex 1 Xcoordinate
    4928955.476,              !- Vertex 1 Ycoordinate
    3,                        !- Vertex 1 Zcoordinate
    687111.2319999998,        !- Vertex 2 Xcoordinate
    4928963.743,              !- Vertex 2 Ycoordinate
    3,                        !- Vertex 2 Zcoordinate
    687107.804,               !- Vertex 3 Xcoordinate
    4928965.849,              !- Vertex 3 Ycoordinate
    3,                        !- Vertex 3 Zcoordinate
    687102.7389999996,        !- Vertex 4 Xcoordinate
    4928957.576,              !- Vertex 4 Ycoordinate
    3;                        !- Vertex 4 Zcoordinate

BUILDINGSURFACE:DETAILED,
    Block af3917251b85a42e_4 Storey 1 Wall 0001_1,    !- Name
    wall,                     !- Surface Type
    EU_wall_Construction,     !- Construction Name
    af3917251b85a42e_F1_dwelling_4,    !- Zone Name
    ,                         !- Space Name
    surface,                  !- Outside Boundary Condition
    Block af3917251b85a42e_5 Storey 1 Wall 0003_1,    !- Outside Boundary Condition Object
    NoSun,                    !- Sun Exposure
    NoWind,                   !- Wind Exposure
    autocalculate,            !- View Factor to Ground
    autocalculate,            !- Number of Vertices
    687102.739,               !- Vertex 1 Xcoordinate
    4928957.576,              !- Vertex 1 Ycoordinate
    6,                        !- Vertex 1 Zcoordinate
    687102.739,               !- Vertex 2 Xcoordinate
    4928957.576,              !- Vertex 2 Ycoordinate
    3,                        !- Vertex 2 Zcoordinate
    687107.8040000001,        !- Vertex 3 Xcoordinate
    4928965.849,              !- Vertex 3 Ycoordinate
    3,                        !- Vertex 3 Zcoordinate
    687107.8040000001,        !- Vertex 4 Xcoordinate
    4928965.849,              !- Vertex 4 Ycoordinate
    6;                        !- Vertex 4 Zcoordinate

BUILDINGSURFACE:DETAILED,
    Block af3917251b85a42e_5 Storey 1 Wall 0003_1,    !- Name
    wall,                     !- Surface Type
    EU_wall_Construction,     !- Construction Name
    af3917251b85a42e_F1_dwelling_5,    !- Zone Name
    ,                         !- Space Name
    surface,                  !- Outside Boundary Condition
    Block af3917251b85a42e_4 Storey 1 Wall 0001_1,    !- Outside Boundary Condition Object
    NoSun,                    !- Sun Exposure
    NoWind,                   !- Wind Exposure
    autocalculate,            !- View Factor to Ground
    autocalculate,            !- Number of Vertices
    687107.8040000001,        !- Vertex 1 Xcoordinate
    4928965.849,              !- Vertex 1 Ycoordinate
    6,                        !- Vertex 1 Zcoordinate
    687107.8040000001,        !- Vertex 2 Xcoordinate
    4928965.849,              !- Vertex 2 Ycoordinate
    3,                        !- Vertex 2 Zcoordinate
    687102.739,               !- Vertex 3 Xcoordinate
    4928957.576,              !- Vertex 3 Ycoordinate
    3,                        !- Vertex 3 Zcoordinate
    687102.739,               !- Vertex 4 Xcoordinate
    4928957.576,              !- Vertex 4 Ycoordinate
    6;                        !- Vertex 4 Zcoordinate

BUILDINGSURFACE:DETAILED,
    Block af3917251b85a42e_4 Storey 1 Ceiling 0001_1,    !- Name
    ceiling,                  !- Surface Type
    EU_floor_Construction,    !- Construction Name
    af3917251b85a42e_F1_dwelling_4,    !- Zone Name
    ,                         !- Space Name
    Surface,                  !- Outside Boundary Condition
    Block af3917251b85a42e_4 Storey 2 Floor 0001_1,    !- Outside Boundary Condition Object
    NoSun,                    !- Sun Exposure
    NoWind,                   !- Wind Exposure
    autocalculate,            !- View Factor to Ground
    autocalculate,            !- Number of Vertices
    687111.2319999998,        !- Vertex 1 Xcoordinate
    4928963.743,              !- Vertex 1 Ycoordinate
    6,                        !- Vertex 1 Zcoordinate
    687106.1699999999,        !- Vertex 2 Xcoordinate
    4928955.476,              !- Vertex 2 Ycoordinate
    6,                        !- Vertex 2 Zcoordinate
    687102.7389999996,        !- Vertex 3 Xcoordinate
    4928957.576,              !- Vertex 3 Ycoordinate
    6,                        !- Vertex 3 Zcoordinate
    687107.804,               !- Vertex 4 Xcoordinate
    4928965.849,              !- Vertex 4 Ycoordinate
    6;                        !- Vertex 4 Zcoordinate

BUILDINGSURFACE:DETAILED,
    Block af3917251b85a42e_4 Storey 2 Floor 0001_1,    !- Name
    floor,                    !- Surface Type
    EU_floor_Construction,    !- Construction Name
    af3917251b85a42e_F2_dwelling_4,    !- Zone Name
    ,                         !- Space Name
    Surface,                  !- Outside Boundary Condition
    Block af3917251b85a42e_4 Storey 1 Ceiling 0001_1,    !- Outside Boundary Condition Object
    NoSun,                    !- Sun Exposure
    NoWind,                   !- Wind Exposure
    autocalculate,            !- View Factor to Ground
    autocalculate,            !- Number of Vertices
    687106.1699999999,        !- Vertex 1 Xcoordinate
    4928955.476,              !- Vertex 1 Ycoordinate
    6,                        !- Vertex 1 Zcoordinate
    687111.2319999998,        !- Vertex 2 Xcoordinate
    4928963.743,              !- Vertex 2 Ycoordinate
    6,                        !- Vertex 2 Zcoordinate
    687107.804,               !- Vertex 3 Xcoordinate
    4928965.849,              !- Vertex 3 Ycoordinate
    6,                        !- Vertex 3 Zcoordinate
    687102.7389999996,        !- Vertex 4 Xcoordinate
    4928957.576,              !- Vertex 4 Ycoordinate
    6;                        !- Vertex 4 Zcoordinate

BUILDINGSURFACE:DETAILED,
    Block af3917251b85a42e_4 Storey 2 Wall 0001_1,    !- Name
    wall,                     !- Surface Type
    EU_wall_Construction,     !- Construction Name
    af3917251b85a42e_F2_dwelling_4,    !- Zone Name
    ,                         !- Space Name
    surface,                  !- Outside Boundary Condition
    Block af3917251b85a42e_5 Storey 2 Wall 0003_1,    !- Outside Boundary Condition Object
    NoSun,                    !- Sun Exposure
    NoWind,                   !- Wind Exposure
    autocalculate,            !- View Factor to Ground
    autocalculate,            !- Number of Vertices
    687102.739,               !- Vertex 1 Xcoordinate
    4928957.576,              !- Vertex 1 Ycoordinate
    9,                        !- Vertex 1 Zcoordinate
    687102.739,               !- Vertex 2 Xcoordinate
    4928957.576,              !- Vertex 2 Ycoordinate
    6,                        !- Vertex 2 Zcoordinate
    687107.8040000001,        !- Vertex 3 Xcoordinate
    4928965.849,              !- Vertex 3 Ycoordinate
    6,                        !- Vertex 3 Zcoordinate
    687107.8040000001,        !- Vertex 4 Xcoordinate
    4928965.849,              !- Vertex 4 Ycoordinate
    9;                        !- Vertex 4 Zcoordinate

BUILDINGSURFACE:DETAILED,
    Block af3917251b85a42e_5 Storey 2 Wall 0003_1,    !- Name
    wall,                     !- Surface Type
    EU_wall_Construction,     !- Construction Name
    af3917251b85a42e_F2_dwelling_5,    !- Zone Name
    ,                         !- Space Name
    surface,                  !- Outside Boundary Condition
    Block af3917251b85a42e_4 Storey 2 Wall 0001_1,    !- Outside Boundary Condition Object
    NoSun,                    !- Sun Exposure
    NoWind,                   !- Wind Exposure
    autocalculate,            !- View Factor to Ground
    autocalculate,            !- Number of Vertices
    687107.8040000001,        !- Vertex 1 Xcoordinate
    4928965.849,              !- Vertex 1 Ycoordinate
    9,                        !- Vertex 1 Zcoordinate
    687107.8040000001,        !- Vertex 2 Xcoordinate
    4928965.849,              !- Vertex 2 Ycoordinate
    6,                        !- Vertex 2 Zcoordinate
    687102.739,               !- Vertex 3 Xcoordinate
    4928957.576,              !- Vertex 3 Ycoordinate
    6,                        !- Vertex 3 Zcoordinate
    687102.739,               !- Vertex 4 Xcoordinate
    4928957.576,              !- Vertex 4 Ycoordinate
    9;                        !- Vertex 4 Zcoordinate

BUILDINGSURFACE:DETAILED,
    Block af3917251b85a42e_4 Storey 2 Ceiling 0001_1,    !- Name
    ceiling,                  !- Surface Type
    EU_floor_Construction,    !- Construction Name
    af3917251b85a42e_F2_dwelling_4,    !- Zone Name
    ,                         !- Space Name
    Surface,                  !- Outside Boundary Condition
    Block af3917251b85a42e_4 Storey 3 Floor 0001_1,    !- Outside Boundary Condition Object
    NoSun,                    !- Sun Exposure
    NoWind,                   !- Wind Exposure
    autocalculate,            !- View Factor to Ground
    autocalculate,            !- Number of Vertices
    687111.2319999998,        !- Vertex 1 Xcoordinate
    4928963.743,              !- Vertex 1 Ycoordinate
    9,                        !- Vertex 1 Zcoordinate
    687106.1699999999,        !- Vertex 2 Xcoordinate
    4928955.476,              !- Vertex 2 Ycoordinate
    9,                        !- Vertex 2 Zcoordinate
    687102.7389999996,        !- Vertex 3 Xcoordinate
    4928957.576,              !- Vertex 3 Ycoordinate
    9,                        !- Vertex 3 Zcoordinate
    687107.804,               !- Vertex 4 Xcoordinate
    4928965.849,              !- Vertex 4 Ycoordinate
    9;                        !- Vertex 4 Zcoordinate

BUILDINGSURFACE:DETAILED,
    Block af3917251b85a42e_4 Storey 3 Floor 0001_1,    !- Name
    floor,                    !- Surface Type
    EU_floor_Construction,    !- Construction Name
    af3917251b85a42e_F3_dwelling_4,    !- Zone Name
    ,                         !- Space Name
    Surface,                  !- Outside Boundary Condition
    Block af3917251b85a42e_4 Storey 2 Ceiling 0001_1,    !- Outside Boundary Condition Object
    NoSun,                    !- Sun Exposure
    NoWind,                   !- Wind Exposure
    autocalculate,            !- View Factor to Ground
    autocalculate,            !- Number of Vertices
    687106.1699999999,        !- Vertex 1 Xcoordinate
    4928955.476,              !- Vertex 1 Ycoordinate
    9,                        !- Vertex 1 Zcoordinate
    687111.2319999998,        !- Vertex 2 Xcoordinate
    4928963.743,              !- Vertex 2 Ycoordinate
    9,                        !- Vertex 2 Zcoordinate
    687107.804,               !- Vertex 3 Xcoordinate
    4928965.849,              !- Vertex 3 Ycoordinate
    9,                        !- Vertex 3 Zcoordinate
    687102.7389999996,        !- Vertex 4 Xcoordinate
    4928957.576,              !- Vertex 4 Ycoordinate
    9;                        !- Vertex 4 Zcoordinate

BUILDINGSURFACE:DETAILED,
    Block af3917251b85a42e_4 Storey 3 Wall 0001_1,    !- Name
    wall,                     !- Surface Type
    EU_wall_Construction,     !- Construction Name
    af3917251b85a42e_F3_dwelling_4,    !- Zone Name
    ,                         !- Space Name
    surface,                  !- Outside Boundary Condition
    Block af3917251b85a42e_5 Storey 3 Wall 0003_1,    !- Outside Boundary Condition Object
    NoSun,                    !- Sun Exposure
    NoWind,                   !- Wind Exposure
    autocalculate,            !- View Factor to Ground
    autocalculate,            !- Number of Vertices
    687102.739,               !- Vertex 1 Xcoordinate
    4928957.576,              !- Vertex 1 Ycoordinate
    12,                       !- Vertex 1 Zcoordinate
    687102.739,               !- Vertex 2 Xcoordinate
    4928957.576,              !- Vertex 2 Ycoordinate
    9,                        !- Vertex 2 Zcoordinate
    687107.8040000001,        !- Vertex 3 Xcoordinate
    4928965.849,              !- Vertex 3 Ycoordinate
    9,                        !- Vertex 3 Zcoordinate
    687107.8040000001,        !- Vertex 4 Xcoordinate
    4928965.849,              !- Vertex 4 Ycoordinate
    12;                       !- Vertex 4 Zcoordinate

BUILDINGSURFACE:DETAILED,
    Block af3917251b85a42e_5 Storey 3 Wall 0003_1,    !- Name
    wall,                     !- Surface Type
    EU_wall_Construction,     !- Construction Name
    af3917251b85a42e_F3_dwelling_5,    !- Zone Name
    ,                         !- Space Name
    surface,                  !- Outside Boundary Condition
    Block af3917251b85a42e_4 Storey 3 Wall 0001_1,    !- Outside Boundary Condition Object
    NoSun,                    !- Sun Exposure
    NoWind,                   !- Wind Exposure
    autocalculate,            !- View Factor to Ground
    autocalculate,            !- Number of Vertices
    687107.8040000001,        !- Vertex 1 Xcoordinate
    4928965.849,              !- Vertex 1 Ycoordinate
    12,                       !- Vertex 1 Zcoordinate
    687107.8040000001,        !- Vertex 2 Xcoordinate
    4928965.849,              !- Vertex 2 Ycoordinate
    9,                        !- Vertex 2 Zcoordinate
    687102.739,               !- Vertex 3 Xcoordinate
    4928957.576,              !- Vertex 3 Ycoordinate
    9,                        !- Vertex 3 Zcoordinate
    687102.739,               !- Vertex 4 Xcoordinate
    4928957.576,              !- Vertex 4 Ycoordinate
    12;                       !- Vertex 4 Zcoordinate

BUILDINGSURFACE:DETAILED,
    Block af3917251b85a42e_4 Storey 3 Ceiling 0001_1,    !- Name
    ceiling,                  !- Surface Type
    EU_floor_Construction,    !- Construction Name
    af3917251b85a42e_F3_dwelling_4,    !- Zone Name
    ,                         !- Space Name
    Surface,                  !- Outside Boundary Condition
    Block af3917251b85a42e_4 Storey 4 Floor 0001_1,    !- Outside Boundary Condition Object
    NoSun,                    !- Sun Exposure
    NoWind,                   !- Wind Exposure
    autocalculate,            !- View Factor to Ground
    autocalculate,            !- Number of Vertices
    687111.2319999998,        !- Vertex 1 Xcoordinate
    4928963.743,              !- Vertex 1 Ycoordinate
    12,                       !- Vertex 1 Zcoordinate
    687106.1699999999,        !- Vertex 2 Xcoordinate
    4928955.476,              !- Vertex 2 Ycoordinate
    12,                       !- Vertex 2 Zcoordinate
    687102.7389999996,        !- Vertex 3 Xcoordinate
    4928957.576,              !- Vertex 3 Ycoordinate
    12,                       !- Vertex 3 Zcoordinate
    687107.804,               !- Vertex 4 Xcoordinate
    4928965.849,              !- Vertex 4 Ycoordinate
    12;                       !- Vertex 4 Zcoordinate

BUILDINGSURFACE:DETAILED,
    Block af3917251b85a42e_4 Storey 4 Floor 0001_1,    !- Name
    floor,                    !- Surface Type
    EU_floor_Construction,    !- Construction Name
    af3917251b85a42e_F4_dwelling_4,    !- Zone Name
    ,                         !- Space Name
    Surface,                  !- Outside Boundary Condition
    Block af3917251b85a42e_4 Storey 3 Ceiling 0001_1,    !- Outside Boundary Condition Object
    NoSun,                    !- Sun Exposure
    NoWind,                   !- Wind Exposure
    autocalculate,            !- View Factor to Ground
    autocalculate,            !- Number of Vertices
    687106.1699999999,        !- Vertex 1 Xcoordinate
    4928955.476,              !- Vertex 1 Ycoordinate
    12,                       !- Vertex 1 Zcoordinate
    687111.2319999998,        !- Vertex 2 Xcoordinate
    4928963.743,              !- Vertex 2 Ycoordinate
    12,                       !- Vertex 2 Zcoordinate
    687107.804,               !- Vertex 3 Xcoordinate
    4928965.849,              !- Vertex 3 Ycoordinate
    12,                       !- Vertex 3 Zcoordinate
    687102.7389999996,        !- Vertex 4 Xcoordinate
    4928957.576,              !- Vertex 4 Ycoordinate
    12;                       !- Vertex 4 Zcoordinate

BUILDINGSURFACE:DETAILED,
    Block af3917251b85a42e_4 Storey 4 Wall 0001_1,    !- Name
    wall,                     !- Surface Type
    EU_wall_Construction,     !- Construction Name
    af3917251b85a42e_F4_dwelling_4,    !- Zone Name
    ,                         !- Space Name
    surface,                  !- Outside Boundary Condition
    Block af3917251b85a42e_5 Storey 4 Wall 0003_1,    !- Outside Boundary Condition Object
    NoSun,                    !- Sun Exposure
    NoWind,                   !- Wind Exposure
    autocalculate,            !- View Factor to Ground
    autocalculate,            !- Number of Vertices
    687102.739,               !- Vertex 1 Xcoordinate
    4928957.576,              !- Vertex 1 Ycoordinate
    15,                       !- Vertex 1 Zcoordinate
    687102.739,               !- Vertex 2 Xcoordinate
    4928957.576,              !- Vertex 2 Ycoordinate
    12,                       !- Vertex 2 Zcoordinate
    687107.8040000001,        !- Vertex 3 Xcoordinate
    4928965.849,              !- Vertex 3 Ycoordinate
    12,                       !- Vertex 3 Zcoordinate
    687107.8040000001,        !- Vertex 4 Xcoordinate
    4928965.849,              !- Vertex 4 Ycoordinate
    15;                       !- Vertex 4 Zcoordinate

BUILDINGSURFACE:DETAILED,
    Block af3917251b85a42e_5 Storey 4 Wall 0003_1,    !- Name
    wall,                     !- Surface Type
    EU_wall_Construction,     !- Construction Name
    af3917251b85a42e_F4_dwelling_5,    !- Zone Name
    ,                         !- Space Name
    surface,                  !- Outside Boundary Condition
    Block af3917251b85a42e_4 Storey 4 Wall 0001_1,    !- Outside Boundary Condition Object
    NoSun,                    !- Sun Exposure
    NoWind,                   !- Wind Exposure
    autocalculate,            !- View Factor to Ground
    autocalculate,            !- Number of Vertices
    687107.8040000001,        !- Vertex 1 Xcoordinate
    4928965.849,              !- Vertex 1 Ycoordinate
    15,                       !- Vertex 1 Zcoordinate
    687107.8040000001,        !- Vertex 2 Xcoordinate
    4928965.849,              !- Vertex 2 Ycoordinate
    12,                       !- Vertex 2 Zcoordinate
    687102.739,               !- Vertex 3 Xcoordinate
    4928957.576,              !- Vertex 3 Ycoordinate
    12,                       !- Vertex 3 Zcoordinate
    687102.739,               !- Vertex 4 Xcoordinate
    4928957.576,              !- Vertex 4 Ycoordinate
    15;                       !- Vertex 4 Zcoordinate

BUILDINGSURFACE:DETAILED,
    Block af3917251b85a42e_5 Storey 0 Wall 0001_1,    !- Name
    wall,                     !- Surface Type
    EU_wall_Construction,     !- Construction Name
    af3917251b85a42e_F0_dwelling_5,    !- Zone Name
    ,                         !- Space Name
    outdoors,                 !- Outside Boundary Condition
    ,                         !- Outside Boundary Condition Object
    SunExposed,               !- Sun Exposure
    WindExposed,              !- Wind Exposure
    autocalculate,            !- View Factor to Ground
    autocalculate,            !- Number of Vertices
    687099.2870000001,        !- Vertex 1 Xcoordinate
    4928959.69,               !- Vertex 1 Ycoordinate
    3,                        !- Vertex 1 Zcoordinate
    687099.2870000001,        !- Vertex 2 Xcoordinate
    4928959.69,               !- Vertex 2 Ycoordinate
    0,                        !- Vertex 2 Zcoordinate
    687104.3550000003,        !- Vertex 3 Xcoordinate
    4928967.968,              !- Vertex 3 Ycoordinate
    0,                        !- Vertex 3 Zcoordinate
    687104.3550000003,        !- Vertex 4 Xcoordinate
    4928967.968,              !- Vertex 4 Ycoordinate
    3;                        !- Vertex 4 Zcoordinate

BUILDINGSURFACE:DETAILED,
    Block af3917251b85a42e_6 Storey 0 Wall 0003_1,    !- Name
    wall,                     !- Surface Type
    EU_wall_Construction,     !- Construction Name
    af3917251b85a42e_F0_dwelling_6,    !- Zone Name
    ,                         !- Space Name
    outdoors,                 !- Outside Boundary Condition
    ,                         !- Outside Boundary Condition Object
    SunExposed,               !- Sun Exposure
    WindExposed,              !- Wind Exposure
    autocalculate,            !- View Factor to Ground
    autocalculate,            !- Number of Vertices
    687104.3550000001,        !- Vertex 1 Xcoordinate
    4928967.968,              !- Vertex 1 Ycoordinate
    3,                        !- Vertex 1 Zcoordinate
    687104.3550000001,        !- Vertex 2 Xcoordinate
    4928967.968,              !- Vertex 2 Ycoordinate
    0,                        !- Vertex 2 Zcoordinate
    687099.2869999999,        !- Vertex 3 Xcoordinate
    4928959.69,               !- Vertex 3 Ycoordinate
    0,                        !- Vertex 3 Zcoordinate
    687099.2869999999,        !- Vertex 4 Xcoordinate
    4928959.69,               !- Vertex 4 Ycoordinate
    3;                        !- Vertex 4 Zcoordinate

BUILDINGSURFACE:DETAILED,
    Block af3917251b85a42e_5 Storey 0 Ceiling 0001_1,    !- Name
    ceiling,                  !- Surface Type
    EU_floor_Construction,    !- Construction Name
    af3917251b85a42e_F0_dwelling_5,    !- Zone Name
    ,                         !- Space Name
    Surface,                  !- Outside Boundary Condition
    Block af3917251b85a42e_5 Storey 1 Floor 0001_1,    !- Outside Boundary Condition Object
    NoSun,                    !- Sun Exposure
    NoWind,                   !- Wind Exposure
    autocalculate,            !- View Factor to Ground
    autocalculate,            !- Number of Vertices
    687107.804,               !- Vertex 1 Xcoordinate
    4928965.849,              !- Vertex 1 Ycoordinate
    3,                        !- Vertex 1 Zcoordinate
    687102.7389999996,        !- Vertex 2 Xcoordinate
    4928957.576,              !- Vertex 2 Ycoordinate
    3,                        !- Vertex 2 Zcoordinate
    687099.287,               !- Vertex 3 Xcoordinate
    4928959.69,               !- Vertex 3 Ycoordinate
    3,                        !- Vertex 3 Zcoordinate
    687104.355,               !- Vertex 4 Xcoordinate
    4928967.968,              !- Vertex 4 Ycoordinate
    3;                        !- Vertex 4 Zcoordinate

BUILDINGSURFACE:DETAILED,
    Block af3917251b85a42e_5 Storey 1 Floor 0001_1,    !- Name
    floor,                    !- Surface Type
    EU_floor_Construction,    !- Construction Name
    af3917251b85a42e_F1_dwelling_5,    !- Zone Name
    ,                         !- Space Name
    Surface,                  !- Outside Boundary Condition
    Block af3917251b85a42e_5 Storey 0 Ceiling 0001_1,    !- Outside Boundary Condition Object
    NoSun,                    !- Sun Exposure
    NoWind,                   !- Wind Exposure
    autocalculate,            !- View Factor to Ground
    autocalculate,            !- Number of Vertices
    687102.7389999996,        !- Vertex 1 Xcoordinate
    4928957.576,              !- Vertex 1 Ycoordinate
    3,                        !- Vertex 1 Zcoordinate
    687107.804,               !- Vertex 2 Xcoordinate
    4928965.849,              !- Vertex 2 Ycoordinate
    3,                        !- Vertex 2 Zcoordinate
    687104.355,               !- Vertex 3 Xcoordinate
    4928967.968,              !- Vertex 3 Ycoordinate
    3,                        !- Vertex 3 Zcoordinate
    687099.287,               !- Vertex 4 Xcoordinate
    4928959.69,               !- Vertex 4 Ycoordinate
    3;                        !- Vertex 4 Zcoordinate

BUILDINGSURFACE:DETAILED,
    Block af3917251b85a42e_5 Storey 1 Wall 0001_1,    !- Name
    wall,                     !- Surface Type
    EU_wall_Construction,     !- Construction Name
    af3917251b85a42e_F1_dwelling_5,    !- Zone Name
    ,                         !- Space Name
    outdoors,                 !- Outside Boundary Condition
    ,                         !- Outside Boundary Condition Object
    SunExposed,               !- Sun Exposure
    WindExposed,              !- Wind Exposure
    autocalculate,            !- View Factor to Ground
    autocalculate,            !- Number of Vertices
    687099.2870000001,        !- Vertex 1 Xcoordinate
    4928959.69,               !- Vertex 1 Ycoordinate
    6,                        !- Vertex 1 Zcoordinate
    687099.2870000001,        !- Vertex 2 Xcoordinate
    4928959.69,               !- Vertex 2 Ycoordinate
    3,                        !- Vertex 2 Zcoordinate
    687104.3550000003,        !- Vertex 3 Xcoordinate
    4928967.968,              !- Vertex 3 Ycoordinate
    3,                        !- Vertex 3 Zcoordinate
    687104.3550000003,        !- Vertex 4 Xcoordinate
    4928967.968,              !- Vertex 4 Ycoordinate
    6;                        !- Vertex 4 Zcoordinate

BUILDINGSURFACE:DETAILED,
    Block af3917251b85a42e_6 Storey 1 Wall 0003_1,    !- Name
    wall,                     !- Surface Type
    EU_wall_Construction,     !- Construction Name
    af3917251b85a42e_F1_dwelling_6,    !- Zone Name
    ,                         !- Space Name
    outdoors,                 !- Outside Boundary Condition
    ,                         !- Outside Boundary Condition Object
    SunExposed,               !- Sun Exposure
    WindExposed,              !- Wind Exposure
    autocalculate,            !- View Factor to Ground
    autocalculate,            !- Number of Vertices
    687104.3550000001,        !- Vertex 1 Xcoordinate
    4928967.968,              !- Vertex 1 Ycoordinate
    6,                        !- Vertex 1 Zcoordinate
    687104.3550000001,        !- Vertex 2 Xcoordinate
    4928967.968,              !- Vertex 2 Ycoordinate
    3,                        !- Vertex 2 Zcoordinate
    687099.2869999999,        !- Vertex 3 Xcoordinate
    4928959.69,               !- Vertex 3 Ycoordinate
    3,                        !- Vertex 3 Zcoordinate
    687099.2869999999,        !- Vertex 4 Xcoordinate
    4928959.69,               !- Vertex 4 Ycoordinate
    6;                        !- Vertex 4 Zcoordinate

BUILDINGSURFACE:DETAILED,
    Block af3917251b85a42e_5 Storey 1 Ceiling 0001_1,    !- Name
    ceiling,                  !- Surface Type
    EU_floor_Construction,    !- Construction Name
    af3917251b85a42e_F1_dwelling_5,    !- Zone Name
    ,                         !- Space Name
    Surface,                  !- Outside Boundary Condition
    Block af3917251b85a42e_5 Storey 2 Floor 0001_1,    !- Outside Boundary Condition Object
    NoSun,                    !- Sun Exposure
    NoWind,                   !- Wind Exposure
    autocalculate,            !- View Factor to Ground
    autocalculate,            !- Number of Vertices
    687107.804,               !- Vertex 1 Xcoordinate
    4928965.849,              !- Vertex 1 Ycoordinate
    6,                        !- Vertex 1 Zcoordinate
    687102.7389999996,        !- Vertex 2 Xcoordinate
    4928957.576,              !- Vertex 2 Ycoordinate
    6,                        !- Vertex 2 Zcoordinate
    687099.287,               !- Vertex 3 Xcoordinate
    4928959.69,               !- Vertex 3 Ycoordinate
    6,                        !- Vertex 3 Zcoordinate
    687104.355,               !- Vertex 4 Xcoordinate
    4928967.968,              !- Vertex 4 Ycoordinate
    6;                        !- Vertex 4 Zcoordinate

BUILDINGSURFACE:DETAILED,
    Block af3917251b85a42e_5 Storey 2 Floor 0001_1,    !- Name
    floor,                    !- Surface Type
    EU_floor_Construction,    !- Construction Name
    af3917251b85a42e_F2_dwelling_5,    !- Zone Name
    ,                         !- Space Name
    Surface,                  !- Outside Boundary Condition
    Block af3917251b85a42e_5 Storey 1 Ceiling 0001_1,    !- Outside Boundary Condition Object
    NoSun,                    !- Sun Exposure
    NoWind,                   !- Wind Exposure
    autocalculate,            !- View Factor to Ground
    autocalculate,            !- Number of Vertices
    687102.7389999996,        !- Vertex 1 Xcoordinate
    4928957.576,              !- Vertex 1 Ycoordinate
    6,                        !- Vertex 1 Zcoordinate
    687107.804,               !- Vertex 2 Xcoordinate
    4928965.849,              !- Vertex 2 Ycoordinate
    6,                        !- Vertex 2 Zcoordinate
    687104.355,               !- Vertex 3 Xcoordinate
    4928967.968,              !- Vertex 3 Ycoordinate
    6,                        !- Vertex 3 Zcoordinate
    687099.287,               !- Vertex 4 Xcoordinate
    4928959.69,               !- Vertex 4 Ycoordinate
    6;                        !- Vertex 4 Zcoordinate

BUILDINGSURFACE:DETAILED,
    Block af3917251b85a42e_5 Storey 2 Wall 0001_1,    !- Name
    wall,                     !- Surface Type
    EU_wall_Construction,     !- Construction Name
    af3917251b85a42e_F2_dwelling_5,    !- Zone Name
    ,                         !- Space Name
    outdoors,                 !- Outside Boundary Condition
    ,                         !- Outside Boundary Condition Object
    SunExposed,               !- Sun Exposure
    WindExposed,              !- Wind Exposure
    autocalculate,            !- View Factor to Ground
    autocalculate,            !- Number of Vertices
    687099.2870000001,        !- Vertex 1 Xcoordinate
    4928959.69,               !- Vertex 1 Ycoordinate
    9,                        !- Vertex 1 Zcoordinate
    687099.2870000001,        !- Vertex 2 Xcoordinate
    4928959.69,               !- Vertex 2 Ycoordinate
    6,                        !- Vertex 2 Zcoordinate
    687104.3550000003,        !- Vertex 3 Xcoordinate
    4928967.968,              !- Vertex 3 Ycoordinate
    6,                        !- Vertex 3 Zcoordinate
    687104.3550000003,        !- Vertex 4 Xcoordinate
    4928967.968,              !- Vertex 4 Ycoordinate
    9;                        !- Vertex 4 Zcoordinate

BUILDINGSURFACE:DETAILED,
    Block af3917251b85a42e_6 Storey 2 Wall 0003_1,    !- Name
    wall,                     !- Surface Type
    EU_wall_Construction,     !- Construction Name
    af3917251b85a42e_F2_dwelling_6,    !- Zone Name
    ,                         !- Space Name
    outdoors,                 !- Outside Boundary Condition
    ,                         !- Outside Boundary Condition Object
    SunExposed,               !- Sun Exposure
    WindExposed,              !- Wind Exposure
    autocalculate,            !- View Factor to Ground
    autocalculate,            !- Number of Vertices
    687104.3550000001,        !- Vertex 1 Xcoordinate
    4928967.968,              !- Vertex 1 Ycoordinate
    9,                        !- Vertex 1 Zcoordinate
    687104.3550000001,        !- Vertex 2 Xcoordinate
    4928967.968,              !- Vertex 2 Ycoordinate
    6,                        !- Vertex 2 Zcoordinate
    687099.2869999999,        !- Vertex 3 Xcoordinate
    4928959.69,               !- Vertex 3 Ycoordinate
    6,                        !- Vertex 3 Zcoordinate
    687099.2869999999,        !- Vertex 4 Xcoordinate
    4928959.69,               !- Vertex 4 Ycoordinate
    9;                        !- Vertex 4 Zcoordinate

BUILDINGSURFACE:DETAILED,
    Block af3917251b85a42e_5 Storey 2 Ceiling 0001_1,    !- Name
    ceiling,                  !- Surface Type
    EU_floor_Construction,    !- Construction Name
    af3917251b85a42e_F2_dwelling_5,    !- Zone Name
    ,                         !- Space Name
    Surface,                  !- Outside Boundary Condition
    Block af3917251b85a42e_5 Storey 3 Floor 0001_1,    !- Outside Boundary Condition Object
    NoSun,                    !- Sun Exposure
    NoWind,                   !- Wind Exposure
    autocalculate,            !- View Factor to Ground
    autocalculate,            !- Number of Vertices
    687107.804,               !- Vertex 1 Xcoordinate
    4928965.849,              !- Vertex 1 Ycoordinate
    9,                        !- Vertex 1 Zcoordinate
    687102.7389999996,        !- Vertex 2 Xcoordinate
    4928957.576,              !- Vertex 2 Ycoordinate
    9,                        !- Vertex 2 Zcoordinate
    687099.287,               !- Vertex 3 Xcoordinate
    4928959.69,               !- Vertex 3 Ycoordinate
    9,                        !- Vertex 3 Zcoordinate
    687104.355,               !- Vertex 4 Xcoordinate
    4928967.968,              !- Vertex 4 Ycoordinate
    9;                        !- Vertex 4 Zcoordinate

BUILDINGSURFACE:DETAILED,
    Block af3917251b85a42e_5 Storey 3 Floor 0001_1,    !- Name
    floor,                    !- Surface Type
    EU_floor_Construction,    !- Construction Name
    af3917251b85a42e_F3_dwelling_5,    !- Zone Name
    ,                         !- Space Name
    Surface,                  !- Outside Boundary Condition
    Block af3917251b85a42e_5 Storey 2 Ceiling 0001_1,    !- Outside Boundary Condition Object
    NoSun,                    !- Sun Exposure
    NoWind,                   !- Wind Exposure
    autocalculate,            !- View Factor to Ground
    autocalculate,            !- Number of Vertices
    687102.7389999996,        !- Vertex 1 Xcoordinate
    4928957.576,              !- Vertex 1 Ycoordinate
    9,                        !- Vertex 1 Zcoordinate
    687107.804,               !- Vertex 2 Xcoordinate
    4928965.849,              !- Vertex 2 Ycoordinate
    9,                        !- Vertex 2 Zcoordinate
    687104.355,               !- Vertex 3 Xcoordinate
    4928967.968,              !- Vertex 3 Ycoordinate
    9,                        !- Vertex 3 Zcoordinate
    687099.287,               !- Vertex 4 Xcoordinate
    4928959.69,               !- Vertex 4 Ycoordinate
    9;                        !- Vertex 4 Zcoordinate

BUILDINGSURFACE:DETAILED,
    Block af3917251b85a42e_5 Storey 3 Wall 0001_1,    !- Name
    wall,                     !- Surface Type
    EU_wall_Construction,     !- Construction Name
    af3917251b85a42e_F3_dwelling_5,    !- Zone Name
    ,                         !- Space Name
    outdoors,                 !- Outside Boundary Condition
    ,                         !- Outside Boundary Condition Object
    SunExposed,               !- Sun Exposure
    WindExposed,              !- Wind Exposure
    autocalculate,            !- View Factor to Ground
    autocalculate,            !- Number of Vertices
    687099.2870000001,        !- Vertex 1 Xcoordinate
    4928959.69,               !- Vertex 1 Ycoordinate
    12,                       !- Vertex 1 Zcoordinate
    687099.2870000001,        !- Vertex 2 Xcoordinate
    4928959.69,               !- Vertex 2 Ycoordinate
    9,                        !- Vertex 2 Zcoordinate
    687104.3550000003,        !- Vertex 3 Xcoordinate
    4928967.968,              !- Vertex 3 Ycoordinate
    9,                        !- Vertex 3 Zcoordinate
    687104.3550000003,        !- Vertex 4 Xcoordinate
    4928967.968,              !- Vertex 4 Ycoordinate
    12;                       !- Vertex 4 Zcoordinate

BUILDINGSURFACE:DETAILED,
    Block af3917251b85a42e_6 Storey 3 Wall 0003_1,    !- Name
    wall,                     !- Surface Type
    EU_wall_Construction,     !- Construction Name
    af3917251b85a42e_F3_dwelling_6,    !- Zone Name
    ,                         !- Space Name
    outdoors,                 !- Outside Boundary Condition
    ,                         !- Outside Boundary Condition Object
    SunExposed,               !- Sun Exposure
    WindExposed,              !- Wind Exposure
    autocalculate,            !- View Factor to Ground
    autocalculate,            !- Number of Vertices
    687104.3550000001,        !- Vertex 1 Xcoordinate
    4928967.968,              !- Vertex 1 Ycoordinate
    12,                       !- Vertex 1 Zcoordinate
    687104.3550000001,        !- Vertex 2 Xcoordinate
    4928967.968,              !- Vertex 2 Ycoordinate
    9,                        !- Vertex 2 Zcoordinate
    687099.2869999999,        !- Vertex 3 Xcoordinate
    4928959.69,               !- Vertex 3 Ycoordinate
    9,                        !- Vertex 3 Zcoordinate
    687099.2869999999,        !- Vertex 4 Xcoordinate
    4928959.69,               !- Vertex 4 Ycoordinate
    12;                       !- Vertex 4 Zcoordinate

BUILDINGSURFACE:DETAILED,
    Block af3917251b85a42e_5 Storey 3 Ceiling 0001_1,    !- Name
    ceiling,                  !- Surface Type
    EU_floor_Construction,    !- Construction Name
    af3917251b85a42e_F3_dwelling_5,    !- Zone Name
    ,                         !- Space Name
    Surface,                  !- Outside Boundary Condition
    Block af3917251b85a42e_5 Storey 4 Floor 0001_1,    !- Outside Boundary Condition Object
    NoSun,                    !- Sun Exposure
    NoWind,                   !- Wind Exposure
    autocalculate,            !- View Factor to Ground
    autocalculate,            !- Number of Vertices
    687107.804,               !- Vertex 1 Xcoordinate
    4928965.849,              !- Vertex 1 Ycoordinate
    12,                       !- Vertex 1 Zcoordinate
    687102.7389999996,        !- Vertex 2 Xcoordinate
    4928957.576,              !- Vertex 2 Ycoordinate
    12,                       !- Vertex 2 Zcoordinate
    687099.287,               !- Vertex 3 Xcoordinate
    4928959.69,               !- Vertex 3 Ycoordinate
    12,                       !- Vertex 3 Zcoordinate
    687104.355,               !- Vertex 4 Xcoordinate
    4928967.968,              !- Vertex 4 Ycoordinate
    12;                       !- Vertex 4 Zcoordinate

BUILDINGSURFACE:DETAILED,
    Block af3917251b85a42e_5 Storey 4 Floor 0001_1,    !- Name
    floor,                    !- Surface Type
    EU_floor_Construction,    !- Construction Name
    af3917251b85a42e_F4_dwelling_5,    !- Zone Name
    ,                         !- Space Name
    Surface,                  !- Outside Boundary Condition
    Block af3917251b85a42e_5 Storey 3 Ceiling 0001_1,    !- Outside Boundary Condition Object
    NoSun,                    !- Sun Exposure
    NoWind,                   !- Wind Exposure
    autocalculate,            !- View Factor to Ground
    autocalculate,            !- Number of Vertices
    687102.7389999996,        !- Vertex 1 Xcoordinate
    4928957.576,              !- Vertex 1 Ycoordinate
    12,                       !- Vertex 1 Zcoordinate
    687107.804,               !- Vertex 2 Xcoordinate
    4928965.849,              !- Vertex 2 Ycoordinate
    12,                       !- Vertex 2 Zcoordinate
    687104.355,               !- Vertex 3 Xcoordinate
    4928967.968,              !- Vertex 3 Ycoordinate
    12,                       !- Vertex 3 Zcoordinate
    687099.287,               !- Vertex 4 Xcoordinate
    4928959.69,               !- Vertex 4 Ycoordinate
    12;                       !- Vertex 4 Zcoordinate

BUILDINGSURFACE:DETAILED,
    Block af3917251b85a42e_5 Storey 4 Wall 0001_1,    !- Name
    wall,                     !- Surface Type
    EU_wall_Construction,     !- Construction Name
    af3917251b85a42e_F4_dwelling_5,    !- Zone Name
    ,                         !- Space Name
    outdoors,                 !- Outside Boundary Condition
    ,                         !- Outside Boundary Condition Object
    SunExposed,               !- Sun Exposure
    WindExposed,              !- Wind Exposure
    autocalculate,            !- View Factor to Ground
    autocalculate,            !- Number of Vertices
    687099.2870000001,        !- Vertex 1 Xcoordinate
    4928959.69,               !- Vertex 1 Ycoordinate
    15,                       !- Vertex 1 Zcoordinate
    687099.2870000001,        !- Vertex 2 Xcoordinate
    4928959.69,               !- Vertex 2 Ycoordinate
    12,                       !- Vertex 2 Zcoordinate
    687104.3550000003,        !- Vertex 3 Xcoordinate
    4928967.968,              !- Vertex 3 Ycoordinate
    12,                       !- Vertex 3 Zcoordinate
    687104.3550000003,        !- Vertex 4 Xcoordinate
    4928967.968,              !- Vertex 4 Ycoordinate
    15;                       !- Vertex 4 Zcoordinate

BUILDINGSURFACE:DETAILED,
    Block af3917251b85a42e_6 Storey 4 Wall 0003_1,    !- Name
    wall,                     !- Surface Type
    EU_wall_Construction,     !- Construction Name
    af3917251b85a42e_F4_dwelling_6,    !- Zone Name
    ,                         !- Space Name
    outdoors,                 !- Outside Boundary Condition
    ,                         !- Outside Boundary Condition Object
    SunExposed,               !- Sun Exposure
    WindExposed,              !- Wind Exposure
    autocalculate,            !- View Factor to Ground
    autocalculate,            !- Number of Vertices
    687104.3550000001,        !- Vertex 1 Xcoordinate
    4928967.968,              !- Vertex 1 Ycoordinate
    15,                       !- Vertex 1 Zcoordinate
    687104.3550000001,        !- Vertex 2 Xcoordinate
    4928967.968,              !- Vertex 2 Ycoordinate
    12,                       !- Vertex 2 Zcoordinate
    687099.2869999999,        !- Vertex 3 Xcoordinate
    4928959.69,               !- Vertex 3 Ycoordinate
    12,                       !- Vertex 3 Zcoordinate
    687099.2869999999,        !- Vertex 4 Xcoordinate
    4928959.69,               !- Vertex 4 Ycoordinate
    15;                       !- Vertex 4 Zcoordinate

BUILDINGSURFACE:DETAILED,
    Block af3917251b85a42e_6 Storey 0 Wall 0001_1,    !- Name
    wall,                     !- Surface Type
    EU_wall_Construction,     !- Construction Name
    af3917251b85a42e_F0_dwelling_6,    !- Zone Name
    ,                         !- Space Name
    surface,                  !- Outside Boundary Condition
    Block af3917251b85a42e_7 Storey 0 Wall 0008_1,    !- Outside Boundary Condition Object
    NoSun,                    !- Sun Exposure
    NoWind,                   !- Wind Exposure
    autocalculate,            !- View Factor to Ground
    autocalculate,            !- Number of Vertices
    687095.0049999999,        !- Vertex 1 Xcoordinate
    4928962.312,              !- Vertex 1 Ycoordinate
    3,                        !- Vertex 1 Zcoordinate
    687095.0049999999,        !- Vertex 2 Xcoordinate
    4928962.312,              !- Vertex 2 Ycoordinate
    0,                        !- Vertex 2 Zcoordinate
    687100.0769999996,        !- Vertex 3 Xcoordinate
    4928970.596,              !- Vertex 3 Ycoordinate
    0,                        !- Vertex 3 Zcoordinate
    687100.0769999996,        !- Vertex 4 Xcoordinate
    4928970.596,              !- Vertex 4 Ycoordinate
    3;                        !- Vertex 4 Zcoordinate

BUILDINGSURFACE:DETAILED,
    Block af3917251b85a42e_7 Storey 0 Wall 0008_1,    !- Name
    wall,                     !- Surface Type
    EU_wall_Construction,     !- Construction Name
    af3917251b85a42e_F0_dwelling_7,    !- Zone Name
    ,                         !- Space Name
    surface,                  !- Outside Boundary Condition
    Block af3917251b85a42e_6 Storey 0 Wall 0001_1,    !- Outside Boundary Condition Object
    NoSun,                    !- Sun Exposure
    NoWind,                   !- Wind Exposure
    autocalculate,            !- View Factor to Ground
    autocalculate,            !- Number of Vertices
    687100.077,               !- Vertex 1 Xcoordinate
    4928970.596,              !- Vertex 1 Ycoordinate
    3,                        !- Vertex 1 Zcoordinate
    687100.077,               !- Vertex 2 Xcoordinate
    4928970.596,              !- Vertex 2 Ycoordinate
    0,                        !- Vertex 2 Zcoordinate
    687095.0050000004,        !- Vertex 3 Xcoordinate
    4928962.312,              !- Vertex 3 Ycoordinate
    0,                        !- Vertex 3 Zcoordinate
    687095.0050000004,        !- Vertex 4 Xcoordinate
    4928962.312,              !- Vertex 4 Ycoordinate
    3;                        !- Vertex 4 Zcoordinate

BUILDINGSURFACE:DETAILED,
    Block af3917251b85a42e_6 Storey 0 Ceiling 0001_1,    !- Name
    ceiling,                  !- Surface Type
    EU_floor_Construction,    !- Construction Name
    af3917251b85a42e_F0_dwelling_6,    !- Zone Name
    ,                         !- Space Name
    Surface,                  !- Outside Boundary Condition
    Block af3917251b85a42e_6 Storey 1 Floor 0001_1,    !- Outside Boundary Condition Object
    NoSun,                    !- Sun Exposure
    NoWind,                   !- Wind Exposure
    autocalculate,            !- View Factor to Ground
    autocalculate,            !- Number of Vertices
    687104.355,               !- Vertex 1 Xcoordinate
    4928967.968,              !- Vertex 1 Ycoordinate
    3,                        !- Vertex 1 Zcoordinate
    687099.287,               !- Vertex 2 Xcoordinate
    4928959.69,               !- Vertex 2 Ycoordinate
    3,                        !- Vertex 2 Zcoordinate
    687095.0049999999,        !- Vertex 3 Xcoordinate
    4928962.312,              !- Vertex 3 Ycoordinate
    3,                        !- Vertex 3 Zcoordinate
    687100.077,               !- Vertex 4 Xcoordinate
    4928970.596,              !- Vertex 4 Ycoordinate
    3;                        !- Vertex 4 Zcoordinate

BUILDINGSURFACE:DETAILED,
    Block af3917251b85a42e_6 Storey 1 Floor 0001_1,    !- Name
    floor,                    !- Surface Type
    EU_floor_Construction,    !- Construction Name
    af3917251b85a42e_F1_dwelling_6,    !- Zone Name
    ,                         !- Space Name
    Surface,                  !- Outside Boundary Condition
    Block af3917251b85a42e_6 Storey 0 Ceiling 0001_1,    !- Outside Boundary Condition Object
    NoSun,                    !- Sun Exposure
    NoWind,                   !- Wind Exposure
    autocalculate,            !- View Factor to Ground
    autocalculate,            !- Number of Vertices
    687099.287,               !- Vertex 1 Xcoordinate
    4928959.69,               !- Vertex 1 Ycoordinate
    3,                        !- Vertex 1 Zcoordinate
    687104.355,               !- Vertex 2 Xcoordinate
    4928967.968,              !- Vertex 2 Ycoordinate
    3,                        !- Vertex 2 Zcoordinate
    687100.077,               !- Vertex 3 Xcoordinate
    4928970.596,              !- Vertex 3 Ycoordinate
    3,                        !- Vertex 3 Zcoordinate
    687095.0049999999,        !- Vertex 4 Xcoordinate
    4928962.312,              !- Vertex 4 Ycoordinate
    3;                        !- Vertex 4 Zcoordinate

BUILDINGSURFACE:DETAILED,
    Block af3917251b85a42e_6 Storey 1 Wall 0001_1,    !- Name
    wall,                     !- Surface Type
    EU_wall_Construction,     !- Construction Name
    af3917251b85a42e_F1_dwelling_6,    !- Zone Name
    ,                         !- Space Name
    surface,                  !- Outside Boundary Condition
    Block af3917251b85a42e_7 Storey 1 Wall 0008_1,    !- Outside Boundary Condition Object
    NoSun,                    !- Sun Exposure
    NoWind,                   !- Wind Exposure
    autocalculate,            !- View Factor to Ground
    autocalculate,            !- Number of Vertices
    687095.0049999999,        !- Vertex 1 Xcoordinate
    4928962.312,              !- Vertex 1 Ycoordinate
    6,                        !- Vertex 1 Zcoordinate
    687095.0049999999,        !- Vertex 2 Xcoordinate
    4928962.312,              !- Vertex 2 Ycoordinate
    3,                        !- Vertex 2 Zcoordinate
    687100.0769999996,        !- Vertex 3 Xcoordinate
    4928970.596,              !- Vertex 3 Ycoordinate
    3,                        !- Vertex 3 Zcoordinate
    687100.0769999996,        !- Vertex 4 Xcoordinate
    4928970.596,              !- Vertex 4 Ycoordinate
    6;                        !- Vertex 4 Zcoordinate

BUILDINGSURFACE:DETAILED,
    Block af3917251b85a42e_7 Storey 1 Wall 0008_1,    !- Name
    wall,                     !- Surface Type
    EU_wall_Construction,     !- Construction Name
    af3917251b85a42e_F1_dwelling_7,    !- Zone Name
    ,                         !- Space Name
    surface,                  !- Outside Boundary Condition
    Block af3917251b85a42e_6 Storey 1 Wall 0001_1,    !- Outside Boundary Condition Object
    NoSun,                    !- Sun Exposure
    NoWind,                   !- Wind Exposure
    autocalculate,            !- View Factor to Ground
    autocalculate,            !- Number of Vertices
    687100.077,               !- Vertex 1 Xcoordinate
    4928970.596,              !- Vertex 1 Ycoordinate
    6,                        !- Vertex 1 Zcoordinate
    687100.077,               !- Vertex 2 Xcoordinate
    4928970.596,              !- Vertex 2 Ycoordinate
    3,                        !- Vertex 2 Zcoordinate
    687095.0050000004,        !- Vertex 3 Xcoordinate
    4928962.312,              !- Vertex 3 Ycoordinate
    3,                        !- Vertex 3 Zcoordinate
    687095.0050000004,        !- Vertex 4 Xcoordinate
    4928962.312,              !- Vertex 4 Ycoordinate
    6;                        !- Vertex 4 Zcoordinate

BUILDINGSURFACE:DETAILED,
    Block af3917251b85a42e_6 Storey 1 Ceiling 0001_1,    !- Name
    ceiling,                  !- Surface Type
    EU_floor_Construction,    !- Construction Name
    af3917251b85a42e_F1_dwelling_6,    !- Zone Name
    ,                         !- Space Name
    Surface,                  !- Outside Boundary Condition
    Block af3917251b85a42e_6 Storey 2 Floor 0001_1,    !- Outside Boundary Condition Object
    NoSun,                    !- Sun Exposure
    NoWind,                   !- Wind Exposure
    autocalculate,            !- View Factor to Ground
    autocalculate,            !- Number of Vertices
    687104.355,               !- Vertex 1 Xcoordinate
    4928967.968,              !- Vertex 1 Ycoordinate
    6,                        !- Vertex 1 Zcoordinate
    687099.287,               !- Vertex 2 Xcoordinate
    4928959.69,               !- Vertex 2 Ycoordinate
    6,                        !- Vertex 2 Zcoordinate
    687095.0049999999,        !- Vertex 3 Xcoordinate
    4928962.312,              !- Vertex 3 Ycoordinate
    6,                        !- Vertex 3 Zcoordinate
    687100.077,               !- Vertex 4 Xcoordinate
    4928970.596,              !- Vertex 4 Ycoordinate
    6;                        !- Vertex 4 Zcoordinate

BUILDINGSURFACE:DETAILED,
    Block af3917251b85a42e_6 Storey 2 Floor 0001_1,    !- Name
    floor,                    !- Surface Type
    EU_floor_Construction,    !- Construction Name
    af3917251b85a42e_F2_dwelling_6,    !- Zone Name
    ,                         !- Space Name
    Surface,                  !- Outside Boundary Condition
    Block af3917251b85a42e_6 Storey 1 Ceiling 0001_1,    !- Outside Boundary Condition Object
    NoSun,                    !- Sun Exposure
    NoWind,                   !- Wind Exposure
    autocalculate,            !- View Factor to Ground
    autocalculate,            !- Number of Vertices
    687099.287,               !- Vertex 1 Xcoordinate
    4928959.69,               !- Vertex 1 Ycoordinate
    6,                        !- Vertex 1 Zcoordinate
    687104.355,               !- Vertex 2 Xcoordinate
    4928967.968,              !- Vertex 2 Ycoordinate
    6,                        !- Vertex 2 Zcoordinate
    687100.077,               !- Vertex 3 Xcoordinate
    4928970.596,              !- Vertex 3 Ycoordinate
    6,                        !- Vertex 3 Zcoordinate
    687095.0049999999,        !- Vertex 4 Xcoordinate
    4928962.312,              !- Vertex 4 Ycoordinate
    6;                        !- Vertex 4 Zcoordinate

BUILDINGSURFACE:DETAILED,
    Block af3917251b85a42e_6 Storey 2 Wall 0001_1,    !- Name
    wall,                     !- Surface Type
    EU_wall_Construction,     !- Construction Name
    af3917251b85a42e_F2_dwelling_6,    !- Zone Name
    ,                         !- Space Name
    surface,                  !- Outside Boundary Condition
    Block af3917251b85a42e_7 Storey 2 Wall 0008_1,    !- Outside Boundary Condition Object
    NoSun,                    !- Sun Exposure
    NoWind,                   !- Wind Exposure
    autocalculate,            !- View Factor to Ground
    autocalculate,            !- Number of Vertices
    687095.0049999999,        !- Vertex 1 Xcoordinate
    4928962.312,              !- Vertex 1 Ycoordinate
    9,                        !- Vertex 1 Zcoordinate
    687095.0049999999,        !- Vertex 2 Xcoordinate
    4928962.312,              !- Vertex 2 Ycoordinate
    6,                        !- Vertex 2 Zcoordinate
    687100.0769999996,        !- Vertex 3 Xcoordinate
    4928970.596,              !- Vertex 3 Ycoordinate
    6,                        !- Vertex 3 Zcoordinate
    687100.0769999996,        !- Vertex 4 Xcoordinate
    4928970.596,              !- Vertex 4 Ycoordinate
    9;                        !- Vertex 4 Zcoordinate

BUILDINGSURFACE:DETAILED,
    Block af3917251b85a42e_7 Storey 2 Wall 0008_1,    !- Name
    wall,                     !- Surface Type
    EU_wall_Construction,     !- Construction Name
    af3917251b85a42e_F2_dwelling_7,    !- Zone Name
    ,                         !- Space Name
    surface,                  !- Outside Boundary Condition
    Block af3917251b85a42e_6 Storey 2 Wall 0001_1,    !- Outside Boundary Condition Object
    NoSun,                    !- Sun Exposure
    NoWind,                   !- Wind Exposure
    autocalculate,            !- View Factor to Ground
    autocalculate,            !- Number of Vertices
    687100.077,               !- Vertex 1 Xcoordinate
    4928970.596,              !- Vertex 1 Ycoordinate
    9,                        !- Vertex 1 Zcoordinate
    687100.077,               !- Vertex 2 Xcoordinate
    4928970.596,              !- Vertex 2 Ycoordinate
    6,                        !- Vertex 2 Zcoordinate
    687095.0050000004,        !- Vertex 3 Xcoordinate
    4928962.312,              !- Vertex 3 Ycoordinate
    6,                        !- Vertex 3 Zcoordinate
    687095.0050000004,        !- Vertex 4 Xcoordinate
    4928962.312,              !- Vertex 4 Ycoordinate
    9;                        !- Vertex 4 Zcoordinate

BUILDINGSURFACE:DETAILED,
    Block af3917251b85a42e_6 Storey 2 Ceiling 0001_1,    !- Name
    ceiling,                  !- Surface Type
    EU_floor_Construction,    !- Construction Name
    af3917251b85a42e_F2_dwelling_6,    !- Zone Name
    ,                         !- Space Name
    Surface,                  !- Outside Boundary Condition
    Block af3917251b85a42e_6 Storey 3 Floor 0001_1,    !- Outside Boundary Condition Object
    NoSun,                    !- Sun Exposure
    NoWind,                   !- Wind Exposure
    autocalculate,            !- View Factor to Ground
    autocalculate,            !- Number of Vertices
    687104.355,               !- Vertex 1 Xcoordinate
    4928967.968,              !- Vertex 1 Ycoordinate
    9,                        !- Vertex 1 Zcoordinate
    687099.287,               !- Vertex 2 Xcoordinate
    4928959.69,               !- Vertex 2 Ycoordinate
    9,                        !- Vertex 2 Zcoordinate
    687095.0049999999,        !- Vertex 3 Xcoordinate
    4928962.312,              !- Vertex 3 Ycoordinate
    9,                        !- Vertex 3 Zcoordinate
    687100.077,               !- Vertex 4 Xcoordinate
    4928970.596,              !- Vertex 4 Ycoordinate
    9;                        !- Vertex 4 Zcoordinate

BUILDINGSURFACE:DETAILED,
    Block af3917251b85a42e_6 Storey 3 Floor 0001_1,    !- Name
    floor,                    !- Surface Type
    EU_floor_Construction,    !- Construction Name
    af3917251b85a42e_F3_dwelling_6,    !- Zone Name
    ,                         !- Space Name
    Surface,                  !- Outside Boundary Condition
    Block af3917251b85a42e_6 Storey 2 Ceiling 0001_1,    !- Outside Boundary Condition Object
    NoSun,                    !- Sun Exposure
    NoWind,                   !- Wind Exposure
    autocalculate,            !- View Factor to Ground
    autocalculate,            !- Number of Vertices
    687099.287,               !- Vertex 1 Xcoordinate
    4928959.69,               !- Vertex 1 Ycoordinate
    9,                        !- Vertex 1 Zcoordinate
    687104.355,               !- Vertex 2 Xcoordinate
    4928967.968,              !- Vertex 2 Ycoordinate
    9,                        !- Vertex 2 Zcoordinate
    687100.077,               !- Vertex 3 Xcoordinate
    4928970.596,              !- Vertex 3 Ycoordinate
    9,                        !- Vertex 3 Zcoordinate
    687095.0049999999,        !- Vertex 4 Xcoordinate
    4928962.312,              !- Vertex 4 Ycoordinate
    9;                        !- Vertex 4 Zcoordinate

BUILDINGSURFACE:DETAILED,
    Block af3917251b85a42e_6 Storey 3 Wall 0001_1,    !- Name
    wall,                     !- Surface Type
    EU_wall_Construction,     !- Construction Name
    af3917251b85a42e_F3_dwelling_6,    !- Zone Name
    ,                         !- Space Name
    surface,                  !- Outside Boundary Condition
    Block af3917251b85a42e_7 Storey 3 Wall 0008_1,    !- Outside Boundary Condition Object
    NoSun,                    !- Sun Exposure
    NoWind,                   !- Wind Exposure
    autocalculate,            !- View Factor to Ground
    autocalculate,            !- Number of Vertices
    687095.0049999999,        !- Vertex 1 Xcoordinate
    4928962.312,              !- Vertex 1 Ycoordinate
    12,                       !- Vertex 1 Zcoordinate
    687095.0049999999,        !- Vertex 2 Xcoordinate
    4928962.312,              !- Vertex 2 Ycoordinate
    9,                        !- Vertex 2 Zcoordinate
    687100.0769999996,        !- Vertex 3 Xcoordinate
    4928970.596,              !- Vertex 3 Ycoordinate
    9,                        !- Vertex 3 Zcoordinate
    687100.0769999996,        !- Vertex 4 Xcoordinate
    4928970.596,              !- Vertex 4 Ycoordinate
    12;                       !- Vertex 4 Zcoordinate

BUILDINGSURFACE:DETAILED,
    Block af3917251b85a42e_7 Storey 3 Wall 0008_1,    !- Name
    wall,                     !- Surface Type
    EU_wall_Construction,     !- Construction Name
    af3917251b85a42e_F3_dwelling_7,    !- Zone Name
    ,                         !- Space Name
    surface,                  !- Outside Boundary Condition
    Block af3917251b85a42e_6 Storey 3 Wall 0001_1,    !- Outside Boundary Condition Object
    NoSun,                    !- Sun Exposure
    NoWind,                   !- Wind Exposure
    autocalculate,            !- View Factor to Ground
    autocalculate,            !- Number of Vertices
    687100.077,               !- Vertex 1 Xcoordinate
    4928970.596,              !- Vertex 1 Ycoordinate
    12,                       !- Vertex 1 Zcoordinate
    687100.077,               !- Vertex 2 Xcoordinate
    4928970.596,              !- Vertex 2 Ycoordinate
    9,                        !- Vertex 2 Zcoordinate
    687095.0050000004,        !- Vertex 3 Xcoordinate
    4928962.312,              !- Vertex 3 Ycoordinate
    9,                        !- Vertex 3 Zcoordinate
    687095.0050000004,        !- Vertex 4 Xcoordinate
    4928962.312,              !- Vertex 4 Ycoordinate
    12;                       !- Vertex 4 Zcoordinate

BUILDINGSURFACE:DETAILED,
    Block af3917251b85a42e_6 Storey 3 Ceiling 0001_1,    !- Name
    ceiling,                  !- Surface Type
    EU_floor_Construction,    !- Construction Name
    af3917251b85a42e_F3_dwelling_6,    !- Zone Name
    ,                         !- Space Name
    Surface,                  !- Outside Boundary Condition
    Block af3917251b85a42e_6 Storey 4 Floor 0001_1,    !- Outside Boundary Condition Object
    NoSun,                    !- Sun Exposure
    NoWind,                   !- Wind Exposure
    autocalculate,            !- View Factor to Ground
    autocalculate,            !- Number of Vertices
    687104.355,               !- Vertex 1 Xcoordinate
    4928967.968,              !- Vertex 1 Ycoordinate
    12,                       !- Vertex 1 Zcoordinate
    687099.287,               !- Vertex 2 Xcoordinate
    4928959.69,               !- Vertex 2 Ycoordinate
    12,                       !- Vertex 2 Zcoordinate
    687095.0049999999,        !- Vertex 3 Xcoordinate
    4928962.312,              !- Vertex 3 Ycoordinate
    12,                       !- Vertex 3 Zcoordinate
    687100.077,               !- Vertex 4 Xcoordinate
    4928970.596,              !- Vertex 4 Ycoordinate
    12;                       !- Vertex 4 Zcoordinate

BUILDINGSURFACE:DETAILED,
    Block af3917251b85a42e_6 Storey 4 Floor 0001_1,    !- Name
    floor,                    !- Surface Type
    EU_floor_Construction,    !- Construction Name
    af3917251b85a42e_F4_dwelling_6,    !- Zone Name
    ,                         !- Space Name
    Surface,                  !- Outside Boundary Condition
    Block af3917251b85a42e_6 Storey 3 Ceiling 0001_1,    !- Outside Boundary Condition Object
    NoSun,                    !- Sun Exposure
    NoWind,                   !- Wind Exposure
    autocalculate,            !- View Factor to Ground
    autocalculate,            !- Number of Vertices
    687099.287,               !- Vertex 1 Xcoordinate
    4928959.69,               !- Vertex 1 Ycoordinate
    12,                       !- Vertex 1 Zcoordinate
    687104.355,               !- Vertex 2 Xcoordinate
    4928967.968,              !- Vertex 2 Ycoordinate
    12,                       !- Vertex 2 Zcoordinate
    687100.077,               !- Vertex 3 Xcoordinate
    4928970.596,              !- Vertex 3 Ycoordinate
    12,                       !- Vertex 3 Zcoordinate
    687095.0049999999,        !- Vertex 4 Xcoordinate
    4928962.312,              !- Vertex 4 Ycoordinate
    12;                       !- Vertex 4 Zcoordinate

BUILDINGSURFACE:DETAILED,
    Block af3917251b85a42e_6 Storey 4 Wall 0001_1,    !- Name
    wall,                     !- Surface Type
    EU_wall_Construction,     !- Construction Name
    af3917251b85a42e_F4_dwelling_6,    !- Zone Name
    ,                         !- Space Name
    surface,                  !- Outside Boundary Condition
    Block af3917251b85a42e_7 Storey 4 Wall 0008_1,    !- Outside Boundary Condition Object
    NoSun,                    !- Sun Exposure
    NoWind,                   !- Wind Exposure
    autocalculate,            !- View Factor to Ground
    autocalculate,            !- Number of Vertices
    687095.0049999999,        !- Vertex 1 Xcoordinate
    4928962.312,              !- Vertex 1 Ycoordinate
    15,                       !- Vertex 1 Zcoordinate
    687095.0049999999,        !- Vertex 2 Xcoordinate
    4928962.312,              !- Vertex 2 Ycoordinate
    12,                       !- Vertex 2 Zcoordinate
    687100.0769999996,        !- Vertex 3 Xcoordinate
    4928970.596,              !- Vertex 3 Ycoordinate
    12,                       !- Vertex 3 Zcoordinate
    687100.0769999996,        !- Vertex 4 Xcoordinate
    4928970.596,              !- Vertex 4 Ycoordinate
    15;                       !- Vertex 4 Zcoordinate

BUILDINGSURFACE:DETAILED,
    Block af3917251b85a42e_7 Storey 4 Wall 0008_1,    !- Name
    wall,                     !- Surface Type
    EU_wall_Construction,     !- Construction Name
    af3917251b85a42e_F4_dwelling_7,    !- Zone Name
    ,                         !- Space Name
    surface,                  !- Outside Boundary Condition
    Block af3917251b85a42e_6 Storey 4 Wall 0001_1,    !- Outside Boundary Condition Object
    NoSun,                    !- Sun Exposure
    NoWind,                   !- Wind Exposure
    autocalculate,            !- View Factor to Ground
    autocalculate,            !- Number of Vertices
    687100.077,               !- Vertex 1 Xcoordinate
    4928970.596,              !- Vertex 1 Ycoordinate
    15,                       !- Vertex 1 Zcoordinate
    687100.077,               !- Vertex 2 Xcoordinate
    4928970.596,              !- Vertex 2 Ycoordinate
    12,                       !- Vertex 2 Zcoordinate
    687095.0050000004,        !- Vertex 3 Xcoordinate
    4928962.312,              !- Vertex 3 Ycoordinate
    12,                       !- Vertex 3 Zcoordinate
    687095.0050000004,        !- Vertex 4 Xcoordinate
    4928962.312,              !- Vertex 4 Ycoordinate
    15;                       !- Vertex 4 Zcoordinate

BUILDINGSURFACE:DETAILED,
    Block af3917251b85a42e_7 Storey 0 Ceiling 0001_1,    !- Name
    ceiling,                  !- Surface Type
    EU_floor_Construction,    !- Construction Name
    af3917251b85a42e_F0_dwelling_7,    !- Zone Name
    ,                         !- Space Name
    Surface,                  !- Outside Boundary Condition
    Block af3917251b85a42e_7 Storey 1 Floor 0001_1,    !- Outside Boundary Condition Object
    NoSun,                    !- Sun Exposure
    NoWind,                   !- Wind Exposure
    autocalculate,            !- View Factor to Ground
    autocalculate,            !- Number of Vertices
    687068.9169999999,        !- Vertex 1 Xcoordinate
    4929010.488,              !- Vertex 1 Ycoordinate
    3,                        !- Vertex 1 Zcoordinate
    687059.2969999998,        !- Vertex 2 Xcoordinate
    4928995.648,              !- Vertex 2 Ycoordinate
    3,                        !- Vertex 2 Zcoordinate
    687100.077,               !- Vertex 3 Xcoordinate
    4928970.596,              !- Vertex 3 Ycoordinate
    3,                        !- Vertex 3 Zcoordinate
    687095.0049999999,        !- Vertex 4 Xcoordinate
    4928962.312,              !- Vertex 4 Ycoordinate
    3,                        !- Vertex 4 Zcoordinate
    687048.7569999998,        !- Vertex 5 Xcoordinate
    4928990.629,              !- Vertex 5 Ycoordinate
    3,                        !- Vertex 5 Zcoordinate
    687054.6669999999,        !- Vertex 6 Xcoordinate
    4928999.998,              !- Vertex 6 Ycoordinate
    3,                        !- Vertex 6 Zcoordinate
    687055.9469999997,        !- Vertex 7 Xcoordinate
    4929002.008,              !- Vertex 7 Ycoordinate
    3,                        !- Vertex 7 Zcoordinate
    687063.577,               !- Vertex 8 Xcoordinate
    4929014.098,              !- Vertex 8 Ycoordinate
    3;                        !- Vertex 8 Zcoordinate

BUILDINGSURFACE:DETAILED,
    Block af3917251b85a42e_7 Storey 1 Floor 0001_1,    !- Name
    floor,                    !- Surface Type
    EU_floor_Construction,    !- Construction Name
    af3917251b85a42e_F1_dwelling_7,    !- Zone Name
    ,                         !- Space Name
    Surface,                  !- Outside Boundary Condition
    Block af3917251b85a42e_7 Storey 0 Ceiling 0001_1,    !- Outside Boundary Condition Object
    NoSun,                    !- Sun Exposure
    NoWind,                   !- Wind Exposure
    autocalculate,            !- View Factor to Ground
    autocalculate,            !- Number of Vertices
    687095.0049999999,        !- Vertex 1 Xcoordinate
    4928962.312,              !- Vertex 1 Ycoordinate
    3,                        !- Vertex 1 Zcoordinate
    687100.077,               !- Vertex 2 Xcoordinate
    4928970.596,              !- Vertex 2 Ycoordinate
    3,                        !- Vertex 2 Zcoordinate
    687059.2969999998,        !- Vertex 3 Xcoordinate
    4928995.648,              !- Vertex 3 Ycoordinate
    3,                        !- Vertex 3 Zcoordinate
    687068.9169999999,        !- Vertex 4 Xcoordinate
    4929010.488,              !- Vertex 4 Ycoordinate
    3,                        !- Vertex 4 Zcoordinate
    687063.577,               !- Vertex 5 Xcoordinate
    4929014.098,              !- Vertex 5 Ycoordinate
    3,                        !- Vertex 5 Zcoordinate
    687055.9469999997,        !- Vertex 6 Xcoordinate
    4929002.008,              !- Vertex 6 Ycoordinate
    3,                        !- Vertex 6 Zcoordinate
    687054.6669999999,        !- Vertex 7 Xcoordinate
    4928999.998,              !- Vertex 7 Ycoordinate
    3,                        !- Vertex 7 Zcoordinate
    687048.7569999998,        !- Vertex 8 Xcoordinate
    4928990.629,              !- Vertex 8 Ycoordinate
    3;                        !- Vertex 8 Zcoordinate

BUILDINGSURFACE:DETAILED,
    Block af3917251b85a42e_7 Storey 1 Ceiling 0001_1,    !- Name
    ceiling,                  !- Surface Type
    EU_floor_Construction,    !- Construction Name
    af3917251b85a42e_F1_dwelling_7,    !- Zone Name
    ,                         !- Space Name
    Surface,                  !- Outside Boundary Condition
    Block af3917251b85a42e_7 Storey 2 Floor 0001_1,    !- Outside Boundary Condition Object
    NoSun,                    !- Sun Exposure
    NoWind,                   !- Wind Exposure
    autocalculate,            !- View Factor to Ground
    autocalculate,            !- Number of Vertices
    687068.9169999999,        !- Vertex 1 Xcoordinate
    4929010.488,              !- Vertex 1 Ycoordinate
    6,                        !- Vertex 1 Zcoordinate
    687059.2969999998,        !- Vertex 2 Xcoordinate
    4928995.648,              !- Vertex 2 Ycoordinate
    6,                        !- Vertex 2 Zcoordinate
    687100.077,               !- Vertex 3 Xcoordinate
    4928970.596,              !- Vertex 3 Ycoordinate
    6,                        !- Vertex 3 Zcoordinate
    687095.0049999999,        !- Vertex 4 Xcoordinate
    4928962.312,              !- Vertex 4 Ycoordinate
    6,                        !- Vertex 4 Zcoordinate
    687048.7569999998,        !- Vertex 5 Xcoordinate
    4928990.629,              !- Vertex 5 Ycoordinate
    6,                        !- Vertex 5 Zcoordinate
    687054.6669999999,        !- Vertex 6 Xcoordinate
    4928999.998,              !- Vertex 6 Ycoordinate
    6,                        !- Vertex 6 Zcoordinate
    687055.9469999997,        !- Vertex 7 Xcoordinate
    4929002.008,              !- Vertex 7 Ycoordinate
    6,                        !- Vertex 7 Zcoordinate
    687063.577,               !- Vertex 8 Xcoordinate
    4929014.098,              !- Vertex 8 Ycoordinate
    6;                        !- Vertex 8 Zcoordinate

BUILDINGSURFACE:DETAILED,
    Block af3917251b85a42e_7 Storey 2 Floor 0001_1,    !- Name
    floor,                    !- Surface Type
    EU_floor_Construction,    !- Construction Name
    af3917251b85a42e_F2_dwelling_7,    !- Zone Name
    ,                         !- Space Name
    Surface,                  !- Outside Boundary Condition
    Block af3917251b85a42e_7 Storey 1 Ceiling 0001_1,    !- Outside Boundary Condition Object
    NoSun,                    !- Sun Exposure
    NoWind,                   !- Wind Exposure
    autocalculate,            !- View Factor to Ground
    autocalculate,            !- Number of Vertices
    687095.0049999999,        !- Vertex 1 Xcoordinate
    4928962.312,              !- Vertex 1 Ycoordinate
    6,                        !- Vertex 1 Zcoordinate
    687100.077,               !- Vertex 2 Xcoordinate
    4928970.596,              !- Vertex 2 Ycoordinate
    6,                        !- Vertex 2 Zcoordinate
    687059.2969999998,        !- Vertex 3 Xcoordinate
    4928995.648,              !- Vertex 3 Ycoordinate
    6,                        !- Vertex 3 Zcoordinate
    687068.9169999999,        !- Vertex 4 Xcoordinate
    4929010.488,              !- Vertex 4 Ycoordinate
    6,                        !- Vertex 4 Zcoordinate
    687063.577,               !- Vertex 5 Xcoordinate
    4929014.098,              !- Vertex 5 Ycoordinate
    6,                        !- Vertex 5 Zcoordinate
    687055.9469999997,        !- Vertex 6 Xcoordinate
    4929002.008,              !- Vertex 6 Ycoordinate
    6,                        !- Vertex 6 Zcoordinate
    687054.6669999999,        !- Vertex 7 Xcoordinate
    4928999.998,              !- Vertex 7 Ycoordinate
    6,                        !- Vertex 7 Zcoordinate
    687048.7569999998,        !- Vertex 8 Xcoordinate
    4928990.629,              !- Vertex 8 Ycoordinate
    6;                        !- Vertex 8 Zcoordinate

BUILDINGSURFACE:DETAILED,
    Block af3917251b85a42e_7 Storey 2 Ceiling 0001_1,    !- Name
    ceiling,                  !- Surface Type
    EU_floor_Construction,    !- Construction Name
    af3917251b85a42e_F2_dwelling_7,    !- Zone Name
    ,                         !- Space Name
    Surface,                  !- Outside Boundary Condition
    Block af3917251b85a42e_7 Storey 3 Floor 0001_1,    !- Outside Boundary Condition Object
    NoSun,                    !- Sun Exposure
    NoWind,                   !- Wind Exposure
    autocalculate,            !- View Factor to Ground
    autocalculate,            !- Number of Vertices
    687068.9169999999,        !- Vertex 1 Xcoordinate
    4929010.488,              !- Vertex 1 Ycoordinate
    9,                        !- Vertex 1 Zcoordinate
    687059.2969999998,        !- Vertex 2 Xcoordinate
    4928995.648,              !- Vertex 2 Ycoordinate
    9,                        !- Vertex 2 Zcoordinate
    687100.077,               !- Vertex 3 Xcoordinate
    4928970.596,              !- Vertex 3 Ycoordinate
    9,                        !- Vertex 3 Zcoordinate
    687095.0049999999,        !- Vertex 4 Xcoordinate
    4928962.312,              !- Vertex 4 Ycoordinate
    9,                        !- Vertex 4 Zcoordinate
    687048.7569999998,        !- Vertex 5 Xcoordinate
    4928990.629,              !- Vertex 5 Ycoordinate
    9,                        !- Vertex 5 Zcoordinate
    687054.6669999999,        !- Vertex 6 Xcoordinate
    4928999.998,              !- Vertex 6 Ycoordinate
    9,                        !- Vertex 6 Zcoordinate
    687055.9469999997,        !- Vertex 7 Xcoordinate
    4929002.008,              !- Vertex 7 Ycoordinate
    9,                        !- Vertex 7 Zcoordinate
    687063.577,               !- Vertex 8 Xcoordinate
    4929014.098,              !- Vertex 8 Ycoordinate
    9;                        !- Vertex 8 Zcoordinate

BUILDINGSURFACE:DETAILED,
    Block af3917251b85a42e_7 Storey 3 Floor 0001_1,    !- Name
    floor,                    !- Surface Type
    EU_floor_Construction,    !- Construction Name
    af3917251b85a42e_F3_dwelling_7,    !- Zone Name
    ,                         !- Space Name
    Surface,                  !- Outside Boundary Condition
    Block af3917251b85a42e_7 Storey 2 Ceiling 0001_1,    !- Outside Boundary Condition Object
    NoSun,                    !- Sun Exposure
    NoWind,                   !- Wind Exposure
    autocalculate,            !- View Factor to Ground
    autocalculate,            !- Number of Vertices
    687095.0049999999,        !- Vertex 1 Xcoordinate
    4928962.312,              !- Vertex 1 Ycoordinate
    9,                        !- Vertex 1 Zcoordinate
    687100.077,               !- Vertex 2 Xcoordinate
    4928970.596,              !- Vertex 2 Ycoordinate
    9,                        !- Vertex 2 Zcoordinate
    687059.2969999998,        !- Vertex 3 Xcoordinate
    4928995.648,              !- Vertex 3 Ycoordinate
    9,                        !- Vertex 3 Zcoordinate
    687068.9169999999,        !- Vertex 4 Xcoordinate
    4929010.488,              !- Vertex 4 Ycoordinate
    9,                        !- Vertex 4 Zcoordinate
    687063.577,               !- Vertex 5 Xcoordinate
    4929014.098,              !- Vertex 5 Ycoordinate
    9,                        !- Vertex 5 Zcoordinate
    687055.9469999997,        !- Vertex 6 Xcoordinate
    4929002.008,              !- Vertex 6 Ycoordinate
    9,                        !- Vertex 6 Zcoordinate
    687054.6669999999,        !- Vertex 7 Xcoordinate
    4928999.998,              !- Vertex 7 Ycoordinate
    9,                        !- Vertex 7 Zcoordinate
    687048.7569999998,        !- Vertex 8 Xcoordinate
    4928990.629,              !- Vertex 8 Ycoordinate
    9;                        !- Vertex 8 Zcoordinate

BUILDINGSURFACE:DETAILED,
    Block af3917251b85a42e_7 Storey 3 Ceiling 0001_1,    !- Name
    ceiling,                  !- Surface Type
    EU_floor_Construction,    !- Construction Name
    af3917251b85a42e_F3_dwelling_7,    !- Zone Name
    ,                         !- Space Name
    Surface,                  !- Outside Boundary Condition
    Block af3917251b85a42e_7 Storey 4 Floor 0001_1,    !- Outside Boundary Condition Object
    NoSun,                    !- Sun Exposure
    NoWind,                   !- Wind Exposure
    autocalculate,            !- View Factor to Ground
    autocalculate,            !- Number of Vertices
    687068.9169999999,        !- Vertex 1 Xcoordinate
    4929010.488,              !- Vertex 1 Ycoordinate
    12,                       !- Vertex 1 Zcoordinate
    687059.2969999998,        !- Vertex 2 Xcoordinate
    4928995.648,              !- Vertex 2 Ycoordinate
    12,                       !- Vertex 2 Zcoordinate
    687100.077,               !- Vertex 3 Xcoordinate
    4928970.596,              !- Vertex 3 Ycoordinate
    12,                       !- Vertex 3 Zcoordinate
    687095.0049999999,        !- Vertex 4 Xcoordinate
    4928962.312,              !- Vertex 4 Ycoordinate
    12,                       !- Vertex 4 Zcoordinate
    687048.7569999998,        !- Vertex 5 Xcoordinate
    4928990.629,              !- Vertex 5 Ycoordinate
    12,                       !- Vertex 5 Zcoordinate
    687054.6669999999,        !- Vertex 6 Xcoordinate
    4928999.998,              !- Vertex 6 Ycoordinate
    12,                       !- Vertex 6 Zcoordinate
    687055.9469999997,        !- Vertex 7 Xcoordinate
    4929002.008,              !- Vertex 7 Ycoordinate
    12,                       !- Vertex 7 Zcoordinate
    687063.577,               !- Vertex 8 Xcoordinate
    4929014.098,              !- Vertex 8 Ycoordinate
    12;                       !- Vertex 8 Zcoordinate

BUILDINGSURFACE:DETAILED,
    Block af3917251b85a42e_7 Storey 4 Floor 0001_1,    !- Name
    floor,                    !- Surface Type
    EU_floor_Construction,    !- Construction Name
    af3917251b85a42e_F4_dwelling_7,    !- Zone Name
    ,                         !- Space Name
    Surface,                  !- Outside Boundary Condition
    Block af3917251b85a42e_7 Storey 3 Ceiling 0001_1,    !- Outside Boundary Condition Object
    NoSun,                    !- Sun Exposure
    NoWind,                   !- Wind Exposure
    autocalculate,            !- View Factor to Ground
    autocalculate,            !- Number of Vertices
    687095.0049999999,        !- Vertex 1 Xcoordinate
    4928962.312,              !- Vertex 1 Ycoordinate
    12,                       !- Vertex 1 Zcoordinate
    687100.077,               !- Vertex 2 Xcoordinate
    4928970.596,              !- Vertex 2 Ycoordinate
    12,                       !- Vertex 2 Zcoordinate
    687059.2969999998,        !- Vertex 3 Xcoordinate
    4928995.648,              !- Vertex 3 Ycoordinate
    12,                       !- Vertex 3 Zcoordinate
    687068.9169999999,        !- Vertex 4 Xcoordinate
    4929010.488,              !- Vertex 4 Ycoordinate
    12,                       !- Vertex 4 Zcoordinate
    687063.577,               !- Vertex 5 Xcoordinate
    4929014.098,              !- Vertex 5 Ycoordinate
    12,                       !- Vertex 5 Zcoordinate
    687055.9469999997,        !- Vertex 6 Xcoordinate
    4929002.008,              !- Vertex 6 Ycoordinate
    12,                       !- Vertex 6 Zcoordinate
    687054.6669999999,        !- Vertex 7 Xcoordinate
    4928999.998,              !- Vertex 7 Ycoordinate
    12,                       !- Vertex 7 Zcoordinate
    687048.7569999998,        !- Vertex 8 Xcoordinate
    4928990.629,              !- Vertex 8 Ycoordinate
    12;                       !- Vertex 8 Zcoordinate

INTERNALMASS,
    af3917251b85a42e_F0_dwelling_0_EU_InternalMass,    !- Name
    EU_InternalMass_Construction,    !- Construction Name
    af3917251b85a42e_F0_dwelling_0,    !- Zone or ZoneList Name
    ,                         !- Space or SpaceList Name
    39.63284399993105;        !- Surface Area

INTERNALMASS,
    af3917251b85a42e_F0_dwelling_1_EU_InternalMass,    !- Name
    EU_InternalMass_Construction,    !- Construction Name
    af3917251b85a42e_F0_dwelling_1,    !- Zone or ZoneList Name
    ,                         !- Space or SpaceList Name
    41.96719549906321;        !- Surface Area

INTERNALMASS,
    af3917251b85a42e_F0_dwelling_2_EU_InternalMass,    !- Name
    EU_InternalMass_Construction,    !- Construction Name
    af3917251b85a42e_F0_dwelling_2,    !- Zone or ZoneList Name
    ,                         !- Space or SpaceList Name
    41.96722650187921;        !- Surface Area

INTERNALMASS,
    af3917251b85a42e_F0_dwelling_3_EU_InternalMass,    !- Name
    EU_InternalMass_Construction,    !- Construction Name
    af3917251b85a42e_F0_dwelling_3,    !- Zone or ZoneList Name
    ,                         !- Space or SpaceList Name
    38.952949996743996;       !- Surface Area

INTERNALMASS,
    af3917251b85a42e_F0_dwelling_4_EU_InternalMass,    !- Name
    EU_InternalMass_Construction,    !- Construction Name
    af3917251b85a42e_F0_dwelling_4,    !- Zone or ZoneList Name
    ,                         !- Space or SpaceList Name
    39.01050550323006;        !- Surface Area

INTERNALMASS,
    af3917251b85a42e_F0_dwelling_5_EU_InternalMass,    !- Name
    EU_InternalMass_Construction,    !- Construction Name
    af3917251b85a42e_F0_dwelling_5,    !- Zone or ZoneList Name
    ,                         !- Space or SpaceList Name
    39.27785999982401;        !- Surface Area

INTERNALMASS,
    af3917251b85a42e_F0_dwelling_6_EU_InternalMass,    !- Name
    EU_InternalMass_Construction,    !- Construction Name
    af3917251b85a42e_F0_dwelling_6,    !- Zone or ZoneList Name
    ,                         !- Space or SpaceList Name
    48.75142999786621;        !- Surface Area

INTERNALMASS,
    af3917251b85a42e_F0_dwelling_7_EU_InternalMass,    !- Name
    EU_InternalMass_Construction,    !- Construction Name
    af3917251b85a42e_F0_dwelling_7,    !- Zone or ZoneList Name
    ,                         !- Space or SpaceList Name
    641.2142630076992;        !- Surface Area

INTERNALMASS,
    af3917251b85a42e_F1_dwelling_0_EU_InternalMass,    !- Name
    EU_InternalMass_Construction,    !- Construction Name
    af3917251b85a42e_F1_dwelling_0,    !- Zone or ZoneList Name
    ,                         !- Space or SpaceList Name
    39.63284399993105;        !- Surface Area

INTERNALMASS,
    af3917251b85a42e_F1_dwelling_1_EU_InternalMass,    !- Name
    EU_InternalMass_Construction,    !- Construction Name
    af3917251b85a42e_F1_dwelling_1,    !- Zone or ZoneList Name
    ,                         !- Space or SpaceList Name
    41.96719549906321;        !- Surface Area

INTERNALMASS,
    af3917251b85a42e_F1_dwelling_2_EU_InternalMass,    !- Name
    EU_InternalMass_Construction,    !- Construction Name
    af3917251b85a42e_F1_dwelling_2,    !- Zone or ZoneList Name
    ,                         !- Space or SpaceList Name
    41.96722650187921;        !- Surface Area

INTERNALMASS,
    af3917251b85a42e_F1_dwelling_3_EU_InternalMass,    !- Name
    EU_InternalMass_Construction,    !- Construction Name
    af3917251b85a42e_F1_dwelling_3,    !- Zone or ZoneList Name
    ,                         !- Space or SpaceList Name
    38.952949996743996;       !- Surface Area

INTERNALMASS,
    af3917251b85a42e_F1_dwelling_4_EU_InternalMass,    !- Name
    EU_InternalMass_Construction,    !- Construction Name
    af3917251b85a42e_F1_dwelling_4,    !- Zone or ZoneList Name
    ,                         !- Space or SpaceList Name
    39.01050550323006;        !- Surface Area

INTERNALMASS,
    af3917251b85a42e_F1_dwelling_5_EU_InternalMass,    !- Name
    EU_InternalMass_Construction,    !- Construction Name
    af3917251b85a42e_F1_dwelling_5,    !- Zone or ZoneList Name
    ,                         !- Space or SpaceList Name
    39.27785999982401;        !- Surface Area

INTERNALMASS,
    af3917251b85a42e_F1_dwelling_6_EU_InternalMass,    !- Name
    EU_InternalMass_Construction,    !- Construction Name
    af3917251b85a42e_F1_dwelling_6,    !- Zone or ZoneList Name
    ,                         !- Space or SpaceList Name
    48.75142999786621;        !- Surface Area

INTERNALMASS,
    af3917251b85a42e_F1_dwelling_7_EU_InternalMass,    !- Name
    EU_InternalMass_Construction,    !- Construction Name
    af3917251b85a42e_F1_dwelling_7,    !- Zone or ZoneList Name
    ,                         !- Space or SpaceList Name
    641.2142630076992;        !- Surface Area

INTERNALMASS,
    af3917251b85a42e_F2_dwelling_0_EU_InternalMass,    !- Name
    EU_InternalMass_Construction,    !- Construction Name
    af3917251b85a42e_F2_dwelling_0,    !- Zone or ZoneList Name
    ,                         !- Space or SpaceList Name
    39.63284399993105;        !- Surface Area

INTERNALMASS,
    af3917251b85a42e_F2_dwelling_1_EU_InternalMass,    !- Name
    EU_InternalMass_Construction,    !- Construction Name
    af3917251b85a42e_F2_dwelling_1,    !- Zone or ZoneList Name
    ,                         !- Space or SpaceList Name
    41.96719549906321;        !- Surface Area

INTERNALMASS,
    af3917251b85a42e_F2_dwelling_2_EU_InternalMass,    !- Name
    EU_InternalMass_Construction,    !- Construction Name
    af3917251b85a42e_F2_dwelling_2,    !- Zone or ZoneList Name
    ,                         !- Space or SpaceList Name
    41.96722650187921;        !- Surface Area

INTERNALMASS,
    af3917251b85a42e_F2_dwelling_3_EU_InternalMass,    !- Name
    EU_InternalMass_Construction,    !- Construction Name
    af3917251b85a42e_F2_dwelling_3,    !- Zone or ZoneList Name
    ,                         !- Space or SpaceList Name
    38.952949996743996;       !- Surface Area

INTERNALMASS,
    af3917251b85a42e_F2_dwelling_4_EU_InternalMass,    !- Name
    EU_InternalMass_Construction,    !- Construction Name
    af3917251b85a42e_F2_dwelling_4,    !- Zone or ZoneList Name
    ,                         !- Space or SpaceList Name
    39.01050550323006;        !- Surface Area

INTERNALMASS,
    af3917251b85a42e_F2_dwelling_5_EU_InternalMass,    !- Name
    EU_InternalMass_Construction,    !- Construction Name
    af3917251b85a42e_F2_dwelling_5,    !- Zone or ZoneList Name
    ,                         !- Space or SpaceList Name
    39.27785999982401;        !- Surface Area

INTERNALMASS,
    af3917251b85a42e_F2_dwelling_6_EU_InternalMass,    !- Name
    EU_InternalMass_Construction,    !- Construction Name
    af3917251b85a42e_F2_dwelling_6,    !- Zone or ZoneList Name
    ,                         !- Space or SpaceList Name
    48.75142999786621;        !- Surface Area

INTERNALMASS,
    af3917251b85a42e_F2_dwelling_7_EU_InternalMass,    !- Name
    EU_InternalMass_Construction,    !- Construction Name
    af3917251b85a42e_F2_dwelling_7,    !- Zone or ZoneList Name
    ,                         !- Space or SpaceList Name
    641.2142630076992;        !- Surface Area

INTERNALMASS,
    af3917251b85a42e_F3_dwelling_0_EU_InternalMass,    !- Name
    EU_InternalMass_Construction,    !- Construction Name
    af3917251b85a42e_F3_dwelling_0,    !- Zone or ZoneList Name
    ,                         !- Space or SpaceList Name
    39.63284399993105;        !- Surface Area

INTERNALMASS,
    af3917251b85a42e_F3_dwelling_1_EU_InternalMass,    !- Name
    EU_InternalMass_Construction,    !- Construction Name
    af3917251b85a42e_F3_dwelling_1,    !- Zone or ZoneList Name
    ,                         !- Space or SpaceList Name
    41.96719549906321;        !- Surface Area

INTERNALMASS,
    af3917251b85a42e_F3_dwelling_2_EU_InternalMass,    !- Name
    EU_InternalMass_Construction,    !- Construction Name
    af3917251b85a42e_F3_dwelling_2,    !- Zone or ZoneList Name
    ,                         !- Space or SpaceList Name
    41.96722650187921;        !- Surface Area

INTERNALMASS,
    af3917251b85a42e_F3_dwelling_3_EU_InternalMass,    !- Name
    EU_InternalMass_Construction,    !- Construction Name
    af3917251b85a42e_F3_dwelling_3,    !- Zone or ZoneList Name
    ,                         !- Space or SpaceList Name
    38.952949996743996;       !- Surface Area

INTERNALMASS,
    af3917251b85a42e_F3_dwelling_4_EU_InternalMass,    !- Name
    EU_InternalMass_Construction,    !- Construction Name
    af3917251b85a42e_F3_dwelling_4,    !- Zone or ZoneList Name
    ,                         !- Space or SpaceList Name
    39.01050550323006;        !- Surface Area

INTERNALMASS,
    af3917251b85a42e_F3_dwelling_5_EU_InternalMass,    !- Name
    EU_InternalMass_Construction,    !- Construction Name
    af3917251b85a42e_F3_dwelling_5,    !- Zone or ZoneList Name
    ,                         !- Space or SpaceList Name
    39.27785999982401;        !- Surface Area

INTERNALMASS,
    af3917251b85a42e_F3_dwelling_6_EU_InternalMass,    !- Name
    EU_InternalMass_Construction,    !- Construction Name
    af3917251b85a42e_F3_dwelling_6,    !- Zone or ZoneList Name
    ,                         !- Space or SpaceList Name
    48.75142999786621;        !- Surface Area

INTERNALMASS,
    af3917251b85a42e_F3_dwelling_7_EU_InternalMass,    !- Name
    EU_InternalMass_Construction,    !- Construction Name
    af3917251b85a42e_F3_dwelling_7,    !- Zone or ZoneList Name
    ,                         !- Space or SpaceList Name
    641.2142630076992;        !- Surface Area

INTERNALMASS,
    af3917251b85a42e_F4_dwelling_0_EU_InternalMass,    !- Name
    EU_InternalMass_Construction,    !- Construction Name
    af3917251b85a42e_F4_dwelling_0,    !- Zone or ZoneList Name
    ,                         !- Space or SpaceList Name
    39.63284399993105;        !- Surface Area

INTERNALMASS,
    af3917251b85a42e_F4_dwelling_1_EU_InternalMass,    !- Name
    EU_InternalMass_Construction,    !- Construction Name
    af3917251b85a42e_F4_dwelling_1,    !- Zone or ZoneList Name
    ,                         !- Space or SpaceList Name
    41.96719549906321;        !- Surface Area

INTERNALMASS,
    af3917251b85a42e_F4_dwelling_2_EU_InternalMass,    !- Name
    EU_InternalMass_Construction,    !- Construction Name
    af3917251b85a42e_F4_dwelling_2,    !- Zone or ZoneList Name
    ,                         !- Space or SpaceList Name
    41.96722650187921;        !- Surface Area

INTERNALMASS,
    af3917251b85a42e_F4_dwelling_3_EU_InternalMass,    !- Name
    EU_InternalMass_Construction,    !- Construction Name
    af3917251b85a42e_F4_dwelling_3,    !- Zone or ZoneList Name
    ,                         !- Space or SpaceList Name
    38.952949996743996;       !- Surface Area

INTERNALMASS,
    af3917251b85a42e_F4_dwelling_4_EU_InternalMass,    !- Name
    EU_InternalMass_Construction,    !- Construction Name
    af3917251b85a42e_F4_dwelling_4,    !- Zone or ZoneList Name
    ,                         !- Space or SpaceList Name
    39.01050550323006;        !- Surface Area

INTERNALMASS,
    af3917251b85a42e_F4_dwelling_5_EU_InternalMass,    !- Name
    EU_InternalMass_Construction,    !- Construction Name
    af3917251b85a42e_F4_dwelling_5,    !- Zone or ZoneList Name
    ,                         !- Space or SpaceList Name
    39.27785999982401;        !- Surface Area

INTERNALMASS,
    af3917251b85a42e_F4_dwelling_6_EU_InternalMass,    !- Name
    EU_InternalMass_Construction,    !- Construction Name
    af3917251b85a42e_F4_dwelling_6,    !- Zone or ZoneList Name
    ,                         !- Space or SpaceList Name
    48.75142999786621;        !- Surface Area

INTERNALMASS,
    af3917251b85a42e_F4_dwelling_7_EU_InternalMass,    !- Name
    EU_InternalMass_Construction,    !- Construction Name
    af3917251b85a42e_F4_dwelling_7,    !- Zone or ZoneList Name
    ,                         !- Space or SpaceList Name
    641.2142630076992;        !- Surface Area

SHADING:SITE:DETAILED,
    shade_93385_1,            !- Name
    ,                         !- Transmittance Schedule Name
    autocalculate,            !- Number of Vertices
    687143.1560082426,        !- Vertex 1 Xcoordinate
    4928958.185448538,        !- Vertex 1 Ycoordinate
    15,                       !- Vertex 1 Zcoordinate
    687143.1560082426,        !- Vertex 2 Xcoordinate
    4928958.185448538,        !- Vertex 2 Ycoordinate
    0,                        !- Vertex 2 Zcoordinate
    687151.2286100753,        !- Vertex 3 Xcoordinate
    4928953.688058768,        !- Vertex 3 Ycoordinate
    0,                        !- Vertex 3 Zcoordinate
    687151.2286100753,        !- Vertex 4 Xcoordinate
    4928953.688058768,        !- Vertex 4 Ycoordinate
    15;                       !- Vertex 4 Zcoordinate

SHADING:SITE:DETAILED,
    shade_93385_2,            !- Name
    ,                         !- Transmittance Schedule Name
    autocalculate,            !- Number of Vertices
    687151.2286100753,        !- Vertex 1 Xcoordinate
    4928953.688058768,        !- Vertex 1 Ycoordinate
    15,                       !- Vertex 1 Zcoordinate
    687151.2286100753,        !- Vertex 2 Xcoordinate
    4928953.688058768,        !- Vertex 2 Ycoordinate
    0,                        !- Vertex 2 Zcoordinate
    687147.7749984892,        !- Vertex 3 Xcoordinate
    4928947.488119193,        !- Vertex 3 Ycoordinate
    0,                        !- Vertex 3 Zcoordinate
    687147.7749984892,        !- Vertex 4 Xcoordinate
    4928947.488119193,        !- Vertex 4 Ycoordinate
    15;                       !- Vertex 4 Zcoordinate

SHADING:SITE:DETAILED,
    shade_93385_3,            !- Name
    ,                         !- Transmittance Schedule Name
    autocalculate,            !- Number of Vertices
    687147.7749984892,        !- Vertex 1 Xcoordinate
    4928947.488119193,        !- Vertex 1 Ycoordinate
    15,                       !- Vertex 1 Zcoordinate
    687147.7749984892,        !- Vertex 2 Xcoordinate
    4928947.488119193,        !- Vertex 2 Ycoordinate
    0,                        !- Vertex 2 Zcoordinate
    687139.7021234423,        !- Vertex 3 Xcoordinate
    4928951.985888751,        !- Vertex 3 Ycoordinate
    0,                        !- Vertex 3 Zcoordinate
    687139.7021234423,        !- Vertex 4 Xcoordinate
    4928951.985888751,        !- Vertex 4 Ycoordinate
    15;                       !- Vertex 4 Zcoordinate

SHADING:SITE:DETAILED,
    shade_93385_4,            !- Name
    ,                         !- Transmittance Schedule Name
    autocalculate,            !- Number of Vertices
    687139.7021234423,        !- Vertex 1 Xcoordinate
    4928951.985888751,        !- Vertex 1 Ycoordinate
    15,                       !- Vertex 1 Zcoordinate
    687139.7021234423,        !- Vertex 2 Xcoordinate
    4928951.985888751,        !- Vertex 2 Ycoordinate
    0,                        !- Vertex 2 Zcoordinate
    687143.1560082426,        !- Vertex 3 Xcoordinate
    4928958.185448538,        !- Vertex 3 Ycoordinate
    0,                        !- Vertex 3 Zcoordinate
    687143.1560082426,        !- Vertex 4 Xcoordinate
    4928958.185448538,        !- Vertex 4 Ycoordinate
    15;                       !- Vertex 4 Zcoordinate

SHADING:SITE:DETAILED,
    shade_29944_1,            !- Name
    ,                         !- Transmittance Schedule Name
    autocalculate,            !- Number of Vertices
    687129.6549984893,        !- Vertex 1 Xcoordinate
    4928931.938119191,        !- Vertex 1 Ycoordinate
    15,                       !- Vertex 1 Zcoordinate
    687129.6549984893,        !- Vertex 2 Xcoordinate
    4928931.938119191,        !- Vertex 2 Ycoordinate
    0,                        !- Vertex 2 Zcoordinate
    687145.504998489,         !- Vertex 3 Xcoordinate
    4928921.998119193,        !- Vertex 3 Ycoordinate
    0,                        !- Vertex 3 Zcoordinate
    687145.504998489,         !- Vertex 4 Xcoordinate
    4928921.998119193,        !- Vertex 4 Ycoordinate
    15;                       !- Vertex 4 Zcoordinate

SHADING:SITE:DETAILED,
    shade_29944_2,            !- Name
    ,                         !- Transmittance Schedule Name
    autocalculate,            !- Number of Vertices
    687145.504998489,         !- Vertex 1 Xcoordinate
    4928921.998119193,        !- Vertex 1 Ycoordinate
    15,                       !- Vertex 1 Zcoordinate
    687145.504998489,         !- Vertex 2 Xcoordinate
    4928921.998119193,        !- Vertex 2 Ycoordinate
    0,                        !- Vertex 2 Zcoordinate
    687125.5957861581,        !- Vertex 3 Xcoordinate
    4928890.252437511,        !- Vertex 3 Ycoordinate
    0,                        !- Vertex 3 Zcoordinate
    687125.5957861581,        !- Vertex 4 Xcoordinate
    4928890.252437511,        !- Vertex 4 Ycoordinate
    15;                       !- Vertex 4 Zcoordinate

SHADING:SITE:DETAILED,
    shade_29944_3,            !- Name
    ,                         !- Transmittance Schedule Name
    autocalculate,            !- Number of Vertices
    687125.5957861581,        !- Vertex 1 Xcoordinate
    4928890.252437511,        !- Vertex 1 Ycoordinate
    15,                       !- Vertex 1 Zcoordinate
    687125.5957861581,        !- Vertex 2 Xcoordinate
    4928890.252437511,        !- Vertex 2 Ycoordinate
    0,                        !- Vertex 2 Zcoordinate
    687109.7457861602,        !- Vertex 3 Xcoordinate
    4928900.192437514,        !- Vertex 3 Ycoordinate
    0,                        !- Vertex 3 Zcoordinate
    687109.7457861602,        !- Vertex 4 Xcoordinate
    4928900.192437514,        !- Vertex 4 Ycoordinate
    15;                       !- Vertex 4 Zcoordinate

SHADING:SITE:DETAILED,
    shade_29944_4,            !- Name
    ,                         !- Transmittance Schedule Name
    autocalculate,            !- Number of Vertices
    687109.7457861602,        !- Vertex 1 Xcoordinate
    4928900.192437514,        !- Vertex 1 Ycoordinate
    15,                       !- Vertex 1 Zcoordinate
    687109.7457861602,        !- Vertex 2 Xcoordinate
    4928900.192437514,        !- Vertex 2 Ycoordinate
    0,                        !- Vertex 2 Zcoordinate
    687129.6549984893,        !- Vertex 3 Xcoordinate
    4928931.938119191,        !- Vertex 3 Ycoordinate
    0,                        !- Vertex 3 Zcoordinate
    687129.6549984893,        !- Vertex 4 Xcoordinate
    4928931.938119191,        !- Vertex 4 Ycoordinate
    15;                       !- Vertex 4 Zcoordinate

SHADING:SITE:DETAILED,
    shade_29816_1,            !- Name
    ,                         !- Transmittance Schedule Name
    autocalculate,            !- Number of Vertices
    687086.015799554,         !- Vertex 1 Xcoordinate
    4928903.378260811,        !- Vertex 1 Ycoordinate
    15,                       !- Vertex 1 Zcoordinate
    687086.015799554,         !- Vertex 2 Xcoordinate
    4928903.378260811,        !- Vertex 2 Ycoordinate
    0,                        !- Vertex 2 Zcoordinate
    687111.9865041813,        !- Vertex 3 Xcoordinate
    4928943.140305081,        !- Vertex 3 Ycoordinate
    0,                        !- Vertex 3 Zcoordinate
    687111.9865041813,        !- Vertex 4 Xcoordinate
    4928943.140305081,        !- Vertex 4 Ycoordinate
    15;                       !- Vertex 4 Zcoordinate

SHADING:SITE:DETAILED,
    shade_29816_2,            !- Name
    ,                         !- Transmittance Schedule Name
    autocalculate,            !- Number of Vertices
    687111.9865041813,        !- Vertex 1 Xcoordinate
    4928943.140305081,        !- Vertex 1 Ycoordinate
    15,                       !- Vertex 1 Zcoordinate
    687111.9865041813,        !- Vertex 2 Xcoordinate
    4928943.140305081,        !- Vertex 2 Ycoordinate
    0,                        !- Vertex 2 Zcoordinate
    687116.786016047,         !- Vertex 3 Xcoordinate
    4928940.005488768,        !- Vertex 3 Ycoordinate
    0,                        !- Vertex 3 Zcoordinate
    687116.786016047,         !- Vertex 4 Xcoordinate
    4928940.005488768,        !- Vertex 4 Ycoordinate
    15;                       !- Vertex 4 Zcoordinate

SHADING:SITE:DETAILED,
    shade_29816_3,            !- Name
    ,                         !- Transmittance Schedule Name
    autocalculate,            !- Number of Vertices
    687116.786016047,         !- Vertex 1 Xcoordinate
    4928940.005488768,        !- Vertex 1 Ycoordinate
    15,                       !- Vertex 1 Zcoordinate
    687116.786016047,         !- Vertex 2 Xcoordinate
    4928940.005488768,        !- Vertex 2 Ycoordinate
    0,                        !- Vertex 2 Zcoordinate
    687090.8153114195,        !- Vertex 3 Xcoordinate
    4928900.243444498,        !- Vertex 3 Ycoordinate
    0,                        !- Vertex 3 Zcoordinate
    687090.8153114195,        !- Vertex 4 Xcoordinate
    4928900.243444498,        !- Vertex 4 Ycoordinate
    15;                       !- Vertex 4 Zcoordinate

SHADING:SITE:DETAILED,
    shade_29816_4,            !- Name
    ,                         !- Transmittance Schedule Name
    autocalculate,            !- Number of Vertices
    687090.8153114195,        !- Vertex 1 Xcoordinate
    4928900.243444498,        !- Vertex 1 Ycoordinate
    15,                       !- Vertex 1 Zcoordinate
    687090.8153114195,        !- Vertex 2 Xcoordinate
    4928900.243444498,        !- Vertex 2 Ycoordinate
    0,                        !- Vertex 2 Zcoordinate
    687086.015799554,         !- Vertex 3 Xcoordinate
    4928903.378260811,        !- Vertex 3 Ycoordinate
    0,                        !- Vertex 3 Zcoordinate
    687086.015799554,         !- Vertex 4 Xcoordinate
    4928903.378260811,        !- Vertex 4 Ycoordinate
    15;                       !- Vertex 4 Zcoordinate

SHADING:SITE:DETAILED,
    shade_93414_1,            !- Name
    ,                         !- Transmittance Schedule Name
    autocalculate,            !- Number of Vertices
    687114.149249696,         !- Vertex 1 Xcoordinate
    4928916.81086033,         !- Vertex 1 Ycoordinate
    15,                       !- Vertex 1 Zcoordinate
    687114.149249696,         !- Vertex 2 Xcoordinate
    4928916.81086033,         !- Vertex 2 Ycoordinate
    0,                        !- Vertex 2 Zcoordinate
    687125.1549984894,        !- Vertex 3 Xcoordinate
    4928934.758119193,        !- Vertex 3 Ycoordinate
    0,                        !- Vertex 3 Zcoordinate
    687125.1549984894,        !- Vertex 4 Xcoordinate
    4928934.758119193,        !- Vertex 4 Ycoordinate
    15;                       !- Vertex 4 Zcoordinate

SHADING:SITE:DETAILED,
    shade_93414_2,            !- Name
    ,                         !- Transmittance Schedule Name
    autocalculate,            !- Number of Vertices
    687125.1549984894,        !- Vertex 1 Xcoordinate
    4928934.758119193,        !- Vertex 1 Ycoordinate
    15,                       !- Vertex 1 Zcoordinate
    687125.1549984894,        !- Vertex 2 Xcoordinate
    4928934.758119193,        !- Vertex 2 Ycoordinate
    0,                        !- Vertex 2 Zcoordinate
    687129.8698347406,        !- Vertex 3 Xcoordinate
    4928931.867129023,        !- Vertex 3 Ycoordinate
    0,                        !- Vertex 3 Zcoordinate
    687129.8698347406,        !- Vertex 4 Xcoordinate
    4928931.867129023,        !- Vertex 4 Ycoordinate
    15;                       !- Vertex 4 Zcoordinate

SHADING:SITE:DETAILED,
    shade_93414_3,            !- Name
    ,                         !- Transmittance Schedule Name
    autocalculate,            !- Number of Vertices
    687129.8698347406,        !- Vertex 1 Xcoordinate
    4928931.867129023,        !- Vertex 1 Ycoordinate
    15,                       !- Vertex 1 Zcoordinate
    687129.8698347406,        !- Vertex 2 Xcoordinate
    4928931.867129023,        !- Vertex 2 Ycoordinate
    0,                        !- Vertex 2 Zcoordinate
    687118.8649984896,        !- Vertex 3 Xcoordinate
    4928913.919119191,        !- Vertex 3 Ycoordinate
    0,                        !- Vertex 3 Zcoordinate
    687118.8649984896,        !- Vertex 4 Xcoordinate
    4928913.919119191,        !- Vertex 4 Ycoordinate
    15;                       !- Vertex 4 Zcoordinate

SHADING:SITE:DETAILED,
    shade_93414_4,            !- Name
    ,                         !- Transmittance Schedule Name
    autocalculate,            !- Number of Vertices
    687118.8649984896,        !- Vertex 1 Xcoordinate
    4928913.919119191,        !- Vertex 1 Ycoordinate
    15,                       !- Vertex 1 Zcoordinate
    687118.8649984896,        !- Vertex 2 Xcoordinate
    4928913.919119191,        !- Vertex 2 Ycoordinate
    0,                        !- Vertex 2 Zcoordinate
    687114.149249696,         !- Vertex 3 Xcoordinate
    4928916.81086033,         !- Vertex 3 Ycoordinate
    0,                        !- Vertex 3 Zcoordinate
    687114.149249696,         !- Vertex 4 Xcoordinate
    4928916.81086033,         !- Vertex 4 Ycoordinate
    15;                       !- Vertex 4 Zcoordinate

SHADING:SITE:DETAILED,
    shade_29782_1,            !- Name
    ,                         !- Transmittance Schedule Name
    autocalculate,            !- Number of Vertices
    687112.0659984894,        !- Vertex 1 Xcoordinate
    4928942.968119193,        !- Vertex 1 Ycoordinate
    15,                       !- Vertex 1 Zcoordinate
    687112.0659984894,        !- Vertex 2 Xcoordinate
    4928942.968119193,        !- Vertex 2 Ycoordinate
    0,                        !- Vertex 2 Zcoordinate
    687090.4964614423,        !- Vertex 3 Xcoordinate
    4928909.9284190945,       !- Vertex 3 Ycoordinate
    0,                        !- Vertex 3 Zcoordinate
    687090.4964614423,        !- Vertex 4 Xcoordinate
    4928909.9284190945,       !- Vertex 4 Ycoordinate
    15;                       !- Vertex 4 Zcoordinate

SHADING:SITE:DETAILED,
    shade_29782_2,            !- Name
    ,                         !- Transmittance Schedule Name
    autocalculate,            !- Number of Vertices
    687090.4964614423,        !- Vertex 1 Xcoordinate
    4928909.9284190945,       !- Vertex 1 Ycoordinate
    15,                       !- Vertex 1 Zcoordinate
    687090.4964614423,        !- Vertex 2 Xcoordinate
    4928909.9284190945,       !- Vertex 2 Ycoordinate
    0,                        !- Vertex 2 Zcoordinate
    687086.0085898632,        !- Vertex 3 Xcoordinate
    4928912.858268143,        !- Vertex 3 Ycoordinate
    0,                        !- Vertex 3 Zcoordinate
    687086.0085898632,        !- Vertex 4 Xcoordinate
    4928912.858268143,        !- Vertex 4 Ycoordinate
    15;                       !- Vertex 4 Zcoordinate

SHADING:SITE:DETAILED,
    shade_29782_3,            !- Name
    ,                         !- Transmittance Schedule Name
    autocalculate,            !- Number of Vertices
    687086.0085898632,        !- Vertex 1 Xcoordinate
    4928912.858268143,        !- Vertex 1 Ycoordinate
    15,                       !- Vertex 1 Zcoordinate
    687086.0085898632,        !- Vertex 2 Xcoordinate
    4928912.858268143,        !- Vertex 2 Ycoordinate
    0,                        !- Vertex 2 Zcoordinate
    687107.5781299762,        !- Vertex 3 Xcoordinate
    4928945.897965568,        !- Vertex 3 Ycoordinate
    0,                        !- Vertex 3 Zcoordinate
    687107.5781299762,        !- Vertex 4 Xcoordinate
    4928945.897965568,        !- Vertex 4 Ycoordinate
    15;                       !- Vertex 4 Zcoordinate

SHADING:SITE:DETAILED,
    shade_29782_4,            !- Name
    ,                         !- Transmittance Schedule Name
    autocalculate,            !- Number of Vertices
    687107.5781299762,        !- Vertex 1 Xcoordinate
    4928945.897965568,        !- Vertex 1 Ycoordinate
    15,                       !- Vertex 1 Zcoordinate
    687107.5781299762,        !- Vertex 2 Xcoordinate
    4928945.897965568,        !- Vertex 2 Ycoordinate
    0,                        !- Vertex 2 Zcoordinate
    687112.0659984894,        !- Vertex 3 Xcoordinate
    4928942.968119193,        !- Vertex 3 Ycoordinate
    0,                        !- Vertex 3 Zcoordinate
    687112.0659984894,        !- Vertex 4 Xcoordinate
    4928942.968119193,        !- Vertex 4 Ycoordinate
    15;                       !- Vertex 4 Zcoordinate

SHADING:SITE:DETAILED,
    shade_29917_1,            !- Name
    ,                         !- Transmittance Schedule Name
    autocalculate,            !- Number of Vertices
    687114.2199984896,        !- Vertex 1 Xcoordinate
    4928916.925119191,        !- Vertex 1 Ycoordinate
    15,                       !- Vertex 1 Zcoordinate
    687114.2199984896,        !- Vertex 2 Xcoordinate
    4928916.925119191,        !- Vertex 2 Ycoordinate
    0,                        !- Vertex 2 Zcoordinate
    687104.9759984895,        !- Vertex 3 Xcoordinate
    4928922.9091191925,       !- Vertex 3 Ycoordinate
    0,                        !- Vertex 3 Zcoordinate
    687104.9759984895,        !- Vertex 4 Xcoordinate
    4928922.9091191925,       !- Vertex 4 Ycoordinate
    15;                       !- Vertex 4 Zcoordinate

SHADING:SITE:DETAILED,
    shade_29917_2,            !- Name
    ,                         !- Transmittance Schedule Name
    autocalculate,            !- Number of Vertices
    687104.9759984895,        !- Vertex 1 Xcoordinate
    4928922.9091191925,       !- Vertex 1 Ycoordinate
    15,                       !- Vertex 1 Zcoordinate
    687104.9759984895,        !- Vertex 2 Xcoordinate
    4928922.9091191925,       !- Vertex 2 Ycoordinate
    0,                        !- Vertex 2 Zcoordinate
    687116.3405753116,        !- Vertex 3 Xcoordinate
    4928940.464297687,        !- Vertex 3 Ycoordinate
    0,                        !- Vertex 3 Zcoordinate
    687116.3405753116,        !- Vertex 4 Xcoordinate
    4928940.464297687,        !- Vertex 4 Ycoordinate
    15;                       !- Vertex 4 Zcoordinate

SHADING:SITE:DETAILED,
    shade_29917_3,            !- Name
    ,                         !- Transmittance Schedule Name
    autocalculate,            !- Number of Vertices
    687116.3405753116,        !- Vertex 1 Xcoordinate
    4928940.464297687,        !- Vertex 1 Ycoordinate
    15,                       !- Vertex 1 Zcoordinate
    687116.3405753116,        !- Vertex 2 Xcoordinate
    4928940.464297687,        !- Vertex 2 Ycoordinate
    0,                        !- Vertex 2 Zcoordinate
    687125.5845753127,        !- Vertex 3 Xcoordinate
    4928934.480297688,        !- Vertex 3 Ycoordinate
    0,                        !- Vertex 3 Zcoordinate
    687125.5845753127,        !- Vertex 4 Xcoordinate
    4928934.480297688,        !- Vertex 4 Ycoordinate
    15;                       !- Vertex 4 Zcoordinate

SHADING:SITE:DETAILED,
    shade_29917_4,            !- Name
    ,                         !- Transmittance Schedule Name
    autocalculate,            !- Number of Vertices
    687125.5845753127,        !- Vertex 1 Xcoordinate
    4928934.480297688,        !- Vertex 1 Ycoordinate
    15,                       !- Vertex 1 Zcoordinate
    687125.5845753127,        !- Vertex 2 Xcoordinate
    4928934.480297688,        !- Vertex 2 Ycoordinate
    0,                        !- Vertex 2 Zcoordinate
    687114.2199984896,        !- Vertex 3 Xcoordinate
    4928916.925119191,        !- Vertex 3 Ycoordinate
    0,                        !- Vertex 3 Zcoordinate
    687114.2199984896,        !- Vertex 4 Xcoordinate
    4928916.925119191,        !- Vertex 4 Ycoordinate
    15;                       !- Vertex 4 Zcoordinate

SHADING:SITE:DETAILED,
    shade_29694_1,            !- Name
    ,                         !- Transmittance Schedule Name
    autocalculate,            !- Number of Vertices
    687063.2226752546,        !- Vertex 1 Xcoordinate
    4928910.257078691,        !- Vertex 1 Ycoordinate
    15,                       !- Vertex 1 Zcoordinate
    687063.2226752546,        !- Vertex 2 Xcoordinate
    4928910.257078691,        !- Vertex 2 Ycoordinate
    0,                        !- Vertex 2 Zcoordinate
    687096.5171295835,        !- Vertex 3 Xcoordinate
    4928954.165693925,        !- Vertex 3 Ycoordinate
    0,                        !- Vertex 3 Zcoordinate
    687096.5171295835,        !- Vertex 4 Xcoordinate
    4928954.165693925,        !- Vertex 4 Ycoordinate
    15;                       !- Vertex 4 Zcoordinate

SHADING:SITE:DETAILED,
    shade_29694_2,            !- Name
    ,                         !- Transmittance Schedule Name
    autocalculate,            !- Number of Vertices
    687096.5171295835,        !- Vertex 1 Xcoordinate
    4928954.165693925,        !- Vertex 1 Ycoordinate
    15,                       !- Vertex 1 Zcoordinate
    687096.5171295835,        !- Vertex 2 Xcoordinate
    4928954.165693925,        !- Vertex 2 Ycoordinate
    0,                        !- Vertex 2 Zcoordinate
    687109.4944262708,        !- Vertex 3 Xcoordinate
    4928944.325437984,        !- Vertex 3 Ycoordinate
    0,                        !- Vertex 3 Zcoordinate
    687109.4944262708,        !- Vertex 4 Xcoordinate
    4928944.325437984,        !- Vertex 4 Ycoordinate
    15;                       !- Vertex 4 Zcoordinate

SHADING:SITE:DETAILED,
    shade_29694_3,            !- Name
    ,                         !- Transmittance Schedule Name
    autocalculate,            !- Number of Vertices
    687109.4944262708,        !- Vertex 1 Xcoordinate
    4928944.325437984,        !- Vertex 1 Ycoordinate
    15,                       !- Vertex 1 Zcoordinate
    687109.4944262708,        !- Vertex 2 Xcoordinate
    4928944.325437984,        !- Vertex 2 Ycoordinate
    0,                        !- Vertex 2 Zcoordinate
    687076.1999719418,        !- Vertex 3 Xcoordinate
    4928900.416822751,        !- Vertex 3 Ycoordinate
    0,                        !- Vertex 3 Zcoordinate
    687076.1999719418,        !- Vertex 4 Xcoordinate
    4928900.416822751,        !- Vertex 4 Ycoordinate
    15;                       !- Vertex 4 Zcoordinate

SHADING:SITE:DETAILED,
    shade_29694_4,            !- Name
    ,                         !- Transmittance Schedule Name
    autocalculate,            !- Number of Vertices
    687076.1999719418,        !- Vertex 1 Xcoordinate
    4928900.416822751,        !- Vertex 1 Ycoordinate
    15,                       !- Vertex 1 Zcoordinate
    687076.1999719418,        !- Vertex 2 Xcoordinate
    4928900.416822751,        !- Vertex 2 Ycoordinate
    0,                        !- Vertex 2 Zcoordinate
    687063.2226752546,        !- Vertex 3 Xcoordinate
    4928910.257078691,        !- Vertex 3 Ycoordinate
    0,                        !- Vertex 3 Zcoordinate
    687063.2226752546,        !- Vertex 4 Xcoordinate
    4928910.257078691,        !- Vertex 4 Ycoordinate
    15;                       !- Vertex 4 Zcoordinate

SHADING:SITE:DETAILED,
    shade_29605_1,            !- Name
    ,                         !- Transmittance Schedule Name
    autocalculate,            !- Number of Vertices
    687144.9549984892,        !- Vertex 1 Xcoordinate
    4928931.37811919,         !- Vertex 1 Ycoordinate
    15,                       !- Vertex 1 Zcoordinate
    687144.9549984892,        !- Vertex 2 Xcoordinate
    4928931.37811919,         !- Vertex 2 Ycoordinate
    0,                        !- Vertex 2 Zcoordinate
    687120.3332877915,        !- Vertex 3 Xcoordinate
    4928946.8065204965,       !- Vertex 3 Ycoordinate
    0,                        !- Vertex 3 Zcoordinate
    687120.3332877915,        !- Vertex 4 Xcoordinate
    4928946.8065204965,       !- Vertex 4 Ycoordinate
    15;                       !- Vertex 4 Zcoordinate

SHADING:SITE:DETAILED,
    shade_29605_2,            !- Name
    ,                         !- Transmittance Schedule Name
    autocalculate,            !- Number of Vertices
    687120.3332877915,        !- Vertex 1 Xcoordinate
    4928946.8065204965,       !- Vertex 1 Ycoordinate
    15,                       !- Vertex 1 Zcoordinate
    687120.3332877915,        !- Vertex 2 Xcoordinate
    4928946.8065204965,       !- Vertex 2 Ycoordinate
    0,                        !- Vertex 2 Zcoordinate
    687130.1459984893,        !- Vertex 3 Xcoordinate
    4928962.468119191,        !- Vertex 3 Ycoordinate
    0,                        !- Vertex 3 Zcoordinate
    687130.1459984893,        !- Vertex 4 Xcoordinate
    4928962.468119191,        !- Vertex 4 Ycoordinate
    15;                       !- Vertex 4 Zcoordinate

SHADING:SITE:DETAILED,
    shade_29605_3,            !- Name
    ,                         !- Transmittance Schedule Name
    autocalculate,            !- Number of Vertices
    687130.1459984893,        !- Vertex 1 Xcoordinate
    4928962.468119191,        !- Vertex 1 Ycoordinate
    15,                       !- Vertex 1 Zcoordinate
    687130.1459984893,        !- Vertex 2 Xcoordinate
    4928962.468119191,        !- Vertex 2 Ycoordinate
    0,                        !- Vertex 2 Zcoordinate
    687154.7693227619,        !- Vertex 3 Xcoordinate
    4928947.039064747,        !- Vertex 3 Ycoordinate
    0,                        !- Vertex 3 Zcoordinate
    687154.7693227619,        !- Vertex 4 Xcoordinate
    4928947.039064747,        !- Vertex 4 Ycoordinate
    15;                       !- Vertex 4 Zcoordinate

SHADING:SITE:DETAILED,
    shade_29605_4,            !- Name
    ,                         !- Transmittance Schedule Name
    autocalculate,            !- Number of Vertices
    687154.7693227619,        !- Vertex 1 Xcoordinate
    4928947.039064747,        !- Vertex 1 Ycoordinate
    15,                       !- Vertex 1 Zcoordinate
    687154.7693227619,        !- Vertex 2 Xcoordinate
    4928947.039064747,        !- Vertex 2 Ycoordinate
    0,                        !- Vertex 2 Zcoordinate
    687144.9549984892,        !- Vertex 3 Xcoordinate
    4928931.37811919,         !- Vertex 3 Ycoordinate
    0,                        !- Vertex 3 Zcoordinate
    687144.9549984892,        !- Vertex 4 Xcoordinate
    4928931.37811919,         !- Vertex 4 Ycoordinate
    15;                       !- Vertex 4 Zcoordinate

SHADING:SITE:DETAILED,
    shade_29431_1,            !- Name
    ,                         !- Transmittance Schedule Name
    autocalculate,            !- Number of Vertices
    687053.3680449976,        !- Vertex 1 Xcoordinate
    4928979.786674831,        !- Vertex 1 Ycoordinate
    15,                       !- Vertex 1 Zcoordinate
    687053.3680449976,        !- Vertex 2 Xcoordinate
    4928979.786674831,        !- Vertex 2 Ycoordinate
    0,                        !- Vertex 2 Zcoordinate
    687095.7759984896,        !- Vertex 3 Xcoordinate
    4928953.189119192,        !- Vertex 3 Ycoordinate
    0,                        !- Vertex 3 Zcoordinate
    687095.7759984896,        !- Vertex 4 Xcoordinate
    4928953.189119192,        !- Vertex 4 Ycoordinate
    15;                       !- Vertex 4 Zcoordinate

SHADING:SITE:DETAILED,
    shade_29431_2,            !- Name
    ,                         !- Transmittance Schedule Name
    autocalculate,            !- Number of Vertices
    687095.7759984896,        !- Vertex 1 Xcoordinate
    4928953.189119192,        !- Vertex 1 Ycoordinate
    15,                       !- Vertex 1 Zcoordinate
    687095.7759984896,        !- Vertex 2 Xcoordinate
    4928953.189119192,        !- Vertex 2 Ycoordinate
    0,                        !- Vertex 2 Zcoordinate
    687074.7294638117,        !- Vertex 3 Xcoordinate
    4928919.630231776,        !- Vertex 3 Ycoordinate
    0,                        !- Vertex 3 Zcoordinate
    687074.7294638117,        !- Vertex 4 Xcoordinate
    4928919.630231776,        !- Vertex 4 Ycoordinate
    15;                       !- Vertex 4 Zcoordinate

SHADING:SITE:DETAILED,
    shade_29431_3,            !- Name
    ,                         !- Transmittance Schedule Name
    autocalculate,            !- Number of Vertices
    687074.7294638117,        !- Vertex 1 Xcoordinate
    4928919.630231776,        !- Vertex 1 Ycoordinate
    15,                       !- Vertex 1 Zcoordinate
    687074.7294638117,        !- Vertex 2 Xcoordinate
    4928919.630231776,        !- Vertex 2 Ycoordinate
    0,                        !- Vertex 2 Zcoordinate
    687032.3207904255,        !- Vertex 3 Xcoordinate
    4928946.228041535,        !- Vertex 3 Ycoordinate
    0,                        !- Vertex 3 Zcoordinate
    687032.3207904255,        !- Vertex 4 Xcoordinate
    4928946.228041535,        !- Vertex 4 Ycoordinate
    15;                       !- Vertex 4 Zcoordinate

SHADING:SITE:DETAILED,
    shade_29431_4,            !- Name
    ,                         !- Transmittance Schedule Name
    autocalculate,            !- Number of Vertices
    687032.3207904255,        !- Vertex 1 Xcoordinate
    4928946.228041535,        !- Vertex 1 Ycoordinate
    15,                       !- Vertex 1 Zcoordinate
    687032.3207904255,        !- Vertex 2 Xcoordinate
    4928946.228041535,        !- Vertex 2 Ycoordinate
    0,                        !- Vertex 2 Zcoordinate
    687053.3680449976,        !- Vertex 3 Xcoordinate
    4928979.786674831,        !- Vertex 3 Ycoordinate
    0,                        !- Vertex 3 Zcoordinate
    687053.3680449976,        !- Vertex 4 Xcoordinate
    4928979.786674831,        !- Vertex 4 Ycoordinate
    15;                       !- Vertex 4 Zcoordinate

SHADING:SITE:DETAILED,
    shade_93382_1,            !- Name
    ,                         !- Transmittance Schedule Name
    autocalculate,            !- Number of Vertices
    687137.0159984892,        !- Vertex 1 Xcoordinate
    4928965.417119192,        !- Vertex 1 Ycoordinate
    15,                       !- Vertex 1 Zcoordinate
    687137.0159984892,        !- Vertex 2 Xcoordinate
    4928965.417119192,        !- Vertex 2 Ycoordinate
    0,                        !- Vertex 2 Zcoordinate
    687133.8149984893,        !- Vertex 3 Xcoordinate
    4928960.078119191,        !- Vertex 3 Ycoordinate
    0,                        !- Vertex 3 Zcoordinate
    687133.8149984893,        !- Vertex 4 Xcoordinate
    4928960.078119191,        !- Vertex 4 Ycoordinate
    15;                       !- Vertex 4 Zcoordinate

SHADING:SITE:DETAILED,
    shade_93382_2,            !- Name
    ,                         !- Transmittance Schedule Name
    autocalculate,            !- Number of Vertices
    687133.8149984893,        !- Vertex 1 Xcoordinate
    4928960.078119191,        !- Vertex 1 Ycoordinate
    15,                       !- Vertex 1 Zcoordinate
    687133.8149984893,        !- Vertex 2 Xcoordinate
    4928960.078119191,        !- Vertex 2 Ycoordinate
    0,                        !- Vertex 2 Zcoordinate
    687130.0627947818,        !- Vertex 3 Xcoordinate
    4928962.327959067,        !- Vertex 3 Ycoordinate
    0,                        !- Vertex 3 Zcoordinate
    687130.0627947818,        !- Vertex 4 Xcoordinate
    4928962.327959067,        !- Vertex 4 Ycoordinate
    15;                       !- Vertex 4 Zcoordinate

SHADING:SITE:DETAILED,
    shade_93382_3,            !- Name
    ,                         !- Transmittance Schedule Name
    autocalculate,            !- Number of Vertices
    687130.0627947818,        !- Vertex 1 Xcoordinate
    4928962.327959067,        !- Vertex 1 Ycoordinate
    15,                       !- Vertex 1 Zcoordinate
    687130.0627947818,        !- Vertex 2 Xcoordinate
    4928962.327959067,        !- Vertex 2 Ycoordinate
    0,                        !- Vertex 2 Zcoordinate
    687133.2637947827,        !- Vertex 3 Xcoordinate
    4928967.666959068,        !- Vertex 3 Ycoordinate
    0,                        !- Vertex 3 Zcoordinate
    687133.2637947827,        !- Vertex 4 Xcoordinate
    4928967.666959068,        !- Vertex 4 Ycoordinate
    15;                       !- Vertex 4 Zcoordinate

SHADING:SITE:DETAILED,
    shade_93382_4,            !- Name
    ,                         !- Transmittance Schedule Name
    autocalculate,            !- Number of Vertices
    687133.2637947827,        !- Vertex 1 Xcoordinate
    4928967.666959068,        !- Vertex 1 Ycoordinate
    15,                       !- Vertex 1 Zcoordinate
    687133.2637947827,        !- Vertex 2 Xcoordinate
    4928967.666959068,        !- Vertex 2 Ycoordinate
    0,                        !- Vertex 2 Zcoordinate
    687137.0159984892,        !- Vertex 3 Xcoordinate
    4928965.417119192,        !- Vertex 3 Ycoordinate
    0,                        !- Vertex 3 Zcoordinate
    687137.0159984892,        !- Vertex 4 Xcoordinate
    4928965.417119192,        !- Vertex 4 Ycoordinate
    15;                       !- Vertex 4 Zcoordinate

SHADING:SITE:DETAILED,
    shade_29256_1,            !- Name
    ,                         !- Transmittance Schedule Name
    autocalculate,            !- Number of Vertices
    687054.1769984899,        !- Vertex 1 Xcoordinate
    4928979.279119192,        !- Vertex 1 Ycoordinate
    15,                       !- Vertex 1 Zcoordinate
    687054.1769984899,        !- Vertex 2 Xcoordinate
    4928979.279119192,        !- Vertex 2 Ycoordinate
    0,                        !- Vertex 2 Zcoordinate
    687031.3081749821,        !- Vertex 3 Xcoordinate
    4928943.778943467,        !- Vertex 3 Ycoordinate
    0,                        !- Vertex 3 Zcoordinate
    687031.3081749821,        !- Vertex 4 Xcoordinate
    4928943.778943467,        !- Vertex 4 Ycoordinate
    15;                       !- Vertex 4 Zcoordinate

SHADING:SITE:DETAILED,
    shade_29256_2,            !- Name
    ,                         !- Transmittance Schedule Name
    autocalculate,            !- Number of Vertices
    687031.3081749821,        !- Vertex 1 Xcoordinate
    4928943.778943467,        !- Vertex 1 Ycoordinate
    15,                       !- Vertex 1 Zcoordinate
    687031.3081749821,        !- Vertex 2 Xcoordinate
    4928943.778943467,        !- Vertex 2 Ycoordinate
    0,                        !- Vertex 2 Zcoordinate
    687006.4552710305,        !- Vertex 3 Xcoordinate
    4928959.788385005,        !- Vertex 3 Ycoordinate
    0,                        !- Vertex 3 Zcoordinate
    687006.4552710305,        !- Vertex 4 Xcoordinate
    4928959.788385005,        !- Vertex 4 Ycoordinate
    15;                       !- Vertex 4 Zcoordinate

SHADING:SITE:DETAILED,
    shade_29256_3,            !- Name
    ,                         !- Transmittance Schedule Name
    autocalculate,            !- Number of Vertices
    687006.4552710305,        !- Vertex 1 Xcoordinate
    4928959.788385005,        !- Vertex 1 Ycoordinate
    15,                       !- Vertex 1 Zcoordinate
    687006.4552710305,        !- Vertex 2 Xcoordinate
    4928959.788385005,        !- Vertex 2 Ycoordinate
    0,                        !- Vertex 2 Zcoordinate
    687029.3234652091,        !- Vertex 3 Xcoordinate
    4928995.288750994,        !- Vertex 3 Ycoordinate
    0,                        !- Vertex 3 Zcoordinate
    687029.3234652091,        !- Vertex 4 Xcoordinate
    4928995.288750994,        !- Vertex 4 Ycoordinate
    15;                       !- Vertex 4 Zcoordinate

SHADING:SITE:DETAILED,
    shade_29256_4,            !- Name
    ,                         !- Transmittance Schedule Name
    autocalculate,            !- Number of Vertices
    687029.3234652091,        !- Vertex 1 Xcoordinate
    4928995.288750994,        !- Vertex 1 Ycoordinate
    15,                       !- Vertex 1 Zcoordinate
    687029.3234652091,        !- Vertex 2 Xcoordinate
    4928995.288750994,        !- Vertex 2 Ycoordinate
    0,                        !- Vertex 2 Zcoordinate
    687054.1769984899,        !- Vertex 3 Xcoordinate
    4928979.279119192,        !- Vertex 3 Ycoordinate
    0,                        !- Vertex 3 Zcoordinate
    687054.1769984899,        !- Vertex 4 Xcoordinate
    4928979.279119192,        !- Vertex 4 Ycoordinate
    15;                       !- Vertex 4 Zcoordinate

SHADING:SITE:DETAILED,
    shade_29109_1,            !- Name
    ,                         !- Transmittance Schedule Name
    autocalculate,            !- Number of Vertices
    687007.4635607944,        !- Vertex 1 Xcoordinate
    4929008.782298531,        !- Vertex 1 Ycoordinate
    15,                       !- Vertex 1 Zcoordinate
    687007.4635607944,        !- Vertex 2 Xcoordinate
    4929008.782298531,        !- Vertex 2 Ycoordinate
    0,                        !- Vertex 2 Zcoordinate
    687029.4879984902,        !- Vertex 3 Xcoordinate
    4928994.879119194,        !- Vertex 3 Ycoordinate
    0,                        !- Vertex 3 Zcoordinate
    687029.4879984902,        !- Vertex 4 Xcoordinate
    4928994.879119194,        !- Vertex 4 Ycoordinate
    15;                       !- Vertex 4 Zcoordinate

SHADING:SITE:DETAILED,
    shade_29109_2,            !- Name
    ,                         !- Transmittance Schedule Name
    autocalculate,            !- Number of Vertices
    687029.4879984902,        !- Vertex 1 Xcoordinate
    4928994.879119194,        !- Vertex 1 Ycoordinate
    15,                       !- Vertex 1 Zcoordinate
    687029.4879984902,        !- Vertex 2 Xcoordinate
    4928994.879119194,        !- Vertex 2 Ycoordinate
    0,                        !- Vertex 2 Zcoordinate
    687016.842458116,         !- Vertex 3 Xcoordinate
    4928974.846921327,        !- Vertex 3 Ycoordinate
    0,                        !- Vertex 3 Zcoordinate
    687016.842458116,         !- Vertex 4 Xcoordinate
    4928974.846921327,        !- Vertex 4 Ycoordinate
    15;                       !- Vertex 4 Zcoordinate

SHADING:SITE:DETAILED,
    shade_29109_3,            !- Name
    ,                         !- Transmittance Schedule Name
    autocalculate,            !- Number of Vertices
    687016.842458116,         !- Vertex 1 Xcoordinate
    4928974.846921327,        !- Vertex 1 Ycoordinate
    15,                       !- Vertex 1 Zcoordinate
    687016.842458116,         !- Vertex 2 Xcoordinate
    4928974.846921327,        !- Vertex 2 Ycoordinate
    0,                        !- Vertex 2 Zcoordinate
    686994.8179984903,        !- Vertex 3 Xcoordinate
    4928988.750119193,        !- Vertex 3 Ycoordinate
    0,                        !- Vertex 3 Zcoordinate
    686994.8179984903,        !- Vertex 4 Xcoordinate
    4928988.750119193,        !- Vertex 4 Ycoordinate
    15;                       !- Vertex 4 Zcoordinate

SHADING:SITE:DETAILED,
    shade_29109_4,            !- Name
    ,                         !- Transmittance Schedule Name
    autocalculate,            !- Number of Vertices
    686994.8179984903,        !- Vertex 1 Xcoordinate
    4928988.750119193,        !- Vertex 1 Ycoordinate
    15,                       !- Vertex 1 Zcoordinate
    686994.8179984903,        !- Vertex 2 Xcoordinate
    4928988.750119193,        !- Vertex 2 Ycoordinate
    0,                        !- Vertex 2 Zcoordinate
    687007.4635607944,        !- Vertex 3 Xcoordinate
    4929008.782298531,        !- Vertex 3 Ycoordinate
    0,                        !- Vertex 3 Zcoordinate
    687007.4635607944,        !- Vertex 4 Xcoordinate
    4929008.782298531,        !- Vertex 4 Ycoordinate
    15;                       !- Vertex 4 Zcoordinate

SHADING:SITE:DETAILED,
    shade_28908_1,            !- Name
    ,                         !- Transmittance Schedule Name
    autocalculate,            !- Number of Vertices
    687045.15699849,          !- Vertex 1 Xcoordinate
    4928993.989119192,        !- Vertex 1 Ycoordinate
    15,                       !- Vertex 1 Zcoordinate
    687045.15699849,          !- Vertex 2 Xcoordinate
    4928993.989119192,        !- Vertex 2 Ycoordinate
    0,                        !- Vertex 2 Zcoordinate
    687021.6450526757,        !- Vertex 3 Xcoordinate
    4929008.882828392,        !- Vertex 3 Ycoordinate
    0,                        !- Vertex 3 Zcoordinate
    687021.6450526757,        !- Vertex 4 Xcoordinate
    4929008.882828392,        !- Vertex 4 Ycoordinate
    15;                       !- Vertex 4 Zcoordinate

SHADING:SITE:DETAILED,
    shade_28908_2,            !- Name
    ,                         !- Transmittance Schedule Name
    autocalculate,            !- Number of Vertices
    687021.6450526757,        !- Vertex 1 Xcoordinate
    4929008.882828392,        !- Vertex 1 Ycoordinate
    15,                       !- Vertex 1 Zcoordinate
    687021.6450526757,        !- Vertex 2 Xcoordinate
    4929008.882828392,        !- Vertex 2 Ycoordinate
    0,                        !- Vertex 2 Zcoordinate
    687037.2091044654,        !- Vertex 3 Xcoordinate
    4929033.453235719,        !- Vertex 3 Ycoordinate
    0,                        !- Vertex 3 Zcoordinate
    687037.2091044654,        !- Vertex 4 Xcoordinate
    4929033.453235719,        !- Vertex 4 Ycoordinate
    15;                       !- Vertex 4 Zcoordinate

SHADING:SITE:DETAILED,
    shade_28908_3,            !- Name
    ,                         !- Transmittance Schedule Name
    autocalculate,            !- Number of Vertices
    687037.2091044654,        !- Vertex 1 Xcoordinate
    4929033.453235719,        !- Vertex 1 Ycoordinate
    15,                       !- Vertex 1 Zcoordinate
    687037.2091044654,        !- Vertex 2 Xcoordinate
    4929033.453235719,        !- Vertex 2 Ycoordinate
    0,                        !- Vertex 2 Zcoordinate
    687060.7204120917,        !- Vertex 3 Xcoordinate
    4929018.5600675,          !- Vertex 3 Ycoordinate
    0,                        !- Vertex 3 Zcoordinate
    687060.7204120917,        !- Vertex 4 Xcoordinate
    4929018.5600675,          !- Vertex 4 Ycoordinate
    15;                       !- Vertex 4 Zcoordinate

SHADING:SITE:DETAILED,
    shade_28908_4,            !- Name
    ,                         !- Transmittance Schedule Name
    autocalculate,            !- Number of Vertices
    687060.7204120917,        !- Vertex 1 Xcoordinate
    4929018.5600675,          !- Vertex 1 Ycoordinate
    15,                       !- Vertex 1 Zcoordinate
    687060.7204120917,        !- Vertex 2 Xcoordinate
    4929018.5600675,          !- Vertex 2 Ycoordinate
    0,                        !- Vertex 2 Zcoordinate
    687045.15699849,          !- Vertex 3 Xcoordinate
    4928993.989119192,        !- Vertex 3 Ycoordinate
    0,                        !- Vertex 3 Zcoordinate
    687045.15699849,          !- Vertex 4 Xcoordinate
    4928993.989119192,        !- Vertex 4 Ycoordinate
    15;                       !- Vertex 4 Zcoordinate

SHADING:SITE:DETAILED,
    shade_28749_1,            !- Name
    ,                         !- Transmittance Schedule Name
    autocalculate,            !- Number of Vertices
    687041.8477920472,        !- Vertex 1 Xcoordinate
    4929057.112932724,        !- Vertex 1 Ycoordinate
    15,                       !- Vertex 1 Zcoordinate
    687041.8477920472,        !- Vertex 2 Xcoordinate
    4929057.112932724,        !- Vertex 2 Ycoordinate
    0,                        !- Vertex 2 Zcoordinate
    687072.7781665287,        !- Vertex 3 Xcoordinate
    4929037.004553242,        !- Vertex 3 Ycoordinate
    0,                        !- Vertex 3 Zcoordinate
    687072.7781665287,        !- Vertex 4 Xcoordinate
    4929037.004553242,        !- Vertex 4 Ycoordinate
    15;                       !- Vertex 4 Zcoordinate

SHADING:SITE:DETAILED,
    shade_28749_2,            !- Name
    ,                         !- Transmittance Schedule Name
    autocalculate,            !- Number of Vertices
    687072.7781665287,        !- Vertex 1 Xcoordinate
    4929037.004553242,        !- Vertex 1 Ycoordinate
    15,                       !- Vertex 1 Zcoordinate
    687072.7781665287,        !- Vertex 2 Xcoordinate
    4929037.004553242,        !- Vertex 2 Ycoordinate
    0,                        !- Vertex 2 Zcoordinate
    687054.493060743,         !- Vertex 3 Xcoordinate
    4929008.878708019,        !- Vertex 3 Ycoordinate
    0,                        !- Vertex 3 Zcoordinate
    687054.493060743,         !- Vertex 4 Xcoordinate
    4929008.878708019,        !- Vertex 4 Ycoordinate
    15;                       !- Vertex 4 Zcoordinate

SHADING:SITE:DETAILED,
    shade_28749_3,            !- Name
    ,                         !- Transmittance Schedule Name
    autocalculate,            !- Number of Vertices
    687054.493060743,         !- Vertex 1 Xcoordinate
    4929008.878708019,        !- Vertex 1 Ycoordinate
    15,                       !- Vertex 1 Zcoordinate
    687054.493060743,         !- Vertex 2 Xcoordinate
    4929008.878708019,        !- Vertex 2 Ycoordinate
    0,                        !- Vertex 2 Zcoordinate
    687023.5626862615,        !- Vertex 3 Xcoordinate
    4929028.9870875,          !- Vertex 3 Ycoordinate
    0,                        !- Vertex 3 Zcoordinate
    687023.5626862615,        !- Vertex 4 Xcoordinate
    4929028.9870875,          !- Vertex 4 Ycoordinate
    15;                       !- Vertex 4 Zcoordinate

SHADING:SITE:DETAILED,
    shade_28749_4,            !- Name
    ,                         !- Transmittance Schedule Name
    autocalculate,            !- Number of Vertices
    687023.5626862615,        !- Vertex 1 Xcoordinate
    4929028.9870875,          !- Vertex 1 Ycoordinate
    15,                       !- Vertex 1 Zcoordinate
    687023.5626862615,        !- Vertex 2 Xcoordinate
    4929028.9870875,          !- Vertex 2 Ycoordinate
    0,                        !- Vertex 2 Zcoordinate
    687041.8477920472,        !- Vertex 3 Xcoordinate
    4929057.112932724,        !- Vertex 3 Ycoordinate
    0,                        !- Vertex 3 Zcoordinate
    687041.8477920472,        !- Vertex 4 Xcoordinate
    4929057.112932724,        !- Vertex 4 Ycoordinate
    15;                       !- Vertex 4 Zcoordinate

SHADING:SITE:DETAILED,
    shade_27931_1,            !- Name
    ,                         !- Transmittance Schedule Name
    autocalculate,            !- Number of Vertices
    687063.4592029473,        !- Vertex 1 Xcoordinate
    4929013.911520515,        !- Vertex 1 Ycoordinate
    15,                       !- Vertex 1 Zcoordinate
    687063.4592029473,        !- Vertex 2 Xcoordinate
    4929013.911520515,        !- Vertex 2 Ycoordinate
    0,                        !- Vertex 2 Zcoordinate
    687148.8167448216,        !- Vertex 3 Xcoordinate
    4929149.997913096,        !- Vertex 3 Ycoordinate
    0,                        !- Vertex 3 Zcoordinate
    687148.8167448216,        !- Vertex 4 Xcoordinate
    4929149.997913096,        !- Vertex 4 Ycoordinate
    15;                       !- Vertex 4 Zcoordinate

SHADING:SITE:DETAILED,
    shade_27931_2,            !- Name
    ,                         !- Transmittance Schedule Name
    autocalculate,            !- Number of Vertices
    687148.8167448216,        !- Vertex 1 Xcoordinate
    4929149.997913096,        !- Vertex 1 Ycoordinate
    15,                       !- Vertex 1 Zcoordinate
    687148.8167448216,        !- Vertex 2 Xcoordinate
    4929149.997913096,        !- Vertex 2 Ycoordinate
    0,                        !- Vertex 2 Zcoordinate
    687191.9284032638,        !- Vertex 3 Xcoordinate
    4929122.956964173,        !- Vertex 3 Ycoordinate
    0,                        !- Vertex 3 Zcoordinate
    687191.9284032638,        !- Vertex 4 Xcoordinate
    4929122.956964173,        !- Vertex 4 Ycoordinate
    15;                       !- Vertex 4 Zcoordinate

SHADING:SITE:DETAILED,
    shade_27931_3,            !- Name
    ,                         !- Transmittance Schedule Name
    autocalculate,            !- Number of Vertices
    687191.9284032638,        !- Vertex 1 Xcoordinate
    4929122.956964173,        !- Vertex 1 Ycoordinate
    15,                       !- Vertex 1 Zcoordinate
    687191.9284032638,        !- Vertex 2 Xcoordinate
    4929122.956964173,        !- Vertex 2 Ycoordinate
    0,                        !- Vertex 2 Zcoordinate
    687106.5708613896,        !- Vertex 3 Xcoordinate
    4928986.870571593,        !- Vertex 3 Ycoordinate
    0,                        !- Vertex 3 Zcoordinate
    687106.5708613896,        !- Vertex 4 Xcoordinate
    4928986.870571593,        !- Vertex 4 Ycoordinate
    15;                       !- Vertex 4 Zcoordinate

SHADING:SITE:DETAILED,
    shade_27931_4,            !- Name
    ,                         !- Transmittance Schedule Name
    autocalculate,            !- Number of Vertices
    687106.5708613896,        !- Vertex 1 Xcoordinate
    4928986.870571593,        !- Vertex 1 Ycoordinate
    15,                       !- Vertex 1 Zcoordinate
    687106.5708613896,        !- Vertex 2 Xcoordinate
    4928986.870571593,        !- Vertex 2 Ycoordinate
    0,                        !- Vertex 2 Zcoordinate
    687063.4592029473,        !- Vertex 3 Xcoordinate
    4929013.911520515,        !- Vertex 3 Ycoordinate
    0,                        !- Vertex 3 Zcoordinate
    687063.4592029473,        !- Vertex 4 Xcoordinate
    4929013.911520515,        !- Vertex 4 Ycoordinate
    15;                       !- Vertex 4 Zcoordinate

SHADING:SITE:DETAILED,
    shade_29278_1,            !- Name
    ,                         !- Transmittance Schedule Name
    autocalculate,            !- Number of Vertices
    687163.1458624841,        !- Vertex 1 Xcoordinate
    4928987.146810512,        !- Vertex 1 Ycoordinate
    15,                       !- Vertex 1 Zcoordinate
    687163.1458624841,        !- Vertex 2 Xcoordinate
    4928987.146810512,        !- Vertex 2 Ycoordinate
    0,                        !- Vertex 2 Zcoordinate
    687145.2328565553,        !- Vertex 3 Xcoordinate
    4928957.227614589,        !- Vertex 3 Ycoordinate
    0,                        !- Vertex 3 Zcoordinate
    687145.2328565553,        !- Vertex 4 Xcoordinate
    4928957.227614589,        !- Vertex 4 Ycoordinate
    15;                       !- Vertex 4 Zcoordinate

SHADING:SITE:DETAILED,
    shade_29278_2,            !- Name
    ,                         !- Transmittance Schedule Name
    autocalculate,            !- Number of Vertices
    687145.2328565553,        !- Vertex 1 Xcoordinate
    4928957.227614589,        !- Vertex 1 Ycoordinate
    15,                       !- Vertex 1 Zcoordinate
    687145.2328565553,        !- Vertex 2 Xcoordinate
    4928957.227614589,        !- Vertex 2 Ycoordinate
    0,                        !- Vertex 2 Zcoordinate
    687131.8986007854,        !- Vertex 3 Xcoordinate
    4928965.21100436,         !- Vertex 3 Ycoordinate
    0,                        !- Vertex 3 Zcoordinate
    687131.8986007854,        !- Vertex 4 Xcoordinate
    4928965.21100436,         !- Vertex 4 Ycoordinate
    15;                       !- Vertex 4 Zcoordinate

SHADING:SITE:DETAILED,
    shade_29278_3,            !- Name
    ,                         !- Transmittance Schedule Name
    autocalculate,            !- Number of Vertices
    687131.8986007854,        !- Vertex 1 Xcoordinate
    4928965.21100436,         !- Vertex 1 Ycoordinate
    15,                       !- Vertex 1 Zcoordinate
    687131.8986007854,        !- Vertex 2 Xcoordinate
    4928965.21100436,         !- Vertex 2 Ycoordinate
    0,                        !- Vertex 2 Zcoordinate
    687149.8116067143,        !- Vertex 3 Xcoordinate
    4928995.130200282,        !- Vertex 3 Ycoordinate
    0,                        !- Vertex 3 Zcoordinate
    687149.8116067143,        !- Vertex 4 Xcoordinate
    4928995.130200282,        !- Vertex 4 Ycoordinate
    15;                       !- Vertex 4 Zcoordinate

SHADING:SITE:DETAILED,
    shade_29278_4,            !- Name
    ,                         !- Transmittance Schedule Name
    autocalculate,            !- Number of Vertices
    687149.8116067143,        !- Vertex 1 Xcoordinate
    4928995.130200282,        !- Vertex 1 Ycoordinate
    15,                       !- Vertex 1 Zcoordinate
    687149.8116067143,        !- Vertex 2 Xcoordinate
    4928995.130200282,        !- Vertex 2 Ycoordinate
    0,                        !- Vertex 2 Zcoordinate
    687163.1458624841,        !- Vertex 3 Xcoordinate
    4928987.146810512,        !- Vertex 3 Ycoordinate
    0,                        !- Vertex 3 Zcoordinate
    687163.1458624841,        !- Vertex 4 Xcoordinate
    4928987.146810512,        !- Vertex 4 Ycoordinate
    15;                       !- Vertex 4 Zcoordinate

OTHEREQUIPMENT,
    EU_Step8_InternalGain_af3917251b85a42e_F0_dwelling_0_f000,    !- Name
    Electricity,              !- Fuel Type
    af3917251b85a42e_F0_dwelling_0,    !- Zone or ZoneList or Space or SpaceList Name
    EU_Step8_GainSchedule_af3917251b85a42e_F0_dwelling_0_f000,    !- Schedule Name
    Watts/Area,               !- Design Level Calculation Method
    ,                         !- Design Level
    1,                        !- Power per Zone Floor Area
    ,                         !- Power per Person
    0,                        !- Fraction Latent
    0,                        !- Fraction Radiant
    0,                        !- Fraction Lost
    0,                        !- Carbon Dioxide Generation Rate
    EU_Step8_InternalGains;    !- EndUse Subcategory

OTHEREQUIPMENT,
    EU_Step8_InternalGain_af3917251b85a42e_F0_dwelling_1_f000,    !- Name
    Electricity,              !- Fuel Type
    af3917251b85a42e_F0_dwelling_1,    !- Zone or ZoneList or Space or SpaceList Name
    EU_Step8_GainSchedule_af3917251b85a42e_F0_dwelling_1_f000,    !- Schedule Name
    Watts/Area,               !- Design Level Calculation Method
    ,                         !- Design Level
    1,                        !- Power per Zone Floor Area
    ,                         !- Power per Person
    0,                        !- Fraction Latent
    0,                        !- Fraction Radiant
    0,                        !- Fraction Lost
    0,                        !- Carbon Dioxide Generation Rate
    EU_Step8_InternalGains;    !- EndUse Subcategory

OTHEREQUIPMENT,
    EU_Step8_InternalGain_af3917251b85a42e_F0_dwelling_2_f000,    !- Name
    Electricity,              !- Fuel Type
    af3917251b85a42e_F0_dwelling_2,    !- Zone or ZoneList or Space or SpaceList Name
    EU_Step8_GainSchedule_af3917251b85a42e_F0_dwelling_2_f000,    !- Schedule Name
    Watts/Area,               !- Design Level Calculation Method
    ,                         !- Design Level
    1,                        !- Power per Zone Floor Area
    ,                         !- Power per Person
    0,                        !- Fraction Latent
    0,                        !- Fraction Radiant
    0,                        !- Fraction Lost
    0,                        !- Carbon Dioxide Generation Rate
    EU_Step8_InternalGains;    !- EndUse Subcategory

OTHEREQUIPMENT,
    EU_Step8_InternalGain_af3917251b85a42e_F0_dwelling_3_f000,    !- Name
    Electricity,              !- Fuel Type
    af3917251b85a42e_F0_dwelling_3,    !- Zone or ZoneList or Space or SpaceList Name
    EU_Step8_GainSchedule_af3917251b85a42e_F0_dwelling_3_f000,    !- Schedule Name
    Watts/Area,               !- Design Level Calculation Method
    ,                         !- Design Level
    1,                        !- Power per Zone Floor Area
    ,                         !- Power per Person
    0,                        !- Fraction Latent
    0,                        !- Fraction Radiant
    0,                        !- Fraction Lost
    0,                        !- Carbon Dioxide Generation Rate
    EU_Step8_InternalGains;    !- EndUse Subcategory

OTHEREQUIPMENT,
    EU_Step8_InternalGain_af3917251b85a42e_F0_dwelling_4_f000,    !- Name
    Electricity,              !- Fuel Type
    af3917251b85a42e_F0_dwelling_4,    !- Zone or ZoneList or Space or SpaceList Name
    EU_Step8_GainSchedule_af3917251b85a42e_F0_dwelling_4_f000,    !- Schedule Name
    Watts/Area,               !- Design Level Calculation Method
    ,                         !- Design Level
    1,                        !- Power per Zone Floor Area
    ,                         !- Power per Person
    0,                        !- Fraction Latent
    0,                        !- Fraction Radiant
    0,                        !- Fraction Lost
    0,                        !- Carbon Dioxide Generation Rate
    EU_Step8_InternalGains;    !- EndUse Subcategory

OTHEREQUIPMENT,
    EU_Step8_InternalGain_af3917251b85a42e_F0_dwelling_5_f000,    !- Name
    Electricity,              !- Fuel Type
    af3917251b85a42e_F0_dwelling_5,    !- Zone or ZoneList or Space or SpaceList Name
    EU_Step8_GainSchedule_af3917251b85a42e_F0_dwelling_5_f000,    !- Schedule Name
    Watts/Area,               !- Design Level Calculation Method
    ,                         !- Design Level
    1,                        !- Power per Zone Floor Area
    ,                         !- Power per Person
    0,                        !- Fraction Latent
    0,                        !- Fraction Radiant
    0,                        !- Fraction Lost
    0,                        !- Carbon Dioxide Generation Rate
    EU_Step8_InternalGains;    !- EndUse Subcategory

OTHEREQUIPMENT,
    EU_Step8_InternalGain_af3917251b85a42e_F0_dwelling_6_f000,    !- Name
    Electricity,              !- Fuel Type
    af3917251b85a42e_F0_dwelling_6,    !- Zone or ZoneList or Space or SpaceList Name
    EU_Step8_GainSchedule_af3917251b85a42e_F0_dwelling_6_f000,    !- Schedule Name
    Watts/Area,               !- Design Level Calculation Method
    ,                         !- Design Level
    1,                        !- Power per Zone Floor Area
    ,                         !- Power per Person
    0,                        !- Fraction Latent
    0,                        !- Fraction Radiant
    0,                        !- Fraction Lost
    0,                        !- Carbon Dioxide Generation Rate
    EU_Step8_InternalGains;    !- EndUse Subcategory

OTHEREQUIPMENT,
    EU_Step8_InternalGain_af3917251b85a42e_F0_dwelling_7_f000,    !- Name
    Electricity,              !- Fuel Type
    af3917251b85a42e_F0_dwelling_7,    !- Zone or ZoneList or Space or SpaceList Name
    EU_Step8_GainSchedule_af3917251b85a42e_F0_dwelling_7_f000,    !- Schedule Name
    Watts/Area,               !- Design Level Calculation Method
    ,                         !- Design Level
    1,                        !- Power per Zone Floor Area
    ,                         !- Power per Person
    0,                        !- Fraction Latent
    0,                        !- Fraction Radiant
    0,                        !- Fraction Lost
    0,                        !- Carbon Dioxide Generation Rate
    EU_Step8_InternalGains;    !- EndUse Subcategory

OTHEREQUIPMENT,
    EU_Step8_InternalGain_af3917251b85a42e_F1_dwelling_0_f000,    !- Name
    Electricity,              !- Fuel Type
    af3917251b85a42e_F1_dwelling_0,    !- Zone or ZoneList or Space or SpaceList Name
    EU_Step8_GainSchedule_af3917251b85a42e_F1_dwelling_0_f000,    !- Schedule Name
    Watts/Area,               !- Design Level Calculation Method
    ,                         !- Design Level
    1,                        !- Power per Zone Floor Area
    ,                         !- Power per Person
    0,                        !- Fraction Latent
    0,                        !- Fraction Radiant
    0,                        !- Fraction Lost
    0,                        !- Carbon Dioxide Generation Rate
    EU_Step8_InternalGains;    !- EndUse Subcategory

OTHEREQUIPMENT,
    EU_Step8_InternalGain_af3917251b85a42e_F1_dwelling_1_f000,    !- Name
    Electricity,              !- Fuel Type
    af3917251b85a42e_F1_dwelling_1,    !- Zone or ZoneList or Space or SpaceList Name
    EU_Step8_GainSchedule_af3917251b85a42e_F1_dwelling_1_f000,    !- Schedule Name
    Watts/Area,               !- Design Level Calculation Method
    ,                         !- Design Level
    1,                        !- Power per Zone Floor Area
    ,                         !- Power per Person
    0,                        !- Fraction Latent
    0,                        !- Fraction Radiant
    0,                        !- Fraction Lost
    0,                        !- Carbon Dioxide Generation Rate
    EU_Step8_InternalGains;    !- EndUse Subcategory

OTHEREQUIPMENT,
    EU_Step8_InternalGain_af3917251b85a42e_F1_dwelling_2_f000,    !- Name
    Electricity,              !- Fuel Type
    af3917251b85a42e_F1_dwelling_2,    !- Zone or ZoneList or Space or SpaceList Name
    EU_Step8_GainSchedule_af3917251b85a42e_F1_dwelling_2_f000,    !- Schedule Name
    Watts/Area,               !- Design Level Calculation Method
    ,                         !- Design Level
    1,                        !- Power per Zone Floor Area
    ,                         !- Power per Person
    0,                        !- Fraction Latent
    0,                        !- Fraction Radiant
    0,                        !- Fraction Lost
    0,                        !- Carbon Dioxide Generation Rate
    EU_Step8_InternalGains;    !- EndUse Subcategory

OTHEREQUIPMENT,
    EU_Step8_InternalGain_af3917251b85a42e_F1_dwelling_3_f000,    !- Name
    Electricity,              !- Fuel Type
    af3917251b85a42e_F1_dwelling_3,    !- Zone or ZoneList or Space or SpaceList Name
    EU_Step8_GainSchedule_af3917251b85a42e_F1_dwelling_3_f000,    !- Schedule Name
    Watts/Area,               !- Design Level Calculation Method
    ,                         !- Design Level
    1,                        !- Power per Zone Floor Area
    ,                         !- Power per Person
    0,                        !- Fraction Latent
    0,                        !- Fraction Radiant
    0,                        !- Fraction Lost
    0,                        !- Carbon Dioxide Generation Rate
    EU_Step8_InternalGains;    !- EndUse Subcategory

OTHEREQUIPMENT,
    EU_Step8_InternalGain_af3917251b85a42e_F1_dwelling_4_f000,    !- Name
    Electricity,              !- Fuel Type
    af3917251b85a42e_F1_dwelling_4,    !- Zone or ZoneList or Space or SpaceList Name
    EU_Step8_GainSchedule_af3917251b85a42e_F1_dwelling_4_f000,    !- Schedule Name
    Watts/Area,               !- Design Level Calculation Method
    ,                         !- Design Level
    1,                        !- Power per Zone Floor Area
    ,                         !- Power per Person
    0,                        !- Fraction Latent
    0,                        !- Fraction Radiant
    0,                        !- Fraction Lost
    0,                        !- Carbon Dioxide Generation Rate
    EU_Step8_InternalGains;    !- EndUse Subcategory

OTHEREQUIPMENT,
    EU_Step8_InternalGain_af3917251b85a42e_F1_dwelling_5_f000,    !- Name
    Electricity,              !- Fuel Type
    af3917251b85a42e_F1_dwelling_5,    !- Zone or ZoneList or Space or SpaceList Name
    EU_Step8_GainSchedule_af3917251b85a42e_F1_dwelling_5_f000,    !- Schedule Name
    Watts/Area,               !- Design Level Calculation Method
    ,                         !- Design Level
    1,                        !- Power per Zone Floor Area
    ,                         !- Power per Person
    0,                        !- Fraction Latent
    0,                        !- Fraction Radiant
    0,                        !- Fraction Lost
    0,                        !- Carbon Dioxide Generation Rate
    EU_Step8_InternalGains;    !- EndUse Subcategory

OTHEREQUIPMENT,
    EU_Step8_InternalGain_af3917251b85a42e_F1_dwelling_6_f000,    !- Name
    Electricity,              !- Fuel Type
    af3917251b85a42e_F1_dwelling_6,    !- Zone or ZoneList or Space or SpaceList Name
    EU_Step8_GainSchedule_af3917251b85a42e_F1_dwelling_6_f000,    !- Schedule Name
    Watts/Area,               !- Design Level Calculation Method
    ,                         !- Design Level
    1,                        !- Power per Zone Floor Area
    ,                         !- Power per Person
    0,                        !- Fraction Latent
    0,                        !- Fraction Radiant
    0,                        !- Fraction Lost
    0,                        !- Carbon Dioxide Generation Rate
    EU_Step8_InternalGains;    !- EndUse Subcategory

OTHEREQUIPMENT,
    EU_Step8_InternalGain_af3917251b85a42e_F1_dwelling_7_f000,    !- Name
    Electricity,              !- Fuel Type
    af3917251b85a42e_F1_dwelling_7,    !- Zone or ZoneList or Space or SpaceList Name
    EU_Step8_GainSchedule_af3917251b85a42e_F1_dwelling_7_f000,    !- Schedule Name
    Watts/Area,               !- Design Level Calculation Method
    ,                         !- Design Level
    1,                        !- Power per Zone Floor Area
    ,                         !- Power per Person
    0,                        !- Fraction Latent
    0,                        !- Fraction Radiant
    0,                        !- Fraction Lost
    0,                        !- Carbon Dioxide Generation Rate
    EU_Step8_InternalGains;    !- EndUse Subcategory

OTHEREQUIPMENT,
    EU_Step8_InternalGain_af3917251b85a42e_F2_dwelling_0_f000,    !- Name
    Electricity,              !- Fuel Type
    af3917251b85a42e_F2_dwelling_0,    !- Zone or ZoneList or Space or SpaceList Name
    EU_Step8_GainSchedule_af3917251b85a42e_F2_dwelling_0_f000,    !- Schedule Name
    Watts/Area,               !- Design Level Calculation Method
    ,                         !- Design Level
    1,                        !- Power per Zone Floor Area
    ,                         !- Power per Person
    0,                        !- Fraction Latent
    0,                        !- Fraction Radiant
    0,                        !- Fraction Lost
    0,                        !- Carbon Dioxide Generation Rate
    EU_Step8_InternalGains;    !- EndUse Subcategory

OTHEREQUIPMENT,
    EU_Step8_InternalGain_af3917251b85a42e_F2_dwelling_1_f000,    !- Name
    Electricity,              !- Fuel Type
    af3917251b85a42e_F2_dwelling_1,    !- Zone or ZoneList or Space or SpaceList Name
    EU_Step8_GainSchedule_af3917251b85a42e_F2_dwelling_1_f000,    !- Schedule Name
    Watts/Area,               !- Design Level Calculation Method
    ,                         !- Design Level
    1,                        !- Power per Zone Floor Area
    ,                         !- Power per Person
    0,                        !- Fraction Latent
    0,                        !- Fraction Radiant
    0,                        !- Fraction Lost
    0,                        !- Carbon Dioxide Generation Rate
    EU_Step8_InternalGains;    !- EndUse Subcategory

OTHEREQUIPMENT,
    EU_Step8_InternalGain_af3917251b85a42e_F2_dwelling_2_f000,    !- Name
    Electricity,              !- Fuel Type
    af3917251b85a42e_F2_dwelling_2,    !- Zone or ZoneList or Space or SpaceList Name
    EU_Step8_GainSchedule_af3917251b85a42e_F2_dwelling_2_f000,    !- Schedule Name
    Watts/Area,               !- Design Level Calculation Method
    ,                         !- Design Level
    1,                        !- Power per Zone Floor Area
    ,                         !- Power per Person
    0,                        !- Fraction Latent
    0,                        !- Fraction Radiant
    0,                        !- Fraction Lost
    0,                        !- Carbon Dioxide Generation Rate
    EU_Step8_InternalGains;    !- EndUse Subcategory

OTHEREQUIPMENT,
    EU_Step8_InternalGain_af3917251b85a42e_F2_dwelling_3_f000,    !- Name
    Electricity,              !- Fuel Type
    af3917251b85a42e_F2_dwelling_3,    !- Zone or ZoneList or Space or SpaceList Name
    EU_Step8_GainSchedule_af3917251b85a42e_F2_dwelling_3_f000,    !- Schedule Name
    Watts/Area,               !- Design Level Calculation Method
    ,                         !- Design Level
    1,                        !- Power per Zone Floor Area
    ,                         !- Power per Person
    0,                        !- Fraction Latent
    0,                        !- Fraction Radiant
    0,                        !- Fraction Lost
    0,                        !- Carbon Dioxide Generation Rate
    EU_Step8_InternalGains;    !- EndUse Subcategory

OTHEREQUIPMENT,
    EU_Step8_InternalGain_af3917251b85a42e_F2_dwelling_4_f000,    !- Name
    Electricity,              !- Fuel Type
    af3917251b85a42e_F2_dwelling_4,    !- Zone or ZoneList or Space or SpaceList Name
    EU_Step8_GainSchedule_af3917251b85a42e_F2_dwelling_4_f000,    !- Schedule Name
    Watts/Area,               !- Design Level Calculation Method
    ,                         !- Design Level
    1,                        !- Power per Zone Floor Area
    ,                         !- Power per Person
    0,                        !- Fraction Latent
    0,                        !- Fraction Radiant
    0,                        !- Fraction Lost
    0,                        !- Carbon Dioxide Generation Rate
    EU_Step8_InternalGains;    !- EndUse Subcategory

OTHEREQUIPMENT,
    EU_Step8_InternalGain_af3917251b85a42e_F2_dwelling_5_f000,    !- Name
    Electricity,              !- Fuel Type
    af3917251b85a42e_F2_dwelling_5,    !- Zone or ZoneList or Space or SpaceList Name
    EU_Step8_GainSchedule_af3917251b85a42e_F2_dwelling_5_f000,    !- Schedule Name
    Watts/Area,               !- Design Level Calculation Method
    ,                         !- Design Level
    1,                        !- Power per Zone Floor Area
    ,                         !- Power per Person
    0,                        !- Fraction Latent
    0,                        !- Fraction Radiant
    0,                        !- Fraction Lost
    0,                        !- Carbon Dioxide Generation Rate
    EU_Step8_InternalGains;    !- EndUse Subcategory

OTHEREQUIPMENT,
    EU_Step8_InternalGain_af3917251b85a42e_F2_dwelling_6_f000,    !- Name
    Electricity,              !- Fuel Type
    af3917251b85a42e_F2_dwelling_6,    !- Zone or ZoneList or Space or SpaceList Name
    EU_Step8_GainSchedule_af3917251b85a42e_F2_dwelling_6_f000,    !- Schedule Name
    Watts/Area,               !- Design Level Calculation Method
    ,                         !- Design Level
    1,                        !- Power per Zone Floor Area
    ,                         !- Power per Person
    0,                        !- Fraction Latent
    0,                        !- Fraction Radiant
    0,                        !- Fraction Lost
    0,                        !- Carbon Dioxide Generation Rate
    EU_Step8_InternalGains;    !- EndUse Subcategory

OTHEREQUIPMENT,
    EU_Step8_InternalGain_af3917251b85a42e_F2_dwelling_7_f000,    !- Name
    Electricity,              !- Fuel Type
    af3917251b85a42e_F2_dwelling_7,    !- Zone or ZoneList or Space or SpaceList Name
    EU_Step8_GainSchedule_af3917251b85a42e_F2_dwelling_7_f000,    !- Schedule Name
    Watts/Area,               !- Design Level Calculation Method
    ,                         !- Design Level
    1,                        !- Power per Zone Floor Area
    ,                         !- Power per Person
    0,                        !- Fraction Latent
    0,                        !- Fraction Radiant
    0,                        !- Fraction Lost
    0,                        !- Carbon Dioxide Generation Rate
    EU_Step8_InternalGains;    !- EndUse Subcategory

OTHEREQUIPMENT,
    EU_Step8_InternalGain_af3917251b85a42e_F3_dwelling_0_f000,    !- Name
    Electricity,              !- Fuel Type
    af3917251b85a42e_F3_dwelling_0,    !- Zone or ZoneList or Space or SpaceList Name
    EU_Step8_GainSchedule_af3917251b85a42e_F3_dwelling_0_f000,    !- Schedule Name
    Watts/Area,               !- Design Level Calculation Method
    ,                         !- Design Level
    1,                        !- Power per Zone Floor Area
    ,                         !- Power per Person
    0,                        !- Fraction Latent
    0,                        !- Fraction Radiant
    0,                        !- Fraction Lost
    0,                        !- Carbon Dioxide Generation Rate
    EU_Step8_InternalGains;    !- EndUse Subcategory

OTHEREQUIPMENT,
    EU_Step8_InternalGain_af3917251b85a42e_F3_dwelling_1_f000,    !- Name
    Electricity,              !- Fuel Type
    af3917251b85a42e_F3_dwelling_1,    !- Zone or ZoneList or Space or SpaceList Name
    EU_Step8_GainSchedule_af3917251b85a42e_F3_dwelling_1_f000,    !- Schedule Name
    Watts/Area,               !- Design Level Calculation Method
    ,                         !- Design Level
    1,                        !- Power per Zone Floor Area
    ,                         !- Power per Person
    0,                        !- Fraction Latent
    0,                        !- Fraction Radiant
    0,                        !- Fraction Lost
    0,                        !- Carbon Dioxide Generation Rate
    EU_Step8_InternalGains;    !- EndUse Subcategory

OTHEREQUIPMENT,
    EU_Step8_InternalGain_af3917251b85a42e_F3_dwelling_2_f000,    !- Name
    Electricity,              !- Fuel Type
    af3917251b85a42e_F3_dwelling_2,    !- Zone or ZoneList or Space or SpaceList Name
    EU_Step8_GainSchedule_af3917251b85a42e_F3_dwelling_2_f000,    !- Schedule Name
    Watts/Area,               !- Design Level Calculation Method
    ,                         !- Design Level
    1,                        !- Power per Zone Floor Area
    ,                         !- Power per Person
    0,                        !- Fraction Latent
    0,                        !- Fraction Radiant
    0,                        !- Fraction Lost
    0,                        !- Carbon Dioxide Generation Rate
    EU_Step8_InternalGains;    !- EndUse Subcategory

OTHEREQUIPMENT,
    EU_Step8_InternalGain_af3917251b85a42e_F3_dwelling_3_f000,    !- Name
    Electricity,              !- Fuel Type
    af3917251b85a42e_F3_dwelling_3,    !- Zone or ZoneList or Space or SpaceList Name
    EU_Step8_GainSchedule_af3917251b85a42e_F3_dwelling_3_f000,    !- Schedule Name
    Watts/Area,               !- Design Level Calculation Method
    ,                         !- Design Level
    1,                        !- Power per Zone Floor Area
    ,                         !- Power per Person
    0,                        !- Fraction Latent
    0,                        !- Fraction Radiant
    0,                        !- Fraction Lost
    0,                        !- Carbon Dioxide Generation Rate
    EU_Step8_InternalGains;    !- EndUse Subcategory

OTHEREQUIPMENT,
    EU_Step8_InternalGain_af3917251b85a42e_F3_dwelling_4_f000,    !- Name
    Electricity,              !- Fuel Type
    af3917251b85a42e_F3_dwelling_4,    !- Zone or ZoneList or Space or SpaceList Name
    EU_Step8_GainSchedule_af3917251b85a42e_F3_dwelling_4_f000,    !- Schedule Name
    Watts/Area,               !- Design Level Calculation Method
    ,                         !- Design Level
    1,                        !- Power per Zone Floor Area
    ,                         !- Power per Person
    0,                        !- Fraction Latent
    0,                        !- Fraction Radiant
    0,                        !- Fraction Lost
    0,                        !- Carbon Dioxide Generation Rate
    EU_Step8_InternalGains;    !- EndUse Subcategory

OTHEREQUIPMENT,
    EU_Step8_InternalGain_af3917251b85a42e_F3_dwelling_5_f000,    !- Name
    Electricity,              !- Fuel Type
    af3917251b85a42e_F3_dwelling_5,    !- Zone or ZoneList or Space or SpaceList Name
    EU_Step8_GainSchedule_af3917251b85a42e_F3_dwelling_5_f000,    !- Schedule Name
    Watts/Area,               !- Design Level Calculation Method
    ,                         !- Design Level
    1,                        !- Power per Zone Floor Area
    ,                         !- Power per Person
    0,                        !- Fraction Latent
    0,                        !- Fraction Radiant
    0,                        !- Fraction Lost
    0,                        !- Carbon Dioxide Generation Rate
    EU_Step8_InternalGains;    !- EndUse Subcategory

OTHEREQUIPMENT,
    EU_Step8_InternalGain_af3917251b85a42e_F3_dwelling_6_f000,    !- Name
    Electricity,              !- Fuel Type
    af3917251b85a42e_F3_dwelling_6,    !- Zone or ZoneList or Space or SpaceList Name
    EU_Step8_GainSchedule_af3917251b85a42e_F3_dwelling_6_f000,    !- Schedule Name
    Watts/Area,               !- Design Level Calculation Method
    ,                         !- Design Level
    1,                        !- Power per Zone Floor Area
    ,                         !- Power per Person
    0,                        !- Fraction Latent
    0,                        !- Fraction Radiant
    0,                        !- Fraction Lost
    0,                        !- Carbon Dioxide Generation Rate
    EU_Step8_InternalGains;    !- EndUse Subcategory

OTHEREQUIPMENT,
    EU_Step8_InternalGain_af3917251b85a42e_F3_dwelling_7_f000,    !- Name
    Electricity,              !- Fuel Type
    af3917251b85a42e_F3_dwelling_7,    !- Zone or ZoneList or Space or SpaceList Name
    EU_Step8_GainSchedule_af3917251b85a42e_F3_dwelling_7_f000,    !- Schedule Name
    Watts/Area,               !- Design Level Calculation Method
    ,                         !- Design Level
    1,                        !- Power per Zone Floor Area
    ,                         !- Power per Person
    0,                        !- Fraction Latent
    0,                        !- Fraction Radiant
    0,                        !- Fraction Lost
    0,                        !- Carbon Dioxide Generation Rate
    EU_Step8_InternalGains;    !- EndUse Subcategory

OTHEREQUIPMENT,
    EU_Step8_InternalGain_af3917251b85a42e_F4_dwelling_0_f000,    !- Name
    Electricity,              !- Fuel Type
    af3917251b85a42e_F4_dwelling_0,    !- Zone or ZoneList or Space or SpaceList Name
    EU_Step8_GainSchedule_af3917251b85a42e_F4_dwelling_0_f000,    !- Schedule Name
    Watts/Area,               !- Design Level Calculation Method
    ,                         !- Design Level
    1,                        !- Power per Zone Floor Area
    ,                         !- Power per Person
    0,                        !- Fraction Latent
    0,                        !- Fraction Radiant
    0,                        !- Fraction Lost
    0,                        !- Carbon Dioxide Generation Rate
    EU_Step8_InternalGains;    !- EndUse Subcategory

OTHEREQUIPMENT,
    EU_Step8_InternalGain_af3917251b85a42e_F4_dwelling_1_f000,    !- Name
    Electricity,              !- Fuel Type
    af3917251b85a42e_F4_dwelling_1,    !- Zone or ZoneList or Space or SpaceList Name
    EU_Step8_GainSchedule_af3917251b85a42e_F4_dwelling_1_f000,    !- Schedule Name
    Watts/Area,               !- Design Level Calculation Method
    ,                         !- Design Level
    1,                        !- Power per Zone Floor Area
    ,                         !- Power per Person
    0,                        !- Fraction Latent
    0,                        !- Fraction Radiant
    0,                        !- Fraction Lost
    0,                        !- Carbon Dioxide Generation Rate
    EU_Step8_InternalGains;    !- EndUse Subcategory

OTHEREQUIPMENT,
    EU_Step8_InternalGain_af3917251b85a42e_F4_dwelling_2_f000,    !- Name
    Electricity,              !- Fuel Type
    af3917251b85a42e_F4_dwelling_2,    !- Zone or ZoneList or Space or SpaceList Name
    EU_Step8_GainSchedule_af3917251b85a42e_F4_dwelling_2_f000,    !- Schedule Name
    Watts/Area,               !- Design Level Calculation Method
    ,                         !- Design Level
    1,                        !- Power per Zone Floor Area
    ,                         !- Power per Person
    0,                        !- Fraction Latent
    0,                        !- Fraction Radiant
    0,                        !- Fraction Lost
    0,                        !- Carbon Dioxide Generation Rate
    EU_Step8_InternalGains;    !- EndUse Subcategory

OTHEREQUIPMENT,
    EU_Step8_InternalGain_af3917251b85a42e_F4_dwelling_3_f000,    !- Name
    Electricity,              !- Fuel Type
    af3917251b85a42e_F4_dwelling_3,    !- Zone or ZoneList or Space or SpaceList Name
    EU_Step8_GainSchedule_af3917251b85a42e_F4_dwelling_3_f000,    !- Schedule Name
    Watts/Area,               !- Design Level Calculation Method
    ,                         !- Design Level
    1,                        !- Power per Zone Floor Area
    ,                         !- Power per Person
    0,                        !- Fraction Latent
    0,                        !- Fraction Radiant
    0,                        !- Fraction Lost
    0,                        !- Carbon Dioxide Generation Rate
    EU_Step8_InternalGains;    !- EndUse Subcategory

OTHEREQUIPMENT,
    EU_Step8_InternalGain_af3917251b85a42e_F4_dwelling_4_f000,    !- Name
    Electricity,              !- Fuel Type
    af3917251b85a42e_F4_dwelling_4,    !- Zone or ZoneList or Space or SpaceList Name
    EU_Step8_GainSchedule_af3917251b85a42e_F4_dwelling_4_f000,    !- Schedule Name
    Watts/Area,               !- Design Level Calculation Method
    ,                         !- Design Level
    1,                        !- Power per Zone Floor Area
    ,                         !- Power per Person
    0,                        !- Fraction Latent
    0,                        !- Fraction Radiant
    0,                        !- Fraction Lost
    0,                        !- Carbon Dioxide Generation Rate
    EU_Step8_InternalGains;    !- EndUse Subcategory

OTHEREQUIPMENT,
    EU_Step8_InternalGain_af3917251b85a42e_F4_dwelling_5_f000,    !- Name
    Electricity,              !- Fuel Type
    af3917251b85a42e_F4_dwelling_5,    !- Zone or ZoneList or Space or SpaceList Name
    EU_Step8_GainSchedule_af3917251b85a42e_F4_dwelling_5_f000,    !- Schedule Name
    Watts/Area,               !- Design Level Calculation Method
    ,                         !- Design Level
    1,                        !- Power per Zone Floor Area
    ,                         !- Power per Person
    0,                        !- Fraction Latent
    0,                        !- Fraction Radiant
    0,                        !- Fraction Lost
    0,                        !- Carbon Dioxide Generation Rate
    EU_Step8_InternalGains;    !- EndUse Subcategory

OTHEREQUIPMENT,
    EU_Step8_InternalGain_af3917251b85a42e_F4_dwelling_6_f000,    !- Name
    Electricity,              !- Fuel Type
    af3917251b85a42e_F4_dwelling_6,    !- Zone or ZoneList or Space or SpaceList Name
    EU_Step8_GainSchedule_af3917251b85a42e_F4_dwelling_6_f000,    !- Schedule Name
    Watts/Area,               !- Design Level Calculation Method
    ,                         !- Design Level
    1,                        !- Power per Zone Floor Area
    ,                         !- Power per Person
    0,                        !- Fraction Latent
    0,                        !- Fraction Radiant
    0,                        !- Fraction Lost
    0,                        !- Carbon Dioxide Generation Rate
    EU_Step8_InternalGains;    !- EndUse Subcategory

OTHEREQUIPMENT,
    EU_Step8_InternalGain_af3917251b85a42e_F4_dwelling_7_f000,    !- Name
    Electricity,              !- Fuel Type
    af3917251b85a42e_F4_dwelling_7,    !- Zone or ZoneList or Space or SpaceList Name
    EU_Step8_GainSchedule_af3917251b85a42e_F4_dwelling_7_f000,    !- Schedule Name
    Watts/Area,               !- Design Level Calculation Method
    ,                         !- Design Level
    1,                        !- Power per Zone Floor Area
    ,                         !- Power per Person
    0,                        !- Fraction Latent
    0,                        !- Fraction Radiant
    0,                        !- Fraction Lost
    0,                        !- Carbon Dioxide Generation Rate
    EU_Step8_InternalGains;    !- EndUse Subcategory

ZONEVENTILATION:DESIGNFLOWRATE,
    EU_ConstantAir_af3917251b85a42e_F0_dwelling_0,    !- Name
    af3917251b85a42e_F0_dwelling_0,    !- Zone or ZoneList or Space or SpaceList Name
    EU_AlwaysOn,              !- Schedule Name
    AirChanges/Hour,          !- Design Flow Rate Calculation Method
    ,                         !- Design Flow Rate
    ,                         !- Flow Rate per Floor Area
    ,                         !- Flow Rate per Person
    0.7186337190781831,       !- Air Changes per Hour
    Natural,                  !- Ventilation Type
    0,                        !- Fan Pressure Rise
    1,                        !- Fan Total Efficiency
    1,                        !- Constant Term Coefficient
    0,                        !- Temperature Term Coefficient
    0,                        !- Velocity Term Coefficient
    0,                        !- Velocity Squared Term Coefficient
    -100,                     !- Minimum Indoor Temperature
    ,                         !- Minimum Indoor Temperature Schedule Name
    100,                      !- Maximum Indoor Temperature
    ,                         !- Maximum Indoor Temperature Schedule Name
    -100,                     !- Delta Temperature
    ,                         !- Delta Temperature Schedule Name
    -100,                     !- Minimum Outdoor Temperature
    ,                         !- Minimum Outdoor Temperature Schedule Name
    100,                      !- Maximum Outdoor Temperature
    ,                         !- Maximum Outdoor Temperature Schedule Name
    40;                       !- Maximum Wind Speed

ZONEVENTILATION:DESIGNFLOWRATE,
    EU_ConstantAir_af3917251b85a42e_F0_dwelling_1,    !- Name
    af3917251b85a42e_F0_dwelling_1,    !- Zone or ZoneList or Space or SpaceList Name
    EU_AlwaysOn,              !- Schedule Name
    AirChanges/Hour,          !- Design Flow Rate Calculation Method
    ,                         !- Design Flow Rate
    ,                         !- Flow Rate per Floor Area
    ,                         !- Flow Rate per Person
    0.7186337190781831,       !- Air Changes per Hour
    Natural,                  !- Ventilation Type
    0,                        !- Fan Pressure Rise
    1,                        !- Fan Total Efficiency
    1,                        !- Constant Term Coefficient
    0,                        !- Temperature Term Coefficient
    0,                        !- Velocity Term Coefficient
    0,                        !- Velocity Squared Term Coefficient
    -100,                     !- Minimum Indoor Temperature
    ,                         !- Minimum Indoor Temperature Schedule Name
    100,                      !- Maximum Indoor Temperature
    ,                         !- Maximum Indoor Temperature Schedule Name
    -100,                     !- Delta Temperature
    ,                         !- Delta Temperature Schedule Name
    -100,                     !- Minimum Outdoor Temperature
    ,                         !- Minimum Outdoor Temperature Schedule Name
    100,                      !- Maximum Outdoor Temperature
    ,                         !- Maximum Outdoor Temperature Schedule Name
    40;                       !- Maximum Wind Speed

ZONEVENTILATION:DESIGNFLOWRATE,
    EU_ConstantAir_af3917251b85a42e_F0_dwelling_2,    !- Name
    af3917251b85a42e_F0_dwelling_2,    !- Zone or ZoneList or Space or SpaceList Name
    EU_AlwaysOn,              !- Schedule Name
    AirChanges/Hour,          !- Design Flow Rate Calculation Method
    ,                         !- Design Flow Rate
    ,                         !- Flow Rate per Floor Area
    ,                         !- Flow Rate per Person
    0.7186337190781831,       !- Air Changes per Hour
    Natural,                  !- Ventilation Type
    0,                        !- Fan Pressure Rise
    1,                        !- Fan Total Efficiency
    1,                        !- Constant Term Coefficient
    0,                        !- Temperature Term Coefficient
    0,                        !- Velocity Term Coefficient
    0,                        !- Velocity Squared Term Coefficient
    -100,                     !- Minimum Indoor Temperature
    ,                         !- Minimum Indoor Temperature Schedule Name
    100,                      !- Maximum Indoor Temperature
    ,                         !- Maximum Indoor Temperature Schedule Name
    -100,                     !- Delta Temperature
    ,                         !- Delta Temperature Schedule Name
    -100,                     !- Minimum Outdoor Temperature
    ,                         !- Minimum Outdoor Temperature Schedule Name
    100,                      !- Maximum Outdoor Temperature
    ,                         !- Maximum Outdoor Temperature Schedule Name
    40;                       !- Maximum Wind Speed

ZONEVENTILATION:DESIGNFLOWRATE,
    EU_ConstantAir_af3917251b85a42e_F0_dwelling_3,    !- Name
    af3917251b85a42e_F0_dwelling_3,    !- Zone or ZoneList or Space or SpaceList Name
    EU_AlwaysOn,              !- Schedule Name
    AirChanges/Hour,          !- Design Flow Rate Calculation Method
    ,                         !- Design Flow Rate
    ,                         !- Flow Rate per Floor Area
    ,                         !- Flow Rate per Person
    0.7186337190781831,       !- Air Changes per Hour
    Natural,                  !- Ventilation Type
    0,                        !- Fan Pressure Rise
    1,                        !- Fan Total Efficiency
    1,                        !- Constant Term Coefficient
    0,                        !- Temperature Term Coefficient
    0,                        !- Velocity Term Coefficient
    0,                        !- Velocity Squared Term Coefficient
    -100,                     !- Minimum Indoor Temperature
    ,                         !- Minimum Indoor Temperature Schedule Name
    100,                      !- Maximum Indoor Temperature
    ,                         !- Maximum Indoor Temperature Schedule Name
    -100,                     !- Delta Temperature
    ,                         !- Delta Temperature Schedule Name
    -100,                     !- Minimum Outdoor Temperature
    ,                         !- Minimum Outdoor Temperature Schedule Name
    100,                      !- Maximum Outdoor Temperature
    ,                         !- Maximum Outdoor Temperature Schedule Name
    40;                       !- Maximum Wind Speed

ZONEVENTILATION:DESIGNFLOWRATE,
    EU_ConstantAir_af3917251b85a42e_F0_dwelling_4,    !- Name
    af3917251b85a42e_F0_dwelling_4,    !- Zone or ZoneList or Space or SpaceList Name
    EU_AlwaysOn,              !- Schedule Name
    AirChanges/Hour,          !- Design Flow Rate Calculation Method
    ,                         !- Design Flow Rate
    ,                         !- Flow Rate per Floor Area
    ,                         !- Flow Rate per Person
    0.7186337190781831,       !- Air Changes per Hour
    Natural,                  !- Ventilation Type
    0,                        !- Fan Pressure Rise
    1,                        !- Fan Total Efficiency
    1,                        !- Constant Term Coefficient
    0,                        !- Temperature Term Coefficient
    0,                        !- Velocity Term Coefficient
    0,                        !- Velocity Squared Term Coefficient
    -100,                     !- Minimum Indoor Temperature
    ,                         !- Minimum Indoor Temperature Schedule Name
    100,                      !- Maximum Indoor Temperature
    ,                         !- Maximum Indoor Temperature Schedule Name
    -100,                     !- Delta Temperature
    ,                         !- Delta Temperature Schedule Name
    -100,                     !- Minimum Outdoor Temperature
    ,                         !- Minimum Outdoor Temperature Schedule Name
    100,                      !- Maximum Outdoor Temperature
    ,                         !- Maximum Outdoor Temperature Schedule Name
    40;                       !- Maximum Wind Speed

ZONEVENTILATION:DESIGNFLOWRATE,
    EU_ConstantAir_af3917251b85a42e_F0_dwelling_5,    !- Name
    af3917251b85a42e_F0_dwelling_5,    !- Zone or ZoneList or Space or SpaceList Name
    EU_AlwaysOn,              !- Schedule Name
    AirChanges/Hour,          !- Design Flow Rate Calculation Method
    ,                         !- Design Flow Rate
    ,                         !- Flow Rate per Floor Area
    ,                         !- Flow Rate per Person
    0.7186337190781831,       !- Air Changes per Hour
    Natural,                  !- Ventilation Type
    0,                        !- Fan Pressure Rise
    1,                        !- Fan Total Efficiency
    1,                        !- Constant Term Coefficient
    0,                        !- Temperature Term Coefficient
    0,                        !- Velocity Term Coefficient
    0,                        !- Velocity Squared Term Coefficient
    -100,                     !- Minimum Indoor Temperature
    ,                         !- Minimum Indoor Temperature Schedule Name
    100,                      !- Maximum Indoor Temperature
    ,                         !- Maximum Indoor Temperature Schedule Name
    -100,                     !- Delta Temperature
    ,                         !- Delta Temperature Schedule Name
    -100,                     !- Minimum Outdoor Temperature
    ,                         !- Minimum Outdoor Temperature Schedule Name
    100,                      !- Maximum Outdoor Temperature
    ,                         !- Maximum Outdoor Temperature Schedule Name
    40;                       !- Maximum Wind Speed

ZONEVENTILATION:DESIGNFLOWRATE,
    EU_ConstantAir_af3917251b85a42e_F0_dwelling_6,    !- Name
    af3917251b85a42e_F0_dwelling_6,    !- Zone or ZoneList or Space or SpaceList Name
    EU_AlwaysOn,              !- Schedule Name
    AirChanges/Hour,          !- Design Flow Rate Calculation Method
    ,                         !- Design Flow Rate
    ,                         !- Flow Rate per Floor Area
    ,                         !- Flow Rate per Person
    0.7186337190781831,       !- Air Changes per Hour
    Natural,                  !- Ventilation Type
    0,                        !- Fan Pressure Rise
    1,                        !- Fan Total Efficiency
    1,                        !- Constant Term Coefficient
    0,                        !- Temperature Term Coefficient
    0,                        !- Velocity Term Coefficient
    0,                        !- Velocity Squared Term Coefficient
    -100,                     !- Minimum Indoor Temperature
    ,                         !- Minimum Indoor Temperature Schedule Name
    100,                      !- Maximum Indoor Temperature
    ,                         !- Maximum Indoor Temperature Schedule Name
    -100,                     !- Delta Temperature
    ,                         !- Delta Temperature Schedule Name
    -100,                     !- Minimum Outdoor Temperature
    ,                         !- Minimum Outdoor Temperature Schedule Name
    100,                      !- Maximum Outdoor Temperature
    ,                         !- Maximum Outdoor Temperature Schedule Name
    40;                       !- Maximum Wind Speed

ZONEVENTILATION:DESIGNFLOWRATE,
    EU_ConstantAir_af3917251b85a42e_F0_dwelling_7,    !- Name
    af3917251b85a42e_F0_dwelling_7,    !- Zone or ZoneList or Space or SpaceList Name
    EU_AlwaysOn,              !- Schedule Name
    AirChanges/Hour,          !- Design Flow Rate Calculation Method
    ,                         !- Design Flow Rate
    ,                         !- Flow Rate per Floor Area
    ,                         !- Flow Rate per Person
    0.7186337190781831,       !- Air Changes per Hour
    Natural,                  !- Ventilation Type
    0,                        !- Fan Pressure Rise
    1,                        !- Fan Total Efficiency
    1,                        !- Constant Term Coefficient
    0,                        !- Temperature Term Coefficient
    0,                        !- Velocity Term Coefficient
    0,                        !- Velocity Squared Term Coefficient
    -100,                     !- Minimum Indoor Temperature
    ,                         !- Minimum Indoor Temperature Schedule Name
    100,                      !- Maximum Indoor Temperature
    ,                         !- Maximum Indoor Temperature Schedule Name
    -100,                     !- Delta Temperature
    ,                         !- Delta Temperature Schedule Name
    -100,                     !- Minimum Outdoor Temperature
    ,                         !- Minimum Outdoor Temperature Schedule Name
    100,                      !- Maximum Outdoor Temperature
    ,                         !- Maximum Outdoor Temperature Schedule Name
    40;                       !- Maximum Wind Speed

ZONEVENTILATION:DESIGNFLOWRATE,
    EU_ConstantAir_af3917251b85a42e_F1_dwelling_0,    !- Name
    af3917251b85a42e_F1_dwelling_0,    !- Zone or ZoneList or Space or SpaceList Name
    EU_AlwaysOn,              !- Schedule Name
    AirChanges/Hour,          !- Design Flow Rate Calculation Method
    ,                         !- Design Flow Rate
    ,                         !- Flow Rate per Floor Area
    ,                         !- Flow Rate per Person
    0.7186337190781831,       !- Air Changes per Hour
    Natural,                  !- Ventilation Type
    0,                        !- Fan Pressure Rise
    1,                        !- Fan Total Efficiency
    1,                        !- Constant Term Coefficient
    0,                        !- Temperature Term Coefficient
    0,                        !- Velocity Term Coefficient
    0,                        !- Velocity Squared Term Coefficient
    -100,                     !- Minimum Indoor Temperature
    ,                         !- Minimum Indoor Temperature Schedule Name
    100,                      !- Maximum Indoor Temperature
    ,                         !- Maximum Indoor Temperature Schedule Name
    -100,                     !- Delta Temperature
    ,                         !- Delta Temperature Schedule Name
    -100,                     !- Minimum Outdoor Temperature
    ,                         !- Minimum Outdoor Temperature Schedule Name
    100,                      !- Maximum Outdoor Temperature
    ,                         !- Maximum Outdoor Temperature Schedule Name
    40;                       !- Maximum Wind Speed

ZONEVENTILATION:DESIGNFLOWRATE,
    EU_ConstantAir_af3917251b85a42e_F1_dwelling_1,    !- Name
    af3917251b85a42e_F1_dwelling_1,    !- Zone or ZoneList or Space or SpaceList Name
    EU_AlwaysOn,              !- Schedule Name
    AirChanges/Hour,          !- Design Flow Rate Calculation Method
    ,                         !- Design Flow Rate
    ,                         !- Flow Rate per Floor Area
    ,                         !- Flow Rate per Person
    0.7186337190781831,       !- Air Changes per Hour
    Natural,                  !- Ventilation Type
    0,                        !- Fan Pressure Rise
    1,                        !- Fan Total Efficiency
    1,                        !- Constant Term Coefficient
    0,                        !- Temperature Term Coefficient
    0,                        !- Velocity Term Coefficient
    0,                        !- Velocity Squared Term Coefficient
    -100,                     !- Minimum Indoor Temperature
    ,                         !- Minimum Indoor Temperature Schedule Name
    100,                      !- Maximum Indoor Temperature
    ,                         !- Maximum Indoor Temperature Schedule Name
    -100,                     !- Delta Temperature
    ,                         !- Delta Temperature Schedule Name
    -100,                     !- Minimum Outdoor Temperature
    ,                         !- Minimum Outdoor Temperature Schedule Name
    100,                      !- Maximum Outdoor Temperature
    ,                         !- Maximum Outdoor Temperature Schedule Name
    40;                       !- Maximum Wind Speed

ZONEVENTILATION:DESIGNFLOWRATE,
    EU_ConstantAir_af3917251b85a42e_F1_dwelling_2,    !- Name
    af3917251b85a42e_F1_dwelling_2,    !- Zone or ZoneList or Space or SpaceList Name
    EU_AlwaysOn,              !- Schedule Name
    AirChanges/Hour,          !- Design Flow Rate Calculation Method
    ,                         !- Design Flow Rate
    ,                         !- Flow Rate per Floor Area
    ,                         !- Flow Rate per Person
    0.7186337190781831,       !- Air Changes per Hour
    Natural,                  !- Ventilation Type
    0,                        !- Fan Pressure Rise
    1,                        !- Fan Total Efficiency
    1,                        !- Constant Term Coefficient
    0,                        !- Temperature Term Coefficient
    0,                        !- Velocity Term Coefficient
    0,                        !- Velocity Squared Term Coefficient
    -100,                     !- Minimum Indoor Temperature
    ,                         !- Minimum Indoor Temperature Schedule Name
    100,                      !- Maximum Indoor Temperature
    ,                         !- Maximum Indoor Temperature Schedule Name
    -100,                     !- Delta Temperature
    ,                         !- Delta Temperature Schedule Name
    -100,                     !- Minimum Outdoor Temperature
    ,                         !- Minimum Outdoor Temperature Schedule Name
    100,                      !- Maximum Outdoor Temperature
    ,                         !- Maximum Outdoor Temperature Schedule Name
    40;                       !- Maximum Wind Speed

ZONEVENTILATION:DESIGNFLOWRATE,
    EU_ConstantAir_af3917251b85a42e_F1_dwelling_3,    !- Name
    af3917251b85a42e_F1_dwelling_3,    !- Zone or ZoneList or Space or SpaceList Name
    EU_AlwaysOn,              !- Schedule Name
    AirChanges/Hour,          !- Design Flow Rate Calculation Method
    ,                         !- Design Flow Rate
    ,                         !- Flow Rate per Floor Area
    ,                         !- Flow Rate per Person
    0.7186337190781831,       !- Air Changes per Hour
    Natural,                  !- Ventilation Type
    0,                        !- Fan Pressure Rise
    1,                        !- Fan Total Efficiency
    1,                        !- Constant Term Coefficient
    0,                        !- Temperature Term Coefficient
    0,                        !- Velocity Term Coefficient
    0,                        !- Velocity Squared Term Coefficient
    -100,                     !- Minimum Indoor Temperature
    ,                         !- Minimum Indoor Temperature Schedule Name
    100,                      !- Maximum Indoor Temperature
    ,                         !- Maximum Indoor Temperature Schedule Name
    -100,                     !- Delta Temperature
    ,                         !- Delta Temperature Schedule Name
    -100,                     !- Minimum Outdoor Temperature
    ,                         !- Minimum Outdoor Temperature Schedule Name
    100,                      !- Maximum Outdoor Temperature
    ,                         !- Maximum Outdoor Temperature Schedule Name
    40;                       !- Maximum Wind Speed

ZONEVENTILATION:DESIGNFLOWRATE,
    EU_ConstantAir_af3917251b85a42e_F1_dwelling_4,    !- Name
    af3917251b85a42e_F1_dwelling_4,    !- Zone or ZoneList or Space or SpaceList Name
    EU_AlwaysOn,              !- Schedule Name
    AirChanges/Hour,          !- Design Flow Rate Calculation Method
    ,                         !- Design Flow Rate
    ,                         !- Flow Rate per Floor Area
    ,                         !- Flow Rate per Person
    0.7186337190781831,       !- Air Changes per Hour
    Natural,                  !- Ventilation Type
    0,                        !- Fan Pressure Rise
    1,                        !- Fan Total Efficiency
    1,                        !- Constant Term Coefficient
    0,                        !- Temperature Term Coefficient
    0,                        !- Velocity Term Coefficient
    0,                        !- Velocity Squared Term Coefficient
    -100,                     !- Minimum Indoor Temperature
    ,                         !- Minimum Indoor Temperature Schedule Name
    100,                      !- Maximum Indoor Temperature
    ,                         !- Maximum Indoor Temperature Schedule Name
    -100,                     !- Delta Temperature
    ,                         !- Delta Temperature Schedule Name
    -100,                     !- Minimum Outdoor Temperature
    ,                         !- Minimum Outdoor Temperature Schedule Name
    100,                      !- Maximum Outdoor Temperature
    ,                         !- Maximum Outdoor Temperature Schedule Name
    40;                       !- Maximum Wind Speed

ZONEVENTILATION:DESIGNFLOWRATE,
    EU_ConstantAir_af3917251b85a42e_F1_dwelling_5,    !- Name
    af3917251b85a42e_F1_dwelling_5,    !- Zone or ZoneList or Space or SpaceList Name
    EU_AlwaysOn,              !- Schedule Name
    AirChanges/Hour,          !- Design Flow Rate Calculation Method
    ,                         !- Design Flow Rate
    ,                         !- Flow Rate per Floor Area
    ,                         !- Flow Rate per Person
    0.7186337190781831,       !- Air Changes per Hour
    Natural,                  !- Ventilation Type
    0,                        !- Fan Pressure Rise
    1,                        !- Fan Total Efficiency
    1,                        !- Constant Term Coefficient
    0,                        !- Temperature Term Coefficient
    0,                        !- Velocity Term Coefficient
    0,                        !- Velocity Squared Term Coefficient
    -100,                     !- Minimum Indoor Temperature
    ,                         !- Minimum Indoor Temperature Schedule Name
    100,                      !- Maximum Indoor Temperature
    ,                         !- Maximum Indoor Temperature Schedule Name
    -100,                     !- Delta Temperature
    ,                         !- Delta Temperature Schedule Name
    -100,                     !- Minimum Outdoor Temperature
    ,                         !- Minimum Outdoor Temperature Schedule Name
    100,                      !- Maximum Outdoor Temperature
    ,                         !- Maximum Outdoor Temperature Schedule Name
    40;                       !- Maximum Wind Speed

ZONEVENTILATION:DESIGNFLOWRATE,
    EU_ConstantAir_af3917251b85a42e_F1_dwelling_6,    !- Name
    af3917251b85a42e_F1_dwelling_6,    !- Zone or ZoneList or Space or SpaceList Name
    EU_AlwaysOn,              !- Schedule Name
    AirChanges/Hour,          !- Design Flow Rate Calculation Method
    ,                         !- Design Flow Rate
    ,                         !- Flow Rate per Floor Area
    ,                         !- Flow Rate per Person
    0.7186337190781831,       !- Air Changes per Hour
    Natural,                  !- Ventilation Type
    0,                        !- Fan Pressure Rise
    1,                        !- Fan Total Efficiency
    1,                        !- Constant Term Coefficient
    0,                        !- Temperature Term Coefficient
    0,                        !- Velocity Term Coefficient
    0,                        !- Velocity Squared Term Coefficient
    -100,                     !- Minimum Indoor Temperature
    ,                         !- Minimum Indoor Temperature Schedule Name
    100,                      !- Maximum Indoor Temperature
    ,                         !- Maximum Indoor Temperature Schedule Name
    -100,                     !- Delta Temperature
    ,                         !- Delta Temperature Schedule Name
    -100,                     !- Minimum Outdoor Temperature
    ,                         !- Minimum Outdoor Temperature Schedule Name
    100,                      !- Maximum Outdoor Temperature
    ,                         !- Maximum Outdoor Temperature Schedule Name
    40;                       !- Maximum Wind Speed

ZONEVENTILATION:DESIGNFLOWRATE,
    EU_ConstantAir_af3917251b85a42e_F1_dwelling_7,    !- Name
    af3917251b85a42e_F1_dwelling_7,    !- Zone or ZoneList or Space or SpaceList Name
    EU_AlwaysOn,              !- Schedule Name
    AirChanges/Hour,          !- Design Flow Rate Calculation Method
    ,                         !- Design Flow Rate
    ,                         !- Flow Rate per Floor Area
    ,                         !- Flow Rate per Person
    0.7186337190781831,       !- Air Changes per Hour
    Natural,                  !- Ventilation Type
    0,                        !- Fan Pressure Rise
    1,                        !- Fan Total Efficiency
    1,                        !- Constant Term Coefficient
    0,                        !- Temperature Term Coefficient
    0,                        !- Velocity Term Coefficient
    0,                        !- Velocity Squared Term Coefficient
    -100,                     !- Minimum Indoor Temperature
    ,                         !- Minimum Indoor Temperature Schedule Name
    100,                      !- Maximum Indoor Temperature
    ,                         !- Maximum Indoor Temperature Schedule Name
    -100,                     !- Delta Temperature
    ,                         !- Delta Temperature Schedule Name
    -100,                     !- Minimum Outdoor Temperature
    ,                         !- Minimum Outdoor Temperature Schedule Name
    100,                      !- Maximum Outdoor Temperature
    ,                         !- Maximum Outdoor Temperature Schedule Name
    40;                       !- Maximum Wind Speed

ZONEVENTILATION:DESIGNFLOWRATE,
    EU_ConstantAir_af3917251b85a42e_F2_dwelling_0,    !- Name
    af3917251b85a42e_F2_dwelling_0,    !- Zone or ZoneList or Space or SpaceList Name
    EU_AlwaysOn,              !- Schedule Name
    AirChanges/Hour,          !- Design Flow Rate Calculation Method
    ,                         !- Design Flow Rate
    ,                         !- Flow Rate per Floor Area
    ,                         !- Flow Rate per Person
    0.7186337190781831,       !- Air Changes per Hour
    Natural,                  !- Ventilation Type
    0,                        !- Fan Pressure Rise
    1,                        !- Fan Total Efficiency
    1,                        !- Constant Term Coefficient
    0,                        !- Temperature Term Coefficient
    0,                        !- Velocity Term Coefficient
    0,                        !- Velocity Squared Term Coefficient
    -100,                     !- Minimum Indoor Temperature
    ,                         !- Minimum Indoor Temperature Schedule Name
    100,                      !- Maximum Indoor Temperature
    ,                         !- Maximum Indoor Temperature Schedule Name
    -100,                     !- Delta Temperature
    ,                         !- Delta Temperature Schedule Name
    -100,                     !- Minimum Outdoor Temperature
    ,                         !- Minimum Outdoor Temperature Schedule Name
    100,                      !- Maximum Outdoor Temperature
    ,                         !- Maximum Outdoor Temperature Schedule Name
    40;                       !- Maximum Wind Speed

ZONEVENTILATION:DESIGNFLOWRATE,
    EU_ConstantAir_af3917251b85a42e_F2_dwelling_1,    !- Name
    af3917251b85a42e_F2_dwelling_1,    !- Zone or ZoneList or Space or SpaceList Name
    EU_AlwaysOn,              !- Schedule Name
    AirChanges/Hour,          !- Design Flow Rate Calculation Method
    ,                         !- Design Flow Rate
    ,                         !- Flow Rate per Floor Area
    ,                         !- Flow Rate per Person
    0.7186337190781831,       !- Air Changes per Hour
    Natural,                  !- Ventilation Type
    0,                        !- Fan Pressure Rise
    1,                        !- Fan Total Efficiency
    1,                        !- Constant Term Coefficient
    0,                        !- Temperature Term Coefficient
    0,                        !- Velocity Term Coefficient
    0,                        !- Velocity Squared Term Coefficient
    -100,                     !- Minimum Indoor Temperature
    ,                         !- Minimum Indoor Temperature Schedule Name
    100,                      !- Maximum Indoor Temperature
    ,                         !- Maximum Indoor Temperature Schedule Name
    -100,                     !- Delta Temperature
    ,                         !- Delta Temperature Schedule Name
    -100,                     !- Minimum Outdoor Temperature
    ,                         !- Minimum Outdoor Temperature Schedule Name
    100,                      !- Maximum Outdoor Temperature
    ,                         !- Maximum Outdoor Temperature Schedule Name
    40;                       !- Maximum Wind Speed

ZONEVENTILATION:DESIGNFLOWRATE,
    EU_ConstantAir_af3917251b85a42e_F2_dwelling_2,    !- Name
    af3917251b85a42e_F2_dwelling_2,    !- Zone or ZoneList or Space or SpaceList Name
    EU_AlwaysOn,              !- Schedule Name
    AirChanges/Hour,          !- Design Flow Rate Calculation Method
    ,                         !- Design Flow Rate
    ,                         !- Flow Rate per Floor Area
    ,                         !- Flow Rate per Person
    0.7186337190781831,       !- Air Changes per Hour
    Natural,                  !- Ventilation Type
    0,                        !- Fan Pressure Rise
    1,                        !- Fan Total Efficiency
    1,                        !- Constant Term Coefficient
    0,                        !- Temperature Term Coefficient
    0,                        !- Velocity Term Coefficient
    0,                        !- Velocity Squared Term Coefficient
    -100,                     !- Minimum Indoor Temperature
    ,                         !- Minimum Indoor Temperature Schedule Name
    100,                      !- Maximum Indoor Temperature
    ,                         !- Maximum Indoor Temperature Schedule Name
    -100,                     !- Delta Temperature
    ,                         !- Delta Temperature Schedule Name
    -100,                     !- Minimum Outdoor Temperature
    ,                         !- Minimum Outdoor Temperature Schedule Name
    100,                      !- Maximum Outdoor Temperature
    ,                         !- Maximum Outdoor Temperature Schedule Name
    40;                       !- Maximum Wind Speed

ZONEVENTILATION:DESIGNFLOWRATE,
    EU_ConstantAir_af3917251b85a42e_F2_dwelling_3,    !- Name
    af3917251b85a42e_F2_dwelling_3,    !- Zone or ZoneList or Space or SpaceList Name
    EU_AlwaysOn,              !- Schedule Name
    AirChanges/Hour,          !- Design Flow Rate Calculation Method
    ,                         !- Design Flow Rate
    ,                         !- Flow Rate per Floor Area
    ,                         !- Flow Rate per Person
    0.7186337190781831,       !- Air Changes per Hour
    Natural,                  !- Ventilation Type
    0,                        !- Fan Pressure Rise
    1,                        !- Fan Total Efficiency
    1,                        !- Constant Term Coefficient
    0,                        !- Temperature Term Coefficient
    0,                        !- Velocity Term Coefficient
    0,                        !- Velocity Squared Term Coefficient
    -100,                     !- Minimum Indoor Temperature
    ,                         !- Minimum Indoor Temperature Schedule Name
    100,                      !- Maximum Indoor Temperature
    ,                         !- Maximum Indoor Temperature Schedule Name
    -100,                     !- Delta Temperature
    ,                         !- Delta Temperature Schedule Name
    -100,                     !- Minimum Outdoor Temperature
    ,                         !- Minimum Outdoor Temperature Schedule Name
    100,                      !- Maximum Outdoor Temperature
    ,                         !- Maximum Outdoor Temperature Schedule Name
    40;                       !- Maximum Wind Speed

ZONEVENTILATION:DESIGNFLOWRATE,
    EU_ConstantAir_af3917251b85a42e_F2_dwelling_4,    !- Name
    af3917251b85a42e_F2_dwelling_4,    !- Zone or ZoneList or Space or SpaceList Name
    EU_AlwaysOn,              !- Schedule Name
    AirChanges/Hour,          !- Design Flow Rate Calculation Method
    ,                         !- Design Flow Rate
    ,                         !- Flow Rate per Floor Area
    ,                         !- Flow Rate per Person
    0.7186337190781831,       !- Air Changes per Hour
    Natural,                  !- Ventilation Type
    0,                        !- Fan Pressure Rise
    1,                        !- Fan Total Efficiency
    1,                        !- Constant Term Coefficient
    0,                        !- Temperature Term Coefficient
    0,                        !- Velocity Term Coefficient
    0,                        !- Velocity Squared Term Coefficient
    -100,                     !- Minimum Indoor Temperature
    ,                         !- Minimum Indoor Temperature Schedule Name
    100,                      !- Maximum Indoor Temperature
    ,                         !- Maximum Indoor Temperature Schedule Name
    -100,                     !- Delta Temperature
    ,                         !- Delta Temperature Schedule Name
    -100,                     !- Minimum Outdoor Temperature
    ,                         !- Minimum Outdoor Temperature Schedule Name
    100,                      !- Maximum Outdoor Temperature
    ,                         !- Maximum Outdoor Temperature Schedule Name
    40;                       !- Maximum Wind Speed

ZONEVENTILATION:DESIGNFLOWRATE,
    EU_ConstantAir_af3917251b85a42e_F2_dwelling_5,    !- Name
    af3917251b85a42e_F2_dwelling_5,    !- Zone or ZoneList or Space or SpaceList Name
    EU_AlwaysOn,              !- Schedule Name
    AirChanges/Hour,          !- Design Flow Rate Calculation Method
    ,                         !- Design Flow Rate
    ,                         !- Flow Rate per Floor Area
    ,                         !- Flow Rate per Person
    0.7186337190781831,       !- Air Changes per Hour
    Natural,                  !- Ventilation Type
    0,                        !- Fan Pressure Rise
    1,                        !- Fan Total Efficiency
    1,                        !- Constant Term Coefficient
    0,                        !- Temperature Term Coefficient
    0,                        !- Velocity Term Coefficient
    0,                        !- Velocity Squared Term Coefficient
    -100,                     !- Minimum Indoor Temperature
    ,                         !- Minimum Indoor Temperature Schedule Name
    100,                      !- Maximum Indoor Temperature
    ,                         !- Maximum Indoor Temperature Schedule Name
    -100,                     !- Delta Temperature
    ,                         !- Delta Temperature Schedule Name
    -100,                     !- Minimum Outdoor Temperature
    ,                         !- Minimum Outdoor Temperature Schedule Name
    100,                      !- Maximum Outdoor Temperature
    ,                         !- Maximum Outdoor Temperature Schedule Name
    40;                       !- Maximum Wind Speed

ZONEVENTILATION:DESIGNFLOWRATE,
    EU_ConstantAir_af3917251b85a42e_F2_dwelling_6,    !- Name
    af3917251b85a42e_F2_dwelling_6,    !- Zone or ZoneList or Space or SpaceList Name
    EU_AlwaysOn,              !- Schedule Name
    AirChanges/Hour,          !- Design Flow Rate Calculation Method
    ,                         !- Design Flow Rate
    ,                         !- Flow Rate per Floor Area
    ,                         !- Flow Rate per Person
    0.7186337190781831,       !- Air Changes per Hour
    Natural,                  !- Ventilation Type
    0,                        !- Fan Pressure Rise
    1,                        !- Fan Total Efficiency
    1,                        !- Constant Term Coefficient
    0,                        !- Temperature Term Coefficient
    0,                        !- Velocity Term Coefficient
    0,                        !- Velocity Squared Term Coefficient
    -100,                     !- Minimum Indoor Temperature
    ,                         !- Minimum Indoor Temperature Schedule Name
    100,                      !- Maximum Indoor Temperature
    ,                         !- Maximum Indoor Temperature Schedule Name
    -100,                     !- Delta Temperature
    ,                         !- Delta Temperature Schedule Name
    -100,                     !- Minimum Outdoor Temperature
    ,                         !- Minimum Outdoor Temperature Schedule Name
    100,                      !- Maximum Outdoor Temperature
    ,                         !- Maximum Outdoor Temperature Schedule Name
    40;                       !- Maximum Wind Speed

ZONEVENTILATION:DESIGNFLOWRATE,
    EU_ConstantAir_af3917251b85a42e_F2_dwelling_7,    !- Name
    af3917251b85a42e_F2_dwelling_7,    !- Zone or ZoneList or Space or SpaceList Name
    EU_AlwaysOn,              !- Schedule Name
    AirChanges/Hour,          !- Design Flow Rate Calculation Method
    ,                         !- Design Flow Rate
    ,                         !- Flow Rate per Floor Area
    ,                         !- Flow Rate per Person
    0.7186337190781831,       !- Air Changes per Hour
    Natural,                  !- Ventilation Type
    0,                        !- Fan Pressure Rise
    1,                        !- Fan Total Efficiency
    1,                        !- Constant Term Coefficient
    0,                        !- Temperature Term Coefficient
    0,                        !- Velocity Term Coefficient
    0,                        !- Velocity Squared Term Coefficient
    -100,                     !- Minimum Indoor Temperature
    ,                         !- Minimum Indoor Temperature Schedule Name
    100,                      !- Maximum Indoor Temperature
    ,                         !- Maximum Indoor Temperature Schedule Name
    -100,                     !- Delta Temperature
    ,                         !- Delta Temperature Schedule Name
    -100,                     !- Minimum Outdoor Temperature
    ,                         !- Minimum Outdoor Temperature Schedule Name
    100,                      !- Maximum Outdoor Temperature
    ,                         !- Maximum Outdoor Temperature Schedule Name
    40;                       !- Maximum Wind Speed

ZONEVENTILATION:DESIGNFLOWRATE,
    EU_ConstantAir_af3917251b85a42e_F3_dwelling_0,    !- Name
    af3917251b85a42e_F3_dwelling_0,    !- Zone or ZoneList or Space or SpaceList Name
    EU_AlwaysOn,              !- Schedule Name
    AirChanges/Hour,          !- Design Flow Rate Calculation Method
    ,                         !- Design Flow Rate
    ,                         !- Flow Rate per Floor Area
    ,                         !- Flow Rate per Person
    0.7186337190781831,       !- Air Changes per Hour
    Natural,                  !- Ventilation Type
    0,                        !- Fan Pressure Rise
    1,                        !- Fan Total Efficiency
    1,                        !- Constant Term Coefficient
    0,                        !- Temperature Term Coefficient
    0,                        !- Velocity Term Coefficient
    0,                        !- Velocity Squared Term Coefficient
    -100,                     !- Minimum Indoor Temperature
    ,                         !- Minimum Indoor Temperature Schedule Name
    100,                      !- Maximum Indoor Temperature
    ,                         !- Maximum Indoor Temperature Schedule Name
    -100,                     !- Delta Temperature
    ,                         !- Delta Temperature Schedule Name
    -100,                     !- Minimum Outdoor Temperature
    ,                         !- Minimum Outdoor Temperature Schedule Name
    100,                      !- Maximum Outdoor Temperature
    ,                         !- Maximum Outdoor Temperature Schedule Name
    40;                       !- Maximum Wind Speed

ZONEVENTILATION:DESIGNFLOWRATE,
    EU_ConstantAir_af3917251b85a42e_F3_dwelling_1,    !- Name
    af3917251b85a42e_F3_dwelling_1,    !- Zone or ZoneList or Space or SpaceList Name
    EU_AlwaysOn,              !- Schedule Name
    AirChanges/Hour,          !- Design Flow Rate Calculation Method
    ,                         !- Design Flow Rate
    ,                         !- Flow Rate per Floor Area
    ,                         !- Flow Rate per Person
    0.7186337190781831,       !- Air Changes per Hour
    Natural,                  !- Ventilation Type
    0,                        !- Fan Pressure Rise
    1,                        !- Fan Total Efficiency
    1,                        !- Constant Term Coefficient
    0,                        !- Temperature Term Coefficient
    0,                        !- Velocity Term Coefficient
    0,                        !- Velocity Squared Term Coefficient
    -100,                     !- Minimum Indoor Temperature
    ,                         !- Minimum Indoor Temperature Schedule Name
    100,                      !- Maximum Indoor Temperature
    ,                         !- Maximum Indoor Temperature Schedule Name
    -100,                     !- Delta Temperature
    ,                         !- Delta Temperature Schedule Name
    -100,                     !- Minimum Outdoor Temperature
    ,                         !- Minimum Outdoor Temperature Schedule Name
    100,                      !- Maximum Outdoor Temperature
    ,                         !- Maximum Outdoor Temperature Schedule Name
    40;                       !- Maximum Wind Speed

ZONEVENTILATION:DESIGNFLOWRATE,
    EU_ConstantAir_af3917251b85a42e_F3_dwelling_2,    !- Name
    af3917251b85a42e_F3_dwelling_2,    !- Zone or ZoneList or Space or SpaceList Name
    EU_AlwaysOn,              !- Schedule Name
    AirChanges/Hour,          !- Design Flow Rate Calculation Method
    ,                         !- Design Flow Rate
    ,                         !- Flow Rate per Floor Area
    ,                         !- Flow Rate per Person
    0.7186337190781831,       !- Air Changes per Hour
    Natural,                  !- Ventilation Type
    0,                        !- Fan Pressure Rise
    1,                        !- Fan Total Efficiency
    1,                        !- Constant Term Coefficient
    0,                        !- Temperature Term Coefficient
    0,                        !- Velocity Term Coefficient
    0,                        !- Velocity Squared Term Coefficient
    -100,                     !- Minimum Indoor Temperature
    ,                         !- Minimum Indoor Temperature Schedule Name
    100,                      !- Maximum Indoor Temperature
    ,                         !- Maximum Indoor Temperature Schedule Name
    -100,                     !- Delta Temperature
    ,                         !- Delta Temperature Schedule Name
    -100,                     !- Minimum Outdoor Temperature
    ,                         !- Minimum Outdoor Temperature Schedule Name
    100,                      !- Maximum Outdoor Temperature
    ,                         !- Maximum Outdoor Temperature Schedule Name
    40;                       !- Maximum Wind Speed

ZONEVENTILATION:DESIGNFLOWRATE,
    EU_ConstantAir_af3917251b85a42e_F3_dwelling_3,    !- Name
    af3917251b85a42e_F3_dwelling_3,    !- Zone or ZoneList or Space or SpaceList Name
    EU_AlwaysOn,              !- Schedule Name
    AirChanges/Hour,          !- Design Flow Rate Calculation Method
    ,                         !- Design Flow Rate
    ,                         !- Flow Rate per Floor Area
    ,                         !- Flow Rate per Person
    0.7186337190781831,       !- Air Changes per Hour
    Natural,                  !- Ventilation Type
    0,                        !- Fan Pressure Rise
    1,                        !- Fan Total Efficiency
    1,                        !- Constant Term Coefficient
    0,                        !- Temperature Term Coefficient
    0,                        !- Velocity Term Coefficient
    0,                        !- Velocity Squared Term Coefficient
    -100,                     !- Minimum Indoor Temperature
    ,                         !- Minimum Indoor Temperature Schedule Name
    100,                      !- Maximum Indoor Temperature
    ,                         !- Maximum Indoor Temperature Schedule Name
    -100,                     !- Delta Temperature
    ,                         !- Delta Temperature Schedule Name
    -100,                     !- Minimum Outdoor Temperature
    ,                         !- Minimum Outdoor Temperature Schedule Name
    100,                      !- Maximum Outdoor Temperature
    ,                         !- Maximum Outdoor Temperature Schedule Name
    40;                       !- Maximum Wind Speed

ZONEVENTILATION:DESIGNFLOWRATE,
    EU_ConstantAir_af3917251b85a42e_F3_dwelling_4,    !- Name
    af3917251b85a42e_F3_dwelling_4,    !- Zone or ZoneList or Space or SpaceList Name
    EU_AlwaysOn,              !- Schedule Name
    AirChanges/Hour,          !- Design Flow Rate Calculation Method
    ,                         !- Design Flow Rate
    ,                         !- Flow Rate per Floor Area
    ,                         !- Flow Rate per Person
    0.7186337190781831,       !- Air Changes per Hour
    Natural,                  !- Ventilation Type
    0,                        !- Fan Pressure Rise
    1,                        !- Fan Total Efficiency
    1,                        !- Constant Term Coefficient
    0,                        !- Temperature Term Coefficient
    0,                        !- Velocity Term Coefficient
    0,                        !- Velocity Squared Term Coefficient
    -100,                     !- Minimum Indoor Temperature
    ,                         !- Minimum Indoor Temperature Schedule Name
    100,                      !- Maximum Indoor Temperature
    ,                         !- Maximum Indoor Temperature Schedule Name
    -100,                     !- Delta Temperature
    ,                         !- Delta Temperature Schedule Name
    -100,                     !- Minimum Outdoor Temperature
    ,                         !- Minimum Outdoor Temperature Schedule Name
    100,                      !- Maximum Outdoor Temperature
    ,                         !- Maximum Outdoor Temperature Schedule Name
    40;                       !- Maximum Wind Speed

ZONEVENTILATION:DESIGNFLOWRATE,
    EU_ConstantAir_af3917251b85a42e_F3_dwelling_5,    !- Name
    af3917251b85a42e_F3_dwelling_5,    !- Zone or ZoneList or Space or SpaceList Name
    EU_AlwaysOn,              !- Schedule Name
    AirChanges/Hour,          !- Design Flow Rate Calculation Method
    ,                         !- Design Flow Rate
    ,                         !- Flow Rate per Floor Area
    ,                         !- Flow Rate per Person
    0.7186337190781831,       !- Air Changes per Hour
    Natural,                  !- Ventilation Type
    0,                        !- Fan Pressure Rise
    1,                        !- Fan Total Efficiency
    1,                        !- Constant Term Coefficient
    0,                        !- Temperature Term Coefficient
    0,                        !- Velocity Term Coefficient
    0,                        !- Velocity Squared Term Coefficient
    -100,                     !- Minimum Indoor Temperature
    ,                         !- Minimum Indoor Temperature Schedule Name
    100,                      !- Maximum Indoor Temperature
    ,                         !- Maximum Indoor Temperature Schedule Name
    -100,                     !- Delta Temperature
    ,                         !- Delta Temperature Schedule Name
    -100,                     !- Minimum Outdoor Temperature
    ,                         !- Minimum Outdoor Temperature Schedule Name
    100,                      !- Maximum Outdoor Temperature
    ,                         !- Maximum Outdoor Temperature Schedule Name
    40;                       !- Maximum Wind Speed

ZONEVENTILATION:DESIGNFLOWRATE,
    EU_ConstantAir_af3917251b85a42e_F3_dwelling_6,    !- Name
    af3917251b85a42e_F3_dwelling_6,    !- Zone or ZoneList or Space or SpaceList Name
    EU_AlwaysOn,              !- Schedule Name
    AirChanges/Hour,          !- Design Flow Rate Calculation Method
    ,                         !- Design Flow Rate
    ,                         !- Flow Rate per Floor Area
    ,                         !- Flow Rate per Person
    0.7186337190781831,       !- Air Changes per Hour
    Natural,                  !- Ventilation Type
    0,                        !- Fan Pressure Rise
    1,                        !- Fan Total Efficiency
    1,                        !- Constant Term Coefficient
    0,                        !- Temperature Term Coefficient
    0,                        !- Velocity Term Coefficient
    0,                        !- Velocity Squared Term Coefficient
    -100,                     !- Minimum Indoor Temperature
    ,                         !- Minimum Indoor Temperature Schedule Name
    100,                      !- Maximum Indoor Temperature
    ,                         !- Maximum Indoor Temperature Schedule Name
    -100,                     !- Delta Temperature
    ,                         !- Delta Temperature Schedule Name
    -100,                     !- Minimum Outdoor Temperature
    ,                         !- Minimum Outdoor Temperature Schedule Name
    100,                      !- Maximum Outdoor Temperature
    ,                         !- Maximum Outdoor Temperature Schedule Name
    40;                       !- Maximum Wind Speed

ZONEVENTILATION:DESIGNFLOWRATE,
    EU_ConstantAir_af3917251b85a42e_F3_dwelling_7,    !- Name
    af3917251b85a42e_F3_dwelling_7,    !- Zone or ZoneList or Space or SpaceList Name
    EU_AlwaysOn,              !- Schedule Name
    AirChanges/Hour,          !- Design Flow Rate Calculation Method
    ,                         !- Design Flow Rate
    ,                         !- Flow Rate per Floor Area
    ,                         !- Flow Rate per Person
    0.7186337190781831,       !- Air Changes per Hour
    Natural,                  !- Ventilation Type
    0,                        !- Fan Pressure Rise
    1,                        !- Fan Total Efficiency
    1,                        !- Constant Term Coefficient
    0,                        !- Temperature Term Coefficient
    0,                        !- Velocity Term Coefficient
    0,                        !- Velocity Squared Term Coefficient
    -100,                     !- Minimum Indoor Temperature
    ,                         !- Minimum Indoor Temperature Schedule Name
    100,                      !- Maximum Indoor Temperature
    ,                         !- Maximum Indoor Temperature Schedule Name
    -100,                     !- Delta Temperature
    ,                         !- Delta Temperature Schedule Name
    -100,                     !- Minimum Outdoor Temperature
    ,                         !- Minimum Outdoor Temperature Schedule Name
    100,                      !- Maximum Outdoor Temperature
    ,                         !- Maximum Outdoor Temperature Schedule Name
    40;                       !- Maximum Wind Speed

ZONEVENTILATION:DESIGNFLOWRATE,
    EU_ConstantAir_af3917251b85a42e_F4_dwelling_0,    !- Name
    af3917251b85a42e_F4_dwelling_0,    !- Zone or ZoneList or Space or SpaceList Name
    EU_AlwaysOn,              !- Schedule Name
    AirChanges/Hour,          !- Design Flow Rate Calculation Method
    ,                         !- Design Flow Rate
    ,                         !- Flow Rate per Floor Area
    ,                         !- Flow Rate per Person
    0.7186337190781831,       !- Air Changes per Hour
    Natural,                  !- Ventilation Type
    0,                        !- Fan Pressure Rise
    1,                        !- Fan Total Efficiency
    1,                        !- Constant Term Coefficient
    0,                        !- Temperature Term Coefficient
    0,                        !- Velocity Term Coefficient
    0,                        !- Velocity Squared Term Coefficient
    -100,                     !- Minimum Indoor Temperature
    ,                         !- Minimum Indoor Temperature Schedule Name
    100,                      !- Maximum Indoor Temperature
    ,                         !- Maximum Indoor Temperature Schedule Name
    -100,                     !- Delta Temperature
    ,                         !- Delta Temperature Schedule Name
    -100,                     !- Minimum Outdoor Temperature
    ,                         !- Minimum Outdoor Temperature Schedule Name
    100,                      !- Maximum Outdoor Temperature
    ,                         !- Maximum Outdoor Temperature Schedule Name
    40;                       !- Maximum Wind Speed

ZONEVENTILATION:DESIGNFLOWRATE,
    EU_ConstantAir_af3917251b85a42e_F4_dwelling_1,    !- Name
    af3917251b85a42e_F4_dwelling_1,    !- Zone or ZoneList or Space or SpaceList Name
    EU_AlwaysOn,              !- Schedule Name
    AirChanges/Hour,          !- Design Flow Rate Calculation Method
    ,                         !- Design Flow Rate
    ,                         !- Flow Rate per Floor Area
    ,                         !- Flow Rate per Person
    0.7186337190781831,       !- Air Changes per Hour
    Natural,                  !- Ventilation Type
    0,                        !- Fan Pressure Rise
    1,                        !- Fan Total Efficiency
    1,                        !- Constant Term Coefficient
    0,                        !- Temperature Term Coefficient
    0,                        !- Velocity Term Coefficient
    0,                        !- Velocity Squared Term Coefficient
    -100,                     !- Minimum Indoor Temperature
    ,                         !- Minimum Indoor Temperature Schedule Name
    100,                      !- Maximum Indoor Temperature
    ,                         !- Maximum Indoor Temperature Schedule Name
    -100,                     !- Delta Temperature
    ,                         !- Delta Temperature Schedule Name
    -100,                     !- Minimum Outdoor Temperature
    ,                         !- Minimum Outdoor Temperature Schedule Name
    100,                      !- Maximum Outdoor Temperature
    ,                         !- Maximum Outdoor Temperature Schedule Name
    40;                       !- Maximum Wind Speed

ZONEVENTILATION:DESIGNFLOWRATE,
    EU_ConstantAir_af3917251b85a42e_F4_dwelling_2,    !- Name
    af3917251b85a42e_F4_dwelling_2,    !- Zone or ZoneList or Space or SpaceList Name
    EU_AlwaysOn,              !- Schedule Name
    AirChanges/Hour,          !- Design Flow Rate Calculation Method
    ,                         !- Design Flow Rate
    ,                         !- Flow Rate per Floor Area
    ,                         !- Flow Rate per Person
    0.7186337190781831,       !- Air Changes per Hour
    Natural,                  !- Ventilation Type
    0,                        !- Fan Pressure Rise
    1,                        !- Fan Total Efficiency
    1,                        !- Constant Term Coefficient
    0,                        !- Temperature Term Coefficient
    0,                        !- Velocity Term Coefficient
    0,                        !- Velocity Squared Term Coefficient
    -100,                     !- Minimum Indoor Temperature
    ,                         !- Minimum Indoor Temperature Schedule Name
    100,                      !- Maximum Indoor Temperature
    ,                         !- Maximum Indoor Temperature Schedule Name
    -100,                     !- Delta Temperature
    ,                         !- Delta Temperature Schedule Name
    -100,                     !- Minimum Outdoor Temperature
    ,                         !- Minimum Outdoor Temperature Schedule Name
    100,                      !- Maximum Outdoor Temperature
    ,                         !- Maximum Outdoor Temperature Schedule Name
    40;                       !- Maximum Wind Speed

ZONEVENTILATION:DESIGNFLOWRATE,
    EU_ConstantAir_af3917251b85a42e_F4_dwelling_3,    !- Name
    af3917251b85a42e_F4_dwelling_3,    !- Zone or ZoneList or Space or SpaceList Name
    EU_AlwaysOn,              !- Schedule Name
    AirChanges/Hour,          !- Design Flow Rate Calculation Method
    ,                         !- Design Flow Rate
    ,                         !- Flow Rate per Floor Area
    ,                         !- Flow Rate per Person
    0.7186337190781831,       !- Air Changes per Hour
    Natural,                  !- Ventilation Type
    0,                        !- Fan Pressure Rise
    1,                        !- Fan Total Efficiency
    1,                        !- Constant Term Coefficient
    0,                        !- Temperature Term Coefficient
    0,                        !- Velocity Term Coefficient
    0,                        !- Velocity Squared Term Coefficient
    -100,                     !- Minimum Indoor Temperature
    ,                         !- Minimum Indoor Temperature Schedule Name
    100,                      !- Maximum Indoor Temperature
    ,                         !- Maximum Indoor Temperature Schedule Name
    -100,                     !- Delta Temperature
    ,                         !- Delta Temperature Schedule Name
    -100,                     !- Minimum Outdoor Temperature
    ,                         !- Minimum Outdoor Temperature Schedule Name
    100,                      !- Maximum Outdoor Temperature
    ,                         !- Maximum Outdoor Temperature Schedule Name
    40;                       !- Maximum Wind Speed

ZONEVENTILATION:DESIGNFLOWRATE,
    EU_ConstantAir_af3917251b85a42e_F4_dwelling_4,    !- Name
    af3917251b85a42e_F4_dwelling_4,    !- Zone or ZoneList or Space or SpaceList Name
    EU_AlwaysOn,              !- Schedule Name
    AirChanges/Hour,          !- Design Flow Rate Calculation Method
    ,                         !- Design Flow Rate
    ,                         !- Flow Rate per Floor Area
    ,                         !- Flow Rate per Person
    0.7186337190781831,       !- Air Changes per Hour
    Natural,                  !- Ventilation Type
    0,                        !- Fan Pressure Rise
    1,                        !- Fan Total Efficiency
    1,                        !- Constant Term Coefficient
    0,                        !- Temperature Term Coefficient
    0,                        !- Velocity Term Coefficient
    0,                        !- Velocity Squared Term Coefficient
    -100,                     !- Minimum Indoor Temperature
    ,                         !- Minimum Indoor Temperature Schedule Name
    100,                      !- Maximum Indoor Temperature
    ,                         !- Maximum Indoor Temperature Schedule Name
    -100,                     !- Delta Temperature
    ,                         !- Delta Temperature Schedule Name
    -100,                     !- Minimum Outdoor Temperature
    ,                         !- Minimum Outdoor Temperature Schedule Name
    100,                      !- Maximum Outdoor Temperature
    ,                         !- Maximum Outdoor Temperature Schedule Name
    40;                       !- Maximum Wind Speed

ZONEVENTILATION:DESIGNFLOWRATE,
    EU_ConstantAir_af3917251b85a42e_F4_dwelling_5,    !- Name
    af3917251b85a42e_F4_dwelling_5,    !- Zone or ZoneList or Space or SpaceList Name
    EU_AlwaysOn,              !- Schedule Name
    AirChanges/Hour,          !- Design Flow Rate Calculation Method
    ,                         !- Design Flow Rate
    ,                         !- Flow Rate per Floor Area
    ,                         !- Flow Rate per Person
    0.7186337190781831,       !- Air Changes per Hour
    Natural,                  !- Ventilation Type
    0,                        !- Fan Pressure Rise
    1,                        !- Fan Total Efficiency
    1,                        !- Constant Term Coefficient
    0,                        !- Temperature Term Coefficient
    0,                        !- Velocity Term Coefficient
    0,                        !- Velocity Squared Term Coefficient
    -100,                     !- Minimum Indoor Temperature
    ,                         !- Minimum Indoor Temperature Schedule Name
    100,                      !- Maximum Indoor Temperature
    ,                         !- Maximum Indoor Temperature Schedule Name
    -100,                     !- Delta Temperature
    ,                         !- Delta Temperature Schedule Name
    -100,                     !- Minimum Outdoor Temperature
    ,                         !- Minimum Outdoor Temperature Schedule Name
    100,                      !- Maximum Outdoor Temperature
    ,                         !- Maximum Outdoor Temperature Schedule Name
    40;                       !- Maximum Wind Speed

ZONEVENTILATION:DESIGNFLOWRATE,
    EU_ConstantAir_af3917251b85a42e_F4_dwelling_6,    !- Name
    af3917251b85a42e_F4_dwelling_6,    !- Zone or ZoneList or Space or SpaceList Name
    EU_AlwaysOn,              !- Schedule Name
    AirChanges/Hour,          !- Design Flow Rate Calculation Method
    ,                         !- Design Flow Rate
    ,                         !- Flow Rate per Floor Area
    ,                         !- Flow Rate per Person
    0.7186337190781831,       !- Air Changes per Hour
    Natural,                  !- Ventilation Type
    0,                        !- Fan Pressure Rise
    1,                        !- Fan Total Efficiency
    1,                        !- Constant Term Coefficient
    0,                        !- Temperature Term Coefficient
    0,                        !- Velocity Term Coefficient
    0,                        !- Velocity Squared Term Coefficient
    -100,                     !- Minimum Indoor Temperature
    ,                         !- Minimum Indoor Temperature Schedule Name
    100,                      !- Maximum Indoor Temperature
    ,                         !- Maximum Indoor Temperature Schedule Name
    -100,                     !- Delta Temperature
    ,                         !- Delta Temperature Schedule Name
    -100,                     !- Minimum Outdoor Temperature
    ,                         !- Minimum Outdoor Temperature Schedule Name
    100,                      !- Maximum Outdoor Temperature
    ,                         !- Maximum Outdoor Temperature Schedule Name
    40;                       !- Maximum Wind Speed

ZONEVENTILATION:DESIGNFLOWRATE,
    EU_ConstantAir_af3917251b85a42e_F4_dwelling_7,    !- Name
    af3917251b85a42e_F4_dwelling_7,    !- Zone or ZoneList or Space or SpaceList Name
    EU_AlwaysOn,              !- Schedule Name
    AirChanges/Hour,          !- Design Flow Rate Calculation Method
    ,                         !- Design Flow Rate
    ,                         !- Flow Rate per Floor Area
    ,                         !- Flow Rate per Person
    0.7186337190781831,       !- Air Changes per Hour
    Natural,                  !- Ventilation Type
    0,                        !- Fan Pressure Rise
    1,                        !- Fan Total Efficiency
    1,                        !- Constant Term Coefficient
    0,                        !- Temperature Term Coefficient
    0,                        !- Velocity Term Coefficient
    0,                        !- Velocity Squared Term Coefficient
    -100,                     !- Minimum Indoor Temperature
    ,                         !- Minimum Indoor Temperature Schedule Name
    100,                      !- Maximum Indoor Temperature
    ,                         !- Maximum Indoor Temperature Schedule Name
    -100,                     !- Delta Temperature
    ,                         !- Delta Temperature Schedule Name
    -100,                     !- Minimum Outdoor Temperature
    ,                         !- Minimum Outdoor Temperature Schedule Name
    100,                      !- Maximum Outdoor Temperature
    ,                         !- Maximum Outdoor Temperature Schedule Name
    40;                       !- Maximum Wind Speed

HVACTEMPLATE:THERMOSTAT,
    EU_HeatOnly_af3917251b85a42e_F0_dwelling_0,    !- Name
    ,                         !- Heating Setpoint Schedule Name
    20,                       !- Constant Heating Setpoint
    ,                         !- Cooling Setpoint Schedule Name
    50;                       !- Constant Cooling Setpoint

HVACTEMPLATE:THERMOSTAT,
    EU_HeatOnly_af3917251b85a42e_F0_dwelling_1,    !- Name
    ,                         !- Heating Setpoint Schedule Name
    20,                       !- Constant Heating Setpoint
    ,                         !- Cooling Setpoint Schedule Name
    50;                       !- Constant Cooling Setpoint

HVACTEMPLATE:THERMOSTAT,
    EU_HeatOnly_af3917251b85a42e_F0_dwelling_2,    !- Name
    ,                         !- Heating Setpoint Schedule Name
    20,                       !- Constant Heating Setpoint
    ,                         !- Cooling Setpoint Schedule Name
    50;                       !- Constant Cooling Setpoint

HVACTEMPLATE:THERMOSTAT,
    EU_HeatOnly_af3917251b85a42e_F0_dwelling_3,    !- Name
    ,                         !- Heating Setpoint Schedule Name
    20,                       !- Constant Heating Setpoint
    ,                         !- Cooling Setpoint Schedule Name
    50;                       !- Constant Cooling Setpoint

HVACTEMPLATE:THERMOSTAT,
    EU_HeatOnly_af3917251b85a42e_F0_dwelling_4,    !- Name
    ,                         !- Heating Setpoint Schedule Name
    20,                       !- Constant Heating Setpoint
    ,                         !- Cooling Setpoint Schedule Name
    50;                       !- Constant Cooling Setpoint

HVACTEMPLATE:THERMOSTAT,
    EU_HeatOnly_af3917251b85a42e_F0_dwelling_5,    !- Name
    ,                         !- Heating Setpoint Schedule Name
    20,                       !- Constant Heating Setpoint
    ,                         !- Cooling Setpoint Schedule Name
    50;                       !- Constant Cooling Setpoint

HVACTEMPLATE:THERMOSTAT,
    EU_HeatOnly_af3917251b85a42e_F0_dwelling_6,    !- Name
    ,                         !- Heating Setpoint Schedule Name
    20,                       !- Constant Heating Setpoint
    ,                         !- Cooling Setpoint Schedule Name
    50;                       !- Constant Cooling Setpoint

HVACTEMPLATE:THERMOSTAT,
    EU_HeatOnly_af3917251b85a42e_F0_dwelling_7,    !- Name
    ,                         !- Heating Setpoint Schedule Name
    20,                       !- Constant Heating Setpoint
    ,                         !- Cooling Setpoint Schedule Name
    50;                       !- Constant Cooling Setpoint

HVACTEMPLATE:THERMOSTAT,
    EU_HeatOnly_af3917251b85a42e_F1_dwelling_0,    !- Name
    ,                         !- Heating Setpoint Schedule Name
    20,                       !- Constant Heating Setpoint
    ,                         !- Cooling Setpoint Schedule Name
    50;                       !- Constant Cooling Setpoint

HVACTEMPLATE:THERMOSTAT,
    EU_HeatOnly_af3917251b85a42e_F1_dwelling_1,    !- Name
    ,                         !- Heating Setpoint Schedule Name
    20,                       !- Constant Heating Setpoint
    ,                         !- Cooling Setpoint Schedule Name
    50;                       !- Constant Cooling Setpoint

HVACTEMPLATE:THERMOSTAT,
    EU_HeatOnly_af3917251b85a42e_F1_dwelling_2,    !- Name
    ,                         !- Heating Setpoint Schedule Name
    20,                       !- Constant Heating Setpoint
    ,                         !- Cooling Setpoint Schedule Name
    50;                       !- Constant Cooling Setpoint

HVACTEMPLATE:THERMOSTAT,
    EU_HeatOnly_af3917251b85a42e_F1_dwelling_3,    !- Name
    ,                         !- Heating Setpoint Schedule Name
    20,                       !- Constant Heating Setpoint
    ,                         !- Cooling Setpoint Schedule Name
    50;                       !- Constant Cooling Setpoint

HVACTEMPLATE:THERMOSTAT,
    EU_HeatOnly_af3917251b85a42e_F1_dwelling_4,    !- Name
    ,                         !- Heating Setpoint Schedule Name
    20,                       !- Constant Heating Setpoint
    ,                         !- Cooling Setpoint Schedule Name
    50;                       !- Constant Cooling Setpoint

HVACTEMPLATE:THERMOSTAT,
    EU_HeatOnly_af3917251b85a42e_F1_dwelling_5,    !- Name
    ,                         !- Heating Setpoint Schedule Name
    20,                       !- Constant Heating Setpoint
    ,                         !- Cooling Setpoint Schedule Name
    50;                       !- Constant Cooling Setpoint

HVACTEMPLATE:THERMOSTAT,
    EU_HeatOnly_af3917251b85a42e_F1_dwelling_6,    !- Name
    ,                         !- Heating Setpoint Schedule Name
    20,                       !- Constant Heating Setpoint
    ,                         !- Cooling Setpoint Schedule Name
    50;                       !- Constant Cooling Setpoint

HVACTEMPLATE:THERMOSTAT,
    EU_HeatOnly_af3917251b85a42e_F1_dwelling_7,    !- Name
    ,                         !- Heating Setpoint Schedule Name
    20,                       !- Constant Heating Setpoint
    ,                         !- Cooling Setpoint Schedule Name
    50;                       !- Constant Cooling Setpoint

HVACTEMPLATE:THERMOSTAT,
    EU_HeatOnly_af3917251b85a42e_F2_dwelling_0,    !- Name
    ,                         !- Heating Setpoint Schedule Name
    20,                       !- Constant Heating Setpoint
    ,                         !- Cooling Setpoint Schedule Name
    50;                       !- Constant Cooling Setpoint

HVACTEMPLATE:THERMOSTAT,
    EU_HeatOnly_af3917251b85a42e_F2_dwelling_1,    !- Name
    ,                         !- Heating Setpoint Schedule Name
    20,                       !- Constant Heating Setpoint
    ,                         !- Cooling Setpoint Schedule Name
    50;                       !- Constant Cooling Setpoint

HVACTEMPLATE:THERMOSTAT,
    EU_HeatOnly_af3917251b85a42e_F2_dwelling_2,    !- Name
    ,                         !- Heating Setpoint Schedule Name
    20,                       !- Constant Heating Setpoint
    ,                         !- Cooling Setpoint Schedule Name
    50;                       !- Constant Cooling Setpoint

HVACTEMPLATE:THERMOSTAT,
    EU_HeatOnly_af3917251b85a42e_F2_dwelling_3,    !- Name
    ,                         !- Heating Setpoint Schedule Name
    20,                       !- Constant Heating Setpoint
    ,                         !- Cooling Setpoint Schedule Name
    50;                       !- Constant Cooling Setpoint

HVACTEMPLATE:THERMOSTAT,
    EU_HeatOnly_af3917251b85a42e_F2_dwelling_4,    !- Name
    ,                         !- Heating Setpoint Schedule Name
    20,                       !- Constant Heating Setpoint
    ,                         !- Cooling Setpoint Schedule Name
    50;                       !- Constant Cooling Setpoint

HVACTEMPLATE:THERMOSTAT,
    EU_HeatOnly_af3917251b85a42e_F2_dwelling_5,    !- Name
    ,                         !- Heating Setpoint Schedule Name
    20,                       !- Constant Heating Setpoint
    ,                         !- Cooling Setpoint Schedule Name
    50;                       !- Constant Cooling Setpoint

HVACTEMPLATE:THERMOSTAT,
    EU_HeatOnly_af3917251b85a42e_F2_dwelling_6,    !- Name
    ,                         !- Heating Setpoint Schedule Name
    20,                       !- Constant Heating Setpoint
    ,                         !- Cooling Setpoint Schedule Name
    50;                       !- Constant Cooling Setpoint

HVACTEMPLATE:THERMOSTAT,
    EU_HeatOnly_af3917251b85a42e_F2_dwelling_7,    !- Name
    ,                         !- Heating Setpoint Schedule Name
    20,                       !- Constant Heating Setpoint
    ,                         !- Cooling Setpoint Schedule Name
    50;                       !- Constant Cooling Setpoint

HVACTEMPLATE:THERMOSTAT,
    EU_HeatOnly_af3917251b85a42e_F3_dwelling_0,    !- Name
    ,                         !- Heating Setpoint Schedule Name
    20,                       !- Constant Heating Setpoint
    ,                         !- Cooling Setpoint Schedule Name
    50;                       !- Constant Cooling Setpoint

HVACTEMPLATE:THERMOSTAT,
    EU_HeatOnly_af3917251b85a42e_F3_dwelling_1,    !- Name
    ,                         !- Heating Setpoint Schedule Name
    20,                       !- Constant Heating Setpoint
    ,                         !- Cooling Setpoint Schedule Name
    50;                       !- Constant Cooling Setpoint

HVACTEMPLATE:THERMOSTAT,
    EU_HeatOnly_af3917251b85a42e_F3_dwelling_2,    !- Name
    ,                         !- Heating Setpoint Schedule Name
    20,                       !- Constant Heating Setpoint
    ,                         !- Cooling Setpoint Schedule Name
    50;                       !- Constant Cooling Setpoint

HVACTEMPLATE:THERMOSTAT,
    EU_HeatOnly_af3917251b85a42e_F3_dwelling_3,    !- Name
    ,                         !- Heating Setpoint Schedule Name
    20,                       !- Constant Heating Setpoint
    ,                         !- Cooling Setpoint Schedule Name
    50;                       !- Constant Cooling Setpoint

HVACTEMPLATE:THERMOSTAT,
    EU_HeatOnly_af3917251b85a42e_F3_dwelling_4,    !- Name
    ,                         !- Heating Setpoint Schedule Name
    20,                       !- Constant Heating Setpoint
    ,                         !- Cooling Setpoint Schedule Name
    50;                       !- Constant Cooling Setpoint

HVACTEMPLATE:THERMOSTAT,
    EU_HeatOnly_af3917251b85a42e_F3_dwelling_5,    !- Name
    ,                         !- Heating Setpoint Schedule Name
    20,                       !- Constant Heating Setpoint
    ,                         !- Cooling Setpoint Schedule Name
    50;                       !- Constant Cooling Setpoint

HVACTEMPLATE:THERMOSTAT,
    EU_HeatOnly_af3917251b85a42e_F3_dwelling_6,    !- Name
    ,                         !- Heating Setpoint Schedule Name
    20,                       !- Constant Heating Setpoint
    ,                         !- Cooling Setpoint Schedule Name
    50;                       !- Constant Cooling Setpoint

HVACTEMPLATE:THERMOSTAT,
    EU_HeatOnly_af3917251b85a42e_F3_dwelling_7,    !- Name
    ,                         !- Heating Setpoint Schedule Name
    20,                       !- Constant Heating Setpoint
    ,                         !- Cooling Setpoint Schedule Name
    50;                       !- Constant Cooling Setpoint

HVACTEMPLATE:THERMOSTAT,
    EU_HeatOnly_af3917251b85a42e_F4_dwelling_0,    !- Name
    ,                         !- Heating Setpoint Schedule Name
    20,                       !- Constant Heating Setpoint
    ,                         !- Cooling Setpoint Schedule Name
    50;                       !- Constant Cooling Setpoint

HVACTEMPLATE:THERMOSTAT,
    EU_HeatOnly_af3917251b85a42e_F4_dwelling_1,    !- Name
    ,                         !- Heating Setpoint Schedule Name
    20,                       !- Constant Heating Setpoint
    ,                         !- Cooling Setpoint Schedule Name
    50;                       !- Constant Cooling Setpoint

HVACTEMPLATE:THERMOSTAT,
    EU_HeatOnly_af3917251b85a42e_F4_dwelling_2,    !- Name
    ,                         !- Heating Setpoint Schedule Name
    20,                       !- Constant Heating Setpoint
    ,                         !- Cooling Setpoint Schedule Name
    50;                       !- Constant Cooling Setpoint

HVACTEMPLATE:THERMOSTAT,
    EU_HeatOnly_af3917251b85a42e_F4_dwelling_3,    !- Name
    ,                         !- Heating Setpoint Schedule Name
    20,                       !- Constant Heating Setpoint
    ,                         !- Cooling Setpoint Schedule Name
    50;                       !- Constant Cooling Setpoint

HVACTEMPLATE:THERMOSTAT,
    EU_HeatOnly_af3917251b85a42e_F4_dwelling_4,    !- Name
    ,                         !- Heating Setpoint Schedule Name
    20,                       !- Constant Heating Setpoint
    ,                         !- Cooling Setpoint Schedule Name
    50;                       !- Constant Cooling Setpoint

HVACTEMPLATE:THERMOSTAT,
    EU_HeatOnly_af3917251b85a42e_F4_dwelling_5,    !- Name
    ,                         !- Heating Setpoint Schedule Name
    20,                       !- Constant Heating Setpoint
    ,                         !- Cooling Setpoint Schedule Name
    50;                       !- Constant Cooling Setpoint

HVACTEMPLATE:THERMOSTAT,
    EU_HeatOnly_af3917251b85a42e_F4_dwelling_6,    !- Name
    ,                         !- Heating Setpoint Schedule Name
    20,                       !- Constant Heating Setpoint
    ,                         !- Cooling Setpoint Schedule Name
    50;                       !- Constant Cooling Setpoint

HVACTEMPLATE:THERMOSTAT,
    EU_HeatOnly_af3917251b85a42e_F4_dwelling_7,    !- Name
    ,                         !- Heating Setpoint Schedule Name
    20,                       !- Constant Heating Setpoint
    ,                         !- Cooling Setpoint Schedule Name
    50;                       !- Constant Cooling Setpoint

HVACTEMPLATE:ZONE:IDEALLOADSAIRSYSTEM,
    af3917251b85a42e_F0_dwelling_0,    !- Zone Name
    EU_HeatOnly_af3917251b85a42e_F0_dwelling_0,    !- Template Thermostat Name
    EU_AlwaysOn,              !- System Availability Schedule Name
    50,                       !- Maximum Heating Supply Air Temperature
    13,                       !- Minimum Cooling Supply Air Temperature
    0.0156,                   !- Maximum Heating Supply Air Humidity Ratio
    0.0077,                   !- Minimum Cooling Supply Air Humidity Ratio
    NoLimit,                  !- Heating Limit
    ,                         !- Maximum Heating Air Flow Rate
    ,                         !- Maximum Sensible Heating Capacity
    NoLimit,                  !- Cooling Limit
    ,                         !- Maximum Cooling Air Flow Rate
    ,                         !- Maximum Total Cooling Capacity
    EU_AlwaysOn,              !- Heating Availability Schedule Name
    EU_CoolingOff,            !- Cooling Availability Schedule Name
    ConstantSensibleHeatRatio,    !- Dehumidification Control Type
    0.7,                      !- Cooling Sensible Heat Ratio
    60,                       !- Dehumidification Setpoint
    None,                     !- Humidification Control Type
    30,                       !- Humidification Setpoint
    None,                     !- Outdoor Air Method
    0.00944,                  !- Outdoor Air Flow Rate per Person
    0.0,                      !- Outdoor Air Flow Rate per Zone Floor Area
    0,                        !- Outdoor Air Flow Rate per Zone
    ,                         !- Design Specification Outdoor Air Object Name
    None,                     !- Demand Controlled Ventilation Type
    NoEconomizer,             !- Outdoor Air Economizer Type
    None,                     !- Heat Recovery Type
    0.70,                     !- Sensible Heat Recovery Effectiveness
    0.65;                     !- Latent Heat Recovery Effectiveness

HVACTEMPLATE:ZONE:IDEALLOADSAIRSYSTEM,
    af3917251b85a42e_F0_dwelling_1,    !- Zone Name
    EU_HeatOnly_af3917251b85a42e_F0_dwelling_1,    !- Template Thermostat Name
    EU_AlwaysOn,              !- System Availability Schedule Name
    50,                       !- Maximum Heating Supply Air Temperature
    13,                       !- Minimum Cooling Supply Air Temperature
    0.0156,                   !- Maximum Heating Supply Air Humidity Ratio
    0.0077,                   !- Minimum Cooling Supply Air Humidity Ratio
    NoLimit,                  !- Heating Limit
    ,                         !- Maximum Heating Air Flow Rate
    ,                         !- Maximum Sensible Heating Capacity
    NoLimit,                  !- Cooling Limit
    ,                         !- Maximum Cooling Air Flow Rate
    ,                         !- Maximum Total Cooling Capacity
    EU_AlwaysOn,              !- Heating Availability Schedule Name
    EU_CoolingOff,            !- Cooling Availability Schedule Name
    ConstantSensibleHeatRatio,    !- Dehumidification Control Type
    0.7,                      !- Cooling Sensible Heat Ratio
    60,                       !- Dehumidification Setpoint
    None,                     !- Humidification Control Type
    30,                       !- Humidification Setpoint
    None,                     !- Outdoor Air Method
    0.00944,                  !- Outdoor Air Flow Rate per Person
    0.0,                      !- Outdoor Air Flow Rate per Zone Floor Area
    0,                        !- Outdoor Air Flow Rate per Zone
    ,                         !- Design Specification Outdoor Air Object Name
    None,                     !- Demand Controlled Ventilation Type
    NoEconomizer,             !- Outdoor Air Economizer Type
    None,                     !- Heat Recovery Type
    0.70,                     !- Sensible Heat Recovery Effectiveness
    0.65;                     !- Latent Heat Recovery Effectiveness

HVACTEMPLATE:ZONE:IDEALLOADSAIRSYSTEM,
    af3917251b85a42e_F0_dwelling_2,    !- Zone Name
    EU_HeatOnly_af3917251b85a42e_F0_dwelling_2,    !- Template Thermostat Name
    EU_AlwaysOn,              !- System Availability Schedule Name
    50,                       !- Maximum Heating Supply Air Temperature
    13,                       !- Minimum Cooling Supply Air Temperature
    0.0156,                   !- Maximum Heating Supply Air Humidity Ratio
    0.0077,                   !- Minimum Cooling Supply Air Humidity Ratio
    NoLimit,                  !- Heating Limit
    ,                         !- Maximum Heating Air Flow Rate
    ,                         !- Maximum Sensible Heating Capacity
    NoLimit,                  !- Cooling Limit
    ,                         !- Maximum Cooling Air Flow Rate
    ,                         !- Maximum Total Cooling Capacity
    EU_AlwaysOn,              !- Heating Availability Schedule Name
    EU_CoolingOff,            !- Cooling Availability Schedule Name
    ConstantSensibleHeatRatio,    !- Dehumidification Control Type
    0.7,                      !- Cooling Sensible Heat Ratio
    60,                       !- Dehumidification Setpoint
    None,                     !- Humidification Control Type
    30,                       !- Humidification Setpoint
    None,                     !- Outdoor Air Method
    0.00944,                  !- Outdoor Air Flow Rate per Person
    0.0,                      !- Outdoor Air Flow Rate per Zone Floor Area
    0,                        !- Outdoor Air Flow Rate per Zone
    ,                         !- Design Specification Outdoor Air Object Name
    None,                     !- Demand Controlled Ventilation Type
    NoEconomizer,             !- Outdoor Air Economizer Type
    None,                     !- Heat Recovery Type
    0.70,                     !- Sensible Heat Recovery Effectiveness
    0.65;                     !- Latent Heat Recovery Effectiveness

HVACTEMPLATE:ZONE:IDEALLOADSAIRSYSTEM,
    af3917251b85a42e_F0_dwelling_3,    !- Zone Name
    EU_HeatOnly_af3917251b85a42e_F0_dwelling_3,    !- Template Thermostat Name
    EU_AlwaysOn,              !- System Availability Schedule Name
    50,                       !- Maximum Heating Supply Air Temperature
    13,                       !- Minimum Cooling Supply Air Temperature
    0.0156,                   !- Maximum Heating Supply Air Humidity Ratio
    0.0077,                   !- Minimum Cooling Supply Air Humidity Ratio
    NoLimit,                  !- Heating Limit
    ,                         !- Maximum Heating Air Flow Rate
    ,                         !- Maximum Sensible Heating Capacity
    NoLimit,                  !- Cooling Limit
    ,                         !- Maximum Cooling Air Flow Rate
    ,                         !- Maximum Total Cooling Capacity
    EU_AlwaysOn,              !- Heating Availability Schedule Name
    EU_CoolingOff,            !- Cooling Availability Schedule Name
    ConstantSensibleHeatRatio,    !- Dehumidification Control Type
    0.7,                      !- Cooling Sensible Heat Ratio
    60,                       !- Dehumidification Setpoint
    None,                     !- Humidification Control Type
    30,                       !- Humidification Setpoint
    None,                     !- Outdoor Air Method
    0.00944,                  !- Outdoor Air Flow Rate per Person
    0.0,                      !- Outdoor Air Flow Rate per Zone Floor Area
    0,                        !- Outdoor Air Flow Rate per Zone
    ,                         !- Design Specification Outdoor Air Object Name
    None,                     !- Demand Controlled Ventilation Type
    NoEconomizer,             !- Outdoor Air Economizer Type
    None,                     !- Heat Recovery Type
    0.70,                     !- Sensible Heat Recovery Effectiveness
    0.65;                     !- Latent Heat Recovery Effectiveness

HVACTEMPLATE:ZONE:IDEALLOADSAIRSYSTEM,
    af3917251b85a42e_F0_dwelling_4,    !- Zone Name
    EU_HeatOnly_af3917251b85a42e_F0_dwelling_4,    !- Template Thermostat Name
    EU_AlwaysOn,              !- System Availability Schedule Name
    50,                       !- Maximum Heating Supply Air Temperature
    13,                       !- Minimum Cooling Supply Air Temperature
    0.0156,                   !- Maximum Heating Supply Air Humidity Ratio
    0.0077,                   !- Minimum Cooling Supply Air Humidity Ratio
    NoLimit,                  !- Heating Limit
    ,                         !- Maximum Heating Air Flow Rate
    ,                         !- Maximum Sensible Heating Capacity
    NoLimit,                  !- Cooling Limit
    ,                         !- Maximum Cooling Air Flow Rate
    ,                         !- Maximum Total Cooling Capacity
    EU_AlwaysOn,              !- Heating Availability Schedule Name
    EU_CoolingOff,            !- Cooling Availability Schedule Name
    ConstantSensibleHeatRatio,    !- Dehumidification Control Type
    0.7,                      !- Cooling Sensible Heat Ratio
    60,                       !- Dehumidification Setpoint
    None,                     !- Humidification Control Type
    30,                       !- Humidification Setpoint
    None,                     !- Outdoor Air Method
    0.00944,                  !- Outdoor Air Flow Rate per Person
    0.0,                      !- Outdoor Air Flow Rate per Zone Floor Area
    0,                        !- Outdoor Air Flow Rate per Zone
    ,                         !- Design Specification Outdoor Air Object Name
    None,                     !- Demand Controlled Ventilation Type
    NoEconomizer,             !- Outdoor Air Economizer Type
    None,                     !- Heat Recovery Type
    0.70,                     !- Sensible Heat Recovery Effectiveness
    0.65;                     !- Latent Heat Recovery Effectiveness

HVACTEMPLATE:ZONE:IDEALLOADSAIRSYSTEM,
    af3917251b85a42e_F0_dwelling_5,    !- Zone Name
    EU_HeatOnly_af3917251b85a42e_F0_dwelling_5,    !- Template Thermostat Name
    EU_AlwaysOn,              !- System Availability Schedule Name
    50,                       !- Maximum Heating Supply Air Temperature
    13,                       !- Minimum Cooling Supply Air Temperature
    0.0156,                   !- Maximum Heating Supply Air Humidity Ratio
    0.0077,                   !- Minimum Cooling Supply Air Humidity Ratio
    NoLimit,                  !- Heating Limit
    ,                         !- Maximum Heating Air Flow Rate
    ,                         !- Maximum Sensible Heating Capacity
    NoLimit,                  !- Cooling Limit
    ,                         !- Maximum Cooling Air Flow Rate
    ,                         !- Maximum Total Cooling Capacity
    EU_AlwaysOn,              !- Heating Availability Schedule Name
    EU_CoolingOff,            !- Cooling Availability Schedule Name
    ConstantSensibleHeatRatio,    !- Dehumidification Control Type
    0.7,                      !- Cooling Sensible Heat Ratio
    60,                       !- Dehumidification Setpoint
    None,                     !- Humidification Control Type
    30,                       !- Humidification Setpoint
    None,                     !- Outdoor Air Method
    0.00944,                  !- Outdoor Air Flow Rate per Person
    0.0,                      !- Outdoor Air Flow Rate per Zone Floor Area
    0,                        !- Outdoor Air Flow Rate per Zone
    ,                         !- Design Specification Outdoor Air Object Name
    None,                     !- Demand Controlled Ventilation Type
    NoEconomizer,             !- Outdoor Air Economizer Type
    None,                     !- Heat Recovery Type
    0.70,                     !- Sensible Heat Recovery Effectiveness
    0.65;                     !- Latent Heat Recovery Effectiveness

HVACTEMPLATE:ZONE:IDEALLOADSAIRSYSTEM,
    af3917251b85a42e_F0_dwelling_6,    !- Zone Name
    EU_HeatOnly_af3917251b85a42e_F0_dwelling_6,    !- Template Thermostat Name
    EU_AlwaysOn,              !- System Availability Schedule Name
    50,                       !- Maximum Heating Supply Air Temperature
    13,                       !- Minimum Cooling Supply Air Temperature
    0.0156,                   !- Maximum Heating Supply Air Humidity Ratio
    0.0077,                   !- Minimum Cooling Supply Air Humidity Ratio
    NoLimit,                  !- Heating Limit
    ,                         !- Maximum Heating Air Flow Rate
    ,                         !- Maximum Sensible Heating Capacity
    NoLimit,                  !- Cooling Limit
    ,                         !- Maximum Cooling Air Flow Rate
    ,                         !- Maximum Total Cooling Capacity
    EU_AlwaysOn,              !- Heating Availability Schedule Name
    EU_CoolingOff,            !- Cooling Availability Schedule Name
    ConstantSensibleHeatRatio,    !- Dehumidification Control Type
    0.7,                      !- Cooling Sensible Heat Ratio
    60,                       !- Dehumidification Setpoint
    None,                     !- Humidification Control Type
    30,                       !- Humidification Setpoint
    None,                     !- Outdoor Air Method
    0.00944,                  !- Outdoor Air Flow Rate per Person
    0.0,                      !- Outdoor Air Flow Rate per Zone Floor Area
    0,                        !- Outdoor Air Flow Rate per Zone
    ,                         !- Design Specification Outdoor Air Object Name
    None,                     !- Demand Controlled Ventilation Type
    NoEconomizer,             !- Outdoor Air Economizer Type
    None,                     !- Heat Recovery Type
    0.70,                     !- Sensible Heat Recovery Effectiveness
    0.65;                     !- Latent Heat Recovery Effectiveness

HVACTEMPLATE:ZONE:IDEALLOADSAIRSYSTEM,
    af3917251b85a42e_F0_dwelling_7,    !- Zone Name
    EU_HeatOnly_af3917251b85a42e_F0_dwelling_7,    !- Template Thermostat Name
    EU_AlwaysOn,              !- System Availability Schedule Name
    50,                       !- Maximum Heating Supply Air Temperature
    13,                       !- Minimum Cooling Supply Air Temperature
    0.0156,                   !- Maximum Heating Supply Air Humidity Ratio
    0.0077,                   !- Minimum Cooling Supply Air Humidity Ratio
    NoLimit,                  !- Heating Limit
    ,                         !- Maximum Heating Air Flow Rate
    ,                         !- Maximum Sensible Heating Capacity
    NoLimit,                  !- Cooling Limit
    ,                         !- Maximum Cooling Air Flow Rate
    ,                         !- Maximum Total Cooling Capacity
    EU_AlwaysOn,              !- Heating Availability Schedule Name
    EU_CoolingOff,            !- Cooling Availability Schedule Name
    ConstantSensibleHeatRatio,    !- Dehumidification Control Type
    0.7,                      !- Cooling Sensible Heat Ratio
    60,                       !- Dehumidification Setpoint
    None,                     !- Humidification Control Type
    30,                       !- Humidification Setpoint
    None,                     !- Outdoor Air Method
    0.00944,                  !- Outdoor Air Flow Rate per Person
    0.0,                      !- Outdoor Air Flow Rate per Zone Floor Area
    0,                        !- Outdoor Air Flow Rate per Zone
    ,                         !- Design Specification Outdoor Air Object Name
    None,                     !- Demand Controlled Ventilation Type
    NoEconomizer,             !- Outdoor Air Economizer Type
    None,                     !- Heat Recovery Type
    0.70,                     !- Sensible Heat Recovery Effectiveness
    0.65;                     !- Latent Heat Recovery Effectiveness

HVACTEMPLATE:ZONE:IDEALLOADSAIRSYSTEM,
    af3917251b85a42e_F1_dwelling_0,    !- Zone Name
    EU_HeatOnly_af3917251b85a42e_F1_dwelling_0,    !- Template Thermostat Name
    EU_AlwaysOn,              !- System Availability Schedule Name
    50,                       !- Maximum Heating Supply Air Temperature
    13,                       !- Minimum Cooling Supply Air Temperature
    0.0156,                   !- Maximum Heating Supply Air Humidity Ratio
    0.0077,                   !- Minimum Cooling Supply Air Humidity Ratio
    NoLimit,                  !- Heating Limit
    ,                         !- Maximum Heating Air Flow Rate
    ,                         !- Maximum Sensible Heating Capacity
    NoLimit,                  !- Cooling Limit
    ,                         !- Maximum Cooling Air Flow Rate
    ,                         !- Maximum Total Cooling Capacity
    EU_AlwaysOn,              !- Heating Availability Schedule Name
    EU_CoolingOff,            !- Cooling Availability Schedule Name
    ConstantSensibleHeatRatio,    !- Dehumidification Control Type
    0.7,                      !- Cooling Sensible Heat Ratio
    60,                       !- Dehumidification Setpoint
    None,                     !- Humidification Control Type
    30,                       !- Humidification Setpoint
    None,                     !- Outdoor Air Method
    0.00944,                  !- Outdoor Air Flow Rate per Person
    0.0,                      !- Outdoor Air Flow Rate per Zone Floor Area
    0,                        !- Outdoor Air Flow Rate per Zone
    ,                         !- Design Specification Outdoor Air Object Name
    None,                     !- Demand Controlled Ventilation Type
    NoEconomizer,             !- Outdoor Air Economizer Type
    None,                     !- Heat Recovery Type
    0.70,                     !- Sensible Heat Recovery Effectiveness
    0.65;                     !- Latent Heat Recovery Effectiveness

HVACTEMPLATE:ZONE:IDEALLOADSAIRSYSTEM,
    af3917251b85a42e_F1_dwelling_1,    !- Zone Name
    EU_HeatOnly_af3917251b85a42e_F1_dwelling_1,    !- Template Thermostat Name
    EU_AlwaysOn,              !- System Availability Schedule Name
    50,                       !- Maximum Heating Supply Air Temperature
    13,                       !- Minimum Cooling Supply Air Temperature
    0.0156,                   !- Maximum Heating Supply Air Humidity Ratio
    0.0077,                   !- Minimum Cooling Supply Air Humidity Ratio
    NoLimit,                  !- Heating Limit
    ,                         !- Maximum Heating Air Flow Rate
    ,                         !- Maximum Sensible Heating Capacity
    NoLimit,                  !- Cooling Limit
    ,                         !- Maximum Cooling Air Flow Rate
    ,                         !- Maximum Total Cooling Capacity
    EU_AlwaysOn,              !- Heating Availability Schedule Name
    EU_CoolingOff,            !- Cooling Availability Schedule Name
    ConstantSensibleHeatRatio,    !- Dehumidification Control Type
    0.7,                      !- Cooling Sensible Heat Ratio
    60,                       !- Dehumidification Setpoint
    None,                     !- Humidification Control Type
    30,                       !- Humidification Setpoint
    None,                     !- Outdoor Air Method
    0.00944,                  !- Outdoor Air Flow Rate per Person
    0.0,                      !- Outdoor Air Flow Rate per Zone Floor Area
    0,                        !- Outdoor Air Flow Rate per Zone
    ,                         !- Design Specification Outdoor Air Object Name
    None,                     !- Demand Controlled Ventilation Type
    NoEconomizer,             !- Outdoor Air Economizer Type
    None,                     !- Heat Recovery Type
    0.70,                     !- Sensible Heat Recovery Effectiveness
    0.65;                     !- Latent Heat Recovery Effectiveness

HVACTEMPLATE:ZONE:IDEALLOADSAIRSYSTEM,
    af3917251b85a42e_F1_dwelling_2,    !- Zone Name
    EU_HeatOnly_af3917251b85a42e_F1_dwelling_2,    !- Template Thermostat Name
    EU_AlwaysOn,              !- System Availability Schedule Name
    50,                       !- Maximum Heating Supply Air Temperature
    13,                       !- Minimum Cooling Supply Air Temperature
    0.0156,                   !- Maximum Heating Supply Air Humidity Ratio
    0.0077,                   !- Minimum Cooling Supply Air Humidity Ratio
    NoLimit,                  !- Heating Limit
    ,                         !- Maximum Heating Air Flow Rate
    ,                         !- Maximum Sensible Heating Capacity
    NoLimit,                  !- Cooling Limit
    ,                         !- Maximum Cooling Air Flow Rate
    ,                         !- Maximum Total Cooling Capacity
    EU_AlwaysOn,              !- Heating Availability Schedule Name
    EU_CoolingOff,            !- Cooling Availability Schedule Name
    ConstantSensibleHeatRatio,    !- Dehumidification Control Type
    0.7,                      !- Cooling Sensible Heat Ratio
    60,                       !- Dehumidification Setpoint
    None,                     !- Humidification Control Type
    30,                       !- Humidification Setpoint
    None,                     !- Outdoor Air Method
    0.00944,                  !- Outdoor Air Flow Rate per Person
    0.0,                      !- Outdoor Air Flow Rate per Zone Floor Area
    0,                        !- Outdoor Air Flow Rate per Zone
    ,                         !- Design Specification Outdoor Air Object Name
    None,                     !- Demand Controlled Ventilation Type
    NoEconomizer,             !- Outdoor Air Economizer Type
    None,                     !- Heat Recovery Type
    0.70,                     !- Sensible Heat Recovery Effectiveness
    0.65;                     !- Latent Heat Recovery Effectiveness

HVACTEMPLATE:ZONE:IDEALLOADSAIRSYSTEM,
    af3917251b85a42e_F1_dwelling_3,    !- Zone Name
    EU_HeatOnly_af3917251b85a42e_F1_dwelling_3,    !- Template Thermostat Name
    EU_AlwaysOn,              !- System Availability Schedule Name
    50,                       !- Maximum Heating Supply Air Temperature
    13,                       !- Minimum Cooling Supply Air Temperature
    0.0156,                   !- Maximum Heating Supply Air Humidity Ratio
    0.0077,                   !- Minimum Cooling Supply Air Humidity Ratio
    NoLimit,                  !- Heating Limit
    ,                         !- Maximum Heating Air Flow Rate
    ,                         !- Maximum Sensible Heating Capacity
    NoLimit,                  !- Cooling Limit
    ,                         !- Maximum Cooling Air Flow Rate
    ,                         !- Maximum Total Cooling Capacity
    EU_AlwaysOn,              !- Heating Availability Schedule Name
    EU_CoolingOff,            !- Cooling Availability Schedule Name
    ConstantSensibleHeatRatio,    !- Dehumidification Control Type
    0.7,                      !- Cooling Sensible Heat Ratio
    60,                       !- Dehumidification Setpoint
    None,                     !- Humidification Control Type
    30,                       !- Humidification Setpoint
    None,                     !- Outdoor Air Method
    0.00944,                  !- Outdoor Air Flow Rate per Person
    0.0,                      !- Outdoor Air Flow Rate per Zone Floor Area
    0,                        !- Outdoor Air Flow Rate per Zone
    ,                         !- Design Specification Outdoor Air Object Name
    None,                     !- Demand Controlled Ventilation Type
    NoEconomizer,             !- Outdoor Air Economizer Type
    None,                     !- Heat Recovery Type
    0.70,                     !- Sensible Heat Recovery Effectiveness
    0.65;                     !- Latent Heat Recovery Effectiveness

HVACTEMPLATE:ZONE:IDEALLOADSAIRSYSTEM,
    af3917251b85a42e_F1_dwelling_4,    !- Zone Name
    EU_HeatOnly_af3917251b85a42e_F1_dwelling_4,    !- Template Thermostat Name
    EU_AlwaysOn,              !- System Availability Schedule Name
    50,                       !- Maximum Heating Supply Air Temperature
    13,                       !- Minimum Cooling Supply Air Temperature
    0.0156,                   !- Maximum Heating Supply Air Humidity Ratio
    0.0077,                   !- Minimum Cooling Supply Air Humidity Ratio
    NoLimit,                  !- Heating Limit
    ,                         !- Maximum Heating Air Flow Rate
    ,                         !- Maximum Sensible Heating Capacity
    NoLimit,                  !- Cooling Limit
    ,                         !- Maximum Cooling Air Flow Rate
    ,                         !- Maximum Total Cooling Capacity
    EU_AlwaysOn,              !- Heating Availability Schedule Name
    EU_CoolingOff,            !- Cooling Availability Schedule Name
    ConstantSensibleHeatRatio,    !- Dehumidification Control Type
    0.7,                      !- Cooling Sensible Heat Ratio
    60,                       !- Dehumidification Setpoint
    None,                     !- Humidification Control Type
    30,                       !- Humidification Setpoint
    None,                     !- Outdoor Air Method
    0.00944,                  !- Outdoor Air Flow Rate per Person
    0.0,                      !- Outdoor Air Flow Rate per Zone Floor Area
    0,                        !- Outdoor Air Flow Rate per Zone
    ,                         !- Design Specification Outdoor Air Object Name
    None,                     !- Demand Controlled Ventilation Type
    NoEconomizer,             !- Outdoor Air Economizer Type
    None,                     !- Heat Recovery Type
    0.70,                     !- Sensible Heat Recovery Effectiveness
    0.65;                     !- Latent Heat Recovery Effectiveness

HVACTEMPLATE:ZONE:IDEALLOADSAIRSYSTEM,
    af3917251b85a42e_F1_dwelling_5,    !- Zone Name
    EU_HeatOnly_af3917251b85a42e_F1_dwelling_5,    !- Template Thermostat Name
    EU_AlwaysOn,              !- System Availability Schedule Name
    50,                       !- Maximum Heating Supply Air Temperature
    13,                       !- Minimum Cooling Supply Air Temperature
    0.0156,                   !- Maximum Heating Supply Air Humidity Ratio
    0.0077,                   !- Minimum Cooling Supply Air Humidity Ratio
    NoLimit,                  !- Heating Limit
    ,                         !- Maximum Heating Air Flow Rate
    ,                         !- Maximum Sensible Heating Capacity
    NoLimit,                  !- Cooling Limit
    ,                         !- Maximum Cooling Air Flow Rate
    ,                         !- Maximum Total Cooling Capacity
    EU_AlwaysOn,              !- Heating Availability Schedule Name
    EU_CoolingOff,            !- Cooling Availability Schedule Name
    ConstantSensibleHeatRatio,    !- Dehumidification Control Type
    0.7,                      !- Cooling Sensible Heat Ratio
    60,                       !- Dehumidification Setpoint
    None,                     !- Humidification Control Type
    30,                       !- Humidification Setpoint
    None,                     !- Outdoor Air Method
    0.00944,                  !- Outdoor Air Flow Rate per Person
    0.0,                      !- Outdoor Air Flow Rate per Zone Floor Area
    0,                        !- Outdoor Air Flow Rate per Zone
    ,                         !- Design Specification Outdoor Air Object Name
    None,                     !- Demand Controlled Ventilation Type
    NoEconomizer,             !- Outdoor Air Economizer Type
    None,                     !- Heat Recovery Type
    0.70,                     !- Sensible Heat Recovery Effectiveness
    0.65;                     !- Latent Heat Recovery Effectiveness

HVACTEMPLATE:ZONE:IDEALLOADSAIRSYSTEM,
    af3917251b85a42e_F1_dwelling_6,    !- Zone Name
    EU_HeatOnly_af3917251b85a42e_F1_dwelling_6,    !- Template Thermostat Name
    EU_AlwaysOn,              !- System Availability Schedule Name
    50,                       !- Maximum Heating Supply Air Temperature
    13,                       !- Minimum Cooling Supply Air Temperature
    0.0156,                   !- Maximum Heating Supply Air Humidity Ratio
    0.0077,                   !- Minimum Cooling Supply Air Humidity Ratio
    NoLimit,                  !- Heating Limit
    ,                         !- Maximum Heating Air Flow Rate
    ,                         !- Maximum Sensible Heating Capacity
    NoLimit,                  !- Cooling Limit
    ,                         !- Maximum Cooling Air Flow Rate
    ,                         !- Maximum Total Cooling Capacity
    EU_AlwaysOn,              !- Heating Availability Schedule Name
    EU_CoolingOff,            !- Cooling Availability Schedule Name
    ConstantSensibleHeatRatio,    !- Dehumidification Control Type
    0.7,                      !- Cooling Sensible Heat Ratio
    60,                       !- Dehumidification Setpoint
    None,                     !- Humidification Control Type
    30,                       !- Humidification Setpoint
    None,                     !- Outdoor Air Method
    0.00944,                  !- Outdoor Air Flow Rate per Person
    0.0,                      !- Outdoor Air Flow Rate per Zone Floor Area
    0,                        !- Outdoor Air Flow Rate per Zone
    ,                         !- Design Specification Outdoor Air Object Name
    None,                     !- Demand Controlled Ventilation Type
    NoEconomizer,             !- Outdoor Air Economizer Type
    None,                     !- Heat Recovery Type
    0.70,                     !- Sensible Heat Recovery Effectiveness
    0.65;                     !- Latent Heat Recovery Effectiveness

HVACTEMPLATE:ZONE:IDEALLOADSAIRSYSTEM,
    af3917251b85a42e_F1_dwelling_7,    !- Zone Name
    EU_HeatOnly_af3917251b85a42e_F1_dwelling_7,    !- Template Thermostat Name
    EU_AlwaysOn,              !- System Availability Schedule Name
    50,                       !- Maximum Heating Supply Air Temperature
    13,                       !- Minimum Cooling Supply Air Temperature
    0.0156,                   !- Maximum Heating Supply Air Humidity Ratio
    0.0077,                   !- Minimum Cooling Supply Air Humidity Ratio
    NoLimit,                  !- Heating Limit
    ,                         !- Maximum Heating Air Flow Rate
    ,                         !- Maximum Sensible Heating Capacity
    NoLimit,                  !- Cooling Limit
    ,                         !- Maximum Cooling Air Flow Rate
    ,                         !- Maximum Total Cooling Capacity
    EU_AlwaysOn,              !- Heating Availability Schedule Name
    EU_CoolingOff,            !- Cooling Availability Schedule Name
    ConstantSensibleHeatRatio,    !- Dehumidification Control Type
    0.7,                      !- Cooling Sensible Heat Ratio
    60,                       !- Dehumidification Setpoint
    None,                     !- Humidification Control Type
    30,                       !- Humidification Setpoint
    None,                     !- Outdoor Air Method
    0.00944,                  !- Outdoor Air Flow Rate per Person
    0.0,                      !- Outdoor Air Flow Rate per Zone Floor Area
    0,                        !- Outdoor Air Flow Rate per Zone
    ,                         !- Design Specification Outdoor Air Object Name
    None,                     !- Demand Controlled Ventilation Type
    NoEconomizer,             !- Outdoor Air Economizer Type
    None,                     !- Heat Recovery Type
    0.70,                     !- Sensible Heat Recovery Effectiveness
    0.65;                     !- Latent Heat Recovery Effectiveness

HVACTEMPLATE:ZONE:IDEALLOADSAIRSYSTEM,
    af3917251b85a42e_F2_dwelling_0,    !- Zone Name
    EU_HeatOnly_af3917251b85a42e_F2_dwelling_0,    !- Template Thermostat Name
    EU_AlwaysOn,              !- System Availability Schedule Name
    50,                       !- Maximum Heating Supply Air Temperature
    13,                       !- Minimum Cooling Supply Air Temperature
    0.0156,                   !- Maximum Heating Supply Air Humidity Ratio
    0.0077,                   !- Minimum Cooling Supply Air Humidity Ratio
    NoLimit,                  !- Heating Limit
    ,                         !- Maximum Heating Air Flow Rate
    ,                         !- Maximum Sensible Heating Capacity
    NoLimit,                  !- Cooling Limit
    ,                         !- Maximum Cooling Air Flow Rate
    ,                         !- Maximum Total Cooling Capacity
    EU_AlwaysOn,              !- Heating Availability Schedule Name
    EU_CoolingOff,            !- Cooling Availability Schedule Name
    ConstantSensibleHeatRatio,    !- Dehumidification Control Type
    0.7,                      !- Cooling Sensible Heat Ratio
    60,                       !- Dehumidification Setpoint
    None,                     !- Humidification Control Type
    30,                       !- Humidification Setpoint
    None,                     !- Outdoor Air Method
    0.00944,                  !- Outdoor Air Flow Rate per Person
    0.0,                      !- Outdoor Air Flow Rate per Zone Floor Area
    0,                        !- Outdoor Air Flow Rate per Zone
    ,                         !- Design Specification Outdoor Air Object Name
    None,                     !- Demand Controlled Ventilation Type
    NoEconomizer,             !- Outdoor Air Economizer Type
    None,                     !- Heat Recovery Type
    0.70,                     !- Sensible Heat Recovery Effectiveness
    0.65;                     !- Latent Heat Recovery Effectiveness

HVACTEMPLATE:ZONE:IDEALLOADSAIRSYSTEM,
    af3917251b85a42e_F2_dwelling_1,    !- Zone Name
    EU_HeatOnly_af3917251b85a42e_F2_dwelling_1,    !- Template Thermostat Name
    EU_AlwaysOn,              !- System Availability Schedule Name
    50,                       !- Maximum Heating Supply Air Temperature
    13,                       !- Minimum Cooling Supply Air Temperature
    0.0156,                   !- Maximum Heating Supply Air Humidity Ratio
    0.0077,                   !- Minimum Cooling Supply Air Humidity Ratio
    NoLimit,                  !- Heating Limit
    ,                         !- Maximum Heating Air Flow Rate
    ,                         !- Maximum Sensible Heating Capacity
    NoLimit,                  !- Cooling Limit
    ,                         !- Maximum Cooling Air Flow Rate
    ,                         !- Maximum Total Cooling Capacity
    EU_AlwaysOn,              !- Heating Availability Schedule Name
    EU_CoolingOff,            !- Cooling Availability Schedule Name
    ConstantSensibleHeatRatio,    !- Dehumidification Control Type
    0.7,                      !- Cooling Sensible Heat Ratio
    60,                       !- Dehumidification Setpoint
    None,                     !- Humidification Control Type
    30,                       !- Humidification Setpoint
    None,                     !- Outdoor Air Method
    0.00944,                  !- Outdoor Air Flow Rate per Person
    0.0,                      !- Outdoor Air Flow Rate per Zone Floor Area
    0,                        !- Outdoor Air Flow Rate per Zone
    ,                         !- Design Specification Outdoor Air Object Name
    None,                     !- Demand Controlled Ventilation Type
    NoEconomizer,             !- Outdoor Air Economizer Type
    None,                     !- Heat Recovery Type
    0.70,                     !- Sensible Heat Recovery Effectiveness
    0.65;                     !- Latent Heat Recovery Effectiveness

HVACTEMPLATE:ZONE:IDEALLOADSAIRSYSTEM,
    af3917251b85a42e_F2_dwelling_2,    !- Zone Name
    EU_HeatOnly_af3917251b85a42e_F2_dwelling_2,    !- Template Thermostat Name
    EU_AlwaysOn,              !- System Availability Schedule Name
    50,                       !- Maximum Heating Supply Air Temperature
    13,                       !- Minimum Cooling Supply Air Temperature
    0.0156,                   !- Maximum Heating Supply Air Humidity Ratio
    0.0077,                   !- Minimum Cooling Supply Air Humidity Ratio
    NoLimit,                  !- Heating Limit
    ,                         !- Maximum Heating Air Flow Rate
    ,                         !- Maximum Sensible Heating Capacity
    NoLimit,                  !- Cooling Limit
    ,                         !- Maximum Cooling Air Flow Rate
    ,                         !- Maximum Total Cooling Capacity
    EU_AlwaysOn,              !- Heating Availability Schedule Name
    EU_CoolingOff,            !- Cooling Availability Schedule Name
    ConstantSensibleHeatRatio,    !- Dehumidification Control Type
    0.7,                      !- Cooling Sensible Heat Ratio
    60,                       !- Dehumidification Setpoint
    None,                     !- Humidification Control Type
    30,                       !- Humidification Setpoint
    None,                     !- Outdoor Air Method
    0.00944,                  !- Outdoor Air Flow Rate per Person
    0.0,                      !- Outdoor Air Flow Rate per Zone Floor Area
    0,                        !- Outdoor Air Flow Rate per Zone
    ,                         !- Design Specification Outdoor Air Object Name
    None,                     !- Demand Controlled Ventilation Type
    NoEconomizer,             !- Outdoor Air Economizer Type
    None,                     !- Heat Recovery Type
    0.70,                     !- Sensible Heat Recovery Effectiveness
    0.65;                     !- Latent Heat Recovery Effectiveness

HVACTEMPLATE:ZONE:IDEALLOADSAIRSYSTEM,
    af3917251b85a42e_F2_dwelling_3,    !- Zone Name
    EU_HeatOnly_af3917251b85a42e_F2_dwelling_3,    !- Template Thermostat Name
    EU_AlwaysOn,              !- System Availability Schedule Name
    50,                       !- Maximum Heating Supply Air Temperature
    13,                       !- Minimum Cooling Supply Air Temperature
    0.0156,                   !- Maximum Heating Supply Air Humidity Ratio
    0.0077,                   !- Minimum Cooling Supply Air Humidity Ratio
    NoLimit,                  !- Heating Limit
    ,                         !- Maximum Heating Air Flow Rate
    ,                         !- Maximum Sensible Heating Capacity
    NoLimit,                  !- Cooling Limit
    ,                         !- Maximum Cooling Air Flow Rate
    ,                         !- Maximum Total Cooling Capacity
    EU_AlwaysOn,              !- Heating Availability Schedule Name
    EU_CoolingOff,            !- Cooling Availability Schedule Name
    ConstantSensibleHeatRatio,    !- Dehumidification Control Type
    0.7,                      !- Cooling Sensible Heat Ratio
    60,                       !- Dehumidification Setpoint
    None,                     !- Humidification Control Type
    30,                       !- Humidification Setpoint
    None,                     !- Outdoor Air Method
    0.00944,                  !- Outdoor Air Flow Rate per Person
    0.0,                      !- Outdoor Air Flow Rate per Zone Floor Area
    0,                        !- Outdoor Air Flow Rate per Zone
    ,                         !- Design Specification Outdoor Air Object Name
    None,                     !- Demand Controlled Ventilation Type
    NoEconomizer,             !- Outdoor Air Economizer Type
    None,                     !- Heat Recovery Type
    0.70,                     !- Sensible Heat Recovery Effectiveness
    0.65;                     !- Latent Heat Recovery Effectiveness

HVACTEMPLATE:ZONE:IDEALLOADSAIRSYSTEM,
    af3917251b85a42e_F2_dwelling_4,    !- Zone Name
    EU_HeatOnly_af3917251b85a42e_F2_dwelling_4,    !- Template Thermostat Name
    EU_AlwaysOn,              !- System Availability Schedule Name
    50,                       !- Maximum Heating Supply Air Temperature
    13,                       !- Minimum Cooling Supply Air Temperature
    0.0156,                   !- Maximum Heating Supply Air Humidity Ratio
    0.0077,                   !- Minimum Cooling Supply Air Humidity Ratio
    NoLimit,                  !- Heating Limit
    ,                         !- Maximum Heating Air Flow Rate
    ,                         !- Maximum Sensible Heating Capacity
    NoLimit,                  !- Cooling Limit
    ,                         !- Maximum Cooling Air Flow Rate
    ,                         !- Maximum Total Cooling Capacity
    EU_AlwaysOn,              !- Heating Availability Schedule Name
    EU_CoolingOff,            !- Cooling Availability Schedule Name
    ConstantSensibleHeatRatio,    !- Dehumidification Control Type
    0.7,                      !- Cooling Sensible Heat Ratio
    60,                       !- Dehumidification Setpoint
    None,                     !- Humidification Control Type
    30,                       !- Humidification Setpoint
    None,                     !- Outdoor Air Method
    0.00944,                  !- Outdoor Air Flow Rate per Person
    0.0,                      !- Outdoor Air Flow Rate per Zone Floor Area
    0,                        !- Outdoor Air Flow Rate per Zone
    ,                         !- Design Specification Outdoor Air Object Name
    None,                     !- Demand Controlled Ventilation Type
    NoEconomizer,             !- Outdoor Air Economizer Type
    None,                     !- Heat Recovery Type
    0.70,                     !- Sensible Heat Recovery Effectiveness
    0.65;                     !- Latent Heat Recovery Effectiveness

HVACTEMPLATE:ZONE:IDEALLOADSAIRSYSTEM,
    af3917251b85a42e_F2_dwelling_5,    !- Zone Name
    EU_HeatOnly_af3917251b85a42e_F2_dwelling_5,    !- Template Thermostat Name
    EU_AlwaysOn,              !- System Availability Schedule Name
    50,                       !- Maximum Heating Supply Air Temperature
    13,                       !- Minimum Cooling Supply Air Temperature
    0.0156,                   !- Maximum Heating Supply Air Humidity Ratio
    0.0077,                   !- Minimum Cooling Supply Air Humidity Ratio
    NoLimit,                  !- Heating Limit
    ,                         !- Maximum Heating Air Flow Rate
    ,                         !- Maximum Sensible Heating Capacity
    NoLimit,                  !- Cooling Limit
    ,                         !- Maximum Cooling Air Flow Rate
    ,                         !- Maximum Total Cooling Capacity
    EU_AlwaysOn,              !- Heating Availability Schedule Name
    EU_CoolingOff,            !- Cooling Availability Schedule Name
    ConstantSensibleHeatRatio,    !- Dehumidification Control Type
    0.7,                      !- Cooling Sensible Heat Ratio
    60,                       !- Dehumidification Setpoint
    None,                     !- Humidification Control Type
    30,                       !- Humidification Setpoint
    None,                     !- Outdoor Air Method
    0.00944,                  !- Outdoor Air Flow Rate per Person
    0.0,                      !- Outdoor Air Flow Rate per Zone Floor Area
    0,                        !- Outdoor Air Flow Rate per Zone
    ,                         !- Design Specification Outdoor Air Object Name
    None,                     !- Demand Controlled Ventilation Type
    NoEconomizer,             !- Outdoor Air Economizer Type
    None,                     !- Heat Recovery Type
    0.70,                     !- Sensible Heat Recovery Effectiveness
    0.65;                     !- Latent Heat Recovery Effectiveness

HVACTEMPLATE:ZONE:IDEALLOADSAIRSYSTEM,
    af3917251b85a42e_F2_dwelling_6,    !- Zone Name
    EU_HeatOnly_af3917251b85a42e_F2_dwelling_6,    !- Template Thermostat Name
    EU_AlwaysOn,              !- System Availability Schedule Name
    50,                       !- Maximum Heating Supply Air Temperature
    13,                       !- Minimum Cooling Supply Air Temperature
    0.0156,                   !- Maximum Heating Supply Air Humidity Ratio
    0.0077,                   !- Minimum Cooling Supply Air Humidity Ratio
    NoLimit,                  !- Heating Limit
    ,                         !- Maximum Heating Air Flow Rate
    ,                         !- Maximum Sensible Heating Capacity
    NoLimit,                  !- Cooling Limit
    ,                         !- Maximum Cooling Air Flow Rate
    ,                         !- Maximum Total Cooling Capacity
    EU_AlwaysOn,              !- Heating Availability Schedule Name
    EU_CoolingOff,            !- Cooling Availability Schedule Name
    ConstantSensibleHeatRatio,    !- Dehumidification Control Type
    0.7,                      !- Cooling Sensible Heat Ratio
    60,                       !- Dehumidification Setpoint
    None,                     !- Humidification Control Type
    30,                       !- Humidification Setpoint
    None,                     !- Outdoor Air Method
    0.00944,                  !- Outdoor Air Flow Rate per Person
    0.0,                      !- Outdoor Air Flow Rate per Zone Floor Area
    0,                        !- Outdoor Air Flow Rate per Zone
    ,                         !- Design Specification Outdoor Air Object Name
    None,                     !- Demand Controlled Ventilation Type
    NoEconomizer,             !- Outdoor Air Economizer Type
    None,                     !- Heat Recovery Type
    0.70,                     !- Sensible Heat Recovery Effectiveness
    0.65;                     !- Latent Heat Recovery Effectiveness

HVACTEMPLATE:ZONE:IDEALLOADSAIRSYSTEM,
    af3917251b85a42e_F2_dwelling_7,    !- Zone Name
    EU_HeatOnly_af3917251b85a42e_F2_dwelling_7,    !- Template Thermostat Name
    EU_AlwaysOn,              !- System Availability Schedule Name
    50,                       !- Maximum Heating Supply Air Temperature
    13,                       !- Minimum Cooling Supply Air Temperature
    0.0156,                   !- Maximum Heating Supply Air Humidity Ratio
    0.0077,                   !- Minimum Cooling Supply Air Humidity Ratio
    NoLimit,                  !- Heating Limit
    ,                         !- Maximum Heating Air Flow Rate
    ,                         !- Maximum Sensible Heating Capacity
    NoLimit,                  !- Cooling Limit
    ,                         !- Maximum Cooling Air Flow Rate
    ,                         !- Maximum Total Cooling Capacity
    EU_AlwaysOn,              !- Heating Availability Schedule Name
    EU_CoolingOff,            !- Cooling Availability Schedule Name
    ConstantSensibleHeatRatio,    !- Dehumidification Control Type
    0.7,                      !- Cooling Sensible Heat Ratio
    60,                       !- Dehumidification Setpoint
    None,                     !- Humidification Control Type
    30,                       !- Humidification Setpoint
    None,                     !- Outdoor Air Method
    0.00944,                  !- Outdoor Air Flow Rate per Person
    0.0,                      !- Outdoor Air Flow Rate per Zone Floor Area
    0,                        !- Outdoor Air Flow Rate per Zone
    ,                         !- Design Specification Outdoor Air Object Name
    None,                     !- Demand Controlled Ventilation Type
    NoEconomizer,             !- Outdoor Air Economizer Type
    None,                     !- Heat Recovery Type
    0.70,                     !- Sensible Heat Recovery Effectiveness
    0.65;                     !- Latent Heat Recovery Effectiveness

HVACTEMPLATE:ZONE:IDEALLOADSAIRSYSTEM,
    af3917251b85a42e_F3_dwelling_0,    !- Zone Name
    EU_HeatOnly_af3917251b85a42e_F3_dwelling_0,    !- Template Thermostat Name
    EU_AlwaysOn,              !- System Availability Schedule Name
    50,                       !- Maximum Heating Supply Air Temperature
    13,                       !- Minimum Cooling Supply Air Temperature
    0.0156,                   !- Maximum Heating Supply Air Humidity Ratio
    0.0077,                   !- Minimum Cooling Supply Air Humidity Ratio
    NoLimit,                  !- Heating Limit
    ,                         !- Maximum Heating Air Flow Rate
    ,                         !- Maximum Sensible Heating Capacity
    NoLimit,                  !- Cooling Limit
    ,                         !- Maximum Cooling Air Flow Rate
    ,                         !- Maximum Total Cooling Capacity
    EU_AlwaysOn,              !- Heating Availability Schedule Name
    EU_CoolingOff,            !- Cooling Availability Schedule Name
    ConstantSensibleHeatRatio,    !- Dehumidification Control Type
    0.7,                      !- Cooling Sensible Heat Ratio
    60,                       !- Dehumidification Setpoint
    None,                     !- Humidification Control Type
    30,                       !- Humidification Setpoint
    None,                     !- Outdoor Air Method
    0.00944,                  !- Outdoor Air Flow Rate per Person
    0.0,                      !- Outdoor Air Flow Rate per Zone Floor Area
    0,                        !- Outdoor Air Flow Rate per Zone
    ,                         !- Design Specification Outdoor Air Object Name
    None,                     !- Demand Controlled Ventilation Type
    NoEconomizer,             !- Outdoor Air Economizer Type
    None,                     !- Heat Recovery Type
    0.70,                     !- Sensible Heat Recovery Effectiveness
    0.65;                     !- Latent Heat Recovery Effectiveness

HVACTEMPLATE:ZONE:IDEALLOADSAIRSYSTEM,
    af3917251b85a42e_F3_dwelling_1,    !- Zone Name
    EU_HeatOnly_af3917251b85a42e_F3_dwelling_1,    !- Template Thermostat Name
    EU_AlwaysOn,              !- System Availability Schedule Name
    50,                       !- Maximum Heating Supply Air Temperature
    13,                       !- Minimum Cooling Supply Air Temperature
    0.0156,                   !- Maximum Heating Supply Air Humidity Ratio
    0.0077,                   !- Minimum Cooling Supply Air Humidity Ratio
    NoLimit,                  !- Heating Limit
    ,                         !- Maximum Heating Air Flow Rate
    ,                         !- Maximum Sensible Heating Capacity
    NoLimit,                  !- Cooling Limit
    ,                         !- Maximum Cooling Air Flow Rate
    ,                         !- Maximum Total Cooling Capacity
    EU_AlwaysOn,              !- Heating Availability Schedule Name
    EU_CoolingOff,            !- Cooling Availability Schedule Name
    ConstantSensibleHeatRatio,    !- Dehumidification Control Type
    0.7,                      !- Cooling Sensible Heat Ratio
    60,                       !- Dehumidification Setpoint
    None,                     !- Humidification Control Type
    30,                       !- Humidification Setpoint
    None,                     !- Outdoor Air Method
    0.00944,                  !- Outdoor Air Flow Rate per Person
    0.0,                      !- Outdoor Air Flow Rate per Zone Floor Area
    0,                        !- Outdoor Air Flow Rate per Zone
    ,                         !- Design Specification Outdoor Air Object Name
    None,                     !- Demand Controlled Ventilation Type
    NoEconomizer,             !- Outdoor Air Economizer Type
    None,                     !- Heat Recovery Type
    0.70,                     !- Sensible Heat Recovery Effectiveness
    0.65;                     !- Latent Heat Recovery Effectiveness

HVACTEMPLATE:ZONE:IDEALLOADSAIRSYSTEM,
    af3917251b85a42e_F3_dwelling_2,    !- Zone Name
    EU_HeatOnly_af3917251b85a42e_F3_dwelling_2,    !- Template Thermostat Name
    EU_AlwaysOn,              !- System Availability Schedule Name
    50,                       !- Maximum Heating Supply Air Temperature
    13,                       !- Minimum Cooling Supply Air Temperature
    0.0156,                   !- Maximum Heating Supply Air Humidity Ratio
    0.0077,                   !- Minimum Cooling Supply Air Humidity Ratio
    NoLimit,                  !- Heating Limit
    ,                         !- Maximum Heating Air Flow Rate
    ,                         !- Maximum Sensible Heating Capacity
    NoLimit,                  !- Cooling Limit
    ,                         !- Maximum Cooling Air Flow Rate
    ,                         !- Maximum Total Cooling Capacity
    EU_AlwaysOn,              !- Heating Availability Schedule Name
    EU_CoolingOff,            !- Cooling Availability Schedule Name
    ConstantSensibleHeatRatio,    !- Dehumidification Control Type
    0.7,                      !- Cooling Sensible Heat Ratio
    60,                       !- Dehumidification Setpoint
    None,                     !- Humidification Control Type
    30,                       !- Humidification Setpoint
    None,                     !- Outdoor Air Method
    0.00944,                  !- Outdoor Air Flow Rate per Person
    0.0,                      !- Outdoor Air Flow Rate per Zone Floor Area
    0,                        !- Outdoor Air Flow Rate per Zone
    ,                         !- Design Specification Outdoor Air Object Name
    None,                     !- Demand Controlled Ventilation Type
    NoEconomizer,             !- Outdoor Air Economizer Type
    None,                     !- Heat Recovery Type
    0.70,                     !- Sensible Heat Recovery Effectiveness
    0.65;                     !- Latent Heat Recovery Effectiveness

HVACTEMPLATE:ZONE:IDEALLOADSAIRSYSTEM,
    af3917251b85a42e_F3_dwelling_3,    !- Zone Name
    EU_HeatOnly_af3917251b85a42e_F3_dwelling_3,    !- Template Thermostat Name
    EU_AlwaysOn,              !- System Availability Schedule Name
    50,                       !- Maximum Heating Supply Air Temperature
    13,                       !- Minimum Cooling Supply Air Temperature
    0.0156,                   !- Maximum Heating Supply Air Humidity Ratio
    0.0077,                   !- Minimum Cooling Supply Air Humidity Ratio
    NoLimit,                  !- Heating Limit
    ,                         !- Maximum Heating Air Flow Rate
    ,                         !- Maximum Sensible Heating Capacity
    NoLimit,                  !- Cooling Limit
    ,                         !- Maximum Cooling Air Flow Rate
    ,                         !- Maximum Total Cooling Capacity
    EU_AlwaysOn,              !- Heating Availability Schedule Name
    EU_CoolingOff,            !- Cooling Availability Schedule Name
    ConstantSensibleHeatRatio,    !- Dehumidification Control Type
    0.7,                      !- Cooling Sensible Heat Ratio
    60,                       !- Dehumidification Setpoint
    None,                     !- Humidification Control Type
    30,                       !- Humidification Setpoint
    None,                     !- Outdoor Air Method
    0.00944,                  !- Outdoor Air Flow Rate per Person
    0.0,                      !- Outdoor Air Flow Rate per Zone Floor Area
    0,                        !- Outdoor Air Flow Rate per Zone
    ,                         !- Design Specification Outdoor Air Object Name
    None,                     !- Demand Controlled Ventilation Type
    NoEconomizer,             !- Outdoor Air Economizer Type
    None,                     !- Heat Recovery Type
    0.70,                     !- Sensible Heat Recovery Effectiveness
    0.65;                     !- Latent Heat Recovery Effectiveness

HVACTEMPLATE:ZONE:IDEALLOADSAIRSYSTEM,
    af3917251b85a42e_F3_dwelling_4,    !- Zone Name
    EU_HeatOnly_af3917251b85a42e_F3_dwelling_4,    !- Template Thermostat Name
    EU_AlwaysOn,              !- System Availability Schedule Name
    50,                       !- Maximum Heating Supply Air Temperature
    13,                       !- Minimum Cooling Supply Air Temperature
    0.0156,                   !- Maximum Heating Supply Air Humidity Ratio
    0.0077,                   !- Minimum Cooling Supply Air Humidity Ratio
    NoLimit,                  !- Heating Limit
    ,                         !- Maximum Heating Air Flow Rate
    ,                         !- Maximum Sensible Heating Capacity
    NoLimit,                  !- Cooling Limit
    ,                         !- Maximum Cooling Air Flow Rate
    ,                         !- Maximum Total Cooling Capacity
    EU_AlwaysOn,              !- Heating Availability Schedule Name
    EU_CoolingOff,            !- Cooling Availability Schedule Name
    ConstantSensibleHeatRatio,    !- Dehumidification Control Type
    0.7,                      !- Cooling Sensible Heat Ratio
    60,                       !- Dehumidification Setpoint
    None,                     !- Humidification Control Type
    30,                       !- Humidification Setpoint
    None,                     !- Outdoor Air Method
    0.00944,                  !- Outdoor Air Flow Rate per Person
    0.0,                      !- Outdoor Air Flow Rate per Zone Floor Area
    0,                        !- Outdoor Air Flow Rate per Zone
    ,                         !- Design Specification Outdoor Air Object Name
    None,                     !- Demand Controlled Ventilation Type
    NoEconomizer,             !- Outdoor Air Economizer Type
    None,                     !- Heat Recovery Type
    0.70,                     !- Sensible Heat Recovery Effectiveness
    0.65;                     !- Latent Heat Recovery Effectiveness

HVACTEMPLATE:ZONE:IDEALLOADSAIRSYSTEM,
    af3917251b85a42e_F3_dwelling_5,    !- Zone Name
    EU_HeatOnly_af3917251b85a42e_F3_dwelling_5,    !- Template Thermostat Name
    EU_AlwaysOn,              !- System Availability Schedule Name
    50,                       !- Maximum Heating Supply Air Temperature
    13,                       !- Minimum Cooling Supply Air Temperature
    0.0156,                   !- Maximum Heating Supply Air Humidity Ratio
    0.0077,                   !- Minimum Cooling Supply Air Humidity Ratio
    NoLimit,                  !- Heating Limit
    ,                         !- Maximum Heating Air Flow Rate
    ,                         !- Maximum Sensible Heating Capacity
    NoLimit,                  !- Cooling Limit
    ,                         !- Maximum Cooling Air Flow Rate
    ,                         !- Maximum Total Cooling Capacity
    EU_AlwaysOn,              !- Heating Availability Schedule Name
    EU_CoolingOff,            !- Cooling Availability Schedule Name
    ConstantSensibleHeatRatio,    !- Dehumidification Control Type
    0.7,                      !- Cooling Sensible Heat Ratio
    60,                       !- Dehumidification Setpoint
    None,                     !- Humidification Control Type
    30,                       !- Humidification Setpoint
    None,                     !- Outdoor Air Method
    0.00944,                  !- Outdoor Air Flow Rate per Person
    0.0,                      !- Outdoor Air Flow Rate per Zone Floor Area
    0,                        !- Outdoor Air Flow Rate per Zone
    ,                         !- Design Specification Outdoor Air Object Name
    None,                     !- Demand Controlled Ventilation Type
    NoEconomizer,             !- Outdoor Air Economizer Type
    None,                     !- Heat Recovery Type
    0.70,                     !- Sensible Heat Recovery Effectiveness
    0.65;                     !- Latent Heat Recovery Effectiveness

HVACTEMPLATE:ZONE:IDEALLOADSAIRSYSTEM,
    af3917251b85a42e_F3_dwelling_6,    !- Zone Name
    EU_HeatOnly_af3917251b85a42e_F3_dwelling_6,    !- Template Thermostat Name
    EU_AlwaysOn,              !- System Availability Schedule Name
    50,                       !- Maximum Heating Supply Air Temperature
    13,                       !- Minimum Cooling Supply Air Temperature
    0.0156,                   !- Maximum Heating Supply Air Humidity Ratio
    0.0077,                   !- Minimum Cooling Supply Air Humidity Ratio
    NoLimit,                  !- Heating Limit
    ,                         !- Maximum Heating Air Flow Rate
    ,                         !- Maximum Sensible Heating Capacity
    NoLimit,                  !- Cooling Limit
    ,                         !- Maximum Cooling Air Flow Rate
    ,                         !- Maximum Total Cooling Capacity
    EU_AlwaysOn,              !- Heating Availability Schedule Name
    EU_CoolingOff,            !- Cooling Availability Schedule Name
    ConstantSensibleHeatRatio,    !- Dehumidification Control Type
    0.7,                      !- Cooling Sensible Heat Ratio
    60,                       !- Dehumidification Setpoint
    None,                     !- Humidification Control Type
    30,                       !- Humidification Setpoint
    None,                     !- Outdoor Air Method
    0.00944,                  !- Outdoor Air Flow Rate per Person
    0.0,                      !- Outdoor Air Flow Rate per Zone Floor Area
    0,                        !- Outdoor Air Flow Rate per Zone
    ,                         !- Design Specification Outdoor Air Object Name
    None,                     !- Demand Controlled Ventilation Type
    NoEconomizer,             !- Outdoor Air Economizer Type
    None,                     !- Heat Recovery Type
    0.70,                     !- Sensible Heat Recovery Effectiveness
    0.65;                     !- Latent Heat Recovery Effectiveness

HVACTEMPLATE:ZONE:IDEALLOADSAIRSYSTEM,
    af3917251b85a42e_F3_dwelling_7,    !- Zone Name
    EU_HeatOnly_af3917251b85a42e_F3_dwelling_7,    !- Template Thermostat Name
    EU_AlwaysOn,              !- System Availability Schedule Name
    50,                       !- Maximum Heating Supply Air Temperature
    13,                       !- Minimum Cooling Supply Air Temperature
    0.0156,                   !- Maximum Heating Supply Air Humidity Ratio
    0.0077,                   !- Minimum Cooling Supply Air Humidity Ratio
    NoLimit,                  !- Heating Limit
    ,                         !- Maximum Heating Air Flow Rate
    ,                         !- Maximum Sensible Heating Capacity
    NoLimit,                  !- Cooling Limit
    ,                         !- Maximum Cooling Air Flow Rate
    ,                         !- Maximum Total Cooling Capacity
    EU_AlwaysOn,              !- Heating Availability Schedule Name
    EU_CoolingOff,            !- Cooling Availability Schedule Name
    ConstantSensibleHeatRatio,    !- Dehumidification Control Type
    0.7,                      !- Cooling Sensible Heat Ratio
    60,                       !- Dehumidification Setpoint
    None,                     !- Humidification Control Type
    30,                       !- Humidification Setpoint
    None,                     !- Outdoor Air Method
    0.00944,                  !- Outdoor Air Flow Rate per Person
    0.0,                      !- Outdoor Air Flow Rate per Zone Floor Area
    0,                        !- Outdoor Air Flow Rate per Zone
    ,                         !- Design Specification Outdoor Air Object Name
    None,                     !- Demand Controlled Ventilation Type
    NoEconomizer,             !- Outdoor Air Economizer Type
    None,                     !- Heat Recovery Type
    0.70,                     !- Sensible Heat Recovery Effectiveness
    0.65;                     !- Latent Heat Recovery Effectiveness

HVACTEMPLATE:ZONE:IDEALLOADSAIRSYSTEM,
    af3917251b85a42e_F4_dwelling_0,    !- Zone Name
    EU_HeatOnly_af3917251b85a42e_F4_dwelling_0,    !- Template Thermostat Name
    EU_AlwaysOn,              !- System Availability Schedule Name
    50,                       !- Maximum Heating Supply Air Temperature
    13,                       !- Minimum Cooling Supply Air Temperature
    0.0156,                   !- Maximum Heating Supply Air Humidity Ratio
    0.0077,                   !- Minimum Cooling Supply Air Humidity Ratio
    NoLimit,                  !- Heating Limit
    ,                         !- Maximum Heating Air Flow Rate
    ,                         !- Maximum Sensible Heating Capacity
    NoLimit,                  !- Cooling Limit
    ,                         !- Maximum Cooling Air Flow Rate
    ,                         !- Maximum Total Cooling Capacity
    EU_AlwaysOn,              !- Heating Availability Schedule Name
    EU_CoolingOff,            !- Cooling Availability Schedule Name
    ConstantSensibleHeatRatio,    !- Dehumidification Control Type
    0.7,                      !- Cooling Sensible Heat Ratio
    60,                       !- Dehumidification Setpoint
    None,                     !- Humidification Control Type
    30,                       !- Humidification Setpoint
    None,                     !- Outdoor Air Method
    0.00944,                  !- Outdoor Air Flow Rate per Person
    0.0,                      !- Outdoor Air Flow Rate per Zone Floor Area
    0,                        !- Outdoor Air Flow Rate per Zone
    ,                         !- Design Specification Outdoor Air Object Name
    None,                     !- Demand Controlled Ventilation Type
    NoEconomizer,             !- Outdoor Air Economizer Type
    None,                     !- Heat Recovery Type
    0.70,                     !- Sensible Heat Recovery Effectiveness
    0.65;                     !- Latent Heat Recovery Effectiveness

HVACTEMPLATE:ZONE:IDEALLOADSAIRSYSTEM,
    af3917251b85a42e_F4_dwelling_1,    !- Zone Name
    EU_HeatOnly_af3917251b85a42e_F4_dwelling_1,    !- Template Thermostat Name
    EU_AlwaysOn,              !- System Availability Schedule Name
    50,                       !- Maximum Heating Supply Air Temperature
    13,                       !- Minimum Cooling Supply Air Temperature
    0.0156,                   !- Maximum Heating Supply Air Humidity Ratio
    0.0077,                   !- Minimum Cooling Supply Air Humidity Ratio
    NoLimit,                  !- Heating Limit
    ,                         !- Maximum Heating Air Flow Rate
    ,                         !- Maximum Sensible Heating Capacity
    NoLimit,                  !- Cooling Limit
    ,                         !- Maximum Cooling Air Flow Rate
    ,                         !- Maximum Total Cooling Capacity
    EU_AlwaysOn,              !- Heating Availability Schedule Name
    EU_CoolingOff,            !- Cooling Availability Schedule Name
    ConstantSensibleHeatRatio,    !- Dehumidification Control Type
    0.7,                      !- Cooling Sensible Heat Ratio
    60,                       !- Dehumidification Setpoint
    None,                     !- Humidification Control Type
    30,                       !- Humidification Setpoint
    None,                     !- Outdoor Air Method
    0.00944,                  !- Outdoor Air Flow Rate per Person
    0.0,                      !- Outdoor Air Flow Rate per Zone Floor Area
    0,                        !- Outdoor Air Flow Rate per Zone
    ,                         !- Design Specification Outdoor Air Object Name
    None,                     !- Demand Controlled Ventilation Type
    NoEconomizer,             !- Outdoor Air Economizer Type
    None,                     !- Heat Recovery Type
    0.70,                     !- Sensible Heat Recovery Effectiveness
    0.65;                     !- Latent Heat Recovery Effectiveness

HVACTEMPLATE:ZONE:IDEALLOADSAIRSYSTEM,
    af3917251b85a42e_F4_dwelling_2,    !- Zone Name
    EU_HeatOnly_af3917251b85a42e_F4_dwelling_2,    !- Template Thermostat Name
    EU_AlwaysOn,              !- System Availability Schedule Name
    50,                       !- Maximum Heating Supply Air Temperature
    13,                       !- Minimum Cooling Supply Air Temperature
    0.0156,                   !- Maximum Heating Supply Air Humidity Ratio
    0.0077,                   !- Minimum Cooling Supply Air Humidity Ratio
    NoLimit,                  !- Heating Limit
    ,                         !- Maximum Heating Air Flow Rate
    ,                         !- Maximum Sensible Heating Capacity
    NoLimit,                  !- Cooling Limit
    ,                         !- Maximum Cooling Air Flow Rate
    ,                         !- Maximum Total Cooling Capacity
    EU_AlwaysOn,              !- Heating Availability Schedule Name
    EU_CoolingOff,            !- Cooling Availability Schedule Name
    ConstantSensibleHeatRatio,    !- Dehumidification Control Type
    0.7,                      !- Cooling Sensible Heat Ratio
    60,                       !- Dehumidification Setpoint
    None,                     !- Humidification Control Type
    30,                       !- Humidification Setpoint
    None,                     !- Outdoor Air Method
    0.00944,                  !- Outdoor Air Flow Rate per Person
    0.0,                      !- Outdoor Air Flow Rate per Zone Floor Area
    0,                        !- Outdoor Air Flow Rate per Zone
    ,                         !- Design Specification Outdoor Air Object Name
    None,                     !- Demand Controlled Ventilation Type
    NoEconomizer,             !- Outdoor Air Economizer Type
    None,                     !- Heat Recovery Type
    0.70,                     !- Sensible Heat Recovery Effectiveness
    0.65;                     !- Latent Heat Recovery Effectiveness

HVACTEMPLATE:ZONE:IDEALLOADSAIRSYSTEM,
    af3917251b85a42e_F4_dwelling_3,    !- Zone Name
    EU_HeatOnly_af3917251b85a42e_F4_dwelling_3,    !- Template Thermostat Name
    EU_AlwaysOn,              !- System Availability Schedule Name
    50,                       !- Maximum Heating Supply Air Temperature
    13,                       !- Minimum Cooling Supply Air Temperature
    0.0156,                   !- Maximum Heating Supply Air Humidity Ratio
    0.0077,                   !- Minimum Cooling Supply Air Humidity Ratio
    NoLimit,                  !- Heating Limit
    ,                         !- Maximum Heating Air Flow Rate
    ,                         !- Maximum Sensible Heating Capacity
    NoLimit,                  !- Cooling Limit
    ,                         !- Maximum Cooling Air Flow Rate
    ,                         !- Maximum Total Cooling Capacity
    EU_AlwaysOn,              !- Heating Availability Schedule Name
    EU_CoolingOff,            !- Cooling Availability Schedule Name
    ConstantSensibleHeatRatio,    !- Dehumidification Control Type
    0.7,                      !- Cooling Sensible Heat Ratio
    60,                       !- Dehumidification Setpoint
    None,                     !- Humidification Control Type
    30,                       !- Humidification Setpoint
    None,                     !- Outdoor Air Method
    0.00944,                  !- Outdoor Air Flow Rate per Person
    0.0,                      !- Outdoor Air Flow Rate per Zone Floor Area
    0,                        !- Outdoor Air Flow Rate per Zone
    ,                         !- Design Specification Outdoor Air Object Name
    None,                     !- Demand Controlled Ventilation Type
    NoEconomizer,             !- Outdoor Air Economizer Type
    None,                     !- Heat Recovery Type
    0.70,                     !- Sensible Heat Recovery Effectiveness
    0.65;                     !- Latent Heat Recovery Effectiveness

HVACTEMPLATE:ZONE:IDEALLOADSAIRSYSTEM,
    af3917251b85a42e_F4_dwelling_4,    !- Zone Name
    EU_HeatOnly_af3917251b85a42e_F4_dwelling_4,    !- Template Thermostat Name
    EU_AlwaysOn,              !- System Availability Schedule Name
    50,                       !- Maximum Heating Supply Air Temperature
    13,                       !- Minimum Cooling Supply Air Temperature
    0.0156,                   !- Maximum Heating Supply Air Humidity Ratio
    0.0077,                   !- Minimum Cooling Supply Air Humidity Ratio
    NoLimit,                  !- Heating Limit
    ,                         !- Maximum Heating Air Flow Rate
    ,                         !- Maximum Sensible Heating Capacity
    NoLimit,                  !- Cooling Limit
    ,                         !- Maximum Cooling Air Flow Rate
    ,                         !- Maximum Total Cooling Capacity
    EU_AlwaysOn,              !- Heating Availability Schedule Name
    EU_CoolingOff,            !- Cooling Availability Schedule Name
    ConstantSensibleHeatRatio,    !- Dehumidification Control Type
    0.7,                      !- Cooling Sensible Heat Ratio
    60,                       !- Dehumidification Setpoint
    None,                     !- Humidification Control Type
    30,                       !- Humidification Setpoint
    None,                     !- Outdoor Air Method
    0.00944,                  !- Outdoor Air Flow Rate per Person
    0.0,                      !- Outdoor Air Flow Rate per Zone Floor Area
    0,                        !- Outdoor Air Flow Rate per Zone
    ,                         !- Design Specification Outdoor Air Object Name
    None,                     !- Demand Controlled Ventilation Type
    NoEconomizer,             !- Outdoor Air Economizer Type
    None,                     !- Heat Recovery Type
    0.70,                     !- Sensible Heat Recovery Effectiveness
    0.65;                     !- Latent Heat Recovery Effectiveness

HVACTEMPLATE:ZONE:IDEALLOADSAIRSYSTEM,
    af3917251b85a42e_F4_dwelling_5,    !- Zone Name
    EU_HeatOnly_af3917251b85a42e_F4_dwelling_5,    !- Template Thermostat Name
    EU_AlwaysOn,              !- System Availability Schedule Name
    50,                       !- Maximum Heating Supply Air Temperature
    13,                       !- Minimum Cooling Supply Air Temperature
    0.0156,                   !- Maximum Heating Supply Air Humidity Ratio
    0.0077,                   !- Minimum Cooling Supply Air Humidity Ratio
    NoLimit,                  !- Heating Limit
    ,                         !- Maximum Heating Air Flow Rate
    ,                         !- Maximum Sensible Heating Capacity
    NoLimit,                  !- Cooling Limit
    ,                         !- Maximum Cooling Air Flow Rate
    ,                         !- Maximum Total Cooling Capacity
    EU_AlwaysOn,              !- Heating Availability Schedule Name
    EU_CoolingOff,            !- Cooling Availability Schedule Name
    ConstantSensibleHeatRatio,    !- Dehumidification Control Type
    0.7,                      !- Cooling Sensible Heat Ratio
    60,                       !- Dehumidification Setpoint
    None,                     !- Humidification Control Type
    30,                       !- Humidification Setpoint
    None,                     !- Outdoor Air Method
    0.00944,                  !- Outdoor Air Flow Rate per Person
    0.0,                      !- Outdoor Air Flow Rate per Zone Floor Area
    0,                        !- Outdoor Air Flow Rate per Zone
    ,                         !- Design Specification Outdoor Air Object Name
    None,                     !- Demand Controlled Ventilation Type
    NoEconomizer,             !- Outdoor Air Economizer Type
    None,                     !- Heat Recovery Type
    0.70,                     !- Sensible Heat Recovery Effectiveness
    0.65;                     !- Latent Heat Recovery Effectiveness

HVACTEMPLATE:ZONE:IDEALLOADSAIRSYSTEM,
    af3917251b85a42e_F4_dwelling_6,    !- Zone Name
    EU_HeatOnly_af3917251b85a42e_F4_dwelling_6,    !- Template Thermostat Name
    EU_AlwaysOn,              !- System Availability Schedule Name
    50,                       !- Maximum Heating Supply Air Temperature
    13,                       !- Minimum Cooling Supply Air Temperature
    0.0156,                   !- Maximum Heating Supply Air Humidity Ratio
    0.0077,                   !- Minimum Cooling Supply Air Humidity Ratio
    NoLimit,                  !- Heating Limit
    ,                         !- Maximum Heating Air Flow Rate
    ,                         !- Maximum Sensible Heating Capacity
    NoLimit,                  !- Cooling Limit
    ,                         !- Maximum Cooling Air Flow Rate
    ,                         !- Maximum Total Cooling Capacity
    EU_AlwaysOn,              !- Heating Availability Schedule Name
    EU_CoolingOff,            !- Cooling Availability Schedule Name
    ConstantSensibleHeatRatio,    !- Dehumidification Control Type
    0.7,                      !- Cooling Sensible Heat Ratio
    60,                       !- Dehumidification Setpoint
    None,                     !- Humidification Control Type
    30,                       !- Humidification Setpoint
    None,                     !- Outdoor Air Method
    0.00944,                  !- Outdoor Air Flow Rate per Person
    0.0,                      !- Outdoor Air Flow Rate per Zone Floor Area
    0,                        !- Outdoor Air Flow Rate per Zone
    ,                         !- Design Specification Outdoor Air Object Name
    None,                     !- Demand Controlled Ventilation Type
    NoEconomizer,             !- Outdoor Air Economizer Type
    None,                     !- Heat Recovery Type
    0.70,                     !- Sensible Heat Recovery Effectiveness
    0.65;                     !- Latent Heat Recovery Effectiveness

HVACTEMPLATE:ZONE:IDEALLOADSAIRSYSTEM,
    af3917251b85a42e_F4_dwelling_7,    !- Zone Name
    EU_HeatOnly_af3917251b85a42e_F4_dwelling_7,    !- Template Thermostat Name
    EU_AlwaysOn,              !- System Availability Schedule Name
    50,                       !- Maximum Heating Supply Air Temperature
    13,                       !- Minimum Cooling Supply Air Temperature
    0.0156,                   !- Maximum Heating Supply Air Humidity Ratio
    0.0077,                   !- Minimum Cooling Supply Air Humidity Ratio
    NoLimit,                  !- Heating Limit
    ,                         !- Maximum Heating Air Flow Rate
    ,                         !- Maximum Sensible Heating Capacity
    NoLimit,                  !- Cooling Limit
    ,                         !- Maximum Cooling Air Flow Rate
    ,                         !- Maximum Total Cooling Capacity
    EU_AlwaysOn,              !- Heating Availability Schedule Name
    EU_CoolingOff,            !- Cooling Availability Schedule Name
    ConstantSensibleHeatRatio,    !- Dehumidification Control Type
    0.7,                      !- Cooling Sensible Heat Ratio
    60,                       !- Dehumidification Setpoint
    None,                     !- Humidification Control Type
    30,                       !- Humidification Setpoint
    None,                     !- Outdoor Air Method
    0.00944,                  !- Outdoor Air Flow Rate per Person
    0.0,                      !- Outdoor Air Flow Rate per Zone Floor Area
    0,                        !- Outdoor Air Flow Rate per Zone
    ,                         !- Design Specification Outdoor Air Object Name
    None,                     !- Demand Controlled Ventilation Type
    NoEconomizer,             !- Outdoor Air Economizer Type
    None,                     !- Heat Recovery Type
    0.70,                     !- Sensible Heat Recovery Effectiveness
    0.65;                     !- Latent Heat Recovery Effectiveness

SIZING:ZONE,
    af3917251b85a42e_F0_dwelling_0,    !- Zone or ZoneList Name
    SupplyAirTemperature,     !- Zone Cooling Design Supply Air Temperature Input Method
    13,                       !- Zone Cooling Design Supply Air Temperature
    ,                         !- Zone Cooling Design Supply Air Temperature Difference
    SupplyAirTemperature,     !- Zone Heating Design Supply Air Temperature Input Method
    50,                       !- Zone Heating Design Supply Air Temperature
    ,                         !- Zone Heating Design Supply Air Temperature Difference
    0.008,                    !- Zone Cooling Design Supply Air Humidity Ratio
    0.008,                    !- Zone Heating Design Supply Air Humidity Ratio
    ,                         !- Design Specification Outdoor Air Object Name
    ,                         !- Zone Heating Sizing Factor
    ,                         !- Zone Cooling Sizing Factor
    DesignDay,                !- Cooling Design Air Flow Method
    0,                        !- Cooling Design Air Flow Rate
    0.000762,                 !- Cooling Minimum Air Flow per Zone Floor Area
    0,                        !- Cooling Minimum Air Flow
    0.2,                      !- Cooling Minimum Air Flow Fraction
    DesignDay,                !- Heating Design Air Flow Method
    0,                        !- Heating Design Air Flow Rate
    0.002032,                 !- Heating Maximum Air Flow per Zone Floor Area
    0.1415762,                !- Heating Maximum Air Flow
    0.3,                      !- Heating Maximum Air Flow Fraction
    ,                         !- Design Specification Zone Air Distribution Object Name
    No,                       !- Account for Dedicated Outdoor Air System
    NeutralSupplyAir,         !- Dedicated Outdoor Air System Control Strategy
    autosize,                 !- Dedicated Outdoor Air Low Setpoint Temperature for Design
    autosize,                 !- Dedicated Outdoor Air High Setpoint Temperature for Design
    Sensible Load Only No Latent Load,    !- Zone Load Sizing Method
    HumidityRatioDifference,    !- Zone Latent Cooling Design Supply Air Humidity Ratio Input Method
    ,                         !- Zone Dehumidification Design Supply Air Humidity Ratio
    0.005,                    !- Zone Cooling Design Supply Air Humidity Ratio Difference
    HumidityRatioDifference,    !- Zone Latent Heating Design Supply Air Humidity Ratio Input Method
    ,                         !- Zone Humidification Design Supply Air Humidity Ratio
    0.005;                    !- Zone Humidification Design Supply Air Humidity Ratio Difference

SIZING:ZONE,
    af3917251b85a42e_F0_dwelling_1,    !- Zone or ZoneList Name
    SupplyAirTemperature,     !- Zone Cooling Design Supply Air Temperature Input Method
    13,                       !- Zone Cooling Design Supply Air Temperature
    ,                         !- Zone Cooling Design Supply Air Temperature Difference
    SupplyAirTemperature,     !- Zone Heating Design Supply Air Temperature Input Method
    50,                       !- Zone Heating Design Supply Air Temperature
    ,                         !- Zone Heating Design Supply Air Temperature Difference
    0.008,                    !- Zone Cooling Design Supply Air Humidity Ratio
    0.008,                    !- Zone Heating Design Supply Air Humidity Ratio
    ,                         !- Design Specification Outdoor Air Object Name
    ,                         !- Zone Heating Sizing Factor
    ,                         !- Zone Cooling Sizing Factor
    DesignDay,                !- Cooling Design Air Flow Method
    0,                        !- Cooling Design Air Flow Rate
    0.000762,                 !- Cooling Minimum Air Flow per Zone Floor Area
    0,                        !- Cooling Minimum Air Flow
    0.2,                      !- Cooling Minimum Air Flow Fraction
    DesignDay,                !- Heating Design Air Flow Method
    0,                        !- Heating Design Air Flow Rate
    0.002032,                 !- Heating Maximum Air Flow per Zone Floor Area
    0.1415762,                !- Heating Maximum Air Flow
    0.3,                      !- Heating Maximum Air Flow Fraction
    ,                         !- Design Specification Zone Air Distribution Object Name
    No,                       !- Account for Dedicated Outdoor Air System
    NeutralSupplyAir,         !- Dedicated Outdoor Air System Control Strategy
    autosize,                 !- Dedicated Outdoor Air Low Setpoint Temperature for Design
    autosize,                 !- Dedicated Outdoor Air High Setpoint Temperature for Design
    Sensible Load Only No Latent Load,    !- Zone Load Sizing Method
    HumidityRatioDifference,    !- Zone Latent Cooling Design Supply Air Humidity Ratio Input Method
    ,                         !- Zone Dehumidification Design Supply Air Humidity Ratio
    0.005,                    !- Zone Cooling Design Supply Air Humidity Ratio Difference
    HumidityRatioDifference,    !- Zone Latent Heating Design Supply Air Humidity Ratio Input Method
    ,                         !- Zone Humidification Design Supply Air Humidity Ratio
    0.005;                    !- Zone Humidification Design Supply Air Humidity Ratio Difference

SIZING:ZONE,
    af3917251b85a42e_F0_dwelling_2,    !- Zone or ZoneList Name
    SupplyAirTemperature,     !- Zone Cooling Design Supply Air Temperature Input Method
    13,                       !- Zone Cooling Design Supply Air Temperature
    ,                         !- Zone Cooling Design Supply Air Temperature Difference
    SupplyAirTemperature,     !- Zone Heating Design Supply Air Temperature Input Method
    50,                       !- Zone Heating Design Supply Air Temperature
    ,                         !- Zone Heating Design Supply Air Temperature Difference
    0.008,                    !- Zone Cooling Design Supply Air Humidity Ratio
    0.008,                    !- Zone Heating Design Supply Air Humidity Ratio
    ,                         !- Design Specification Outdoor Air Object Name
    ,                         !- Zone Heating Sizing Factor
    ,                         !- Zone Cooling Sizing Factor
    DesignDay,                !- Cooling Design Air Flow Method
    0,                        !- Cooling Design Air Flow Rate
    0.000762,                 !- Cooling Minimum Air Flow per Zone Floor Area
    0,                        !- Cooling Minimum Air Flow
    0.2,                      !- Cooling Minimum Air Flow Fraction
    DesignDay,                !- Heating Design Air Flow Method
    0,                        !- Heating Design Air Flow Rate
    0.002032,                 !- Heating Maximum Air Flow per Zone Floor Area
    0.1415762,                !- Heating Maximum Air Flow
    0.3,                      !- Heating Maximum Air Flow Fraction
    ,                         !- Design Specification Zone Air Distribution Object Name
    No,                       !- Account for Dedicated Outdoor Air System
    NeutralSupplyAir,         !- Dedicated Outdoor Air System Control Strategy
    autosize,                 !- Dedicated Outdoor Air Low Setpoint Temperature for Design
    autosize,                 !- Dedicated Outdoor Air High Setpoint Temperature for Design
    Sensible Load Only No Latent Load,    !- Zone Load Sizing Method
    HumidityRatioDifference,    !- Zone Latent Cooling Design Supply Air Humidity Ratio Input Method
    ,                         !- Zone Dehumidification Design Supply Air Humidity Ratio
    0.005,                    !- Zone Cooling Design Supply Air Humidity Ratio Difference
    HumidityRatioDifference,    !- Zone Latent Heating Design Supply Air Humidity Ratio Input Method
    ,                         !- Zone Humidification Design Supply Air Humidity Ratio
    0.005;                    !- Zone Humidification Design Supply Air Humidity Ratio Difference

SIZING:ZONE,
    af3917251b85a42e_F0_dwelling_3,    !- Zone or ZoneList Name
    SupplyAirTemperature,     !- Zone Cooling Design Supply Air Temperature Input Method
    13,                       !- Zone Cooling Design Supply Air Temperature
    ,                         !- Zone Cooling Design Supply Air Temperature Difference
    SupplyAirTemperature,     !- Zone Heating Design Supply Air Temperature Input Method
    50,                       !- Zone Heating Design Supply Air Temperature
    ,                         !- Zone Heating Design Supply Air Temperature Difference
    0.008,                    !- Zone Cooling Design Supply Air Humidity Ratio
    0.008,                    !- Zone Heating Design Supply Air Humidity Ratio
    ,                         !- Design Specification Outdoor Air Object Name
    ,                         !- Zone Heating Sizing Factor
    ,                         !- Zone Cooling Sizing Factor
    DesignDay,                !- Cooling Design Air Flow Method
    0,                        !- Cooling Design Air Flow Rate
    0.000762,                 !- Cooling Minimum Air Flow per Zone Floor Area
    0,                        !- Cooling Minimum Air Flow
    0.2,                      !- Cooling Minimum Air Flow Fraction
    DesignDay,                !- Heating Design Air Flow Method
    0,                        !- Heating Design Air Flow Rate
    0.002032,                 !- Heating Maximum Air Flow per Zone Floor Area
    0.1415762,                !- Heating Maximum Air Flow
    0.3,                      !- Heating Maximum Air Flow Fraction
    ,                         !- Design Specification Zone Air Distribution Object Name
    No,                       !- Account for Dedicated Outdoor Air System
    NeutralSupplyAir,         !- Dedicated Outdoor Air System Control Strategy
    autosize,                 !- Dedicated Outdoor Air Low Setpoint Temperature for Design
    autosize,                 !- Dedicated Outdoor Air High Setpoint Temperature for Design
    Sensible Load Only No Latent Load,    !- Zone Load Sizing Method
    HumidityRatioDifference,    !- Zone Latent Cooling Design Supply Air Humidity Ratio Input Method
    ,                         !- Zone Dehumidification Design Supply Air Humidity Ratio
    0.005,                    !- Zone Cooling Design Supply Air Humidity Ratio Difference
    HumidityRatioDifference,    !- Zone Latent Heating Design Supply Air Humidity Ratio Input Method
    ,                         !- Zone Humidification Design Supply Air Humidity Ratio
    0.005;                    !- Zone Humidification Design Supply Air Humidity Ratio Difference

SIZING:ZONE,
    af3917251b85a42e_F0_dwelling_4,    !- Zone or ZoneList Name
    SupplyAirTemperature,     !- Zone Cooling Design Supply Air Temperature Input Method
    13,                       !- Zone Cooling Design Supply Air Temperature
    ,                         !- Zone Cooling Design Supply Air Temperature Difference
    SupplyAirTemperature,     !- Zone Heating Design Supply Air Temperature Input Method
    50,                       !- Zone Heating Design Supply Air Temperature
    ,                         !- Zone Heating Design Supply Air Temperature Difference
    0.008,                    !- Zone Cooling Design Supply Air Humidity Ratio
    0.008,                    !- Zone Heating Design Supply Air Humidity Ratio
    ,                         !- Design Specification Outdoor Air Object Name
    ,                         !- Zone Heating Sizing Factor
    ,                         !- Zone Cooling Sizing Factor
    DesignDay,                !- Cooling Design Air Flow Method
    0,                        !- Cooling Design Air Flow Rate
    0.000762,                 !- Cooling Minimum Air Flow per Zone Floor Area
    0,                        !- Cooling Minimum Air Flow
    0.2,                      !- Cooling Minimum Air Flow Fraction
    DesignDay,                !- Heating Design Air Flow Method
    0,                        !- Heating Design Air Flow Rate
    0.002032,                 !- Heating Maximum Air Flow per Zone Floor Area
    0.1415762,                !- Heating Maximum Air Flow
    0.3,                      !- Heating Maximum Air Flow Fraction
    ,                         !- Design Specification Zone Air Distribution Object Name
    No,                       !- Account for Dedicated Outdoor Air System
    NeutralSupplyAir,         !- Dedicated Outdoor Air System Control Strategy
    autosize,                 !- Dedicated Outdoor Air Low Setpoint Temperature for Design
    autosize,                 !- Dedicated Outdoor Air High Setpoint Temperature for Design
    Sensible Load Only No Latent Load,    !- Zone Load Sizing Method
    HumidityRatioDifference,    !- Zone Latent Cooling Design Supply Air Humidity Ratio Input Method
    ,                         !- Zone Dehumidification Design Supply Air Humidity Ratio
    0.005,                    !- Zone Cooling Design Supply Air Humidity Ratio Difference
    HumidityRatioDifference,    !- Zone Latent Heating Design Supply Air Humidity Ratio Input Method
    ,                         !- Zone Humidification Design Supply Air Humidity Ratio
    0.005;                    !- Zone Humidification Design Supply Air Humidity Ratio Difference

SIZING:ZONE,
    af3917251b85a42e_F0_dwelling_5,    !- Zone or ZoneList Name
    SupplyAirTemperature,     !- Zone Cooling Design Supply Air Temperature Input Method
    13,                       !- Zone Cooling Design Supply Air Temperature
    ,                         !- Zone Cooling Design Supply Air Temperature Difference
    SupplyAirTemperature,     !- Zone Heating Design Supply Air Temperature Input Method
    50,                       !- Zone Heating Design Supply Air Temperature
    ,                         !- Zone Heating Design Supply Air Temperature Difference
    0.008,                    !- Zone Cooling Design Supply Air Humidity Ratio
    0.008,                    !- Zone Heating Design Supply Air Humidity Ratio
    ,                         !- Design Specification Outdoor Air Object Name
    ,                         !- Zone Heating Sizing Factor
    ,                         !- Zone Cooling Sizing Factor
    DesignDay,                !- Cooling Design Air Flow Method
    0,                        !- Cooling Design Air Flow Rate
    0.000762,                 !- Cooling Minimum Air Flow per Zone Floor Area
    0,                        !- Cooling Minimum Air Flow
    0.2,                      !- Cooling Minimum Air Flow Fraction
    DesignDay,                !- Heating Design Air Flow Method
    0,                        !- Heating Design Air Flow Rate
    0.002032,                 !- Heating Maximum Air Flow per Zone Floor Area
    0.1415762,                !- Heating Maximum Air Flow
    0.3,                      !- Heating Maximum Air Flow Fraction
    ,                         !- Design Specification Zone Air Distribution Object Name
    No,                       !- Account for Dedicated Outdoor Air System
    NeutralSupplyAir,         !- Dedicated Outdoor Air System Control Strategy
    autosize,                 !- Dedicated Outdoor Air Low Setpoint Temperature for Design
    autosize,                 !- Dedicated Outdoor Air High Setpoint Temperature for Design
    Sensible Load Only No Latent Load,    !- Zone Load Sizing Method
    HumidityRatioDifference,    !- Zone Latent Cooling Design Supply Air Humidity Ratio Input Method
    ,                         !- Zone Dehumidification Design Supply Air Humidity Ratio
    0.005,                    !- Zone Cooling Design Supply Air Humidity Ratio Difference
    HumidityRatioDifference,    !- Zone Latent Heating Design Supply Air Humidity Ratio Input Method
    ,                         !- Zone Humidification Design Supply Air Humidity Ratio
    0.005;                    !- Zone Humidification Design Supply Air Humidity Ratio Difference

SIZING:ZONE,
    af3917251b85a42e_F0_dwelling_6,    !- Zone or ZoneList Name
    SupplyAirTemperature,     !- Zone Cooling Design Supply Air Temperature Input Method
    13,                       !- Zone Cooling Design Supply Air Temperature
    ,                         !- Zone Cooling Design Supply Air Temperature Difference
    SupplyAirTemperature,     !- Zone Heating Design Supply Air Temperature Input Method
    50,                       !- Zone Heating Design Supply Air Temperature
    ,                         !- Zone Heating Design Supply Air Temperature Difference
    0.008,                    !- Zone Cooling Design Supply Air Humidity Ratio
    0.008,                    !- Zone Heating Design Supply Air Humidity Ratio
    ,                         !- Design Specification Outdoor Air Object Name
    ,                         !- Zone Heating Sizing Factor
    ,                         !- Zone Cooling Sizing Factor
    DesignDay,                !- Cooling Design Air Flow Method
    0,                        !- Cooling Design Air Flow Rate
    0.000762,                 !- Cooling Minimum Air Flow per Zone Floor Area
    0,                        !- Cooling Minimum Air Flow
    0.2,                      !- Cooling Minimum Air Flow Fraction
    DesignDay,                !- Heating Design Air Flow Method
    0,                        !- Heating Design Air Flow Rate
    0.002032,                 !- Heating Maximum Air Flow per Zone Floor Area
    0.1415762,                !- Heating Maximum Air Flow
    0.3,                      !- Heating Maximum Air Flow Fraction
    ,                         !- Design Specification Zone Air Distribution Object Name
    No,                       !- Account for Dedicated Outdoor Air System
    NeutralSupplyAir,         !- Dedicated Outdoor Air System Control Strategy
    autosize,                 !- Dedicated Outdoor Air Low Setpoint Temperature for Design
    autosize,                 !- Dedicated Outdoor Air High Setpoint Temperature for Design
    Sensible Load Only No Latent Load,    !- Zone Load Sizing Method
    HumidityRatioDifference,    !- Zone Latent Cooling Design Supply Air Humidity Ratio Input Method
    ,                         !- Zone Dehumidification Design Supply Air Humidity Ratio
    0.005,                    !- Zone Cooling Design Supply Air Humidity Ratio Difference
    HumidityRatioDifference,    !- Zone Latent Heating Design Supply Air Humidity Ratio Input Method
    ,                         !- Zone Humidification Design Supply Air Humidity Ratio
    0.005;                    !- Zone Humidification Design Supply Air Humidity Ratio Difference

SIZING:ZONE,
    af3917251b85a42e_F0_dwelling_7,    !- Zone or ZoneList Name
    SupplyAirTemperature,     !- Zone Cooling Design Supply Air Temperature Input Method
    13,                       !- Zone Cooling Design Supply Air Temperature
    ,                         !- Zone Cooling Design Supply Air Temperature Difference
    SupplyAirTemperature,     !- Zone Heating Design Supply Air Temperature Input Method
    50,                       !- Zone Heating Design Supply Air Temperature
    ,                         !- Zone Heating Design Supply Air Temperature Difference
    0.008,                    !- Zone Cooling Design Supply Air Humidity Ratio
    0.008,                    !- Zone Heating Design Supply Air Humidity Ratio
    ,                         !- Design Specification Outdoor Air Object Name
    ,                         !- Zone Heating Sizing Factor
    ,                         !- Zone Cooling Sizing Factor
    DesignDay,                !- Cooling Design Air Flow Method
    0,                        !- Cooling Design Air Flow Rate
    0.000762,                 !- Cooling Minimum Air Flow per Zone Floor Area
    0,                        !- Cooling Minimum Air Flow
    0.2,                      !- Cooling Minimum Air Flow Fraction
    DesignDay,                !- Heating Design Air Flow Method
    0,                        !- Heating Design Air Flow Rate
    0.002032,                 !- Heating Maximum Air Flow per Zone Floor Area
    0.1415762,                !- Heating Maximum Air Flow
    0.3,                      !- Heating Maximum Air Flow Fraction
    ,                         !- Design Specification Zone Air Distribution Object Name
    No,                       !- Account for Dedicated Outdoor Air System
    NeutralSupplyAir,         !- Dedicated Outdoor Air System Control Strategy
    autosize,                 !- Dedicated Outdoor Air Low Setpoint Temperature for Design
    autosize,                 !- Dedicated Outdoor Air High Setpoint Temperature for Design
    Sensible Load Only No Latent Load,    !- Zone Load Sizing Method
    HumidityRatioDifference,    !- Zone Latent Cooling Design Supply Air Humidity Ratio Input Method
    ,                         !- Zone Dehumidification Design Supply Air Humidity Ratio
    0.005,                    !- Zone Cooling Design Supply Air Humidity Ratio Difference
    HumidityRatioDifference,    !- Zone Latent Heating Design Supply Air Humidity Ratio Input Method
    ,                         !- Zone Humidification Design Supply Air Humidity Ratio
    0.005;                    !- Zone Humidification Design Supply Air Humidity Ratio Difference

SIZING:ZONE,
    af3917251b85a42e_F1_dwelling_0,    !- Zone or ZoneList Name
    SupplyAirTemperature,     !- Zone Cooling Design Supply Air Temperature Input Method
    13,                       !- Zone Cooling Design Supply Air Temperature
    ,                         !- Zone Cooling Design Supply Air Temperature Difference
    SupplyAirTemperature,     !- Zone Heating Design Supply Air Temperature Input Method
    50,                       !- Zone Heating Design Supply Air Temperature
    ,                         !- Zone Heating Design Supply Air Temperature Difference
    0.008,                    !- Zone Cooling Design Supply Air Humidity Ratio
    0.008,                    !- Zone Heating Design Supply Air Humidity Ratio
    ,                         !- Design Specification Outdoor Air Object Name
    ,                         !- Zone Heating Sizing Factor
    ,                         !- Zone Cooling Sizing Factor
    DesignDay,                !- Cooling Design Air Flow Method
    0,                        !- Cooling Design Air Flow Rate
    0.000762,                 !- Cooling Minimum Air Flow per Zone Floor Area
    0,                        !- Cooling Minimum Air Flow
    0.2,                      !- Cooling Minimum Air Flow Fraction
    DesignDay,                !- Heating Design Air Flow Method
    0,                        !- Heating Design Air Flow Rate
    0.002032,                 !- Heating Maximum Air Flow per Zone Floor Area
    0.1415762,                !- Heating Maximum Air Flow
    0.3,                      !- Heating Maximum Air Flow Fraction
    ,                         !- Design Specification Zone Air Distribution Object Name
    No,                       !- Account for Dedicated Outdoor Air System
    NeutralSupplyAir,         !- Dedicated Outdoor Air System Control Strategy
    autosize,                 !- Dedicated Outdoor Air Low Setpoint Temperature for Design
    autosize,                 !- Dedicated Outdoor Air High Setpoint Temperature for Design
    Sensible Load Only No Latent Load,    !- Zone Load Sizing Method
    HumidityRatioDifference,    !- Zone Latent Cooling Design Supply Air Humidity Ratio Input Method
    ,                         !- Zone Dehumidification Design Supply Air Humidity Ratio
    0.005,                    !- Zone Cooling Design Supply Air Humidity Ratio Difference
    HumidityRatioDifference,    !- Zone Latent Heating Design Supply Air Humidity Ratio Input Method
    ,                         !- Zone Humidification Design Supply Air Humidity Ratio
    0.005;                    !- Zone Humidification Design Supply Air Humidity Ratio Difference

SIZING:ZONE,
    af3917251b85a42e_F1_dwelling_1,    !- Zone or ZoneList Name
    SupplyAirTemperature,     !- Zone Cooling Design Supply Air Temperature Input Method
    13,                       !- Zone Cooling Design Supply Air Temperature
    ,                         !- Zone Cooling Design Supply Air Temperature Difference
    SupplyAirTemperature,     !- Zone Heating Design Supply Air Temperature Input Method
    50,                       !- Zone Heating Design Supply Air Temperature
    ,                         !- Zone Heating Design Supply Air Temperature Difference
    0.008,                    !- Zone Cooling Design Supply Air Humidity Ratio
    0.008,                    !- Zone Heating Design Supply Air Humidity Ratio
    ,                         !- Design Specification Outdoor Air Object Name
    ,                         !- Zone Heating Sizing Factor
    ,                         !- Zone Cooling Sizing Factor
    DesignDay,                !- Cooling Design Air Flow Method
    0,                        !- Cooling Design Air Flow Rate
    0.000762,                 !- Cooling Minimum Air Flow per Zone Floor Area
    0,                        !- Cooling Minimum Air Flow
    0.2,                      !- Cooling Minimum Air Flow Fraction
    DesignDay,                !- Heating Design Air Flow Method
    0,                        !- Heating Design Air Flow Rate
    0.002032,                 !- Heating Maximum Air Flow per Zone Floor Area
    0.1415762,                !- Heating Maximum Air Flow
    0.3,                      !- Heating Maximum Air Flow Fraction
    ,                         !- Design Specification Zone Air Distribution Object Name
    No,                       !- Account for Dedicated Outdoor Air System
    NeutralSupplyAir,         !- Dedicated Outdoor Air System Control Strategy
    autosize,                 !- Dedicated Outdoor Air Low Setpoint Temperature for Design
    autosize,                 !- Dedicated Outdoor Air High Setpoint Temperature for Design
    Sensible Load Only No Latent Load,    !- Zone Load Sizing Method
    HumidityRatioDifference,    !- Zone Latent Cooling Design Supply Air Humidity Ratio Input Method
    ,                         !- Zone Dehumidification Design Supply Air Humidity Ratio
    0.005,                    !- Zone Cooling Design Supply Air Humidity Ratio Difference
    HumidityRatioDifference,    !- Zone Latent Heating Design Supply Air Humidity Ratio Input Method
    ,                         !- Zone Humidification Design Supply Air Humidity Ratio
    0.005;                    !- Zone Humidification Design Supply Air Humidity Ratio Difference

SIZING:ZONE,
    af3917251b85a42e_F1_dwelling_2,    !- Zone or ZoneList Name
    SupplyAirTemperature,     !- Zone Cooling Design Supply Air Temperature Input Method
    13,                       !- Zone Cooling Design Supply Air Temperature
    ,                         !- Zone Cooling Design Supply Air Temperature Difference
    SupplyAirTemperature,     !- Zone Heating Design Supply Air Temperature Input Method
    50,                       !- Zone Heating Design Supply Air Temperature
    ,                         !- Zone Heating Design Supply Air Temperature Difference
    0.008,                    !- Zone Cooling Design Supply Air Humidity Ratio
    0.008,                    !- Zone Heating Design Supply Air Humidity Ratio
    ,                         !- Design Specification Outdoor Air Object Name
    ,                         !- Zone Heating Sizing Factor
    ,                         !- Zone Cooling Sizing Factor
    DesignDay,                !- Cooling Design Air Flow Method
    0,                        !- Cooling Design Air Flow Rate
    0.000762,                 !- Cooling Minimum Air Flow per Zone Floor Area
    0,                        !- Cooling Minimum Air Flow
    0.2,                      !- Cooling Minimum Air Flow Fraction
    DesignDay,                !- Heating Design Air Flow Method
    0,                        !- Heating Design Air Flow Rate
    0.002032,                 !- Heating Maximum Air Flow per Zone Floor Area
    0.1415762,                !- Heating Maximum Air Flow
    0.3,                      !- Heating Maximum Air Flow Fraction
    ,                         !- Design Specification Zone Air Distribution Object Name
    No,                       !- Account for Dedicated Outdoor Air System
    NeutralSupplyAir,         !- Dedicated Outdoor Air System Control Strategy
    autosize,                 !- Dedicated Outdoor Air Low Setpoint Temperature for Design
    autosize,                 !- Dedicated Outdoor Air High Setpoint Temperature for Design
    Sensible Load Only No Latent Load,    !- Zone Load Sizing Method
    HumidityRatioDifference,    !- Zone Latent Cooling Design Supply Air Humidity Ratio Input Method
    ,                         !- Zone Dehumidification Design Supply Air Humidity Ratio
    0.005,                    !- Zone Cooling Design Supply Air Humidity Ratio Difference
    HumidityRatioDifference,    !- Zone Latent Heating Design Supply Air Humidity Ratio Input Method
    ,                         !- Zone Humidification Design Supply Air Humidity Ratio
    0.005;                    !- Zone Humidification Design Supply Air Humidity Ratio Difference

SIZING:ZONE,
    af3917251b85a42e_F1_dwelling_3,    !- Zone or ZoneList Name
    SupplyAirTemperature,     !- Zone Cooling Design Supply Air Temperature Input Method
    13,                       !- Zone Cooling Design Supply Air Temperature
    ,                         !- Zone Cooling Design Supply Air Temperature Difference
    SupplyAirTemperature,     !- Zone Heating Design Supply Air Temperature Input Method
    50,                       !- Zone Heating Design Supply Air Temperature
    ,                         !- Zone Heating Design Supply Air Temperature Difference
    0.008,                    !- Zone Cooling Design Supply Air Humidity Ratio
    0.008,                    !- Zone Heating Design Supply Air Humidity Ratio
    ,                         !- Design Specification Outdoor Air Object Name
    ,                         !- Zone Heating Sizing Factor
    ,                         !- Zone Cooling Sizing Factor
    DesignDay,                !- Cooling Design Air Flow Method
    0,                        !- Cooling Design Air Flow Rate
    0.000762,                 !- Cooling Minimum Air Flow per Zone Floor Area
    0,                        !- Cooling Minimum Air Flow
    0.2,                      !- Cooling Minimum Air Flow Fraction
    DesignDay,                !- Heating Design Air Flow Method
    0,                        !- Heating Design Air Flow Rate
    0.002032,                 !- Heating Maximum Air Flow per Zone Floor Area
    0.1415762,                !- Heating Maximum Air Flow
    0.3,                      !- Heating Maximum Air Flow Fraction
    ,                         !- Design Specification Zone Air Distribution Object Name
    No,                       !- Account for Dedicated Outdoor Air System
    NeutralSupplyAir,         !- Dedicated Outdoor Air System Control Strategy
    autosize,                 !- Dedicated Outdoor Air Low Setpoint Temperature for Design
    autosize,                 !- Dedicated Outdoor Air High Setpoint Temperature for Design
    Sensible Load Only No Latent Load,    !- Zone Load Sizing Method
    HumidityRatioDifference,    !- Zone Latent Cooling Design Supply Air Humidity Ratio Input Method
    ,                         !- Zone Dehumidification Design Supply Air Humidity Ratio
    0.005,                    !- Zone Cooling Design Supply Air Humidity Ratio Difference
    HumidityRatioDifference,    !- Zone Latent Heating Design Supply Air Humidity Ratio Input Method
    ,                         !- Zone Humidification Design Supply Air Humidity Ratio
    0.005;                    !- Zone Humidification Design Supply Air Humidity Ratio Difference

SIZING:ZONE,
    af3917251b85a42e_F1_dwelling_4,    !- Zone or ZoneList Name
    SupplyAirTemperature,     !- Zone Cooling Design Supply Air Temperature Input Method
    13,                       !- Zone Cooling Design Supply Air Temperature
    ,                         !- Zone Cooling Design Supply Air Temperature Difference
    SupplyAirTemperature,     !- Zone Heating Design Supply Air Temperature Input Method
    50,                       !- Zone Heating Design Supply Air Temperature
    ,                         !- Zone Heating Design Supply Air Temperature Difference
    0.008,                    !- Zone Cooling Design Supply Air Humidity Ratio
    0.008,                    !- Zone Heating Design Supply Air Humidity Ratio
    ,                         !- Design Specification Outdoor Air Object Name
    ,                         !- Zone Heating Sizing Factor
    ,                         !- Zone Cooling Sizing Factor
    DesignDay,                !- Cooling Design Air Flow Method
    0,                        !- Cooling Design Air Flow Rate
    0.000762,                 !- Cooling Minimum Air Flow per Zone Floor Area
    0,                        !- Cooling Minimum Air Flow
    0.2,                      !- Cooling Minimum Air Flow Fraction
    DesignDay,                !- Heating Design Air Flow Method
    0,                        !- Heating Design Air Flow Rate
    0.002032,                 !- Heating Maximum Air Flow per Zone Floor Area
    0.1415762,                !- Heating Maximum Air Flow
    0.3,                      !- Heating Maximum Air Flow Fraction
    ,                         !- Design Specification Zone Air Distribution Object Name
    No,                       !- Account for Dedicated Outdoor Air System
    NeutralSupplyAir,         !- Dedicated Outdoor Air System Control Strategy
    autosize,                 !- Dedicated Outdoor Air Low Setpoint Temperature for Design
    autosize,                 !- Dedicated Outdoor Air High Setpoint Temperature for Design
    Sensible Load Only No Latent Load,    !- Zone Load Sizing Method
    HumidityRatioDifference,    !- Zone Latent Cooling Design Supply Air Humidity Ratio Input Method
    ,                         !- Zone Dehumidification Design Supply Air Humidity Ratio
    0.005,                    !- Zone Cooling Design Supply Air Humidity Ratio Difference
    HumidityRatioDifference,    !- Zone Latent Heating Design Supply Air Humidity Ratio Input Method
    ,                         !- Zone Humidification Design Supply Air Humidity Ratio
    0.005;                    !- Zone Humidification Design Supply Air Humidity Ratio Difference

SIZING:ZONE,
    af3917251b85a42e_F1_dwelling_5,    !- Zone or ZoneList Name
    SupplyAirTemperature,     !- Zone Cooling Design Supply Air Temperature Input Method
    13,                       !- Zone Cooling Design Supply Air Temperature
    ,                         !- Zone Cooling Design Supply Air Temperature Difference
    SupplyAirTemperature,     !- Zone Heating Design Supply Air Temperature Input Method
    50,                       !- Zone Heating Design Supply Air Temperature
    ,                         !- Zone Heating Design Supply Air Temperature Difference
    0.008,                    !- Zone Cooling Design Supply Air Humidity Ratio
    0.008,                    !- Zone Heating Design Supply Air Humidity Ratio
    ,                         !- Design Specification Outdoor Air Object Name
    ,                         !- Zone Heating Sizing Factor
    ,                         !- Zone Cooling Sizing Factor
    DesignDay,                !- Cooling Design Air Flow Method
    0,                        !- Cooling Design Air Flow Rate
    0.000762,                 !- Cooling Minimum Air Flow per Zone Floor Area
    0,                        !- Cooling Minimum Air Flow
    0.2,                      !- Cooling Minimum Air Flow Fraction
    DesignDay,                !- Heating Design Air Flow Method
    0,                        !- Heating Design Air Flow Rate
    0.002032,                 !- Heating Maximum Air Flow per Zone Floor Area
    0.1415762,                !- Heating Maximum Air Flow
    0.3,                      !- Heating Maximum Air Flow Fraction
    ,                         !- Design Specification Zone Air Distribution Object Name
    No,                       !- Account for Dedicated Outdoor Air System
    NeutralSupplyAir,         !- Dedicated Outdoor Air System Control Strategy
    autosize,                 !- Dedicated Outdoor Air Low Setpoint Temperature for Design
    autosize,                 !- Dedicated Outdoor Air High Setpoint Temperature for Design
    Sensible Load Only No Latent Load,    !- Zone Load Sizing Method
    HumidityRatioDifference,    !- Zone Latent Cooling Design Supply Air Humidity Ratio Input Method
    ,                         !- Zone Dehumidification Design Supply Air Humidity Ratio
    0.005,                    !- Zone Cooling Design Supply Air Humidity Ratio Difference
    HumidityRatioDifference,    !- Zone Latent Heating Design Supply Air Humidity Ratio Input Method
    ,                         !- Zone Humidification Design Supply Air Humidity Ratio
    0.005;                    !- Zone Humidification Design Supply Air Humidity Ratio Difference

SIZING:ZONE,
    af3917251b85a42e_F1_dwelling_6,    !- Zone or ZoneList Name
    SupplyAirTemperature,     !- Zone Cooling Design Supply Air Temperature Input Method
    13,                       !- Zone Cooling Design Supply Air Temperature
    ,                         !- Zone Cooling Design Supply Air Temperature Difference
    SupplyAirTemperature,     !- Zone Heating Design Supply Air Temperature Input Method
    50,                       !- Zone Heating Design Supply Air Temperature
    ,                         !- Zone Heating Design Supply Air Temperature Difference
    0.008,                    !- Zone Cooling Design Supply Air Humidity Ratio
    0.008,                    !- Zone Heating Design Supply Air Humidity Ratio
    ,                         !- Design Specification Outdoor Air Object Name
    ,                         !- Zone Heating Sizing Factor
    ,                         !- Zone Cooling Sizing Factor
    DesignDay,                !- Cooling Design Air Flow Method
    0,                        !- Cooling Design Air Flow Rate
    0.000762,                 !- Cooling Minimum Air Flow per Zone Floor Area
    0,                        !- Cooling Minimum Air Flow
    0.2,                      !- Cooling Minimum Air Flow Fraction
    DesignDay,                !- Heating Design Air Flow Method
    0,                        !- Heating Design Air Flow Rate
    0.002032,                 !- Heating Maximum Air Flow per Zone Floor Area
    0.1415762,                !- Heating Maximum Air Flow
    0.3,                      !- Heating Maximum Air Flow Fraction
    ,                         !- Design Specification Zone Air Distribution Object Name
    No,                       !- Account for Dedicated Outdoor Air System
    NeutralSupplyAir,         !- Dedicated Outdoor Air System Control Strategy
    autosize,                 !- Dedicated Outdoor Air Low Setpoint Temperature for Design
    autosize,                 !- Dedicated Outdoor Air High Setpoint Temperature for Design
    Sensible Load Only No Latent Load,    !- Zone Load Sizing Method
    HumidityRatioDifference,    !- Zone Latent Cooling Design Supply Air Humidity Ratio Input Method
    ,                         !- Zone Dehumidification Design Supply Air Humidity Ratio
    0.005,                    !- Zone Cooling Design Supply Air Humidity Ratio Difference
    HumidityRatioDifference,    !- Zone Latent Heating Design Supply Air Humidity Ratio Input Method
    ,                         !- Zone Humidification Design Supply Air Humidity Ratio
    0.005;                    !- Zone Humidification Design Supply Air Humidity Ratio Difference

SIZING:ZONE,
    af3917251b85a42e_F1_dwelling_7,    !- Zone or ZoneList Name
    SupplyAirTemperature,     !- Zone Cooling Design Supply Air Temperature Input Method
    13,                       !- Zone Cooling Design Supply Air Temperature
    ,                         !- Zone Cooling Design Supply Air Temperature Difference
    SupplyAirTemperature,     !- Zone Heating Design Supply Air Temperature Input Method
    50,                       !- Zone Heating Design Supply Air Temperature
    ,                         !- Zone Heating Design Supply Air Temperature Difference
    0.008,                    !- Zone Cooling Design Supply Air Humidity Ratio
    0.008,                    !- Zone Heating Design Supply Air Humidity Ratio
    ,                         !- Design Specification Outdoor Air Object Name
    ,                         !- Zone Heating Sizing Factor
    ,                         !- Zone Cooling Sizing Factor
    DesignDay,                !- Cooling Design Air Flow Method
    0,                        !- Cooling Design Air Flow Rate
    0.000762,                 !- Cooling Minimum Air Flow per Zone Floor Area
    0,                        !- Cooling Minimum Air Flow
    0.2,                      !- Cooling Minimum Air Flow Fraction
    DesignDay,                !- Heating Design Air Flow Method
    0,                        !- Heating Design Air Flow Rate
    0.002032,                 !- Heating Maximum Air Flow per Zone Floor Area
    0.1415762,                !- Heating Maximum Air Flow
    0.3,                      !- Heating Maximum Air Flow Fraction
    ,                         !- Design Specification Zone Air Distribution Object Name
    No,                       !- Account for Dedicated Outdoor Air System
    NeutralSupplyAir,         !- Dedicated Outdoor Air System Control Strategy
    autosize,                 !- Dedicated Outdoor Air Low Setpoint Temperature for Design
    autosize,                 !- Dedicated Outdoor Air High Setpoint Temperature for Design
    Sensible Load Only No Latent Load,    !- Zone Load Sizing Method
    HumidityRatioDifference,    !- Zone Latent Cooling Design Supply Air Humidity Ratio Input Method
    ,                         !- Zone Dehumidification Design Supply Air Humidity Ratio
    0.005,                    !- Zone Cooling Design Supply Air Humidity Ratio Difference
    HumidityRatioDifference,    !- Zone Latent Heating Design Supply Air Humidity Ratio Input Method
    ,                         !- Zone Humidification Design Supply Air Humidity Ratio
    0.005;                    !- Zone Humidification Design Supply Air Humidity Ratio Difference

SIZING:ZONE,
    af3917251b85a42e_F2_dwelling_0,    !- Zone or ZoneList Name
    SupplyAirTemperature,     !- Zone Cooling Design Supply Air Temperature Input Method
    13,                       !- Zone Cooling Design Supply Air Temperature
    ,                         !- Zone Cooling Design Supply Air Temperature Difference
    SupplyAirTemperature,     !- Zone Heating Design Supply Air Temperature Input Method
    50,                       !- Zone Heating Design Supply Air Temperature
    ,                         !- Zone Heating Design Supply Air Temperature Difference
    0.008,                    !- Zone Cooling Design Supply Air Humidity Ratio
    0.008,                    !- Zone Heating Design Supply Air Humidity Ratio
    ,                         !- Design Specification Outdoor Air Object Name
    ,                         !- Zone Heating Sizing Factor
    ,                         !- Zone Cooling Sizing Factor
    DesignDay,                !- Cooling Design Air Flow Method
    0,                        !- Cooling Design Air Flow Rate
    0.000762,                 !- Cooling Minimum Air Flow per Zone Floor Area
    0,                        !- Cooling Minimum Air Flow
    0.2,                      !- Cooling Minimum Air Flow Fraction
    DesignDay,                !- Heating Design Air Flow Method
    0,                        !- Heating Design Air Flow Rate
    0.002032,                 !- Heating Maximum Air Flow per Zone Floor Area
    0.1415762,                !- Heating Maximum Air Flow
    0.3,                      !- Heating Maximum Air Flow Fraction
    ,                         !- Design Specification Zone Air Distribution Object Name
    No,                       !- Account for Dedicated Outdoor Air System
    NeutralSupplyAir,         !- Dedicated Outdoor Air System Control Strategy
    autosize,                 !- Dedicated Outdoor Air Low Setpoint Temperature for Design
    autosize,                 !- Dedicated Outdoor Air High Setpoint Temperature for Design
    Sensible Load Only No Latent Load,    !- Zone Load Sizing Method
    HumidityRatioDifference,    !- Zone Latent Cooling Design Supply Air Humidity Ratio Input Method
    ,                         !- Zone Dehumidification Design Supply Air Humidity Ratio
    0.005,                    !- Zone Cooling Design Supply Air Humidity Ratio Difference
    HumidityRatioDifference,    !- Zone Latent Heating Design Supply Air Humidity Ratio Input Method
    ,                         !- Zone Humidification Design Supply Air Humidity Ratio
    0.005;                    !- Zone Humidification Design Supply Air Humidity Ratio Difference

SIZING:ZONE,
    af3917251b85a42e_F2_dwelling_1,    !- Zone or ZoneList Name
    SupplyAirTemperature,     !- Zone Cooling Design Supply Air Temperature Input Method
    13,                       !- Zone Cooling Design Supply Air Temperature
    ,                         !- Zone Cooling Design Supply Air Temperature Difference
    SupplyAirTemperature,     !- Zone Heating Design Supply Air Temperature Input Method
    50,                       !- Zone Heating Design Supply Air Temperature
    ,                         !- Zone Heating Design Supply Air Temperature Difference
    0.008,                    !- Zone Cooling Design Supply Air Humidity Ratio
    0.008,                    !- Zone Heating Design Supply Air Humidity Ratio
    ,                         !- Design Specification Outdoor Air Object Name
    ,                         !- Zone Heating Sizing Factor
    ,                         !- Zone Cooling Sizing Factor
    DesignDay,                !- Cooling Design Air Flow Method
    0,                        !- Cooling Design Air Flow Rate
    0.000762,                 !- Cooling Minimum Air Flow per Zone Floor Area
    0,                        !- Cooling Minimum Air Flow
    0.2,                      !- Cooling Minimum Air Flow Fraction
    DesignDay,                !- Heating Design Air Flow Method
    0,                        !- Heating Design Air Flow Rate
    0.002032,                 !- Heating Maximum Air Flow per Zone Floor Area
    0.1415762,                !- Heating Maximum Air Flow
    0.3,                      !- Heating Maximum Air Flow Fraction
    ,                         !- Design Specification Zone Air Distribution Object Name
    No,                       !- Account for Dedicated Outdoor Air System
    NeutralSupplyAir,         !- Dedicated Outdoor Air System Control Strategy
    autosize,                 !- Dedicated Outdoor Air Low Setpoint Temperature for Design
    autosize,                 !- Dedicated Outdoor Air High Setpoint Temperature for Design
    Sensible Load Only No Latent Load,    !- Zone Load Sizing Method
    HumidityRatioDifference,    !- Zone Latent Cooling Design Supply Air Humidity Ratio Input Method
    ,                         !- Zone Dehumidification Design Supply Air Humidity Ratio
    0.005,                    !- Zone Cooling Design Supply Air Humidity Ratio Difference
    HumidityRatioDifference,    !- Zone Latent Heating Design Supply Air Humidity Ratio Input Method
    ,                         !- Zone Humidification Design Supply Air Humidity Ratio
    0.005;                    !- Zone Humidification Design Supply Air Humidity Ratio Difference

SIZING:ZONE,
    af3917251b85a42e_F2_dwelling_2,    !- Zone or ZoneList Name
    SupplyAirTemperature,     !- Zone Cooling Design Supply Air Temperature Input Method
    13,                       !- Zone Cooling Design Supply Air Temperature
    ,                         !- Zone Cooling Design Supply Air Temperature Difference
    SupplyAirTemperature,     !- Zone Heating Design Supply Air Temperature Input Method
    50,                       !- Zone Heating Design Supply Air Temperature
    ,                         !- Zone Heating Design Supply Air Temperature Difference
    0.008,                    !- Zone Cooling Design Supply Air Humidity Ratio
    0.008,                    !- Zone Heating Design Supply Air Humidity Ratio
    ,                         !- Design Specification Outdoor Air Object Name
    ,                         !- Zone Heating Sizing Factor
    ,                         !- Zone Cooling Sizing Factor
    DesignDay,                !- Cooling Design Air Flow Method
    0,                        !- Cooling Design Air Flow Rate
    0.000762,                 !- Cooling Minimum Air Flow per Zone Floor Area
    0,                        !- Cooling Minimum Air Flow
    0.2,                      !- Cooling Minimum Air Flow Fraction
    DesignDay,                !- Heating Design Air Flow Method
    0,                        !- Heating Design Air Flow Rate
    0.002032,                 !- Heating Maximum Air Flow per Zone Floor Area
    0.1415762,                !- Heating Maximum Air Flow
    0.3,                      !- Heating Maximum Air Flow Fraction
    ,                         !- Design Specification Zone Air Distribution Object Name
    No,                       !- Account for Dedicated Outdoor Air System
    NeutralSupplyAir,         !- Dedicated Outdoor Air System Control Strategy
    autosize,                 !- Dedicated Outdoor Air Low Setpoint Temperature for Design
    autosize,                 !- Dedicated Outdoor Air High Setpoint Temperature for Design
    Sensible Load Only No Latent Load,    !- Zone Load Sizing Method
    HumidityRatioDifference,    !- Zone Latent Cooling Design Supply Air Humidity Ratio Input Method
    ,                         !- Zone Dehumidification Design Supply Air Humidity Ratio
    0.005,                    !- Zone Cooling Design Supply Air Humidity Ratio Difference
    HumidityRatioDifference,    !- Zone Latent Heating Design Supply Air Humidity Ratio Input Method
    ,                         !- Zone Humidification Design Supply Air Humidity Ratio
    0.005;                    !- Zone Humidification Design Supply Air Humidity Ratio Difference

SIZING:ZONE,
    af3917251b85a42e_F2_dwelling_3,    !- Zone or ZoneList Name
    SupplyAirTemperature,     !- Zone Cooling Design Supply Air Temperature Input Method
    13,                       !- Zone Cooling Design Supply Air Temperature
    ,                         !- Zone Cooling Design Supply Air Temperature Difference
    SupplyAirTemperature,     !- Zone Heating Design Supply Air Temperature Input Method
    50,                       !- Zone Heating Design Supply Air Temperature
    ,                         !- Zone Heating Design Supply Air Temperature Difference
    0.008,                    !- Zone Cooling Design Supply Air Humidity Ratio
    0.008,                    !- Zone Heating Design Supply Air Humidity Ratio
    ,                         !- Design Specification Outdoor Air Object Name
    ,                         !- Zone Heating Sizing Factor
    ,                         !- Zone Cooling Sizing Factor
    DesignDay,                !- Cooling Design Air Flow Method
    0,                        !- Cooling Design Air Flow Rate
    0.000762,                 !- Cooling Minimum Air Flow per Zone Floor Area
    0,                        !- Cooling Minimum Air Flow
    0.2,                      !- Cooling Minimum Air Flow Fraction
    DesignDay,                !- Heating Design Air Flow Method
    0,                        !- Heating Design Air Flow Rate
    0.002032,                 !- Heating Maximum Air Flow per Zone Floor Area
    0.1415762,                !- Heating Maximum Air Flow
    0.3,                      !- Heating Maximum Air Flow Fraction
    ,                         !- Design Specification Zone Air Distribution Object Name
    No,                       !- Account for Dedicated Outdoor Air System
    NeutralSupplyAir,         !- Dedicated Outdoor Air System Control Strategy
    autosize,                 !- Dedicated Outdoor Air Low Setpoint Temperature for Design
    autosize,                 !- Dedicated Outdoor Air High Setpoint Temperature for Design
    Sensible Load Only No Latent Load,    !- Zone Load Sizing Method
    HumidityRatioDifference,    !- Zone Latent Cooling Design Supply Air Humidity Ratio Input Method
    ,                         !- Zone Dehumidification Design Supply Air Humidity Ratio
    0.005,                    !- Zone Cooling Design Supply Air Humidity Ratio Difference
    HumidityRatioDifference,    !- Zone Latent Heating Design Supply Air Humidity Ratio Input Method
    ,                         !- Zone Humidification Design Supply Air Humidity Ratio
    0.005;                    !- Zone Humidification Design Supply Air Humidity Ratio Difference

SIZING:ZONE,
    af3917251b85a42e_F2_dwelling_4,    !- Zone or ZoneList Name
    SupplyAirTemperature,     !- Zone Cooling Design Supply Air Temperature Input Method
    13,                       !- Zone Cooling Design Supply Air Temperature
    ,                         !- Zone Cooling Design Supply Air Temperature Difference
    SupplyAirTemperature,     !- Zone Heating Design Supply Air Temperature Input Method
    50,                       !- Zone Heating Design Supply Air Temperature
    ,                         !- Zone Heating Design Supply Air Temperature Difference
    0.008,                    !- Zone Cooling Design Supply Air Humidity Ratio
    0.008,                    !- Zone Heating Design Supply Air Humidity Ratio
    ,                         !- Design Specification Outdoor Air Object Name
    ,                         !- Zone Heating Sizing Factor
    ,                         !- Zone Cooling Sizing Factor
    DesignDay,                !- Cooling Design Air Flow Method
    0,                        !- Cooling Design Air Flow Rate
    0.000762,                 !- Cooling Minimum Air Flow per Zone Floor Area
    0,                        !- Cooling Minimum Air Flow
    0.2,                      !- Cooling Minimum Air Flow Fraction
    DesignDay,                !- Heating Design Air Flow Method
    0,                        !- Heating Design Air Flow Rate
    0.002032,                 !- Heating Maximum Air Flow per Zone Floor Area
    0.1415762,                !- Heating Maximum Air Flow
    0.3,                      !- Heating Maximum Air Flow Fraction
    ,                         !- Design Specification Zone Air Distribution Object Name
    No,                       !- Account for Dedicated Outdoor Air System
    NeutralSupplyAir,         !- Dedicated Outdoor Air System Control Strategy
    autosize,                 !- Dedicated Outdoor Air Low Setpoint Temperature for Design
    autosize,                 !- Dedicated Outdoor Air High Setpoint Temperature for Design
    Sensible Load Only No Latent Load,    !- Zone Load Sizing Method
    HumidityRatioDifference,    !- Zone Latent Cooling Design Supply Air Humidity Ratio Input Method
    ,                         !- Zone Dehumidification Design Supply Air Humidity Ratio
    0.005,                    !- Zone Cooling Design Supply Air Humidity Ratio Difference
    HumidityRatioDifference,    !- Zone Latent Heating Design Supply Air Humidity Ratio Input Method
    ,                         !- Zone Humidification Design Supply Air Humidity Ratio
    0.005;                    !- Zone Humidification Design Supply Air Humidity Ratio Difference

SIZING:ZONE,
    af3917251b85a42e_F2_dwelling_5,    !- Zone or ZoneList Name
    SupplyAirTemperature,     !- Zone Cooling Design Supply Air Temperature Input Method
    13,                       !- Zone Cooling Design Supply Air Temperature
    ,                         !- Zone Cooling Design Supply Air Temperature Difference
    SupplyAirTemperature,     !- Zone Heating Design Supply Air Temperature Input Method
    50,                       !- Zone Heating Design Supply Air Temperature
    ,                         !- Zone Heating Design Supply Air Temperature Difference
    0.008,                    !- Zone Cooling Design Supply Air Humidity Ratio
    0.008,                    !- Zone Heating Design Supply Air Humidity Ratio
    ,                         !- Design Specification Outdoor Air Object Name
    ,                         !- Zone Heating Sizing Factor
    ,                         !- Zone Cooling Sizing Factor
    DesignDay,                !- Cooling Design Air Flow Method
    0,                        !- Cooling Design Air Flow Rate
    0.000762,                 !- Cooling Minimum Air Flow per Zone Floor Area
    0,                        !- Cooling Minimum Air Flow
    0.2,                      !- Cooling Minimum Air Flow Fraction
    DesignDay,                !- Heating Design Air Flow Method
    0,                        !- Heating Design Air Flow Rate
    0.002032,                 !- Heating Maximum Air Flow per Zone Floor Area
    0.1415762,                !- Heating Maximum Air Flow
    0.3,                      !- Heating Maximum Air Flow Fraction
    ,                         !- Design Specification Zone Air Distribution Object Name
    No,                       !- Account for Dedicated Outdoor Air System
    NeutralSupplyAir,         !- Dedicated Outdoor Air System Control Strategy
    autosize,                 !- Dedicated Outdoor Air Low Setpoint Temperature for Design
    autosize,                 !- Dedicated Outdoor Air High Setpoint Temperature for Design
    Sensible Load Only No Latent Load,    !- Zone Load Sizing Method
    HumidityRatioDifference,    !- Zone Latent Cooling Design Supply Air Humidity Ratio Input Method
    ,                         !- Zone Dehumidification Design Supply Air Humidity Ratio
    0.005,                    !- Zone Cooling Design Supply Air Humidity Ratio Difference
    HumidityRatioDifference,    !- Zone Latent Heating Design Supply Air Humidity Ratio Input Method
    ,                         !- Zone Humidification Design Supply Air Humidity Ratio
    0.005;                    !- Zone Humidification Design Supply Air Humidity Ratio Difference

SIZING:ZONE,
    af3917251b85a42e_F2_dwelling_6,    !- Zone or ZoneList Name
    SupplyAirTemperature,     !- Zone Cooling Design Supply Air Temperature Input Method
    13,                       !- Zone Cooling Design Supply Air Temperature
    ,                         !- Zone Cooling Design Supply Air Temperature Difference
    SupplyAirTemperature,     !- Zone Heating Design Supply Air Temperature Input Method
    50,                       !- Zone Heating Design Supply Air Temperature
    ,                         !- Zone Heating Design Supply Air Temperature Difference
    0.008,                    !- Zone Cooling Design Supply Air Humidity Ratio
    0.008,                    !- Zone Heating Design Supply Air Humidity Ratio
    ,                         !- Design Specification Outdoor Air Object Name
    ,                         !- Zone Heating Sizing Factor
    ,                         !- Zone Cooling Sizing Factor
    DesignDay,                !- Cooling Design Air Flow Method
    0,                        !- Cooling Design Air Flow Rate
    0.000762,                 !- Cooling Minimum Air Flow per Zone Floor Area
    0,                        !- Cooling Minimum Air Flow
    0.2,                      !- Cooling Minimum Air Flow Fraction
    DesignDay,                !- Heating Design Air Flow Method
    0,                        !- Heating Design Air Flow Rate
    0.002032,                 !- Heating Maximum Air Flow per Zone Floor Area
    0.1415762,                !- Heating Maximum Air Flow
    0.3,                      !- Heating Maximum Air Flow Fraction
    ,                         !- Design Specification Zone Air Distribution Object Name
    No,                       !- Account for Dedicated Outdoor Air System
    NeutralSupplyAir,         !- Dedicated Outdoor Air System Control Strategy
    autosize,                 !- Dedicated Outdoor Air Low Setpoint Temperature for Design
    autosize,                 !- Dedicated Outdoor Air High Setpoint Temperature for Design
    Sensible Load Only No Latent Load,    !- Zone Load Sizing Method
    HumidityRatioDifference,    !- Zone Latent Cooling Design Supply Air Humidity Ratio Input Method
    ,                         !- Zone Dehumidification Design Supply Air Humidity Ratio
    0.005,                    !- Zone Cooling Design Supply Air Humidity Ratio Difference
    HumidityRatioDifference,    !- Zone Latent Heating Design Supply Air Humidity Ratio Input Method
    ,                         !- Zone Humidification Design Supply Air Humidity Ratio
    0.005;                    !- Zone Humidification Design Supply Air Humidity Ratio Difference

SIZING:ZONE,
    af3917251b85a42e_F2_dwelling_7,    !- Zone or ZoneList Name
    SupplyAirTemperature,     !- Zone Cooling Design Supply Air Temperature Input Method
    13,                       !- Zone Cooling Design Supply Air Temperature
    ,                         !- Zone Cooling Design Supply Air Temperature Difference
    SupplyAirTemperature,     !- Zone Heating Design Supply Air Temperature Input Method
    50,                       !- Zone Heating Design Supply Air Temperature
    ,                         !- Zone Heating Design Supply Air Temperature Difference
    0.008,                    !- Zone Cooling Design Supply Air Humidity Ratio
    0.008,                    !- Zone Heating Design Supply Air Humidity Ratio
    ,                         !- Design Specification Outdoor Air Object Name
    ,                         !- Zone Heating Sizing Factor
    ,                         !- Zone Cooling Sizing Factor
    DesignDay,                !- Cooling Design Air Flow Method
    0,                        !- Cooling Design Air Flow Rate
    0.000762,                 !- Cooling Minimum Air Flow per Zone Floor Area
    0,                        !- Cooling Minimum Air Flow
    0.2,                      !- Cooling Minimum Air Flow Fraction
    DesignDay,                !- Heating Design Air Flow Method
    0,                        !- Heating Design Air Flow Rate
    0.002032,                 !- Heating Maximum Air Flow per Zone Floor Area
    0.1415762,                !- Heating Maximum Air Flow
    0.3,                      !- Heating Maximum Air Flow Fraction
    ,                         !- Design Specification Zone Air Distribution Object Name
    No,                       !- Account for Dedicated Outdoor Air System
    NeutralSupplyAir,         !- Dedicated Outdoor Air System Control Strategy
    autosize,                 !- Dedicated Outdoor Air Low Setpoint Temperature for Design
    autosize,                 !- Dedicated Outdoor Air High Setpoint Temperature for Design
    Sensible Load Only No Latent Load,    !- Zone Load Sizing Method
    HumidityRatioDifference,    !- Zone Latent Cooling Design Supply Air Humidity Ratio Input Method
    ,                         !- Zone Dehumidification Design Supply Air Humidity Ratio
    0.005,                    !- Zone Cooling Design Supply Air Humidity Ratio Difference
    HumidityRatioDifference,    !- Zone Latent Heating Design Supply Air Humidity Ratio Input Method
    ,                         !- Zone Humidification Design Supply Air Humidity Ratio
    0.005;                    !- Zone Humidification Design Supply Air Humidity Ratio Difference

SIZING:ZONE,
    af3917251b85a42e_F3_dwelling_0,    !- Zone or ZoneList Name
    SupplyAirTemperature,     !- Zone Cooling Design Supply Air Temperature Input Method
    13,                       !- Zone Cooling Design Supply Air Temperature
    ,                         !- Zone Cooling Design Supply Air Temperature Difference
    SupplyAirTemperature,     !- Zone Heating Design Supply Air Temperature Input Method
    50,                       !- Zone Heating Design Supply Air Temperature
    ,                         !- Zone Heating Design Supply Air Temperature Difference
    0.008,                    !- Zone Cooling Design Supply Air Humidity Ratio
    0.008,                    !- Zone Heating Design Supply Air Humidity Ratio
    ,                         !- Design Specification Outdoor Air Object Name
    ,                         !- Zone Heating Sizing Factor
    ,                         !- Zone Cooling Sizing Factor
    DesignDay,                !- Cooling Design Air Flow Method
    0,                        !- Cooling Design Air Flow Rate
    0.000762,                 !- Cooling Minimum Air Flow per Zone Floor Area
    0,                        !- Cooling Minimum Air Flow
    0.2,                      !- Cooling Minimum Air Flow Fraction
    DesignDay,                !- Heating Design Air Flow Method
    0,                        !- Heating Design Air Flow Rate
    0.002032,                 !- Heating Maximum Air Flow per Zone Floor Area
    0.1415762,                !- Heating Maximum Air Flow
    0.3,                      !- Heating Maximum Air Flow Fraction
    ,                         !- Design Specification Zone Air Distribution Object Name
    No,                       !- Account for Dedicated Outdoor Air System
    NeutralSupplyAir,         !- Dedicated Outdoor Air System Control Strategy
    autosize,                 !- Dedicated Outdoor Air Low Setpoint Temperature for Design
    autosize,                 !- Dedicated Outdoor Air High Setpoint Temperature for Design
    Sensible Load Only No Latent Load,    !- Zone Load Sizing Method
    HumidityRatioDifference,    !- Zone Latent Cooling Design Supply Air Humidity Ratio Input Method
    ,                         !- Zone Dehumidification Design Supply Air Humidity Ratio
    0.005,                    !- Zone Cooling Design Supply Air Humidity Ratio Difference
    HumidityRatioDifference,    !- Zone Latent Heating Design Supply Air Humidity Ratio Input Method
    ,                         !- Zone Humidification Design Supply Air Humidity Ratio
    0.005;                    !- Zone Humidification Design Supply Air Humidity Ratio Difference

SIZING:ZONE,
    af3917251b85a42e_F3_dwelling_1,    !- Zone or ZoneList Name
    SupplyAirTemperature,     !- Zone Cooling Design Supply Air Temperature Input Method
    13,                       !- Zone Cooling Design Supply Air Temperature
    ,                         !- Zone Cooling Design Supply Air Temperature Difference
    SupplyAirTemperature,     !- Zone Heating Design Supply Air Temperature Input Method
    50,                       !- Zone Heating Design Supply Air Temperature
    ,                         !- Zone Heating Design Supply Air Temperature Difference
    0.008,                    !- Zone Cooling Design Supply Air Humidity Ratio
    0.008,                    !- Zone Heating Design Supply Air Humidity Ratio
    ,                         !- Design Specification Outdoor Air Object Name
    ,                         !- Zone Heating Sizing Factor
    ,                         !- Zone Cooling Sizing Factor
    DesignDay,                !- Cooling Design Air Flow Method
    0,                        !- Cooling Design Air Flow Rate
    0.000762,                 !- Cooling Minimum Air Flow per Zone Floor Area
    0,                        !- Cooling Minimum Air Flow
    0.2,                      !- Cooling Minimum Air Flow Fraction
    DesignDay,                !- Heating Design Air Flow Method
    0,                        !- Heating Design Air Flow Rate
    0.002032,                 !- Heating Maximum Air Flow per Zone Floor Area
    0.1415762,                !- Heating Maximum Air Flow
    0.3,                      !- Heating Maximum Air Flow Fraction
    ,                         !- Design Specification Zone Air Distribution Object Name
    No,                       !- Account for Dedicated Outdoor Air System
    NeutralSupplyAir,         !- Dedicated Outdoor Air System Control Strategy
    autosize,                 !- Dedicated Outdoor Air Low Setpoint Temperature for Design
    autosize,                 !- Dedicated Outdoor Air High Setpoint Temperature for Design
    Sensible Load Only No Latent Load,    !- Zone Load Sizing Method
    HumidityRatioDifference,    !- Zone Latent Cooling Design Supply Air Humidity Ratio Input Method
    ,                         !- Zone Dehumidification Design Supply Air Humidity Ratio
    0.005,                    !- Zone Cooling Design Supply Air Humidity Ratio Difference
    HumidityRatioDifference,    !- Zone Latent Heating Design Supply Air Humidity Ratio Input Method
    ,                         !- Zone Humidification Design Supply Air Humidity Ratio
    0.005;                    !- Zone Humidification Design Supply Air Humidity Ratio Difference

SIZING:ZONE,
    af3917251b85a42e_F3_dwelling_2,    !- Zone or ZoneList Name
    SupplyAirTemperature,     !- Zone Cooling Design Supply Air Temperature Input Method
    13,                       !- Zone Cooling Design Supply Air Temperature
    ,                         !- Zone Cooling Design Supply Air Temperature Difference
    SupplyAirTemperature,     !- Zone Heating Design Supply Air Temperature Input Method
    50,                       !- Zone Heating Design Supply Air Temperature
    ,                         !- Zone Heating Design Supply Air Temperature Difference
    0.008,                    !- Zone Cooling Design Supply Air Humidity Ratio
    0.008,                    !- Zone Heating Design Supply Air Humidity Ratio
    ,                         !- Design Specification Outdoor Air Object Name
    ,                         !- Zone Heating Sizing Factor
    ,                         !- Zone Cooling Sizing Factor
    DesignDay,                !- Cooling Design Air Flow Method
    0,                        !- Cooling Design Air Flow Rate
    0.000762,                 !- Cooling Minimum Air Flow per Zone Floor Area
    0,                        !- Cooling Minimum Air Flow
    0.2,                      !- Cooling Minimum Air Flow Fraction
    DesignDay,                !- Heating Design Air Flow Method
    0,                        !- Heating Design Air Flow Rate
    0.002032,                 !- Heating Maximum Air Flow per Zone Floor Area
    0.1415762,                !- Heating Maximum Air Flow
    0.3,                      !- Heating Maximum Air Flow Fraction
    ,                         !- Design Specification Zone Air Distribution Object Name
    No,                       !- Account for Dedicated Outdoor Air System
    NeutralSupplyAir,         !- Dedicated Outdoor Air System Control Strategy
    autosize,                 !- Dedicated Outdoor Air Low Setpoint Temperature for Design
    autosize,                 !- Dedicated Outdoor Air High Setpoint Temperature for Design
    Sensible Load Only No Latent Load,    !- Zone Load Sizing Method
    HumidityRatioDifference,    !- Zone Latent Cooling Design Supply Air Humidity Ratio Input Method
    ,                         !- Zone Dehumidification Design Supply Air Humidity Ratio
    0.005,                    !- Zone Cooling Design Supply Air Humidity Ratio Difference
    HumidityRatioDifference,    !- Zone Latent Heating Design Supply Air Humidity Ratio Input Method
    ,                         !- Zone Humidification Design Supply Air Humidity Ratio
    0.005;                    !- Zone Humidification Design Supply Air Humidity Ratio Difference

SIZING:ZONE,
    af3917251b85a42e_F3_dwelling_3,    !- Zone or ZoneList Name
    SupplyAirTemperature,     !- Zone Cooling Design Supply Air Temperature Input Method
    13,                       !- Zone Cooling Design Supply Air Temperature
    ,                         !- Zone Cooling Design Supply Air Temperature Difference
    SupplyAirTemperature,     !- Zone Heating Design Supply Air Temperature Input Method
    50,                       !- Zone Heating Design Supply Air Temperature
    ,                         !- Zone Heating Design Supply Air Temperature Difference
    0.008,                    !- Zone Cooling Design Supply Air Humidity Ratio
    0.008,                    !- Zone Heating Design Supply Air Humidity Ratio
    ,                         !- Design Specification Outdoor Air Object Name
    ,                         !- Zone Heating Sizing Factor
    ,                         !- Zone Cooling Sizing Factor
    DesignDay,                !- Cooling Design Air Flow Method
    0,                        !- Cooling Design Air Flow Rate
    0.000762,                 !- Cooling Minimum Air Flow per Zone Floor Area
    0,                        !- Cooling Minimum Air Flow
    0.2,                      !- Cooling Minimum Air Flow Fraction
    DesignDay,                !- Heating Design Air Flow Method
    0,                        !- Heating Design Air Flow Rate
    0.002032,                 !- Heating Maximum Air Flow per Zone Floor Area
    0.1415762,                !- Heating Maximum Air Flow
    0.3,                      !- Heating Maximum Air Flow Fraction
    ,                         !- Design Specification Zone Air Distribution Object Name
    No,                       !- Account for Dedicated Outdoor Air System
    NeutralSupplyAir,         !- Dedicated Outdoor Air System Control Strategy
    autosize,                 !- Dedicated Outdoor Air Low Setpoint Temperature for Design
    autosize,                 !- Dedicated Outdoor Air High Setpoint Temperature for Design
    Sensible Load Only No Latent Load,    !- Zone Load Sizing Method
    HumidityRatioDifference,    !- Zone Latent Cooling Design Supply Air Humidity Ratio Input Method
    ,                         !- Zone Dehumidification Design Supply Air Humidity Ratio
    0.005,                    !- Zone Cooling Design Supply Air Humidity Ratio Difference
    HumidityRatioDifference,    !- Zone Latent Heating Design Supply Air Humidity Ratio Input Method
    ,                         !- Zone Humidification Design Supply Air Humidity Ratio
    0.005;                    !- Zone Humidification Design Supply Air Humidity Ratio Difference

SIZING:ZONE,
    af3917251b85a42e_F3_dwelling_4,    !- Zone or ZoneList Name
    SupplyAirTemperature,     !- Zone Cooling Design Supply Air Temperature Input Method
    13,                       !- Zone Cooling Design Supply Air Temperature
    ,                         !- Zone Cooling Design Supply Air Temperature Difference
    SupplyAirTemperature,     !- Zone Heating Design Supply Air Temperature Input Method
    50,                       !- Zone Heating Design Supply Air Temperature
    ,                         !- Zone Heating Design Supply Air Temperature Difference
    0.008,                    !- Zone Cooling Design Supply Air Humidity Ratio
    0.008,                    !- Zone Heating Design Supply Air Humidity Ratio
    ,                         !- Design Specification Outdoor Air Object Name
    ,                         !- Zone Heating Sizing Factor
    ,                         !- Zone Cooling Sizing Factor
    DesignDay,                !- Cooling Design Air Flow Method
    0,                        !- Cooling Design Air Flow Rate
    0.000762,                 !- Cooling Minimum Air Flow per Zone Floor Area
    0,                        !- Cooling Minimum Air Flow
    0.2,                      !- Cooling Minimum Air Flow Fraction
    DesignDay,                !- Heating Design Air Flow Method
    0,                        !- Heating Design Air Flow Rate
    0.002032,                 !- Heating Maximum Air Flow per Zone Floor Area
    0.1415762,                !- Heating Maximum Air Flow
    0.3,                      !- Heating Maximum Air Flow Fraction
    ,                         !- Design Specification Zone Air Distribution Object Name
    No,                       !- Account for Dedicated Outdoor Air System
    NeutralSupplyAir,         !- Dedicated Outdoor Air System Control Strategy
    autosize,                 !- Dedicated Outdoor Air Low Setpoint Temperature for Design
    autosize,                 !- Dedicated Outdoor Air High Setpoint Temperature for Design
    Sensible Load Only No Latent Load,    !- Zone Load Sizing Method
    HumidityRatioDifference,    !- Zone Latent Cooling Design Supply Air Humidity Ratio Input Method
    ,                         !- Zone Dehumidification Design Supply Air Humidity Ratio
    0.005,                    !- Zone Cooling Design Supply Air Humidity Ratio Difference
    HumidityRatioDifference,    !- Zone Latent Heating Design Supply Air Humidity Ratio Input Method
    ,                         !- Zone Humidification Design Supply Air Humidity Ratio
    0.005;                    !- Zone Humidification Design Supply Air Humidity Ratio Difference

SIZING:ZONE,
    af3917251b85a42e_F3_dwelling_5,    !- Zone or ZoneList Name
    SupplyAirTemperature,     !- Zone Cooling Design Supply Air Temperature Input Method
    13,                       !- Zone Cooling Design Supply Air Temperature
    ,                         !- Zone Cooling Design Supply Air Temperature Difference
    SupplyAirTemperature,     !- Zone Heating Design Supply Air Temperature Input Method
    50,                       !- Zone Heating Design Supply Air Temperature
    ,                         !- Zone Heating Design Supply Air Temperature Difference
    0.008,                    !- Zone Cooling Design Supply Air Humidity Ratio
    0.008,                    !- Zone Heating Design Supply Air Humidity Ratio
    ,                         !- Design Specification Outdoor Air Object Name
    ,                         !- Zone Heating Sizing Factor
    ,                         !- Zone Cooling Sizing Factor
    DesignDay,                !- Cooling Design Air Flow Method
    0,                        !- Cooling Design Air Flow Rate
    0.000762,                 !- Cooling Minimum Air Flow per Zone Floor Area
    0,                        !- Cooling Minimum Air Flow
    0.2,                      !- Cooling Minimum Air Flow Fraction
    DesignDay,                !- Heating Design Air Flow Method
    0,                        !- Heating Design Air Flow Rate
    0.002032,                 !- Heating Maximum Air Flow per Zone Floor Area
    0.1415762,                !- Heating Maximum Air Flow
    0.3,                      !- Heating Maximum Air Flow Fraction
    ,                         !- Design Specification Zone Air Distribution Object Name
    No,                       !- Account for Dedicated Outdoor Air System
    NeutralSupplyAir,         !- Dedicated Outdoor Air System Control Strategy
    autosize,                 !- Dedicated Outdoor Air Low Setpoint Temperature for Design
    autosize,                 !- Dedicated Outdoor Air High Setpoint Temperature for Design
    Sensible Load Only No Latent Load,    !- Zone Load Sizing Method
    HumidityRatioDifference,    !- Zone Latent Cooling Design Supply Air Humidity Ratio Input Method
    ,                         !- Zone Dehumidification Design Supply Air Humidity Ratio
    0.005,                    !- Zone Cooling Design Supply Air Humidity Ratio Difference
    HumidityRatioDifference,    !- Zone Latent Heating Design Supply Air Humidity Ratio Input Method
    ,                         !- Zone Humidification Design Supply Air Humidity Ratio
    0.005;                    !- Zone Humidification Design Supply Air Humidity Ratio Difference

SIZING:ZONE,
    af3917251b85a42e_F3_dwelling_6,    !- Zone or ZoneList Name
    SupplyAirTemperature,     !- Zone Cooling Design Supply Air Temperature Input Method
    13,                       !- Zone Cooling Design Supply Air Temperature
    ,                         !- Zone Cooling Design Supply Air Temperature Difference
    SupplyAirTemperature,     !- Zone Heating Design Supply Air Temperature Input Method
    50,                       !- Zone Heating Design Supply Air Temperature
    ,                         !- Zone Heating Design Supply Air Temperature Difference
    0.008,                    !- Zone Cooling Design Supply Air Humidity Ratio
    0.008,                    !- Zone Heating Design Supply Air Humidity Ratio
    ,                         !- Design Specification Outdoor Air Object Name
    ,                         !- Zone Heating Sizing Factor
    ,                         !- Zone Cooling Sizing Factor
    DesignDay,                !- Cooling Design Air Flow Method
    0,                        !- Cooling Design Air Flow Rate
    0.000762,                 !- Cooling Minimum Air Flow per Zone Floor Area
    0,                        !- Cooling Minimum Air Flow
    0.2,                      !- Cooling Minimum Air Flow Fraction
    DesignDay,                !- Heating Design Air Flow Method
    0,                        !- Heating Design Air Flow Rate
    0.002032,                 !- Heating Maximum Air Flow per Zone Floor Area
    0.1415762,                !- Heating Maximum Air Flow
    0.3,                      !- Heating Maximum Air Flow Fraction
    ,                         !- Design Specification Zone Air Distribution Object Name
    No,                       !- Account for Dedicated Outdoor Air System
    NeutralSupplyAir,         !- Dedicated Outdoor Air System Control Strategy
    autosize,                 !- Dedicated Outdoor Air Low Setpoint Temperature for Design
    autosize,                 !- Dedicated Outdoor Air High Setpoint Temperature for Design
    Sensible Load Only No Latent Load,    !- Zone Load Sizing Method
    HumidityRatioDifference,    !- Zone Latent Cooling Design Supply Air Humidity Ratio Input Method
    ,                         !- Zone Dehumidification Design Supply Air Humidity Ratio
    0.005,                    !- Zone Cooling Design Supply Air Humidity Ratio Difference
    HumidityRatioDifference,    !- Zone Latent Heating Design Supply Air Humidity Ratio Input Method
    ,                         !- Zone Humidification Design Supply Air Humidity Ratio
    0.005;                    !- Zone Humidification Design Supply Air Humidity Ratio Difference

SIZING:ZONE,
    af3917251b85a42e_F3_dwelling_7,    !- Zone or ZoneList Name
    SupplyAirTemperature,     !- Zone Cooling Design Supply Air Temperature Input Method
    13,                       !- Zone Cooling Design Supply Air Temperature
    ,                         !- Zone Cooling Design Supply Air Temperature Difference
    SupplyAirTemperature,     !- Zone Heating Design Supply Air Temperature Input Method
    50,                       !- Zone Heating Design Supply Air Temperature
    ,                         !- Zone Heating Design Supply Air Temperature Difference
    0.008,                    !- Zone Cooling Design Supply Air Humidity Ratio
    0.008,                    !- Zone Heating Design Supply Air Humidity Ratio
    ,                         !- Design Specification Outdoor Air Object Name
    ,                         !- Zone Heating Sizing Factor
    ,                         !- Zone Cooling Sizing Factor
    DesignDay,                !- Cooling Design Air Flow Method
    0,                        !- Cooling Design Air Flow Rate
    0.000762,                 !- Cooling Minimum Air Flow per Zone Floor Area
    0,                        !- Cooling Minimum Air Flow
    0.2,                      !- Cooling Minimum Air Flow Fraction
    DesignDay,                !- Heating Design Air Flow Method
    0,                        !- Heating Design Air Flow Rate
    0.002032,                 !- Heating Maximum Air Flow per Zone Floor Area
    0.1415762,                !- Heating Maximum Air Flow
    0.3,                      !- Heating Maximum Air Flow Fraction
    ,                         !- Design Specification Zone Air Distribution Object Name
    No,                       !- Account for Dedicated Outdoor Air System
    NeutralSupplyAir,         !- Dedicated Outdoor Air System Control Strategy
    autosize,                 !- Dedicated Outdoor Air Low Setpoint Temperature for Design
    autosize,                 !- Dedicated Outdoor Air High Setpoint Temperature for Design
    Sensible Load Only No Latent Load,    !- Zone Load Sizing Method
    HumidityRatioDifference,    !- Zone Latent Cooling Design Supply Air Humidity Ratio Input Method
    ,                         !- Zone Dehumidification Design Supply Air Humidity Ratio
    0.005,                    !- Zone Cooling Design Supply Air Humidity Ratio Difference
    HumidityRatioDifference,    !- Zone Latent Heating Design Supply Air Humidity Ratio Input Method
    ,                         !- Zone Humidification Design Supply Air Humidity Ratio
    0.005;                    !- Zone Humidification Design Supply Air Humidity Ratio Difference

SIZING:ZONE,
    af3917251b85a42e_F4_dwelling_0,    !- Zone or ZoneList Name
    SupplyAirTemperature,     !- Zone Cooling Design Supply Air Temperature Input Method
    13,                       !- Zone Cooling Design Supply Air Temperature
    ,                         !- Zone Cooling Design Supply Air Temperature Difference
    SupplyAirTemperature,     !- Zone Heating Design Supply Air Temperature Input Method
    50,                       !- Zone Heating Design Supply Air Temperature
    ,                         !- Zone Heating Design Supply Air Temperature Difference
    0.008,                    !- Zone Cooling Design Supply Air Humidity Ratio
    0.008,                    !- Zone Heating Design Supply Air Humidity Ratio
    ,                         !- Design Specification Outdoor Air Object Name
    ,                         !- Zone Heating Sizing Factor
    ,                         !- Zone Cooling Sizing Factor
    DesignDay,                !- Cooling Design Air Flow Method
    0,                        !- Cooling Design Air Flow Rate
    0.000762,                 !- Cooling Minimum Air Flow per Zone Floor Area
    0,                        !- Cooling Minimum Air Flow
    0.2,                      !- Cooling Minimum Air Flow Fraction
    DesignDay,                !- Heating Design Air Flow Method
    0,                        !- Heating Design Air Flow Rate
    0.002032,                 !- Heating Maximum Air Flow per Zone Floor Area
    0.1415762,                !- Heating Maximum Air Flow
    0.3,                      !- Heating Maximum Air Flow Fraction
    ,                         !- Design Specification Zone Air Distribution Object Name
    No,                       !- Account for Dedicated Outdoor Air System
    NeutralSupplyAir,         !- Dedicated Outdoor Air System Control Strategy
    autosize,                 !- Dedicated Outdoor Air Low Setpoint Temperature for Design
    autosize,                 !- Dedicated Outdoor Air High Setpoint Temperature for Design
    Sensible Load Only No Latent Load,    !- Zone Load Sizing Method
    HumidityRatioDifference,    !- Zone Latent Cooling Design Supply Air Humidity Ratio Input Method
    ,                         !- Zone Dehumidification Design Supply Air Humidity Ratio
    0.005,                    !- Zone Cooling Design Supply Air Humidity Ratio Difference
    HumidityRatioDifference,    !- Zone Latent Heating Design Supply Air Humidity Ratio Input Method
    ,                         !- Zone Humidification Design Supply Air Humidity Ratio
    0.005;                    !- Zone Humidification Design Supply Air Humidity Ratio Difference

SIZING:ZONE,
    af3917251b85a42e_F4_dwelling_1,    !- Zone or ZoneList Name
    SupplyAirTemperature,     !- Zone Cooling Design Supply Air Temperature Input Method
    13,                       !- Zone Cooling Design Supply Air Temperature
    ,                         !- Zone Cooling Design Supply Air Temperature Difference
    SupplyAirTemperature,     !- Zone Heating Design Supply Air Temperature Input Method
    50,                       !- Zone Heating Design Supply Air Temperature
    ,                         !- Zone Heating Design Supply Air Temperature Difference
    0.008,                    !- Zone Cooling Design Supply Air Humidity Ratio
    0.008,                    !- Zone Heating Design Supply Air Humidity Ratio
    ,                         !- Design Specification Outdoor Air Object Name
    ,                         !- Zone Heating Sizing Factor
    ,                         !- Zone Cooling Sizing Factor
    DesignDay,                !- Cooling Design Air Flow Method
    0,                        !- Cooling Design Air Flow Rate
    0.000762,                 !- Cooling Minimum Air Flow per Zone Floor Area
    0,                        !- Cooling Minimum Air Flow
    0.2,                      !- Cooling Minimum Air Flow Fraction
    DesignDay,                !- Heating Design Air Flow Method
    0,                        !- Heating Design Air Flow Rate
    0.002032,                 !- Heating Maximum Air Flow per Zone Floor Area
    0.1415762,                !- Heating Maximum Air Flow
    0.3,                      !- Heating Maximum Air Flow Fraction
    ,                         !- Design Specification Zone Air Distribution Object Name
    No,                       !- Account for Dedicated Outdoor Air System
    NeutralSupplyAir,         !- Dedicated Outdoor Air System Control Strategy
    autosize,                 !- Dedicated Outdoor Air Low Setpoint Temperature for Design
    autosize,                 !- Dedicated Outdoor Air High Setpoint Temperature for Design
    Sensible Load Only No Latent Load,    !- Zone Load Sizing Method
    HumidityRatioDifference,    !- Zone Latent Cooling Design Supply Air Humidity Ratio Input Method
    ,                         !- Zone Dehumidification Design Supply Air Humidity Ratio
    0.005,                    !- Zone Cooling Design Supply Air Humidity Ratio Difference
    HumidityRatioDifference,    !- Zone Latent Heating Design Supply Air Humidity Ratio Input Method
    ,                         !- Zone Humidification Design Supply Air Humidity Ratio
    0.005;                    !- Zone Humidification Design Supply Air Humidity Ratio Difference

SIZING:ZONE,
    af3917251b85a42e_F4_dwelling_2,    !- Zone or ZoneList Name
    SupplyAirTemperature,     !- Zone Cooling Design Supply Air Temperature Input Method
    13,                       !- Zone Cooling Design Supply Air Temperature
    ,                         !- Zone Cooling Design Supply Air Temperature Difference
    SupplyAirTemperature,     !- Zone Heating Design Supply Air Temperature Input Method
    50,                       !- Zone Heating Design Supply Air Temperature
    ,                         !- Zone Heating Design Supply Air Temperature Difference
    0.008,                    !- Zone Cooling Design Supply Air Humidity Ratio
    0.008,                    !- Zone Heating Design Supply Air Humidity Ratio
    ,                         !- Design Specification Outdoor Air Object Name
    ,                         !- Zone Heating Sizing Factor
    ,                         !- Zone Cooling Sizing Factor
    DesignDay,                !- Cooling Design Air Flow Method
    0,                        !- Cooling Design Air Flow Rate
    0.000762,                 !- Cooling Minimum Air Flow per Zone Floor Area
    0,                        !- Cooling Minimum Air Flow
    0.2,                      !- Cooling Minimum Air Flow Fraction
    DesignDay,                !- Heating Design Air Flow Method
    0,                        !- Heating Design Air Flow Rate
    0.002032,                 !- Heating Maximum Air Flow per Zone Floor Area
    0.1415762,                !- Heating Maximum Air Flow
    0.3,                      !- Heating Maximum Air Flow Fraction
    ,                         !- Design Specification Zone Air Distribution Object Name
    No,                       !- Account for Dedicated Outdoor Air System
    NeutralSupplyAir,         !- Dedicated Outdoor Air System Control Strategy
    autosize,                 !- Dedicated Outdoor Air Low Setpoint Temperature for Design
    autosize,                 !- Dedicated Outdoor Air High Setpoint Temperature for Design
    Sensible Load Only No Latent Load,    !- Zone Load Sizing Method
    HumidityRatioDifference,    !- Zone Latent Cooling Design Supply Air Humidity Ratio Input Method
    ,                         !- Zone Dehumidification Design Supply Air Humidity Ratio
    0.005,                    !- Zone Cooling Design Supply Air Humidity Ratio Difference
    HumidityRatioDifference,    !- Zone Latent Heating Design Supply Air Humidity Ratio Input Method
    ,                         !- Zone Humidification Design Supply Air Humidity Ratio
    0.005;                    !- Zone Humidification Design Supply Air Humidity Ratio Difference

SIZING:ZONE,
    af3917251b85a42e_F4_dwelling_3,    !- Zone or ZoneList Name
    SupplyAirTemperature,     !- Zone Cooling Design Supply Air Temperature Input Method
    13,                       !- Zone Cooling Design Supply Air Temperature
    ,                         !- Zone Cooling Design Supply Air Temperature Difference
    SupplyAirTemperature,     !- Zone Heating Design Supply Air Temperature Input Method
    50,                       !- Zone Heating Design Supply Air Temperature
    ,                         !- Zone Heating Design Supply Air Temperature Difference
    0.008,                    !- Zone Cooling Design Supply Air Humidity Ratio
    0.008,                    !- Zone Heating Design Supply Air Humidity Ratio
    ,                         !- Design Specification Outdoor Air Object Name
    ,                         !- Zone Heating Sizing Factor
    ,                         !- Zone Cooling Sizing Factor
    DesignDay,                !- Cooling Design Air Flow Method
    0,                        !- Cooling Design Air Flow Rate
    0.000762,                 !- Cooling Minimum Air Flow per Zone Floor Area
    0,                        !- Cooling Minimum Air Flow
    0.2,                      !- Cooling Minimum Air Flow Fraction
    DesignDay,                !- Heating Design Air Flow Method
    0,                        !- Heating Design Air Flow Rate
    0.002032,                 !- Heating Maximum Air Flow per Zone Floor Area
    0.1415762,                !- Heating Maximum Air Flow
    0.3,                      !- Heating Maximum Air Flow Fraction
    ,                         !- Design Specification Zone Air Distribution Object Name
    No,                       !- Account for Dedicated Outdoor Air System
    NeutralSupplyAir,         !- Dedicated Outdoor Air System Control Strategy
    autosize,                 !- Dedicated Outdoor Air Low Setpoint Temperature for Design
    autosize,                 !- Dedicated Outdoor Air High Setpoint Temperature for Design
    Sensible Load Only No Latent Load,    !- Zone Load Sizing Method
    HumidityRatioDifference,    !- Zone Latent Cooling Design Supply Air Humidity Ratio Input Method
    ,                         !- Zone Dehumidification Design Supply Air Humidity Ratio
    0.005,                    !- Zone Cooling Design Supply Air Humidity Ratio Difference
    HumidityRatioDifference,    !- Zone Latent Heating Design Supply Air Humidity Ratio Input Method
    ,                         !- Zone Humidification Design Supply Air Humidity Ratio
    0.005;                    !- Zone Humidification Design Supply Air Humidity Ratio Difference

SIZING:ZONE,
    af3917251b85a42e_F4_dwelling_4,    !- Zone or ZoneList Name
    SupplyAirTemperature,     !- Zone Cooling Design Supply Air Temperature Input Method
    13,                       !- Zone Cooling Design Supply Air Temperature
    ,                         !- Zone Cooling Design Supply Air Temperature Difference
    SupplyAirTemperature,     !- Zone Heating Design Supply Air Temperature Input Method
    50,                       !- Zone Heating Design Supply Air Temperature
    ,                         !- Zone Heating Design Supply Air Temperature Difference
    0.008,                    !- Zone Cooling Design Supply Air Humidity Ratio
    0.008,                    !- Zone Heating Design Supply Air Humidity Ratio
    ,                         !- Design Specification Outdoor Air Object Name
    ,                         !- Zone Heating Sizing Factor
    ,                         !- Zone Cooling Sizing Factor
    DesignDay,                !- Cooling Design Air Flow Method
    0,                        !- Cooling Design Air Flow Rate
    0.000762,                 !- Cooling Minimum Air Flow per Zone Floor Area
    0,                        !- Cooling Minimum Air Flow
    0.2,                      !- Cooling Minimum Air Flow Fraction
    DesignDay,                !- Heating Design Air Flow Method
    0,                        !- Heating Design Air Flow Rate
    0.002032,                 !- Heating Maximum Air Flow per Zone Floor Area
    0.1415762,                !- Heating Maximum Air Flow
    0.3,                      !- Heating Maximum Air Flow Fraction
    ,                         !- Design Specification Zone Air Distribution Object Name
    No,                       !- Account for Dedicated Outdoor Air System
    NeutralSupplyAir,         !- Dedicated Outdoor Air System Control Strategy
    autosize,                 !- Dedicated Outdoor Air Low Setpoint Temperature for Design
    autosize,                 !- Dedicated Outdoor Air High Setpoint Temperature for Design
    Sensible Load Only No Latent Load,    !- Zone Load Sizing Method
    HumidityRatioDifference,    !- Zone Latent Cooling Design Supply Air Humidity Ratio Input Method
    ,                         !- Zone Dehumidification Design Supply Air Humidity Ratio
    0.005,                    !- Zone Cooling Design Supply Air Humidity Ratio Difference
    HumidityRatioDifference,    !- Zone Latent Heating Design Supply Air Humidity Ratio Input Method
    ,                         !- Zone Humidification Design Supply Air Humidity Ratio
    0.005;                    !- Zone Humidification Design Supply Air Humidity Ratio Difference

SIZING:ZONE,
    af3917251b85a42e_F4_dwelling_5,    !- Zone or ZoneList Name
    SupplyAirTemperature,     !- Zone Cooling Design Supply Air Temperature Input Method
    13,                       !- Zone Cooling Design Supply Air Temperature
    ,                         !- Zone Cooling Design Supply Air Temperature Difference
    SupplyAirTemperature,     !- Zone Heating Design Supply Air Temperature Input Method
    50,                       !- Zone Heating Design Supply Air Temperature
    ,                         !- Zone Heating Design Supply Air Temperature Difference
    0.008,                    !- Zone Cooling Design Supply Air Humidity Ratio
    0.008,                    !- Zone Heating Design Supply Air Humidity Ratio
    ,                         !- Design Specification Outdoor Air Object Name
    ,                         !- Zone Heating Sizing Factor
    ,                         !- Zone Cooling Sizing Factor
    DesignDay,                !- Cooling Design Air Flow Method
    0,                        !- Cooling Design Air Flow Rate
    0.000762,                 !- Cooling Minimum Air Flow per Zone Floor Area
    0,                        !- Cooling Minimum Air Flow
    0.2,                      !- Cooling Minimum Air Flow Fraction
    DesignDay,                !- Heating Design Air Flow Method
    0,                        !- Heating Design Air Flow Rate
    0.002032,                 !- Heating Maximum Air Flow per Zone Floor Area
    0.1415762,                !- Heating Maximum Air Flow
    0.3,                      !- Heating Maximum Air Flow Fraction
    ,                         !- Design Specification Zone Air Distribution Object Name
    No,                       !- Account for Dedicated Outdoor Air System
    NeutralSupplyAir,         !- Dedicated Outdoor Air System Control Strategy
    autosize,                 !- Dedicated Outdoor Air Low Setpoint Temperature for Design
    autosize,                 !- Dedicated Outdoor Air High Setpoint Temperature for Design
    Sensible Load Only No Latent Load,    !- Zone Load Sizing Method
    HumidityRatioDifference,    !- Zone Latent Cooling Design Supply Air Humidity Ratio Input Method
    ,                         !- Zone Dehumidification Design Supply Air Humidity Ratio
    0.005,                    !- Zone Cooling Design Supply Air Humidity Ratio Difference
    HumidityRatioDifference,    !- Zone Latent Heating Design Supply Air Humidity Ratio Input Method
    ,                         !- Zone Humidification Design Supply Air Humidity Ratio
    0.005;                    !- Zone Humidification Design Supply Air Humidity Ratio Difference

SIZING:ZONE,
    af3917251b85a42e_F4_dwelling_6,    !- Zone or ZoneList Name
    SupplyAirTemperature,     !- Zone Cooling Design Supply Air Temperature Input Method
    13,                       !- Zone Cooling Design Supply Air Temperature
    ,                         !- Zone Cooling Design Supply Air Temperature Difference
    SupplyAirTemperature,     !- Zone Heating Design Supply Air Temperature Input Method
    50,                       !- Zone Heating Design Supply Air Temperature
    ,                         !- Zone Heating Design Supply Air Temperature Difference
    0.008,                    !- Zone Cooling Design Supply Air Humidity Ratio
    0.008,                    !- Zone Heating Design Supply Air Humidity Ratio
    ,                         !- Design Specification Outdoor Air Object Name
    ,                         !- Zone Heating Sizing Factor
    ,                         !- Zone Cooling Sizing Factor
    DesignDay,                !- Cooling Design Air Flow Method
    0,                        !- Cooling Design Air Flow Rate
    0.000762,                 !- Cooling Minimum Air Flow per Zone Floor Area
    0,                        !- Cooling Minimum Air Flow
    0.2,                      !- Cooling Minimum Air Flow Fraction
    DesignDay,                !- Heating Design Air Flow Method
    0,                        !- Heating Design Air Flow Rate
    0.002032,                 !- Heating Maximum Air Flow per Zone Floor Area
    0.1415762,                !- Heating Maximum Air Flow
    0.3,                      !- Heating Maximum Air Flow Fraction
    ,                         !- Design Specification Zone Air Distribution Object Name
    No,                       !- Account for Dedicated Outdoor Air System
    NeutralSupplyAir,         !- Dedicated Outdoor Air System Control Strategy
    autosize,                 !- Dedicated Outdoor Air Low Setpoint Temperature for Design
    autosize,                 !- Dedicated Outdoor Air High Setpoint Temperature for Design
    Sensible Load Only No Latent Load,    !- Zone Load Sizing Method
    HumidityRatioDifference,    !- Zone Latent Cooling Design Supply Air Humidity Ratio Input Method
    ,                         !- Zone Dehumidification Design Supply Air Humidity Ratio
    0.005,                    !- Zone Cooling Design Supply Air Humidity Ratio Difference
    HumidityRatioDifference,    !- Zone Latent Heating Design Supply Air Humidity Ratio Input Method
    ,                         !- Zone Humidification Design Supply Air Humidity Ratio
    0.005;                    !- Zone Humidification Design Supply Air Humidity Ratio Difference

SIZING:ZONE,
    af3917251b85a42e_F4_dwelling_7,    !- Zone or ZoneList Name
    SupplyAirTemperature,     !- Zone Cooling Design Supply Air Temperature Input Method
    13,                       !- Zone Cooling Design Supply Air Temperature
    ,                         !- Zone Cooling Design Supply Air Temperature Difference
    SupplyAirTemperature,     !- Zone Heating Design Supply Air Temperature Input Method
    50,                       !- Zone Heating Design Supply Air Temperature
    ,                         !- Zone Heating Design Supply Air Temperature Difference
    0.008,                    !- Zone Cooling Design Supply Air Humidity Ratio
    0.008,                    !- Zone Heating Design Supply Air Humidity Ratio
    ,                         !- Design Specification Outdoor Air Object Name
    ,                         !- Zone Heating Sizing Factor
    ,                         !- Zone Cooling Sizing Factor
    DesignDay,                !- Cooling Design Air Flow Method
    0,                        !- Cooling Design Air Flow Rate
    0.000762,                 !- Cooling Minimum Air Flow per Zone Floor Area
    0,                        !- Cooling Minimum Air Flow
    0.2,                      !- Cooling Minimum Air Flow Fraction
    DesignDay,                !- Heating Design Air Flow Method
    0,                        !- Heating Design Air Flow Rate
    0.002032,                 !- Heating Maximum Air Flow per Zone Floor Area
    0.1415762,                !- Heating Maximum Air Flow
    0.3,                      !- Heating Maximum Air Flow Fraction
    ,                         !- Design Specification Zone Air Distribution Object Name
    No,                       !- Account for Dedicated Outdoor Air System
    NeutralSupplyAir,         !- Dedicated Outdoor Air System Control Strategy
    autosize,                 !- Dedicated Outdoor Air Low Setpoint Temperature for Design
    autosize,                 !- Dedicated Outdoor Air High Setpoint Temperature for Design
    Sensible Load Only No Latent Load,    !- Zone Load Sizing Method
    HumidityRatioDifference,    !- Zone Latent Cooling Design Supply Air Humidity Ratio Input Method
    ,                         !- Zone Dehumidification Design Supply Air Humidity Ratio
    0.005,                    !- Zone Cooling Design Supply Air Humidity Ratio Difference
    HumidityRatioDifference,    !- Zone Latent Heating Design Supply Air Humidity Ratio Input Method
    ,                         !- Zone Humidification Design Supply Air Humidity Ratio
    0.005;                    !- Zone Humidification Design Supply Air Humidity Ratio Difference

OUTPUT:VARIABLE,
    *,                        !- Key Value
    Zone Ideal Loads Zone Total Heating Energy,    !- Variable Name
    Hourly;                   !- Reporting Frequency

OUTPUT:SQLITE,
    SimpleAndTabular,         !- Option Type
    UseOutputControlTableStyle;    !- Unit Conversion for Tabular Data