!- Windows Line endings 

Version,
    23.1;                     !- Version Identifier

SimulationControl,
    Yes,                      !- Do Zone Sizing Calculation
    Yes,                      !- Do System Sizing Calculation
    Yes,                      !- Do Plant Sizing Calculation
    No,                       !- Run Simulation for Sizing Periods
    Yes,                      !- Run Simulation for Weather File Run Periods
    No,                       !- Do HVAC Sizing Simulation for Sizing Periods
    1;                        !- Maximum Number of HVAC Sizing Simulation Passes

Building,
    EU S2 Campaign,           !- Name
    0,                        !- North Axis
    City,                     !- Terrain
    ,                         !- Loads Convergence Tolerance Value
    ,                         !- Temperature Convergence Tolerance Value
    FullExterior,             !- Solar Distribution
    ,                         !- Maximum Number of Warmup Days
    ;                         !- Minimum Number of Warmup Days

ShadowCalculation,
    PolygonClipping,          !- Shading Calculation Method
    Periodic,                 !- Shading Calculation Update Frequency Method
    1;                        !- Shading Calculation Update Frequency

HeatBalanceAlgorithm,
    ConductionTransferFunction,    !- Algorithm
    200,                      !- Surface Temperature Upper Limit
    0.1,                      !- Minimum Surface Convection Heat Transfer Coefficient Value
    10000000;                 !- Maximum Surface Convection Heat Transfer Coefficient Value

Timestep,
    12;                       !- Number of Timesteps per Hour

Site:Location,
    Bologna,                  !- Name
    44.5,                     !- Latitude
    11.25,                    !- Longitude
    1,                        !- Time Zone
    37;                       !- Elevation

SizingPeriod:WeatherFileDays,
    AnnualSizingPeriod,       !- Name
    1,                        !- Begin Month
    1,                        !- Begin Day of Month
    12,                       !- End Month
    31,                       !- End Day of Month
    Monday,                   !- Day of Week for Start Day
    No,                       !- Use Weather File Daylight Saving Period
    No;                       !- Use Weather File Rain and Snow Indicators

RunPeriod,
    RunPeriod1,               !- Name
    1,                        !- Begin Month
    1,                        !- Begin Day of Month
    ,                         !- Begin Year
    12,                       !- End Month
    31,                       !- End Day of Month
    ,                         !- End Year
    Sunday,                   !- Day of Week for Start Day
    No,                       !- Use Weather File Holidays and Special Days
    No,                       !- Use Weather File Daylight Saving Period
    No,                       !- Apply Weekend Holiday Rule
    Yes,                      !- Use Weather File Rain Indicators
    Yes;                      !- Use Weather File Snow Indicators

ScheduleTypeLimits,
    Any Number;               !- Name

SCHEDULETYPELIMITS,
    EU_Step8_AnyNumber_Wm2,    !- Name
    ,                         !- Lower Limit Value
    ,                         !- Upper Limit Value
    Continuous,               !- Numeric Type
    Dimensionless;            !- Unit Type

SCHEDULE:CONSTANT,
    EU_AlwaysOn,              !- Name
    ,                         !- Schedule Type Limits Name
    1;                        !- Hourly Value

SCHEDULE:CONSTANT,
    EU_CoolingOff,            !- Name
    ,                         !- Schedule Type Limits Name
    0;                        !- Hourly Value

SCHEDULE:FILE,
    EU_Step8_GainSchedule_2809dac9ae84c1c0_F0_dwelling_0_f000,    !- Name
    EU_Step8_AnyNumber_Wm2,    !- Schedule Type Limits Name
    ../../schedules/2809dac9ae84c1c0/2809dac9ae84c1c0_F0_dwelling_0_f000_gain.csv,    !- File Name
    1,                        !- Column Number
    0,                        !- Rows to Skip at Top
    8760,                     !- Number of Hours of Data
    Comma,                    !- Column Separator
    No,                       !- Interpolate to Timestep
    60,                       !- Minutes per Item
    Yes;                      !- Adjust Schedule for Daylight Savings

MATERIAL,
    EU_InternalMass_Material,    !- Name
    MediumRough,              !- Roughness
    0.1,                      !- Thickness
    1,                        !- Conductivity
    1800,                     !- Density
    900,                      !- Specific Heat
    0.9,                      !- Thermal Absorptance
    0.7,                      !- Solar Absorptance
    0.7;                      !- Visible Absorptance

MATERIAL:NOMASS,
    EU_wall_NoMass,           !- Name
    MediumRough,              !- Roughness
    0.7340168965373618,       !- Thermal Resistance
    0.9,                      !- Thermal Absorptance
    0.7,                      !- Solar Absorptance
    0.7;                      !- Visible Absorptance

MATERIAL:NOMASS,
    EU_roof_NoMass,           !- Name
    MediumRough,              !- Roughness
    0.6586313774335247,       !- Thermal Resistance
    0.9,                      !- Thermal Absorptance
    0.7,                      !- Solar Absorptance
    0.7;                      !- Visible Absorptance

MATERIAL:NOMASS,
    EU_floor_NoMass,          !- Name
    MediumRough,              !- Roughness
    0.7475264099705649,       !- Thermal Resistance
    0.9,                      !- Thermal Absorptance
    0.7,                      !- Solar Absorptance
    0.7;                      !- Visible Absorptance

CONSTRUCTION,
    EU_wall_Construction,     !- Name
    EU_wall_NoMass;           !- Outside Layer

CONSTRUCTION,
    EU_roof_Construction,     !- Name
    EU_roof_NoMass;           !- Outside Layer

CONSTRUCTION,
    EU_floor_Construction,    !- Name
    EU_floor_NoMass;          !- Outside Layer

CONSTRUCTION,
    EU_InternalMass_Construction,    !- Name
    EU_InternalMass_Material;    !- Outside Layer

GlobalGeometryRules,
    UpperLeftCorner,          !- Starting Vertex Position
    CounterClockWise,         !- Vertex Entry Direction
    World;                    !- Coordinate System

ZONE,
    2809dac9ae84c1c0_F0_dwelling_0,    !- Name
    0,                        !- Direction of Relative North
    0,                        !- X Origin
    0,                        !- Y Origin
    0,                        !- Z Origin
    1,                        !- Type
    1,                        !- Multiplier
    autocalculate,            !- Ceiling Height
    207.96826171875,          !- Volume
    autocalculate,            !- Floor Area
    ,                         !- Zone Inside Convection Algorithm
    ,                         !- Zone Outside Convection Algorithm
    Yes;                      !- Part of Total Floor Area

BUILDINGSURFACE:DETAILED,
    Block 2809dac9ae84c1c0_0 Storey 0 Wall 0001,    !- Name
    wall,                     !- Surface Type
    EU_wall_Construction,     !- Construction Name
    2809dac9ae84c1c0_F0_dwelling_0,    !- Zone Name
    ,                         !- Space Name
    outdoors,                 !- Outside Boundary Condition
    ,                         !- Outside Boundary Condition Object
    SunExposed,               !- Sun Exposure
    WindExposed,              !- Wind Exposure
    autocalculate,            !- View Factor to Ground
    autocalculate,            !- Number of Vertices
    687255.584,               !- Vertex 1 Xcoordinate
    4928739.7,                !- Vertex 1 Ycoordinate
    6,                        !- Vertex 1 Zcoordinate
    687255.584,               !- Vertex 2 Xcoordinate
    4928739.7,                !- Vertex 2 Ycoordinate
    0,                        !- Vertex 2 Zcoordinate
    687252.532,               !- Vertex 3 Xcoordinate
    4928733.441,              !- Vertex 3 Ycoordinate
    0,                        !- Vertex 3 Zcoordinate
    687252.532,               !- Vertex 4 Xcoordinate
    4928733.441,              !- Vertex 4 Ycoordinate
    6;                        !- Vertex 4 Zcoordinate

BUILDINGSURFACE:DETAILED,
    Block 2809dac9ae84c1c0_0 Storey 0 Wall 0002,    !- Name
    wall,                     !- Surface Type
    EU_wall_Construction,     !- Construction Name
    2809dac9ae84c1c0_F0_dwelling_0,    !- Zone Name
    ,                         !- Space Name
    outdoors,                 !- Outside Boundary Condition
    ,                         !- Outside Boundary Condition Object
    SunExposed,               !- Sun Exposure
    WindExposed,              !- Wind Exposure
    autocalculate,            !- View Factor to Ground
    autocalculate,            !- Number of Vertices
    687252.532,               !- Vertex 1 Xcoordinate
    4928733.441,              !- Vertex 1 Ycoordinate
    6,                        !- Vertex 1 Zcoordinate
    687252.532,               !- Vertex 2 Xcoordinate
    4928733.441,              !- Vertex 2 Ycoordinate
    0,                        !- Vertex 2 Zcoordinate
    687248.002,               !- Vertex 3 Xcoordinate
    4928735.651,              !- Vertex 3 Ycoordinate
    0,                        !- Vertex 3 Zcoordinate
    687248.002,               !- Vertex 4 Xcoordinate
    4928735.651,              !- Vertex 4 Ycoordinate
    6;                        !- Vertex 4 Zcoordinate

BUILDINGSURFACE:DETAILED,
    Block 2809dac9ae84c1c0_0 Storey 0 Wall 0003,    !- Name
    wall,                     !- Surface Type
    EU_wall_Construction,     !- Construction Name
    2809dac9ae84c1c0_F0_dwelling_0,    !- Zone Name
    ,                         !- Space Name
    outdoors,                 !- Outside Boundary Condition
    ,                         !- Outside Boundary Condition Object
    SunExposed,               !- Sun Exposure
    WindExposed,              !- Wind Exposure
    autocalculate,            !- View Factor to Ground
    autocalculate,            !- Number of Vertices
    687248.002,               !- Vertex 1 Xcoordinate
    4928735.651,              !- Vertex 1 Ycoordinate
    6,                        !- Vertex 1 Zcoordinate
    687248.002,               !- Vertex 2 Xcoordinate
    4928735.651,              !- Vertex 2 Ycoordinate
    0,                        !- Vertex 2 Zcoordinate
    687250.972,               !- Vertex 3 Xcoordinate
    4928741.751,              !- Vertex 3 Ycoordinate
    0,                        !- Vertex 3 Zcoordinate
    687250.972,               !- Vertex 4 Xcoordinate
    4928741.751,              !- Vertex 4 Ycoordinate
    6;                        !- Vertex 4 Zcoordinate

BUILDINGSURFACE:DETAILED,
    Block 2809dac9ae84c1c0_0 Storey 0 Wall 0004,    !- Name
    wall,                     !- Surface Type
    EU_wall_Construction,     !- Construction Name
    2809dac9ae84c1c0_F0_dwelling_0,    !- Zone Name
    ,                         !- Space Name
    Adiabatic,                !- Outside Boundary Condition
    ,                         !- Outside Boundary Condition Object
    NoSun,                    !- Sun Exposure
    NoWind,                   !- Wind Exposure
    autocalculate,            !- View Factor to Ground
    autocalculate,            !- Number of Vertices
    687250.972,               !- Vertex 1 Xcoordinate
    4928741.751,              !- Vertex 1 Ycoordinate
    6,                        !- Vertex 1 Zcoordinate
    687250.972,               !- Vertex 2 Xcoordinate
    4928741.751,              !- Vertex 2 Ycoordinate
    0,                        !- Vertex 2 Zcoordinate
    687255.584,               !- Vertex 3 Xcoordinate
    4928739.7,                !- Vertex 3 Ycoordinate
    0,                        !- Vertex 3 Zcoordinate
    687255.584,               !- Vertex 4 Xcoordinate
    4928739.7,                !- Vertex 4 Ycoordinate
    6;                        !- Vertex 4 Zcoordinate

BUILDINGSURFACE:DETAILED,
    Block 2809dac9ae84c1c0_0 Storey 0 Floor 0001,    !- Name
    floor,                    !- Surface Type
    EU_floor_Construction,    !- Construction Name
    2809dac9ae84c1c0_F0_dwelling_0,    !- Zone Name
    ,                         !- Space Name
    ground,                   !- Outside Boundary Condition
    ,                         !- Outside Boundary Condition Object
    NoSun,                    !- Sun Exposure
    NoWind,                   !- Wind Exposure
    autocalculate,            !- View Factor to Ground
    autocalculate,            !- Number of Vertices
    687252.532,               !- Vertex 1 Xcoordinate
    4928733.441,              !- Vertex 1 Ycoordinate
    0,                        !- Vertex 1 Zcoordinate
    687255.584,               !- Vertex 2 Xcoordinate
    4928739.7,                !- Vertex 2 Ycoordinate
    0,                        !- Vertex 2 Zcoordinate
    687250.972,               !- Vertex 3 Xcoordinate
    4928741.751,              !- Vertex 3 Ycoordinate
    0,                        !- Vertex 3 Zcoordinate
    687248.002,               !- Vertex 4 Xcoordinate
    4928735.651,              !- Vertex 4 Ycoordinate
    0;                        !- Vertex 4 Zcoordinate

BUILDINGSURFACE:DETAILED,
    Block 2809dac9ae84c1c0_0 Storey 0 Roof 0001,    !- Name
    roof,                     !- Surface Type
    EU_roof_Construction,     !- Construction Name
    2809dac9ae84c1c0_F0_dwelling_0,    !- Zone Name
    ,                         !- Space Name
    outdoors,                 !- Outside Boundary Condition
    ,                         !- Outside Boundary Condition Object
    NoSun,                    !- Sun Exposure
    WindExposed,              !- Wind Exposure
    autocalculate,            !- View Factor to Ground
    autocalculate,            !- Number of Vertices
    687255.584,               !- Vertex 1 Xcoordinate
    4928739.7,                !- Vertex 1 Ycoordinate
    6,                        !- Vertex 1 Zcoordinate
    687252.532,               !- Vertex 2 Xcoordinate
    4928733.441,              !- Vertex 2 Ycoordinate
    6,                        !- Vertex 2 Zcoordinate
    687248.002,               !- Vertex 3 Xcoordinate
    4928735.651,              !- Vertex 3 Ycoordinate
    6,                        !- Vertex 3 Zcoordinate
    687250.972,               !- Vertex 4 Xcoordinate
    4928741.751,              !- Vertex 4 Ycoordinate
    6;                        !- Vertex 4 Zcoordinate

INTERNALMASS,
    2809dac9ae84c1c0_F0_dwelling_0_EU_InternalMass,    !- Name
    EU_InternalMass_Construction,    !- Construction Name
    2809dac9ae84c1c0_F0_dwelling_0,    !- Zone or ZoneList Name
    ,                         !- Space or SpaceList Name
    34.66143000204477;        !- Surface Area

SHADING:SITE:DETAILED,
    shade_31640_1,            !- Name
    ,                         !- Transmittance Schedule Name
    autocalculate,            !- Number of Vertices
    687243.4493857892,        !- Vertex 1 Xcoordinate
    4928716.071083013,        !- Vertex 1 Ycoordinate
    15,                       !- Vertex 1 Zcoordinate
    687243.4493857892,        !- Vertex 2 Xcoordinate
    4928716.071083013,        !- Vertex 2 Ycoordinate
    0,                        !- Vertex 2 Zcoordinate
    687251.7689984883,        !- Vertex 3 Xcoordinate
    4928717.472119193,        !- Vertex 3 Ycoordinate
    0,                        !- Vertex 3 Zcoordinate
    687251.7689984883,        !- Vertex 4 Xcoordinate
    4928717.472119193,        !- Vertex 4 Ycoordinate
    15;                       !- Vertex 4 Zcoordinate

SHADING:SITE:DETAILED,
    shade_31640_2,            !- Name
    ,                         !- Transmittance Schedule Name
    autocalculate,            !- Number of Vertices
    687251.7689984883,        !- Vertex 1 Xcoordinate
    4928717.472119193,        !- Vertex 1 Ycoordinate
    15,                       !- Vertex 1 Zcoordinate
    687251.7689984883,        !- Vertex 2 Xcoordinate
    4928717.472119193,        !- Vertex 2 Ycoordinate
    0,                        !- Vertex 2 Zcoordinate
    687252.8732641558,        !- Vertex 3 Xcoordinate
    4928710.916220508,        !- Vertex 3 Ycoordinate
    0,                        !- Vertex 3 Zcoordinate
    687252.8732641558,        !- Vertex 4 Xcoordinate
    4928710.916220508,        !- Vertex 4 Ycoordinate
    15;                       !- Vertex 4 Zcoordinate

SHADING:SITE:DETAILED,
    shade_31640_3,            !- Name
    ,                         !- Transmittance Schedule Name
    autocalculate,            !- Number of Vertices
    687252.8732641558,        !- Vertex 1 Xcoordinate
    4928710.916220508,        !- Vertex 1 Ycoordinate
    15,                       !- Vertex 1 Zcoordinate
    687252.8732641558,        !- Vertex 2 Xcoordinate
    4928710.916220508,        !- Vertex 2 Ycoordinate
    0,                        !- Vertex 2 Zcoordinate
    687244.5532139478,        !- Vertex 3 Xcoordinate
    4928709.5153283,          !- Vertex 3 Ycoordinate
    0,                        !- Vertex 3 Zcoordinate
    687244.5532139478,        !- Vertex 4 Xcoordinate
    4928709.5153283,          !- Vertex 4 Ycoordinate
    15;                       !- Vertex 4 Zcoordinate

SHADING:SITE:DETAILED,
    shade_31640_4,            !- Name
    ,                         !- Transmittance Schedule Name
    autocalculate,            !- Number of Vertices
    687244.5532139478,        !- Vertex 1 Xcoordinate
    4928709.5153283,          !- Vertex 1 Ycoordinate
    15,                       !- Vertex 1 Zcoordinate
    687244.5532139478,        !- Vertex 2 Xcoordinate
    4928709.5153283,          !- Vertex 2 Ycoordinate
    0,                        !- Vertex 2 Zcoordinate
    687243.4493857892,        !- Vertex 3 Xcoordinate
    4928716.071083013,        !- Vertex 3 Ycoordinate
    0,                        !- Vertex 3 Zcoordinate
    687243.4493857892,        !- Vertex 4 Xcoordinate
    4928716.071083013,        !- Vertex 4 Ycoordinate
    15;                       !- Vertex 4 Zcoordinate

SHADING:SITE:DETAILED,
    shade_31561_1,            !- Name
    ,                         !- Transmittance Schedule Name
    autocalculate,            !- Number of Vertices
    687263.6663176676,        !- Vertex 1 Xcoordinate
    4928731.473442397,        !- Vertex 1 Ycoordinate
    15,                       !- Vertex 1 Zcoordinate
    687263.6663176676,        !- Vertex 2 Xcoordinate
    4928731.473442397,        !- Vertex 2 Ycoordinate
    0,                        !- Vertex 2 Zcoordinate
    687277.7935656408,        !- Vertex 3 Xcoordinate
    4928724.357027716,        !- Vertex 3 Ycoordinate
    0,                        !- Vertex 3 Zcoordinate
    687277.7935656408,        !- Vertex 4 Xcoordinate
    4928724.357027716,        !- Vertex 4 Ycoordinate
    15;                       !- Vertex 4 Zcoordinate

SHADING:SITE:DETAILED,
    shade_31561_2,            !- Name
    ,                         !- Transmittance Schedule Name
    autocalculate,            !- Number of Vertices
    687277.7935656408,        !- Vertex 1 Xcoordinate
    4928724.357027716,        !- Vertex 1 Ycoordinate
    15,                       !- Vertex 1 Zcoordinate
    687277.7935656408,        !- Vertex 2 Xcoordinate
    4928724.357027716,        !- Vertex 2 Ycoordinate
    0,                        !- Vertex 2 Zcoordinate
    687272.5484309758,        !- Vertex 3 Xcoordinate
    4928713.94457687,         !- Vertex 3 Ycoordinate
    0,                        !- Vertex 3 Zcoordinate
    687272.5484309758,        !- Vertex 4 Xcoordinate
    4928713.94457687,         !- Vertex 4 Ycoordinate
    15;                       !- Vertex 4 Zcoordinate

SHADING:SITE:DETAILED,
    shade_31561_3,            !- Name
    ,                         !- Transmittance Schedule Name
    autocalculate,            !- Number of Vertices
    687272.5484309758,        !- Vertex 1 Xcoordinate
    4928713.94457687,         !- Vertex 1 Ycoordinate
    15,                       !- Vertex 1 Zcoordinate
    687272.5484309758,        !- Vertex 2 Xcoordinate
    4928713.94457687,         !- Vertex 2 Ycoordinate
    0,                        !- Vertex 2 Zcoordinate
    687258.4209984883,        !- Vertex 3 Xcoordinate
    4928721.061119191,        !- Vertex 3 Ycoordinate
    0,                        !- Vertex 3 Zcoordinate
    687258.4209984883,        !- Vertex 4 Xcoordinate
    4928721.061119191,        !- Vertex 4 Ycoordinate
    15;                       !- Vertex 4 Zcoordinate

SHADING:SITE:DETAILED,
    shade_31561_4,            !- Name
    ,                         !- Transmittance Schedule Name
    autocalculate,            !- Number of Vertices
    687258.4209984883,        !- Vertex 1 Xcoordinate
    4928721.061119191,        !- Vertex 1 Ycoordinate
    15,                       !- Vertex 1 Zcoordinate
    687258.4209984883,        !- Vertex 2 Xcoordinate
    4928721.061119191,        !- Vertex 2 Ycoordinate
    0,                        !- Vertex 2 Zcoordinate
    687263.6663176676,        !- Vertex 3 Xcoordinate
    4928731.473442397,        !- Vertex 3 Ycoordinate
    0,                        !- Vertex 3 Zcoordinate
    687263.6663176676,        !- Vertex 4 Xcoordinate
    4928731.473442397,        !- Vertex 4 Ycoordinate
    15;                       !- Vertex 4 Zcoordinate

SHADING:SITE:DETAILED,
    shade_31518_1,            !- Name
    ,                         !- Transmittance Schedule Name
    autocalculate,            !- Number of Vertices
    687225.0219984886,        !- Vertex 1 Xcoordinate
    4928733.39111919,         !- Vertex 1 Ycoordinate
    15,                       !- Vertex 1 Zcoordinate
    687225.0219984886,        !- Vertex 2 Xcoordinate
    4928733.39111919,         !- Vertex 2 Ycoordinate
    0,                        !- Vertex 2 Zcoordinate
    687242.2919984885,        !- Vertex 3 Xcoordinate
    4928736.231119189,        !- Vertex 3 Ycoordinate
    0,                        !- Vertex 3 Zcoordinate
    687242.2919984885,        !- Vertex 4 Xcoordinate
    4928736.231119189,        !- Vertex 4 Ycoordinate
    15;                       !- Vertex 4 Zcoordinate

SHADING:SITE:DETAILED,
    shade_31518_2,            !- Name
    ,                         !- Transmittance Schedule Name
    autocalculate,            !- Number of Vertices
    687242.2919984885,        !- Vertex 1 Xcoordinate
    4928736.231119189,        !- Vertex 1 Ycoordinate
    15,                       !- Vertex 1 Zcoordinate
    687242.2919984885,        !- Vertex 2 Xcoordinate
    4928736.231119189,        !- Vertex 2 Ycoordinate
    0,                        !- Vertex 2 Zcoordinate
    687244.3673224656,        !- Vertex 3 Xcoordinate
    4928723.611018082,        !- Vertex 3 Ycoordinate
    0,                        !- Vertex 3 Zcoordinate
    687244.3673224656,        !- Vertex 4 Xcoordinate
    4928723.611018082,        !- Vertex 4 Ycoordinate
    15;                       !- Vertex 4 Zcoordinate

SHADING:SITE:DETAILED,
    shade_31518_3,            !- Name
    ,                         !- Transmittance Schedule Name
    autocalculate,            !- Number of Vertices
    687244.3673224656,        !- Vertex 1 Xcoordinate
    4928723.611018082,        !- Vertex 1 Ycoordinate
    15,                       !- Vertex 1 Zcoordinate
    687244.3673224656,        !- Vertex 2 Xcoordinate
    4928723.611018082,        !- Vertex 2 Ycoordinate
    0,                        !- Vertex 2 Zcoordinate
    687227.0973224657,        !- Vertex 3 Xcoordinate
    4928720.771018082,        !- Vertex 3 Ycoordinate
    0,                        !- Vertex 3 Zcoordinate
    687227.0973224657,        !- Vertex 4 Xcoordinate
    4928720.771018082,        !- Vertex 4 Ycoordinate
    15;                       !- Vertex 4 Zcoordinate

SHADING:SITE:DETAILED,
    shade_31518_4,            !- Name
    ,                         !- Transmittance Schedule Name
    autocalculate,            !- Number of Vertices
    687227.0973224657,        !- Vertex 1 Xcoordinate
    4928720.771018082,        !- Vertex 1 Ycoordinate
    15,                       !- Vertex 1 Zcoordinate
    687227.0973224657,        !- Vertex 2 Xcoordinate
    4928720.771018082,        !- Vertex 2 Ycoordinate
    0,                        !- Vertex 2 Zcoordinate
    687225.0219984886,        !- Vertex 3 Xcoordinate
    4928733.39111919,         !- Vertex 3 Ycoordinate
    0,                        !- Vertex 3 Zcoordinate
    687225.0219984886,        !- Vertex 4 Xcoordinate
    4928733.39111919,         !- Vertex 4 Ycoordinate
    15;                       !- Vertex 4 Zcoordinate

SHADING:SITE:DETAILED,
    shade_31448_1,            !- Name
    ,                         !- Transmittance Schedule Name
    autocalculate,            !- Number of Vertices
    687245.2019984884,        !- Vertex 1 Xcoordinate
    4928744.571119189,        !- Vertex 1 Ycoordinate
    15,                       !- Vertex 1 Zcoordinate
    687245.2019984884,        !- Vertex 2 Xcoordinate
    4928744.571119189,        !- Vertex 2 Ycoordinate
    0,                        !- Vertex 2 Zcoordinate
    687243.3319984886,        !- Vertex 3 Xcoordinate
    4928740.731119189,        !- Vertex 3 Ycoordinate
    0,                        !- Vertex 3 Zcoordinate
    687243.3319984886,        !- Vertex 4 Xcoordinate
    4928740.731119189,        !- Vertex 4 Ycoordinate
    15;                       !- Vertex 4 Zcoordinate

SHADING:SITE:DETAILED,
    shade_31448_2,            !- Name
    ,                         !- Transmittance Schedule Name
    autocalculate,            !- Number of Vertices
    687243.3319984886,        !- Vertex 1 Xcoordinate
    4928740.731119189,        !- Vertex 1 Ycoordinate
    15,                       !- Vertex 1 Zcoordinate
    687243.3319984886,        !- Vertex 2 Xcoordinate
    4928740.731119189,        !- Vertex 2 Ycoordinate
    0,                        !- Vertex 2 Zcoordinate
    687236.7079634292,        !- Vertex 3 Xcoordinate
    4928743.956643401,        !- Vertex 3 Ycoordinate
    0,                        !- Vertex 3 Zcoordinate
    687236.7079634292,        !- Vertex 4 Xcoordinate
    4928743.956643401,        !- Vertex 4 Ycoordinate
    15;                       !- Vertex 4 Zcoordinate

SHADING:SITE:DETAILED,
    shade_31448_3,            !- Name
    ,                         !- Transmittance Schedule Name
    autocalculate,            !- Number of Vertices
    687236.7079634292,        !- Vertex 1 Xcoordinate
    4928743.956643401,        !- Vertex 1 Ycoordinate
    15,                       !- Vertex 1 Zcoordinate
    687236.7079634292,        !- Vertex 2 Xcoordinate
    4928743.956643401,        !- Vertex 2 Ycoordinate
    0,                        !- Vertex 2 Zcoordinate
    687238.5779634282,        !- Vertex 3 Xcoordinate
    4928747.7966434,          !- Vertex 3 Ycoordinate
    0,                        !- Vertex 3 Zcoordinate
    687238.5779634282,        !- Vertex 4 Xcoordinate
    4928747.7966434,          !- Vertex 4 Ycoordinate
    15;                       !- Vertex 4 Zcoordinate

SHADING:SITE:DETAILED,
    shade_31448_4,            !- Name
    ,                         !- Transmittance Schedule Name
    autocalculate,            !- Number of Vertices
    687238.5779634282,        !- Vertex 1 Xcoordinate
    4928747.7966434,          !- Vertex 1 Ycoordinate
    15,                       !- Vertex 1 Zcoordinate
    687238.5779634282,        !- Vertex 2 Xcoordinate
    4928747.7966434,          !- Vertex 2 Ycoordinate
    0,                        !- Vertex 2 Zcoordinate
    687245.2019984884,        !- Vertex 3 Xcoordinate
    4928744.571119189,        !- Vertex 3 Ycoordinate
    0,                        !- Vertex 3 Zcoordinate
    687245.2019984884,        !- Vertex 4 Xcoordinate
    4928744.571119189,        !- Vertex 4 Ycoordinate
    15;                       !- Vertex 4 Zcoordinate

SHADING:SITE:DETAILED,
    shade_31352_1,            !- Name
    ,                         !- Transmittance Schedule Name
    autocalculate,            !- Number of Vertices
    687237.5719984887,        !- Vertex 1 Xcoordinate
    4928759.99011919,         !- Vertex 1 Ycoordinate
    15,                       !- Vertex 1 Zcoordinate
    687237.5719984887,        !- Vertex 2 Xcoordinate
    4928759.99011919,         !- Vertex 2 Ycoordinate
    0,                        !- Vertex 2 Zcoordinate
    687260.1193951875,        !- Vertex 3 Xcoordinate
    4928749.006263181,        !- Vertex 3 Ycoordinate
    0,                        !- Vertex 3 Zcoordinate
    687260.1193951875,        !- Vertex 4 Xcoordinate
    4928749.006263181,        !- Vertex 4 Ycoordinate
    15;                       !- Vertex 4 Zcoordinate

SHADING:SITE:DETAILED,
    shade_31352_2,            !- Name
    ,                         !- Transmittance Schedule Name
    autocalculate,            !- Number of Vertices
    687260.1193951875,        !- Vertex 1 Xcoordinate
    4928749.006263181,        !- Vertex 1 Ycoordinate
    15,                       !- Vertex 1 Zcoordinate
    687260.1193951875,        !- Vertex 2 Xcoordinate
    4928749.006263181,        !- Vertex 2 Ycoordinate
    0,                        !- Vertex 2 Zcoordinate
    687255.4651360562,        !- Vertex 3 Xcoordinate
    4928739.452267114,        !- Vertex 3 Ycoordinate
    0,                        !- Vertex 3 Zcoordinate
    687255.4651360562,        !- Vertex 4 Xcoordinate
    4928739.452267114,        !- Vertex 4 Ycoordinate
    15;                       !- Vertex 4 Zcoordinate

SHADING:SITE:DETAILED,
    shade_31352_3,            !- Name
    ,                         !- Transmittance Schedule Name
    autocalculate,            !- Number of Vertices
    687255.4651360562,        !- Vertex 1 Xcoordinate
    4928739.452267114,        !- Vertex 1 Ycoordinate
    15,                       !- Vertex 1 Zcoordinate
    687255.4651360562,        !- Vertex 2 Xcoordinate
    4928739.452267114,        !- Vertex 2 Ycoordinate
    0,                        !- Vertex 2 Zcoordinate
    687232.9176999574,        !- Vertex 3 Xcoordinate
    4928750.43632128,         !- Vertex 3 Ycoordinate
    0,                        !- Vertex 3 Zcoordinate
    687232.9176999574,        !- Vertex 4 Xcoordinate
    4928750.43632128,         !- Vertex 4 Ycoordinate
    15;                       !- Vertex 4 Zcoordinate

SHADING:SITE:DETAILED,
    shade_31352_4,            !- Name
    ,                         !- Transmittance Schedule Name
    autocalculate,            !- Number of Vertices
    687232.9176999574,        !- Vertex 1 Xcoordinate
    4928750.43632128,         !- Vertex 1 Ycoordinate
    15,                       !- Vertex 1 Zcoordinate
    687232.9176999574,        !- Vertex 2 Xcoordinate
    4928750.43632128,         !- Vertex 2 Ycoordinate
    0,                        !- Vertex 2 Zcoordinate
    687237.5719984887,        !- Vertex 3 Xcoordinate
    4928759.99011919,         !- Vertex 3 Ycoordinate
    0,                        !- Vertex 3 Zcoordinate
    687237.5719984887,        !- Vertex 4 Xcoordinate
    4928759.99011919,         !- Vertex 4 Ycoordinate
    15;                       !- Vertex 4 Zcoordinate

OTHEREQUIPMENT,
    EU_Step8_InternalGain_2809dac9ae84c1c0_F0_dwelling_0_f000,    !- Name
    Electricity,              !- Fuel Type
    2809dac9ae84c1c0_F0_dwelling_0,    !- Zone or ZoneList or Space or SpaceList Name
    EU_Step8_GainSchedule_2809dac9ae84c1c0_F0_dwelling_0_f000,    !- Schedule Name
    Watts/Area,               !- Design Level Calculation Method
    ,                         !- Design Level
    1,                        !- Power per Zone Floor Area
    ,                         !- Power per Person
    0,                        !- Fraction Latent
    0,                        !- Fraction Radiant
    0,                        !- Fraction Lost
    0,                        !- Carbon Dioxide Generation Rate
    EU_Step8_InternalGains;    !- EndUse Subcategory

ZONEVENTILATION:DESIGNFLOWRATE,
    EU_ConstantAir_2809dac9ae84c1c0_F0_dwelling_0,    !- Name
    2809dac9ae84c1c0_F0_dwelling_0,    !- Zone or ZoneList or Space or SpaceList Name
    EU_AlwaysOn,              !- Schedule Name
    AirChanges/Hour,          !- Design Flow Rate Calculation Method
    ,                         !- Design Flow Rate
    ,                         !- Flow Rate per Floor Area
    ,                         !- Flow Rate per Person
    0.6565621487963161,       !- Air Changes per Hour
    Natural,                  !- Ventilation Type
    0,                        !- Fan Pressure Rise
    1,                        !- Fan Total Efficiency
    1,                        !- Constant Term Coefficient
    0,                        !- Temperature Term Coefficient
    0,                        !- Velocity Term Coefficient
    0,                        !- Velocity Squared Term Coefficient
    -100,                     !- Minimum Indoor Temperature
    ,                         !- Minimum Indoor Temperature Schedule Name
    100,                      !- Maximum Indoor Temperature
    ,                         !- Maximum Indoor Temperature Schedule Name
    -100,                     !- Delta Temperature
    ,                         !- Delta Temperature Schedule Name
    -100,                     !- Minimum Outdoor Temperature
    ,                         !- Minimum Outdoor Temperature Schedule Name
    100,                      !- Maximum Outdoor Temperature
    ,                         !- Maximum Outdoor Temperature Schedule Name
    40;                       !- Maximum Wind Speed

HVACTEMPLATE:THERMOSTAT,
    EU_HeatOnly_2809dac9ae84c1c0_F0_dwelling_0,    !- Name
    ,                         !- Heating Setpoint Schedule Name
    20,                       !- Constant Heating Setpoint
    ,                         !- Cooling Setpoint Schedule Name
    50;                       !- Constant Cooling Setpoint

HVACTEMPLATE:ZONE:IDEALLOADSAIRSYSTEM,
    2809dac9ae84c1c0_F0_dwelling_0,    !- Zone Name
    EU_HeatOnly_2809dac9ae84c1c0_F0_dwelling_0,    !- Template Thermostat Name
    EU_AlwaysOn,              !- System Availability Schedule Name
    50,                       !- Maximum Heating Supply Air Temperature
    13,                       !- Minimum Cooling Supply Air Temperature
    0.0156,                   !- Maximum Heating Supply Air Humidity Ratio
    0.0077,                   !- Minimum Cooling Supply Air Humidity Ratio
    NoLimit,                  !- Heating Limit
    ,                         !- Maximum Heating Air Flow Rate
    ,                         !- Maximum Sensible Heating Capacity
    NoLimit,                  !- Cooling Limit
    ,                         !- Maximum Cooling Air Flow Rate
    ,                         !- Maximum Total Cooling Capacity
    EU_AlwaysOn,              !- Heating Availability Schedule Name
    EU_CoolingOff,            !- Cooling Availability Schedule Name
    ConstantSensibleHeatRatio,    !- Dehumidification Control Type
    0.7,                      !- Cooling Sensible Heat Ratio
    60,                       !- Dehumidification Setpoint
    None,                     !- Humidification Control Type
    30,                       !- Humidification Setpoint
    None,                     !- Outdoor Air Method
    0.00944,                  !- Outdoor Air Flow Rate per Person
    0.0,                      !- Outdoor Air Flow Rate per Zone Floor Area
    0,                        !- Outdoor Air Flow Rate per Zone
    ,                         !- Design Specification Outdoor Air Object Name
    None,                     !- Demand Controlled Ventilation Type
    NoEconomizer,             !- Outdoor Air Economizer Type
    None,                     !- Heat Recovery Type
    0.70,                     !- Sensible Heat Recovery Effectiveness
    0.65;                     !- Latent Heat Recovery Effectiveness

SIZING:ZONE,
    2809dac9ae84c1c0_F0_dwelling_0,    !- Zone or ZoneList Name
    SupplyAirTemperature,     !- Zone Cooling Design Supply Air Temperature Input Method
    13,                       !- Zone Cooling Design Supply Air Temperature
    ,                         !- Zone Cooling Design Supply Air Temperature Difference
    SupplyAirTemperature,     !- Zone Heating Design Supply Air Temperature Input Method
    50,                       !- Zone Heating Design Supply Air Temperature
    ,                         !- Zone Heating Design Supply Air Temperature Difference
    0.008,                    !- Zone Cooling Design Supply Air Humidity Ratio
    0.008,                    !- Zone Heating Design Supply Air Humidity Ratio
    ,                         !- Design Specification Outdoor Air Object Name
    ,                         !- Zone Heating Sizing Factor
    ,                         !- Zone Cooling Sizing Factor
    DesignDay,                !- Cooling Design Air Flow Method
    0,                        !- Cooling Design Air Flow Rate
    0.000762,                 !- Cooling Minimum Air Flow per Zone Floor Area
    0,                        !- Cooling Minimum Air Flow
    0.2,                      !- Cooling Minimum Air Flow Fraction
    DesignDay,                !- Heating Design Air Flow Method
    0,                        !- Heating Design Air Flow Rate
    0.002032,                 !- Heating Maximum Air Flow per Zone Floor Area
    0.1415762,                !- Heating Maximum Air Flow
    0.3,                      !- Heating Maximum Air Flow Fraction
    ,                         !- Design Specification Zone Air Distribution Object Name
    No,                       !- Account for Dedicated Outdoor Air System
    NeutralSupplyAir,         !- Dedicated Outdoor Air System Control Strategy
    autosize,                 !- Dedicated Outdoor Air Low Setpoint Temperature for Design
    autosize,                 !- Dedicated Outdoor Air High Setpoint Temperature for Design
    Sensible Load Only No Latent Load,    !- Zone Load Sizing Method
    HumidityRatioDifference,    !- Zone Latent Cooling Design Supply Air Humidity Ratio Input Method
    ,                         !- Zone Dehumidification Design Supply Air Humidity Ratio
    0.005,                    !- Zone Cooling Design Supply Air Humidity Ratio Difference
    HumidityRatioDifference,    !- Zone Latent Heating Design Supply Air Humidity Ratio Input Method
    ,                         !- Zone Humidification Design Supply Air Humidity Ratio
    0.005;                    !- Zone Humidification Design Supply Air Humidity Ratio Difference

OUTPUT:VARIABLE,
    *,                        !- Key Value
    Zone Ideal Loads Zone Total Heating Energy,    !- Variable Name
    Hourly;                   !- Reporting Frequency

OUTPUT:SQLITE,
    SimpleAndTabular,         !- Option Type
    UseOutputControlTableStyle;    !- Unit Conversion for Tabular Data