!- Windows Line endings 

Version,
    23.1;                     !- Version Identifier

SimulationControl,
    Yes,                      !- Do Zone Sizing Calculation
    Yes,                      !- Do System Sizing Calculation
    Yes,                      !- Do Plant Sizing Calculation
    No,                       !- Run Simulation for Sizing Periods
    Yes,                      !- Run Simulation for Weather File Run Periods
    No,                       !- Do HVAC Sizing Simulation for Sizing Periods
    1;                        !- Maximum Number of HVAC Sizing Simulation Passes

Building,
    EU S2 Campaign,           !- Name
    0,                        !- North Axis
    City,                     !- Terrain
    ,                         !- Loads Convergence Tolerance Value
    ,                         !- Temperature Convergence Tolerance Value
    FullExterior,             !- Solar Distribution
    ,                         !- Maximum Number of Warmup Days
    ;                         !- Minimum Number of Warmup Days

ShadowCalculation,
    PolygonClipping,          !- Shading Calculation Method
    Periodic,                 !- Shading Calculation Update Frequency Method
    1;                        !- Shading Calculation Update Frequency

HeatBalanceAlgorithm,
    ConductionTransferFunction,    !- Algorithm
    200,                      !- Surface Temperature Upper Limit
    0.1,                      !- Minimum Surface Convection Heat Transfer Coefficient Value
    10000000;                 !- Maximum Surface Convection Heat Transfer Coefficient Value

Timestep,
    12;                       !- Number of Timesteps per Hour

Site:Location,
    Bologna,                  !- Name
    44.5,                     !- Latitude
    11.25,                    !- Longitude
    1,                        !- Time Zone
    37;                       !- Elevation

SizingPeriod:WeatherFileDays,
    AnnualSizingPeriod,       !- Name
    1,                        !- Begin Month
    1,                        !- Begin Day of Month
    12,                       !- End Month
    31,                       !- End Day of Month
    Monday,                   !- Day of Week for Start Day
    No,                       !- Use Weather File Daylight Saving Period
    No;                       !- Use Weather File Rain and Snow Indicators

RunPeriod,
    RunPeriod1,               !- Name
    1,                        !- Begin Month
    1,                        !- Begin Day of Month
    ,                         !- Begin Year
    12,                       !- End Month
    31,                       !- End Day of Month
    ,                         !- End Year
    Sunday,                   !- Day of Week for Start Day
    No,                       !- Use Weather File Holidays and Special Days
    No,                       !- Use Weather File Daylight Saving Period
    No,                       !- Apply Weekend Holiday Rule
    Yes,                      !- Use Weather File Rain Indicators
    Yes;                      !- Use Weather File Snow Indicators

ScheduleTypeLimits,
    Any Number;               !- Name

SCHEDULETYPELIMITS,
    EU_Step8_AnyNumber_Wm2,    !- Name
    ,                         !- Lower Limit Value
    ,                         !- Upper Limit Value
    Continuous,               !- Numeric Type
    Dimensionless;            !- Unit Type

SCHEDULE:CONSTANT,
    EU_AlwaysOn,              !- Name
    ,                         !- Schedule Type Limits Name
    1;                        !- Hourly Value

SCHEDULE:CONSTANT,
    EU_CoolingOff,            !- Name
    ,                         !- Schedule Type Limits Name
    0;                        !- Hourly Value

SCHEDULE:FILE,
    EU_Step8_GainSchedule_5d954f8efaea8687_F0_whole_f000,    !- Name
    EU_Step8_AnyNumber_Wm2,    !- Schedule Type Limits Name
    ../../schedules/5d954f8efaea8687/5d954f8efaea8687_F0_whole_f000_gain.csv,    !- File Name
    1,                        !- Column Number
    0,                        !- Rows to Skip at Top
    8760,                     !- Number of Hours of Data
    Comma,                    !- Column Separator
    No,                       !- Interpolate to Timestep
    60,                       !- Minutes per Item
    Yes;                      !- Adjust Schedule for Daylight Savings

MATERIAL,
    EU_InternalMass_Material,    !- Name
    MediumRough,              !- Roughness
    0.1,                      !- Thickness
    1,                        !- Conductivity
    1800,                     !- Density
    900,                      !- Specific Heat
    0.9,                      !- Thermal Absorptance
    0.7,                      !- Solar Absorptance
    0.7;                      !- Visible Absorptance

MATERIAL:NOMASS,
    EU_wall_NoMass,           !- Name
    MediumRough,              !- Roughness
    0.7530120481927709,       !- Thermal Resistance
    0.9,                      !- Thermal Absorptance
    0.7,                      !- Solar Absorptance
    0.7;                      !- Visible Absorptance

MATERIAL:NOMASS,
    EU_roof_NoMass,           !- Name
    MediumRough,              !- Roughness
    0.6756756756756754,       !- Thermal Resistance
    0.9,                      !- Thermal Absorptance
    0.7,                      !- Solar Absorptance
    0.7;                      !- Visible Absorptance

MATERIAL:NOMASS,
    EU_floor_NoMass,          !- Name
    MediumRough,              !- Roughness
    0.6097560975609756,       !- Thermal Resistance
    0.9,                      !- Thermal Absorptance
    0.7,                      !- Solar Absorptance
    0.7;                      !- Visible Absorptance

CONSTRUCTION,
    EU_wall_Construction,     !- Name
    EU_wall_NoMass;           !- Outside Layer

CONSTRUCTION,
    EU_roof_Construction,     !- Name
    EU_roof_NoMass;           !- Outside Layer

CONSTRUCTION,
    EU_floor_Construction,    !- Name
    EU_floor_NoMass;          !- Outside Layer

CONSTRUCTION,
    EU_InternalMass_Construction,    !- Name
    EU_InternalMass_Material;    !- Outside Layer

GlobalGeometryRules,
    UpperLeftCorner,          !- Starting Vertex Position
    CounterClockWise,         !- Vertex Entry Direction
    World;                    !- Coordinate System

ZONE,
    5d954f8efaea8687_F0_whole,    !- Name
    0,                        !- Direction of Relative North
    0,                        !- X Origin
    0,                        !- Y Origin
    0,                        !- Z Origin
    1,                        !- Type
    1,                        !- Multiplier
    autocalculate,            !- Ceiling Height
    1122.45263671875,         !- Volume
    autocalculate,            !- Floor Area
    ,                         !- Zone Inside Convection Algorithm
    ,                         !- Zone Outside Convection Algorithm
    Yes;                      !- Part of Total Floor Area

BUILDINGSURFACE:DETAILED,
    Block 5d954f8efaea8687_whole Storey 0 Wall 0001,    !- Name
    wall,                     !- Surface Type
    EU_wall_Construction,     !- Construction Name
    5d954f8efaea8687_F0_whole,    !- Zone Name
    ,                         !- Space Name
    outdoors,                 !- Outside Boundary Condition
    ,                         !- Outside Boundary Condition Object
    SunExposed,               !- Sun Exposure
    WindExposed,              !- Wind Exposure
    autocalculate,            !- View Factor to Ground
    autocalculate,            !- Number of Vertices
    686221.47,                !- Vertex 1 Xcoordinate
    4928861.04,               !- Vertex 1 Ycoordinate
    6,                        !- Vertex 1 Zcoordinate
    686221.47,                !- Vertex 2 Xcoordinate
    4928861.04,               !- Vertex 2 Ycoordinate
    0,                        !- Vertex 2 Zcoordinate
    686220.71,                !- Vertex 3 Xcoordinate
    4928860.68,               !- Vertex 3 Ycoordinate
    0,                        !- Vertex 3 Zcoordinate
    686220.71,                !- Vertex 4 Xcoordinate
    4928860.68,               !- Vertex 4 Ycoordinate
    6;                        !- Vertex 4 Zcoordinate

BUILDINGSURFACE:DETAILED,
    Block 5d954f8efaea8687_whole Storey 0 Wall 0002,    !- Name
    wall,                     !- Surface Type
    EU_wall_Construction,     !- Construction Name
    5d954f8efaea8687_F0_whole,    !- Zone Name
    ,                         !- Space Name
    outdoors,                 !- Outside Boundary Condition
    ,                         !- Outside Boundary Condition Object
    SunExposed,               !- Sun Exposure
    WindExposed,              !- Wind Exposure
    autocalculate,            !- View Factor to Ground
    autocalculate,            !- Number of Vertices
    686220.71,                !- Vertex 1 Xcoordinate
    4928860.68,               !- Vertex 1 Ycoordinate
    6,                        !- Vertex 1 Zcoordinate
    686220.71,                !- Vertex 2 Xcoordinate
    4928860.68,               !- Vertex 2 Ycoordinate
    0,                        !- Vertex 2 Zcoordinate
    686217.39,                !- Vertex 3 Xcoordinate
    4928867.8,                !- Vertex 3 Ycoordinate
    0,                        !- Vertex 3 Zcoordinate
    686217.39,                !- Vertex 4 Xcoordinate
    4928867.8,                !- Vertex 4 Ycoordinate
    6;                        !- Vertex 4 Zcoordinate

BUILDINGSURFACE:DETAILED,
    Block 5d954f8efaea8687_whole Storey 0 Wall 0003,    !- Name
    wall,                     !- Surface Type
    EU_wall_Construction,     !- Construction Name
    5d954f8efaea8687_F0_whole,    !- Zone Name
    ,                         !- Space Name
    outdoors,                 !- Outside Boundary Condition
    ,                         !- Outside Boundary Condition Object
    SunExposed,               !- Sun Exposure
    WindExposed,              !- Wind Exposure
    autocalculate,            !- View Factor to Ground
    autocalculate,            !- Number of Vertices
    686217.39,                !- Vertex 1 Xcoordinate
    4928867.8,                !- Vertex 1 Ycoordinate
    6,                        !- Vertex 1 Zcoordinate
    686217.39,                !- Vertex 2 Xcoordinate
    4928867.8,                !- Vertex 2 Ycoordinate
    0,                        !- Vertex 2 Zcoordinate
    686218.44,                !- Vertex 3 Xcoordinate
    4928868.28,               !- Vertex 3 Ycoordinate
    0,                        !- Vertex 3 Zcoordinate
    686218.44,                !- Vertex 4 Xcoordinate
    4928868.28,               !- Vertex 4 Ycoordinate
    6;                        !- Vertex 4 Zcoordinate

BUILDINGSURFACE:DETAILED,
    Block 5d954f8efaea8687_whole Storey 0 Wall 0004,    !- Name
    wall,                     !- Surface Type
    EU_wall_Construction,     !- Construction Name
    5d954f8efaea8687_F0_whole,    !- Zone Name
    ,                         !- Space Name
    outdoors,                 !- Outside Boundary Condition
    ,                         !- Outside Boundary Condition Object
    SunExposed,               !- Sun Exposure
    WindExposed,              !- Wind Exposure
    autocalculate,            !- View Factor to Ground
    autocalculate,            !- Number of Vertices
    686218.44,                !- Vertex 1 Xcoordinate
    4928868.28,               !- Vertex 1 Ycoordinate
    6,                        !- Vertex 1 Zcoordinate
    686218.44,                !- Vertex 2 Xcoordinate
    4928868.28,               !- Vertex 2 Ycoordinate
    0,                        !- Vertex 2 Zcoordinate
    686214.66,                !- Vertex 3 Xcoordinate
    4928876.4,                !- Vertex 3 Ycoordinate
    0,                        !- Vertex 3 Zcoordinate
    686214.66,                !- Vertex 4 Xcoordinate
    4928876.4,                !- Vertex 4 Ycoordinate
    6;                        !- Vertex 4 Zcoordinate

BUILDINGSURFACE:DETAILED,
    Block 5d954f8efaea8687_whole Storey 0 Wall 0005,    !- Name
    wall,                     !- Surface Type
    EU_wall_Construction,     !- Construction Name
    5d954f8efaea8687_F0_whole,    !- Zone Name
    ,                         !- Space Name
    outdoors,                 !- Outside Boundary Condition
    ,                         !- Outside Boundary Condition Object
    SunExposed,               !- Sun Exposure
    WindExposed,              !- Wind Exposure
    autocalculate,            !- View Factor to Ground
    autocalculate,            !- Number of Vertices
    686214.66,                !- Vertex 1 Xcoordinate
    4928876.4,                !- Vertex 1 Ycoordinate
    6,                        !- Vertex 1 Zcoordinate
    686214.66,                !- Vertex 2 Xcoordinate
    4928876.4,                !- Vertex 2 Ycoordinate
    0,                        !- Vertex 2 Zcoordinate
    686220.75,                !- Vertex 3 Xcoordinate
    4928879.23,               !- Vertex 3 Ycoordinate
    0,                        !- Vertex 3 Zcoordinate
    686220.75,                !- Vertex 4 Xcoordinate
    4928879.23,               !- Vertex 4 Ycoordinate
    6;                        !- Vertex 4 Zcoordinate

BUILDINGSURFACE:DETAILED,
    Block 5d954f8efaea8687_whole Storey 0 Wall 0006,    !- Name
    wall,                     !- Surface Type
    EU_wall_Construction,     !- Construction Name
    5d954f8efaea8687_F0_whole,    !- Zone Name
    ,                         !- Space Name
    outdoors,                 !- Outside Boundary Condition
    ,                         !- Outside Boundary Condition Object
    SunExposed,               !- Sun Exposure
    WindExposed,              !- Wind Exposure
    autocalculate,            !- View Factor to Ground
    autocalculate,            !- Number of Vertices
    686220.75,                !- Vertex 1 Xcoordinate
    4928879.23,               !- Vertex 1 Ycoordinate
    6,                        !- Vertex 1 Zcoordinate
    686220.75,                !- Vertex 2 Xcoordinate
    4928879.23,               !- Vertex 2 Ycoordinate
    0,                        !- Vertex 2 Zcoordinate
    686224.6,                 !- Vertex 3 Xcoordinate
    4928870.96,               !- Vertex 3 Ycoordinate
    0,                        !- Vertex 3 Zcoordinate
    686224.6,                 !- Vertex 4 Xcoordinate
    4928870.96,               !- Vertex 4 Ycoordinate
    6;                        !- Vertex 4 Zcoordinate

BUILDINGSURFACE:DETAILED,
    Block 5d954f8efaea8687_whole Storey 0 Wall 0007,    !- Name
    wall,                     !- Surface Type
    EU_wall_Construction,     !- Construction Name
    5d954f8efaea8687_F0_whole,    !- Zone Name
    ,                         !- Space Name
    outdoors,                 !- Outside Boundary Condition
    ,                         !- Outside Boundary Condition Object
    SunExposed,               !- Sun Exposure
    WindExposed,              !- Wind Exposure
    autocalculate,            !- View Factor to Ground
    autocalculate,            !- Number of Vertices
    686224.6,                 !- Vertex 1 Xcoordinate
    4928870.96,               !- Vertex 1 Ycoordinate
    6,                        !- Vertex 1 Zcoordinate
    686224.6,                 !- Vertex 2 Xcoordinate
    4928870.96,               !- Vertex 2 Ycoordinate
    0,                        !- Vertex 2 Zcoordinate
    686225.27,                !- Vertex 3 Xcoordinate
    4928871.27,               !- Vertex 3 Ycoordinate
    0,                        !- Vertex 3 Zcoordinate
    686225.27,                !- Vertex 4 Xcoordinate
    4928871.27,               !- Vertex 4 Ycoordinate
    6;                        !- Vertex 4 Zcoordinate

BUILDINGSURFACE:DETAILED,
    Block 5d954f8efaea8687_whole Storey 0 Wall 0008,    !- Name
    wall,                     !- Surface Type
    EU_wall_Construction,     !- Construction Name
    5d954f8efaea8687_F0_whole,    !- Zone Name
    ,                         !- Space Name
    outdoors,                 !- Outside Boundary Condition
    ,                         !- Outside Boundary Condition Object
    SunExposed,               !- Sun Exposure
    WindExposed,              !- Wind Exposure
    autocalculate,            !- View Factor to Ground
    autocalculate,            !- Number of Vertices
    686225.27,                !- Vertex 1 Xcoordinate
    4928871.27,               !- Vertex 1 Ycoordinate
    6,                        !- Vertex 1 Zcoordinate
    686225.27,                !- Vertex 2 Xcoordinate
    4928871.27,               !- Vertex 2 Ycoordinate
    0,                        !- Vertex 2 Zcoordinate
    686228.51,                !- Vertex 3 Xcoordinate
    4928864.32,               !- Vertex 3 Ycoordinate
    0,                        !- Vertex 3 Zcoordinate
    686228.51,                !- Vertex 4 Xcoordinate
    4928864.32,               !- Vertex 4 Ycoordinate
    6;                        !- Vertex 4 Zcoordinate

BUILDINGSURFACE:DETAILED,
    Block 5d954f8efaea8687_whole Storey 0 Wall 0009,    !- Name
    wall,                     !- Surface Type
    EU_wall_Construction,     !- Construction Name
    5d954f8efaea8687_F0_whole,    !- Zone Name
    ,                         !- Space Name
    outdoors,                 !- Outside Boundary Condition
    ,                         !- Outside Boundary Condition Object
    SunExposed,               !- Sun Exposure
    WindExposed,              !- Wind Exposure
    autocalculate,            !- View Factor to Ground
    autocalculate,            !- Number of Vertices
    686228.51,                !- Vertex 1 Xcoordinate
    4928864.32,               !- Vertex 1 Ycoordinate
    6,                        !- Vertex 1 Zcoordinate
    686228.51,                !- Vertex 2 Xcoordinate
    4928864.32,               !- Vertex 2 Ycoordinate
    0,                        !- Vertex 2 Zcoordinate
    686227.36,                !- Vertex 3 Xcoordinate
    4928863.78,               !- Vertex 3 Ycoordinate
    0,                        !- Vertex 3 Zcoordinate
    686227.36,                !- Vertex 4 Xcoordinate
    4928863.78,               !- Vertex 4 Ycoordinate
    6;                        !- Vertex 4 Zcoordinate

BUILDINGSURFACE:DETAILED,
    Block 5d954f8efaea8687_whole Storey 0 Wall 0010,    !- Name
    wall,                     !- Surface Type
    EU_wall_Construction,     !- Construction Name
    5d954f8efaea8687_F0_whole,    !- Zone Name
    ,                         !- Space Name
    outdoors,                 !- Outside Boundary Condition
    ,                         !- Outside Boundary Condition Object
    SunExposed,               !- Sun Exposure
    WindExposed,              !- Wind Exposure
    autocalculate,            !- View Factor to Ground
    autocalculate,            !- Number of Vertices
    686227.36,                !- Vertex 1 Xcoordinate
    4928863.78,               !- Vertex 1 Ycoordinate
    6,                        !- Vertex 1 Zcoordinate
    686227.36,                !- Vertex 2 Xcoordinate
    4928863.78,               !- Vertex 2 Ycoordinate
    0,                        !- Vertex 2 Zcoordinate
    686231.22,                !- Vertex 3 Xcoordinate
    4928855.47,               !- Vertex 3 Ycoordinate
    0,                        !- Vertex 3 Zcoordinate
    686231.22,                !- Vertex 4 Xcoordinate
    4928855.47,               !- Vertex 4 Ycoordinate
    6;                        !- Vertex 4 Zcoordinate

BUILDINGSURFACE:DETAILED,
    Block 5d954f8efaea8687_whole Storey 0 Wall 0011,    !- Name
    wall,                     !- Surface Type
    EU_wall_Construction,     !- Construction Name
    5d954f8efaea8687_F0_whole,    !- Zone Name
    ,                         !- Space Name
    outdoors,                 !- Outside Boundary Condition
    ,                         !- Outside Boundary Condition Object
    SunExposed,               !- Sun Exposure
    WindExposed,              !- Wind Exposure
    autocalculate,            !- View Factor to Ground
    autocalculate,            !- Number of Vertices
    686231.22,                !- Vertex 1 Xcoordinate
    4928855.47,               !- Vertex 1 Ycoordinate
    6,                        !- Vertex 1 Zcoordinate
    686231.22,                !- Vertex 2 Xcoordinate
    4928855.47,               !- Vertex 2 Ycoordinate
    0,                        !- Vertex 2 Zcoordinate
    686225.32,                !- Vertex 3 Xcoordinate
    4928852.73,               !- Vertex 3 Ycoordinate
    0,                        !- Vertex 3 Zcoordinate
    686225.32,                !- Vertex 4 Xcoordinate
    4928852.73,               !- Vertex 4 Ycoordinate
    6;                        !- Vertex 4 Zcoordinate

BUILDINGSURFACE:DETAILED,
    Block 5d954f8efaea8687_whole Storey 0 Wall 0012,    !- Name
    wall,                     !- Surface Type
    EU_wall_Construction,     !- Construction Name
    5d954f8efaea8687_F0_whole,    !- Zone Name
    ,                         !- Space Name
    outdoors,                 !- Outside Boundary Condition
    ,                         !- Outside Boundary Condition Object
    SunExposed,               !- Sun Exposure
    WindExposed,              !- Wind Exposure
    autocalculate,            !- View Factor to Ground
    autocalculate,            !- Number of Vertices
    686225.32,                !- Vertex 1 Xcoordinate
    4928852.73,               !- Vertex 1 Ycoordinate
    6,                        !- Vertex 1 Zcoordinate
    686225.32,                !- Vertex 2 Xcoordinate
    4928852.73,               !- Vertex 2 Ycoordinate
    0,                        !- Vertex 2 Zcoordinate
    686221.47,                !- Vertex 3 Xcoordinate
    4928861.04,               !- Vertex 3 Ycoordinate
    0,                        !- Vertex 3 Zcoordinate
    686221.47,                !- Vertex 4 Xcoordinate
    4928861.04,               !- Vertex 4 Ycoordinate
    6;                        !- Vertex 4 Zcoordinate

BUILDINGSURFACE:DETAILED,
    Block 5d954f8efaea8687_whole Storey 0 Floor 0001,    !- Name
    floor,                    !- Surface Type
    EU_floor_Construction,    !- Construction Name
    5d954f8efaea8687_F0_whole,    !- Zone Name
    ,                         !- Space Name
    ground,                   !- Outside Boundary Condition
    ,                         !- Outside Boundary Condition Object
    NoSun,                    !- Sun Exposure
    NoWind,                   !- Wind Exposure
    autocalculate,            !- View Factor to Ground
    autocalculate,            !- Number of Vertices
    686231.22,                !- Vertex 1 Xcoordinate
    4928855.47,               !- Vertex 1 Ycoordinate
    0,                        !- Vertex 1 Zcoordinate
    686227.36,                !- Vertex 2 Xcoordinate
    4928863.78,               !- Vertex 2 Ycoordinate
    0,                        !- Vertex 2 Zcoordinate
    686228.51,                !- Vertex 3 Xcoordinate
    4928864.32,               !- Vertex 3 Ycoordinate
    0,                        !- Vertex 3 Zcoordinate
    686225.27,                !- Vertex 4 Xcoordinate
    4928871.27,               !- Vertex 4 Ycoordinate
    0,                        !- Vertex 4 Zcoordinate
    686224.6,                 !- Vertex 5 Xcoordinate
    4928870.96,               !- Vertex 5 Ycoordinate
    0,                        !- Vertex 5 Zcoordinate
    686220.75,                !- Vertex 6 Xcoordinate
    4928879.23,               !- Vertex 6 Ycoordinate
    0,                        !- Vertex 6 Zcoordinate
    686214.66,                !- Vertex 7 Xcoordinate
    4928876.4,                !- Vertex 7 Ycoordinate
    0,                        !- Vertex 7 Zcoordinate
    686218.44,                !- Vertex 8 Xcoordinate
    4928868.28,               !- Vertex 8 Ycoordinate
    0,                        !- Vertex 8 Zcoordinate
    686217.39,                !- Vertex 9 Xcoordinate
    4928867.8,                !- Vertex 9 Ycoordinate
    0,                        !- Vertex 9 Zcoordinate
    686220.71,                !- Vertex 10 Xcoordinate
    4928860.68,               !- Vertex 10 Ycoordinate
    0,                        !- Vertex 10 Zcoordinate
    686221.47,                !- Vertex 11 Xcoordinate
    4928861.04,               !- Vertex 11 Ycoordinate
    0,                        !- Vertex 11 Zcoordinate
    686225.32,                !- Vertex 12 Xcoordinate
    4928852.73,               !- Vertex 12 Ycoordinate
    0;                        !- Vertex 12 Zcoordinate

BUILDINGSURFACE:DETAILED,
    Block 5d954f8efaea8687_whole Storey 0 Roof 0001,    !- Name
    roof,                     !- Surface Type
    EU_roof_Construction,     !- Construction Name
    5d954f8efaea8687_F0_whole,    !- Zone Name
    ,                         !- Space Name
    outdoors,                 !- Outside Boundary Condition
    ,                         !- Outside Boundary Condition Object
    NoSun,                    !- Sun Exposure
    WindExposed,              !- Wind Exposure
    autocalculate,            !- View Factor to Ground
    autocalculate,            !- Number of Vertices
    686225.27,                !- Vertex 1 Xcoordinate
    4928871.27,               !- Vertex 1 Ycoordinate
    6,                        !- Vertex 1 Zcoordinate
    686228.51,                !- Vertex 2 Xcoordinate
    4928864.32,               !- Vertex 2 Ycoordinate
    6,                        !- Vertex 2 Zcoordinate
    686227.36,                !- Vertex 3 Xcoordinate
    4928863.78,               !- Vertex 3 Ycoordinate
    6,                        !- Vertex 3 Zcoordinate
    686231.22,                !- Vertex 4 Xcoordinate
    4928855.47,               !- Vertex 4 Ycoordinate
    6,                        !- Vertex 4 Zcoordinate
    686225.32,                !- Vertex 5 Xcoordinate
    4928852.73,               !- Vertex 5 Ycoordinate
    6,                        !- Vertex 5 Zcoordinate
    686221.47,                !- Vertex 6 Xcoordinate
    4928861.04,               !- Vertex 6 Ycoordinate
    6,                        !- Vertex 6 Zcoordinate
    686220.71,                !- Vertex 7 Xcoordinate
    4928860.68,               !- Vertex 7 Ycoordinate
    6,                        !- Vertex 7 Zcoordinate
    686217.39,                !- Vertex 8 Xcoordinate
    4928867.8,                !- Vertex 8 Ycoordinate
    6,                        !- Vertex 8 Zcoordinate
    686218.44,                !- Vertex 9 Xcoordinate
    4928868.28,               !- Vertex 9 Ycoordinate
    6,                        !- Vertex 9 Zcoordinate
    686214.66,                !- Vertex 10 Xcoordinate
    4928876.4,                !- Vertex 10 Ycoordinate
    6,                        !- Vertex 10 Zcoordinate
    686220.75,                !- Vertex 11 Xcoordinate
    4928879.23,               !- Vertex 11 Ycoordinate
    6,                        !- Vertex 11 Zcoordinate
    686224.6,                 !- Vertex 12 Xcoordinate
    4928870.96,               !- Vertex 12 Ycoordinate
    6;                        !- Vertex 12 Zcoordinate

INTERNALMASS,
    5d954f8efaea8687_F0_whole_EU_InternalMass,    !- Name
    EU_InternalMass_Construction,    !- Construction Name
    5d954f8efaea8687_F0_whole,    !- Zone or ZoneList Name
    ,                         !- Space or SpaceList Name
    187.07610000099913;       !- Surface Area

SHADING:SITE:DETAILED,
    shade_96054_1,            !- Name
    ,                         !- Transmittance Schedule Name
    autocalculate,            !- Number of Vertices
    686192.9675229361,        !- Vertex 1 Xcoordinate
    4928835.499168273,        !- Vertex 1 Ycoordinate
    15,                       !- Vertex 1 Zcoordinate
    686192.9675229361,        !- Vertex 2 Xcoordinate
    4928835.499168273,        !- Vertex 2 Ycoordinate
    0,                        !- Vertex 2 Zcoordinate
    686232.0631258601,        !- Vertex 3 Xcoordinate
    4928853.654546924,        !- Vertex 3 Ycoordinate
    0,                        !- Vertex 3 Zcoordinate
    686232.0631258601,        !- Vertex 4 Xcoordinate
    4928853.654546924,        !- Vertex 4 Ycoordinate
    15;                       !- Vertex 4 Zcoordinate

SHADING:SITE:DETAILED,
    shade_96054_2,            !- Name
    ,                         !- Transmittance Schedule Name
    autocalculate,            !- Number of Vertices
    686232.0631258601,        !- Vertex 1 Xcoordinate
    4928853.654546924,        !- Vertex 1 Ycoordinate
    15,                       !- Vertex 1 Zcoordinate
    686232.0631258601,        !- Vertex 2 Xcoordinate
    4928853.654546924,        !- Vertex 2 Ycoordinate
    0,                        !- Vertex 2 Zcoordinate
    686237.7127572842,        !- Vertex 3 Xcoordinate
    4928841.48868956,         !- Vertex 3 Ycoordinate
    0,                        !- Vertex 3 Zcoordinate
    686237.7127572842,        !- Vertex 4 Xcoordinate
    4928841.48868956,         !- Vertex 4 Ycoordinate
    15;                       !- Vertex 4 Zcoordinate

SHADING:SITE:DETAILED,
    shade_96054_3,            !- Name
    ,                         !- Transmittance Schedule Name
    autocalculate,            !- Number of Vertices
    686237.7127572842,        !- Vertex 1 Xcoordinate
    4928841.48868956,         !- Vertex 1 Ycoordinate
    15,                       !- Vertex 1 Zcoordinate
    686237.7127572842,        !- Vertex 2 Xcoordinate
    4928841.48868956,         !- Vertex 2 Ycoordinate
    0,                        !- Vertex 2 Zcoordinate
    686198.6171543603,        !- Vertex 3 Xcoordinate
    4928823.33331091,         !- Vertex 3 Ycoordinate
    0,                        !- Vertex 3 Zcoordinate
    686198.6171543603,        !- Vertex 4 Xcoordinate
    4928823.33331091,         !- Vertex 4 Ycoordinate
    15;                       !- Vertex 4 Zcoordinate

SHADING:SITE:DETAILED,
    shade_96054_4,            !- Name
    ,                         !- Transmittance Schedule Name
    autocalculate,            !- Number of Vertices
    686198.6171543603,        !- Vertex 1 Xcoordinate
    4928823.33331091,         !- Vertex 1 Ycoordinate
    15,                       !- Vertex 1 Zcoordinate
    686198.6171543603,        !- Vertex 2 Xcoordinate
    4928823.33331091,         !- Vertex 2 Ycoordinate
    0,                        !- Vertex 2 Zcoordinate
    686192.9675229361,        !- Vertex 3 Xcoordinate
    4928835.499168273,        !- Vertex 3 Ycoordinate
    0,                        !- Vertex 3 Zcoordinate
    686192.9675229361,        !- Vertex 4 Xcoordinate
    4928835.499168273,        !- Vertex 4 Ycoordinate
    15;                       !- Vertex 4 Zcoordinate

SHADING:SITE:DETAILED,
    shade_96053_1,            !- Name
    ,                         !- Transmittance Schedule Name
    autocalculate,            !- Number of Vertices
    686206.7575160695,        !- Vertex 1 Xcoordinate
    4928874.933901798,        !- Vertex 1 Ycoordinate
    15,                       !- Vertex 1 Zcoordinate
    686206.7575160695,        !- Vertex 2 Xcoordinate
    4928874.933901798,        !- Vertex 2 Ycoordinate
    0,                        !- Vertex 2 Zcoordinate
    686201.0709984968,        !- Vertex 3 Xcoordinate
    4928887.178119193,        !- Vertex 3 Ycoordinate
    0,                        !- Vertex 3 Zcoordinate
    686201.0709984968,        !- Vertex 4 Xcoordinate
    4928887.178119193,        !- Vertex 4 Ycoordinate
    15;                       !- Vertex 4 Zcoordinate

SHADING:SITE:DETAILED,
    shade_96053_2,            !- Name
    ,                         !- Transmittance Schedule Name
    autocalculate,            !- Number of Vertices
    686201.0709984968,        !- Vertex 1 Xcoordinate
    4928887.178119193,        !- Vertex 1 Ycoordinate
    15,                       !- Vertex 1 Zcoordinate
    686201.0709984968,        !- Vertex 2 Xcoordinate
    4928887.178119193,        !- Vertex 2 Ycoordinate
    0,                        !- Vertex 2 Zcoordinate
    686213.3143971672,        !- Vertex 3 Xcoordinate
    4928892.864311003,        !- Vertex 3 Ycoordinate
    0,                        !- Vertex 3 Zcoordinate
    686213.3143971672,        !- Vertex 4 Xcoordinate
    4928892.864311003,        !- Vertex 4 Ycoordinate
    15;                       !- Vertex 4 Zcoordinate

SHADING:SITE:DETAILED,
    shade_96053_3,            !- Name
    ,                         !- Transmittance Schedule Name
    autocalculate,            !- Number of Vertices
    686213.3143971672,        !- Vertex 1 Xcoordinate
    4928892.864311003,        !- Vertex 1 Ycoordinate
    15,                       !- Vertex 1 Zcoordinate
    686213.3143971672,        !- Vertex 2 Xcoordinate
    4928892.864311003,        !- Vertex 2 Ycoordinate
    0,                        !- Vertex 2 Zcoordinate
    686219.0009984968,        !- Vertex 3 Xcoordinate
    4928880.620119192,        !- Vertex 3 Ycoordinate
    0,                        !- Vertex 3 Zcoordinate
    686219.0009984968,        !- Vertex 4 Xcoordinate
    4928880.620119192,        !- Vertex 4 Ycoordinate
    15;                       !- Vertex 4 Zcoordinate

SHADING:SITE:DETAILED,
    shade_96053_4,            !- Name
    ,                         !- Transmittance Schedule Name
    autocalculate,            !- Number of Vertices
    686219.0009984968,        !- Vertex 1 Xcoordinate
    4928880.620119192,        !- Vertex 1 Ycoordinate
    15,                       !- Vertex 1 Zcoordinate
    686219.0009984968,        !- Vertex 2 Xcoordinate
    4928880.620119192,        !- Vertex 2 Ycoordinate
    0,                        !- Vertex 2 Zcoordinate
    686206.7575160695,        !- Vertex 3 Xcoordinate
    4928874.933901798,        !- Vertex 3 Ycoordinate
    0,                        !- Vertex 3 Zcoordinate
    686206.7575160695,        !- Vertex 4 Xcoordinate
    4928874.933901798,        !- Vertex 4 Ycoordinate
    15;                       !- Vertex 4 Zcoordinate

SHADING:SITE:DETAILED,
    shade_30691_1,            !- Name
    ,                         !- Transmittance Schedule Name
    autocalculate,            !- Number of Vertices
    686236.7518864842,        !- Vertex 1 Xcoordinate
    4928816.266966473,        !- Vertex 1 Ycoordinate
    15,                       !- Vertex 1 Zcoordinate
    686236.7518864842,        !- Vertex 2 Xcoordinate
    4928816.266966473,        !- Vertex 2 Ycoordinate
    0,                        !- Vertex 2 Zcoordinate
    686241.7689984965,        !- Vertex 3 Xcoordinate
    4928846.048119192,        !- Vertex 3 Ycoordinate
    0,                        !- Vertex 3 Zcoordinate
    686241.7689984965,        !- Vertex 4 Xcoordinate
    4928846.048119192,        !- Vertex 4 Ycoordinate
    15;                       !- Vertex 4 Zcoordinate

SHADING:SITE:DETAILED,
    shade_30691_2,            !- Name
    ,                         !- Transmittance Schedule Name
    autocalculate,            !- Number of Vertices
    686241.7689984965,        !- Vertex 1 Xcoordinate
    4928846.048119192,        !- Vertex 1 Ycoordinate
    15,                       !- Vertex 1 Zcoordinate
    686241.7689984965,        !- Vertex 2 Xcoordinate
    4928846.048119192,        !- Vertex 2 Ycoordinate
    0,                        !- Vertex 2 Zcoordinate
    686248.4059985261,        !- Vertex 3 Xcoordinate
    4928844.92973454,         !- Vertex 3 Ycoordinate
    0,                        !- Vertex 3 Zcoordinate
    686248.4059985261,        !- Vertex 4 Xcoordinate
    4928844.92973454,         !- Vertex 4 Ycoordinate
    15;                       !- Vertex 4 Zcoordinate

SHADING:SITE:DETAILED,
    shade_30691_3,            !- Name
    ,                         !- Transmittance Schedule Name
    autocalculate,            !- Number of Vertices
    686248.4059985261,        !- Vertex 1 Xcoordinate
    4928844.92973454,         !- Vertex 1 Ycoordinate
    15,                       !- Vertex 1 Zcoordinate
    686248.4059985261,        !- Vertex 2 Xcoordinate
    4928844.92973454,         !- Vertex 2 Ycoordinate
    0,                        !- Vertex 2 Zcoordinate
    686243.3889984965,        !- Vertex 3 Xcoordinate
    4928815.149119192,        !- Vertex 3 Ycoordinate
    0,                        !- Vertex 3 Zcoordinate
    686243.3889984965,        !- Vertex 4 Xcoordinate
    4928815.149119192,        !- Vertex 4 Ycoordinate
    15;                       !- Vertex 4 Zcoordinate

SHADING:SITE:DETAILED,
    shade_30691_4,            !- Name
    ,                         !- Transmittance Schedule Name
    autocalculate,            !- Number of Vertices
    686243.3889984965,        !- Vertex 1 Xcoordinate
    4928815.149119192,        !- Vertex 1 Ycoordinate
    15,                       !- Vertex 1 Zcoordinate
    686243.3889984965,        !- Vertex 2 Xcoordinate
    4928815.149119192,        !- Vertex 2 Ycoordinate
    0,                        !- Vertex 2 Zcoordinate
    686236.7518864842,        !- Vertex 3 Xcoordinate
    4928816.266966473,        !- Vertex 3 Ycoordinate
    0,                        !- Vertex 3 Zcoordinate
    686236.7518864842,        !- Vertex 4 Xcoordinate
    4928816.266966473,        !- Vertex 4 Ycoordinate
    15;                       !- Vertex 4 Zcoordinate

SHADING:SITE:DETAILED,
    shade_30538_1,            !- Name
    ,                         !- Transmittance Schedule Name
    autocalculate,            !- Number of Vertices
    686262.7900330751,        !- Vertex 1 Xcoordinate
    4928863.190812202,        !- Vertex 1 Ycoordinate
    15,                       !- Vertex 1 Zcoordinate
    686262.7900330751,        !- Vertex 2 Xcoordinate
    4928863.190812202,        !- Vertex 2 Ycoordinate
    0,                        !- Vertex 2 Zcoordinate
    686257.3773570907,        !- Vertex 3 Xcoordinate
    4928846.117256091,        !- Vertex 3 Ycoordinate
    0,                        !- Vertex 3 Zcoordinate
    686257.3773570907,        !- Vertex 4 Xcoordinate
    4928846.117256091,        !- Vertex 4 Ycoordinate
    15;                       !- Vertex 4 Zcoordinate

SHADING:SITE:DETAILED,
    shade_30538_2,            !- Name
    ,                         !- Transmittance Schedule Name
    autocalculate,            !- Number of Vertices
    686257.3773570907,        !- Vertex 1 Xcoordinate
    4928846.117256091,        !- Vertex 1 Ycoordinate
    15,                       !- Vertex 1 Zcoordinate
    686257.3773570907,        !- Vertex 2 Xcoordinate
    4928846.117256091,        !- Vertex 2 Ycoordinate
    0,                        !- Vertex 2 Zcoordinate
    686242.2213404499,        !- Vertex 3 Xcoordinate
    4928850.922031772,        !- Vertex 3 Ycoordinate
    0,                        !- Vertex 3 Zcoordinate
    686242.2213404499,        !- Vertex 4 Xcoordinate
    4928850.922031772,        !- Vertex 4 Ycoordinate
    15;                       !- Vertex 4 Zcoordinate

SHADING:SITE:DETAILED,
    shade_30538_3,            !- Name
    ,                         !- Transmittance Schedule Name
    autocalculate,            !- Number of Vertices
    686242.2213404499,        !- Vertex 1 Xcoordinate
    4928850.922031772,        !- Vertex 1 Ycoordinate
    15,                       !- Vertex 1 Zcoordinate
    686242.2213404499,        !- Vertex 2 Xcoordinate
    4928850.922031772,        !- Vertex 2 Ycoordinate
    0,                        !- Vertex 2 Zcoordinate
    686247.6340164342,        !- Vertex 3 Xcoordinate
    4928867.9955878835,       !- Vertex 3 Ycoordinate
    0,                        !- Vertex 3 Zcoordinate
    686247.6340164342,        !- Vertex 4 Xcoordinate
    4928867.9955878835,       !- Vertex 4 Ycoordinate
    15;                       !- Vertex 4 Zcoordinate

SHADING:SITE:DETAILED,
    shade_30538_4,            !- Name
    ,                         !- Transmittance Schedule Name
    autocalculate,            !- Number of Vertices
    686247.6340164342,        !- Vertex 1 Xcoordinate
    4928867.9955878835,       !- Vertex 1 Ycoordinate
    15,                       !- Vertex 1 Zcoordinate
    686247.6340164342,        !- Vertex 2 Xcoordinate
    4928867.9955878835,       !- Vertex 2 Ycoordinate
    0,                        !- Vertex 2 Zcoordinate
    686262.7900330751,        !- Vertex 3 Xcoordinate
    4928863.190812202,        !- Vertex 3 Ycoordinate
    0,                        !- Vertex 3 Zcoordinate
    686262.7900330751,        !- Vertex 4 Xcoordinate
    4928863.190812202,        !- Vertex 4 Ycoordinate
    15;                       !- Vertex 4 Zcoordinate

OTHEREQUIPMENT,
    EU_Step8_InternalGain_5d954f8efaea8687_F0_whole_f000,    !- Name
    Electricity,              !- Fuel Type
    5d954f8efaea8687_F0_whole,    !- Zone or ZoneList or Space or SpaceList Name
    EU_Step8_GainSchedule_5d954f8efaea8687_F0_whole_f000,    !- Schedule Name
    Watts/Area,               !- Design Level Calculation Method
    ,                         !- Design Level
    1,                        !- Power per Zone Floor Area
    ,                         !- Power per Person
    0,                        !- Fraction Latent
    0,                        !- Fraction Radiant
    0,                        !- Fraction Lost
    0,                        !- Carbon Dioxide Generation Rate
    EU_Step8_InternalGains;    !- EndUse Subcategory

ZONEVENTILATION:DESIGNFLOWRATE,
    EU_ConstantAir_5d954f8efaea8687_F0_whole,    !- Name
    5d954f8efaea8687_F0_whole,    !- Zone or ZoneList or Space or SpaceList Name
    EU_AlwaysOn,              !- Schedule Name
    AirChanges/Hour,          !- Design Flow Rate Calculation Method
    ,                         !- Design Flow Rate
    ,                         !- Flow Rate per Floor Area
    ,                         !- Flow Rate per Person
    0.6400000000000001,       !- Air Changes per Hour
    Natural,                  !- Ventilation Type
    0,                        !- Fan Pressure Rise
    1,                        !- Fan Total Efficiency
    1,                        !- Constant Term Coefficient
    0,                        !- Temperature Term Coefficient
    0,                        !- Velocity Term Coefficient
    0,                        !- Velocity Squared Term Coefficient
    -100,                     !- Minimum Indoor Temperature
    ,                         !- Minimum Indoor Temperature Schedule Name
    100,                      !- Maximum Indoor Temperature
    ,                         !- Maximum Indoor Temperature Schedule Name
    -100,                     !- Delta Temperature
    ,                         !- Delta Temperature Schedule Name
    -100,                     !- Minimum Outdoor Temperature
    ,                         !- Minimum Outdoor Temperature Schedule Name
    100,                      !- Maximum Outdoor Temperature
    ,                         !- Maximum Outdoor Temperature Schedule Name
    40;                       !- Maximum Wind Speed

HVACTEMPLATE:THERMOSTAT,
    EU_HeatOnly_5d954f8efaea8687_F0_whole,    !- Name
    ,                         !- Heating Setpoint Schedule Name
    20,                       !- Constant Heating Setpoint
    ,                         !- Cooling Setpoint Schedule Name
    50;                       !- Constant Cooling Setpoint

HVACTEMPLATE:ZONE:IDEALLOADSAIRSYSTEM,
    5d954f8efaea8687_F0_whole,    !- Zone Name
    EU_HeatOnly_5d954f8efaea8687_F0_whole,    !- Template Thermostat Name
    EU_AlwaysOn,              !- System Availability Schedule Name
    50,                       !- Maximum Heating Supply Air Temperature
    13,                       !- Minimum Cooling Supply Air Temperature
    0.0156,                   !- Maximum Heating Supply Air Humidity Ratio
    0.0077,                   !- Minimum Cooling Supply Air Humidity Ratio
    NoLimit,                  !- Heating Limit
    ,                         !- Maximum Heating Air Flow Rate
    ,                         !- Maximum Sensible Heating Capacity
    NoLimit,                  !- Cooling Limit
    ,                         !- Maximum Cooling Air Flow Rate
    ,                         !- Maximum Total Cooling Capacity
    EU_AlwaysOn,              !- Heating Availability Schedule Name
    EU_CoolingOff,            !- Cooling Availability Schedule Name
    ConstantSensibleHeatRatio,    !- Dehumidification Control Type
    0.7,                      !- Cooling Sensible Heat Ratio
    60,                       !- Dehumidification Setpoint
    None,                     !- Humidification Control Type
    30,                       !- Humidification Setpoint
    None,                     !- Outdoor Air Method
    0.00944,                  !- Outdoor Air Flow Rate per Person
    0.0,                      !- Outdoor Air Flow Rate per Zone Floor Area
    0,                        !- Outdoor Air Flow Rate per Zone
    ,                         !- Design Specification Outdoor Air Object Name
    None,                     !- Demand Controlled Ventilation Type
    NoEconomizer,             !- Outdoor Air Economizer Type
    None,                     !- Heat Recovery Type
    0.70,                     !- Sensible Heat Recovery Effectiveness
    0.65;                     !- Latent Heat Recovery Effectiveness

SIZING:ZONE,
    5d954f8efaea8687_F0_whole,    !- Zone or ZoneList Name
    SupplyAirTemperature,     !- Zone Cooling Design Supply Air Temperature Input Method
    13,                       !- Zone Cooling Design Supply Air Temperature
    ,                         !- Zone Cooling Design Supply Air Temperature Difference
    SupplyAirTemperature,     !- Zone Heating Design Supply Air Temperature Input Method
    50,                       !- Zone Heating Design Supply Air Temperature
    ,                         !- Zone Heating Design Supply Air Temperature Difference
    0.008,                    !- Zone Cooling Design Supply Air Humidity Ratio
    0.008,                    !- Zone Heating Design Supply Air Humidity Ratio
    ,                         !- Design Specification Outdoor Air Object Name
    ,                         !- Zone Heating Sizing Factor
    ,                         !- Zone Cooling Sizing Factor
    DesignDay,                !- Cooling Design Air Flow Method
    0,                        !- Cooling Design Air Flow Rate
    0.000762,                 !- Cooling Minimum Air Flow per Zone Floor Area
    0,                        !- Cooling Minimum Air Flow
    0.2,                      !- Cooling Minimum Air Flow Fraction
    DesignDay,                !- Heating Design Air Flow Method
    0,                        !- Heating Design Air Flow Rate
    0.002032,                 !- Heating Maximum Air Flow per Zone Floor Area
    0.1415762,                !- Heating Maximum Air Flow
    0.3,                      !- Heating Maximum Air Flow Fraction
    ,                         !- Design Specification Zone Air Distribution Object Name
    No,                       !- Account for Dedicated Outdoor Air System
    NeutralSupplyAir,         !- Dedicated Outdoor Air System Control Strategy
    autosize,                 !- Dedicated Outdoor Air Low Setpoint Temperature for Design
    autosize,                 !- Dedicated Outdoor Air High Setpoint Temperature for Design
    Sensible Load Only No Latent Load,    !- Zone Load Sizing Method
    HumidityRatioDifference,    !- Zone Latent Cooling Design Supply Air Humidity Ratio Input Method
    ,                         !- Zone Dehumidification Design Supply Air Humidity Ratio
    0.005,                    !- Zone Cooling Design Supply Air Humidity Ratio Difference
    HumidityRatioDifference,    !- Zone Latent Heating Design Supply Air Humidity Ratio Input Method
    ,                         !- Zone Humidification Design Supply Air Humidity Ratio
    0.005;                    !- Zone Humidification Design Supply Air Humidity Ratio Difference

OUTPUT:VARIABLE,
    *,                        !- Key Value
    Zone Ideal Loads Zone Total Heating Energy,    !- Variable Name
    Hourly;                   !- Reporting Frequency

OUTPUT:SQLITE,
    SimpleAndTabular,         !- Option Type
    UseOutputControlTableStyle;    !- Unit Conversion for Tabular Data