!- Windows Line endings 

Version,
    23.1;                     !- Version Identifier

SimulationControl,
    Yes,                      !- Do Zone Sizing Calculation
    Yes,                      !- Do System Sizing Calculation
    Yes,                      !- Do Plant Sizing Calculation
    No,                       !- Run Simulation for Sizing Periods
    Yes,                      !- Run Simulation for Weather File Run Periods
    No,                       !- Do HVAC Sizing Simulation for Sizing Periods
    1;                        !- Maximum Number of HVAC Sizing Simulation Passes

Building,
    EU S2 Campaign,           !- Name
    0,                        !- North Axis
    City,                     !- Terrain
    ,                         !- Loads Convergence Tolerance Value
    ,                         !- Temperature Convergence Tolerance Value
    FullExterior,             !- Solar Distribution
    ,                         !- Maximum Number of Warmup Days
    ;                         !- Minimum Number of Warmup Days

ShadowCalculation,
    PolygonClipping,          !- Shading Calculation Method
    Periodic,                 !- Shading Calculation Update Frequency Method
    1;                        !- Shading Calculation Update Frequency

HeatBalanceAlgorithm,
    ConductionTransferFunction,    !- Algorithm
    200,                      !- Surface Temperature Upper Limit
    0.1,                      !- Minimum Surface Convection Heat Transfer Coefficient Value
    10000000;                 !- Maximum Surface Convection Heat Transfer Coefficient Value

Timestep,
    12;                       !- Number of Timesteps per Hour

Site:Location,
    Bologna,                  !- Name
    44.5,                     !- Latitude
    11.25,                    !- Longitude
    1,                        !- Time Zone
    37;                       !- Elevation

SizingPeriod:WeatherFileDays,
    AnnualSizingPeriod,       !- Name
    1,                        !- Begin Month
    1,                        !- Begin Day of Month
    12,                       !- End Month
    31,                       !- End Day of Month
    Monday,                   !- Day of Week for Start Day
    No,                       !- Use Weather File Daylight Saving Period
    No;                       !- Use Weather File Rain and Snow Indicators

RunPeriod,
    RunPeriod1,               !- Name
    1,                        !- Begin Month
    1,                        !- Begin Day of Month
    ,                         !- Begin Year
    12,                       !- End Month
    31,                       !- End Day of Month
    ,                         !- End Year
    Sunday,                   !- Day of Week for Start Day
    No,                       !- Use Weather File Holidays and Special Days
    No,                       !- Use Weather File Daylight Saving Period
    No,                       !- Apply Weekend Holiday Rule
    Yes,                      !- Use Weather File Rain Indicators
    Yes;                      !- Use Weather File Snow Indicators

ScheduleTypeLimits,
    Any Number;               !- Name

SCHEDULETYPELIMITS,
    EU_Step8_AnyNumber_Wm2,    !- Name
    ,                         !- Lower Limit Value
    ,                         !- Upper Limit Value
    Continuous,               !- Numeric Type
    Dimensionless;            !- Unit Type

SCHEDULE:CONSTANT,
    EU_AlwaysOn,              !- Name
    ,                         !- Schedule Type Limits Name
    1;                        !- Hourly Value

SCHEDULE:CONSTANT,
    EU_CoolingOff,            !- Name
    ,                         !- Schedule Type Limits Name
    0;                        !- Hourly Value

SCHEDULE:FILE,
    EU_Step8_GainSchedule_9f01e916ca8364c5_F0_whole_f000,    !- Name
    EU_Step8_AnyNumber_Wm2,    !- Schedule Type Limits Name
    ../../schedules/9f01e916ca8364c5/9f01e916ca8364c5_F0_whole_f000_gain.csv,    !- File Name
    1,                        !- Column Number
    0,                        !- Rows to Skip at Top
    8760,                     !- Number of Hours of Data
    Comma,                    !- Column Separator
    No,                       !- Interpolate to Timestep
    60,                       !- Minutes per Item
    Yes;                      !- Adjust Schedule for Daylight Savings

SCHEDULE:FILE,
    EU_Step8_GainSchedule_9f01e916ca8364c5_F1_whole_f000,    !- Name
    EU_Step8_AnyNumber_Wm2,    !- Schedule Type Limits Name
    ../../schedules/9f01e916ca8364c5/9f01e916ca8364c5_F1_whole_f000_gain.csv,    !- File Name
    1,                        !- Column Number
    0,                        !- Rows to Skip at Top
    8760,                     !- Number of Hours of Data
    Comma,                    !- Column Separator
    No,                       !- Interpolate to Timestep
    60,                       !- Minutes per Item
    Yes;                      !- Adjust Schedule for Daylight Savings

SCHEDULE:FILE,
    EU_Step8_GainSchedule_9f01e916ca8364c5_F2_whole_f000,    !- Name
    EU_Step8_AnyNumber_Wm2,    !- Schedule Type Limits Name
    ../../schedules/9f01e916ca8364c5/9f01e916ca8364c5_F2_whole_f000_gain.csv,    !- File Name
    1,                        !- Column Number
    0,                        !- Rows to Skip at Top
    8760,                     !- Number of Hours of Data
    Comma,                    !- Column Separator
    No,                       !- Interpolate to Timestep
    60,                       !- Minutes per Item
    Yes;                      !- Adjust Schedule for Daylight Savings

SCHEDULE:FILE,
    EU_Step8_GainSchedule_9f01e916ca8364c5_F3_whole_f000,    !- Name
    EU_Step8_AnyNumber_Wm2,    !- Schedule Type Limits Name
    ../../schedules/9f01e916ca8364c5/9f01e916ca8364c5_F3_whole_f000_gain.csv,    !- File Name
    1,                        !- Column Number
    0,                        !- Rows to Skip at Top
    8760,                     !- Number of Hours of Data
    Comma,                    !- Column Separator
    No,                       !- Interpolate to Timestep
    60,                       !- Minutes per Item
    Yes;                      !- Adjust Schedule for Daylight Savings

SCHEDULE:FILE,
    EU_Step8_GainSchedule_9f01e916ca8364c5_F4_whole_f000,    !- Name
    EU_Step8_AnyNumber_Wm2,    !- Schedule Type Limits Name
    ../../schedules/9f01e916ca8364c5/9f01e916ca8364c5_F4_whole_f000_gain.csv,    !- File Name
    1,                        !- Column Number
    0,                        !- Rows to Skip at Top
    8760,                     !- Number of Hours of Data
    Comma,                    !- Column Separator
    No,                       !- Interpolate to Timestep
    60,                       !- Minutes per Item
    Yes;                      !- Adjust Schedule for Daylight Savings

MATERIAL,
    EU_InternalMass_Material,    !- Name
    MediumRough,              !- Roughness
    0.1,                      !- Thickness
    1,                        !- Conductivity
    1800,                     !- Density
    900,                      !- Specific Heat
    0.9,                      !- Thermal Absorptance
    0.7,                      !- Solar Absorptance
    0.7;                      !- Visible Absorptance

MATERIAL:NOMASS,
    EU_wall_NoMass,           !- Name
    MediumRough,              !- Roughness
    0.9058281353670552,       !- Thermal Resistance
    0.9,                      !- Thermal Absorptance
    0.7,                      !- Solar Absorptance
    0.7;                      !- Visible Absorptance

MATERIAL:NOMASS,
    EU_roof_NoMass,           !- Name
    MediumRough,              !- Roughness
    3.759304e-01,             !- Thermal Resistance
    0.9,                      !- Thermal Absorptance
    0.7,                      !- Solar Absorptance
    0.7;                      !- Visible Absorptance

MATERIAL:NOMASS,
    EU_floor_NoMass,          !- Name
    MediumRough,              !- Roughness
    0.6711395814079611,       !- Thermal Resistance
    0.9,                      !- Thermal Absorptance
    0.7,                      !- Solar Absorptance
    0.7;                      !- Visible Absorptance

CONSTRUCTION,
    EU_wall_Construction,     !- Name
    EU_wall_NoMass;           !- Outside Layer

CONSTRUCTION,
    EU_roof_Construction,     !- Name
    EU_roof_NoMass;           !- Outside Layer

CONSTRUCTION,
    EU_floor_Construction,    !- Name
    EU_floor_NoMass;          !- Outside Layer

CONSTRUCTION,
    EU_InternalMass_Construction,    !- Name
    EU_InternalMass_Material;    !- Outside Layer

GlobalGeometryRules,
    UpperLeftCorner,          !- Starting Vertex Position
    CounterClockWise,         !- Vertex Entry Direction
    World;                    !- Coordinate System

ZONE,
    9f01e916ca8364c5_F0_whole,    !- Name
    0,                        !- Direction of Relative North
    0,                        !- X Origin
    0,                        !- Y Origin
    0,                        !- Z Origin
    1,                        !- Type
    1,                        !- Multiplier
    autocalculate,            !- Ceiling Height
    900.65185546875,          !- Volume
    autocalculate,            !- Floor Area
    ,                         !- Zone Inside Convection Algorithm
    ,                         !- Zone Outside Convection Algorithm
    Yes;                      !- Part of Total Floor Area

ZONE,
    9f01e916ca8364c5_F1_whole,    !- Name
    0,                        !- Direction of Relative North
    0,                        !- X Origin
    0,                        !- Y Origin
    0,                        !- Z Origin
    1,                        !- Type
    1,                        !- Multiplier
    autocalculate,            !- Ceiling Height
    900.6533203125,           !- Volume
    autocalculate,            !- Floor Area
    ,                         !- Zone Inside Convection Algorithm
    ,                         !- Zone Outside Convection Algorithm
    Yes;                      !- Part of Total Floor Area

ZONE,
    9f01e916ca8364c5_F2_whole,    !- Name
    0,                        !- Direction of Relative North
    0,                        !- X Origin
    0,                        !- Y Origin
    0,                        !- Z Origin
    1,                        !- Type
    1,                        !- Multiplier
    autocalculate,            !- Ceiling Height
    900.6533203125,           !- Volume
    autocalculate,            !- Floor Area
    ,                         !- Zone Inside Convection Algorithm
    ,                         !- Zone Outside Convection Algorithm
    Yes;                      !- Part of Total Floor Area

ZONE,
    9f01e916ca8364c5_F3_whole,    !- Name
    0,                        !- Direction of Relative North
    0,                        !- X Origin
    0,                        !- Y Origin
    0,                        !- Z Origin
    1,                        !- Type
    1,                        !- Multiplier
    autocalculate,            !- Ceiling Height
    900.6533203125,           !- Volume
    autocalculate,            !- Floor Area
    ,                         !- Zone Inside Convection Algorithm
    ,                         !- Zone Outside Convection Algorithm
    Yes;                      !- Part of Total Floor Area

ZONE,
    9f01e916ca8364c5_F4_whole,    !- Name
    0,                        !- Direction of Relative North
    0,                        !- X Origin
    0,                        !- Y Origin
    0,                        !- Z Origin
    1,                        !- Type
    1,                        !- Multiplier
    autocalculate,            !- Ceiling Height
    900.6533203125,           !- Volume
    autocalculate,            !- Floor Area
    ,                         !- Zone Inside Convection Algorithm
    ,                         !- Zone Outside Convection Algorithm
    Yes;                      !- Part of Total Floor Area

BUILDINGSURFACE:DETAILED,
    Block 9f01e916ca8364c5_whole Storey 0 Wall 0001,    !- Name
    wall,                     !- Surface Type
    EU_wall_Construction,     !- Construction Name
    9f01e916ca8364c5_F0_whole,    !- Zone Name
    ,                         !- Space Name
    Adiabatic,                !- Outside Boundary Condition
    ,                         !- Outside Boundary Condition Object
    NoSun,                    !- Sun Exposure
    NoWind,                   !- Wind Exposure
    autocalculate,            !- View Factor to Ground
    autocalculate,            !- Number of Vertices
    687297.398,               !- Vertex 1 Xcoordinate
    4928453.956,              !- Vertex 1 Ycoordinate
    3,                        !- Vertex 1 Zcoordinate
    687297.398,               !- Vertex 2 Xcoordinate
    4928453.956,              !- Vertex 2 Ycoordinate
    0,                        !- Vertex 2 Zcoordinate
    687295.038,               !- Vertex 3 Xcoordinate
    4928451.337,              !- Vertex 3 Ycoordinate
    0,                        !- Vertex 3 Zcoordinate
    687295.038,               !- Vertex 4 Xcoordinate
    4928451.337,              !- Vertex 4 Ycoordinate
    3;                        !- Vertex 4 Zcoordinate

BUILDINGSURFACE:DETAILED,
    Block 9f01e916ca8364c5_whole Storey 0 Wall 0002,    !- Name
    wall,                     !- Surface Type
    EU_wall_Construction,     !- Construction Name
    9f01e916ca8364c5_F0_whole,    !- Zone Name
    ,                         !- Space Name
    Adiabatic,                !- Outside Boundary Condition
    ,                         !- Outside Boundary Condition Object
    NoSun,                    !- Sun Exposure
    NoWind,                   !- Wind Exposure
    autocalculate,            !- View Factor to Ground
    autocalculate,            !- Number of Vertices
    687295.038,               !- Vertex 1 Xcoordinate
    4928451.337,              !- Vertex 1 Ycoordinate
    3,                        !- Vertex 1 Zcoordinate
    687295.038,               !- Vertex 2 Xcoordinate
    4928451.337,              !- Vertex 2 Ycoordinate
    0,                        !- Vertex 2 Zcoordinate
    687294.718,               !- Vertex 3 Xcoordinate
    4928450.937,              !- Vertex 3 Ycoordinate
    0,                        !- Vertex 3 Zcoordinate
    687294.718,               !- Vertex 4 Xcoordinate
    4928450.937,              !- Vertex 4 Ycoordinate
    3;                        !- Vertex 4 Zcoordinate

BUILDINGSURFACE:DETAILED,
    Block 9f01e916ca8364c5_whole Storey 0 Wall 0003,    !- Name
    wall,                     !- Surface Type
    EU_wall_Construction,     !- Construction Name
    9f01e916ca8364c5_F0_whole,    !- Zone Name
    ,                         !- Space Name
    outdoors,                 !- Outside Boundary Condition
    ,                         !- Outside Boundary Condition Object
    SunExposed,               !- Sun Exposure
    WindExposed,              !- Wind Exposure
    autocalculate,            !- View Factor to Ground
    autocalculate,            !- Number of Vertices
    687294.718,               !- Vertex 1 Xcoordinate
    4928450.937,              !- Vertex 1 Ycoordinate
    3,                        !- Vertex 1 Zcoordinate
    687294.718,               !- Vertex 2 Xcoordinate
    4928450.937,              !- Vertex 2 Ycoordinate
    0,                        !- Vertex 2 Zcoordinate
    687287.248,               !- Vertex 3 Xcoordinate
    4928457.887,              !- Vertex 3 Ycoordinate
    0,                        !- Vertex 3 Zcoordinate
    687287.248,               !- Vertex 4 Xcoordinate
    4928457.887,              !- Vertex 4 Ycoordinate
    3;                        !- Vertex 4 Zcoordinate

BUILDINGSURFACE:DETAILED,
    Block 9f01e916ca8364c5_whole Storey 0 Wall 0004,    !- Name
    wall,                     !- Surface Type
    EU_wall_Construction,     !- Construction Name
    9f01e916ca8364c5_F0_whole,    !- Zone Name
    ,                         !- Space Name
    outdoors,                 !- Outside Boundary Condition
    ,                         !- Outside Boundary Condition Object
    SunExposed,               !- Sun Exposure
    WindExposed,              !- Wind Exposure
    autocalculate,            !- View Factor to Ground
    autocalculate,            !- Number of Vertices
    687287.248,               !- Vertex 1 Xcoordinate
    4928457.887,              !- Vertex 1 Ycoordinate
    3,                        !- Vertex 1 Zcoordinate
    687287.248,               !- Vertex 2 Xcoordinate
    4928457.887,              !- Vertex 2 Ycoordinate
    0,                        !- Vertex 2 Zcoordinate
    687276.549,               !- Vertex 3 Xcoordinate
    4928444.047,              !- Vertex 3 Ycoordinate
    0,                        !- Vertex 3 Zcoordinate
    687276.549,               !- Vertex 4 Xcoordinate
    4928444.047,              !- Vertex 4 Ycoordinate
    3;                        !- Vertex 4 Zcoordinate

BUILDINGSURFACE:DETAILED,
    Block 9f01e916ca8364c5_whole Storey 0 Wall 0005,    !- Name
    wall,                     !- Surface Type
    EU_wall_Construction,     !- Construction Name
    9f01e916ca8364c5_F0_whole,    !- Zone Name
    ,                         !- Space Name
    outdoors,                 !- Outside Boundary Condition
    ,                         !- Outside Boundary Condition Object
    SunExposed,               !- Sun Exposure
    WindExposed,              !- Wind Exposure
    autocalculate,            !- View Factor to Ground
    autocalculate,            !- Number of Vertices
    687276.549,               !- Vertex 1 Xcoordinate
    4928444.047,              !- Vertex 1 Ycoordinate
    3,                        !- Vertex 1 Zcoordinate
    687276.549,               !- Vertex 2 Xcoordinate
    4928444.047,              !- Vertex 2 Ycoordinate
    0,                        !- Vertex 2 Zcoordinate
    687272.989,               !- Vertex 3 Xcoordinate
    4928446.687,              !- Vertex 3 Ycoordinate
    0,                        !- Vertex 3 Zcoordinate
    687272.989,               !- Vertex 4 Xcoordinate
    4928446.687,              !- Vertex 4 Ycoordinate
    3;                        !- Vertex 4 Zcoordinate

BUILDINGSURFACE:DETAILED,
    Block 9f01e916ca8364c5_whole Storey 0 Wall 0006,    !- Name
    wall,                     !- Surface Type
    EU_wall_Construction,     !- Construction Name
    9f01e916ca8364c5_F0_whole,    !- Zone Name
    ,                         !- Space Name
    Adiabatic,                !- Outside Boundary Condition
    ,                         !- Outside Boundary Condition Object
    NoSun,                    !- Sun Exposure
    NoWind,                   !- Wind Exposure
    autocalculate,            !- View Factor to Ground
    autocalculate,            !- Number of Vertices
    687272.989,               !- Vertex 1 Xcoordinate
    4928446.687,              !- Vertex 1 Ycoordinate
    3,                        !- Vertex 1 Zcoordinate
    687272.989,               !- Vertex 2 Xcoordinate
    4928446.687,              !- Vertex 2 Ycoordinate
    0,                        !- Vertex 2 Zcoordinate
    687278.439,               !- Vertex 3 Xcoordinate
    4928454.897,              !- Vertex 3 Ycoordinate
    0,                        !- Vertex 3 Zcoordinate
    687278.439,               !- Vertex 4 Xcoordinate
    4928454.897,              !- Vertex 4 Ycoordinate
    3;                        !- Vertex 4 Zcoordinate

BUILDINGSURFACE:DETAILED,
    Block 9f01e916ca8364c5_whole Storey 0 Wall 0007,    !- Name
    wall,                     !- Surface Type
    EU_wall_Construction,     !- Construction Name
    9f01e916ca8364c5_F0_whole,    !- Zone Name
    ,                         !- Space Name
    Adiabatic,                !- Outside Boundary Condition
    ,                         !- Outside Boundary Condition Object
    NoSun,                    !- Sun Exposure
    NoWind,                   !- Wind Exposure
    autocalculate,            !- View Factor to Ground
    autocalculate,            !- Number of Vertices
    687278.439,               !- Vertex 1 Xcoordinate
    4928454.897,              !- Vertex 1 Ycoordinate
    3,                        !- Vertex 1 Zcoordinate
    687278.439,               !- Vertex 2 Xcoordinate
    4928454.897,              !- Vertex 2 Ycoordinate
    0,                        !- Vertex 2 Zcoordinate
    687280.609,               !- Vertex 3 Xcoordinate
    4928457.607,              !- Vertex 3 Ycoordinate
    0,                        !- Vertex 3 Zcoordinate
    687280.609,               !- Vertex 4 Xcoordinate
    4928457.607,              !- Vertex 4 Ycoordinate
    3;                        !- Vertex 4 Zcoordinate

BUILDINGSURFACE:DETAILED,
    Block 9f01e916ca8364c5_whole Storey 0 Wall 0008,    !- Name
    wall,                     !- Surface Type
    EU_wall_Construction,     !- Construction Name
    9f01e916ca8364c5_F0_whole,    !- Zone Name
    ,                         !- Space Name
    Adiabatic,                !- Outside Boundary Condition
    ,                         !- Outside Boundary Condition Object
    NoSun,                    !- Sun Exposure
    NoWind,                   !- Wind Exposure
    autocalculate,            !- View Factor to Ground
    autocalculate,            !- Number of Vertices
    687280.609,               !- Vertex 1 Xcoordinate
    4928457.607,              !- Vertex 1 Ycoordinate
    3,                        !- Vertex 1 Zcoordinate
    687280.609,               !- Vertex 2 Xcoordinate
    4928457.607,              !- Vertex 2 Ycoordinate
    0,                        !- Vertex 2 Zcoordinate
    687289.029,               !- Vertex 3 Xcoordinate
    4928467.186,              !- Vertex 3 Ycoordinate
    0,                        !- Vertex 3 Zcoordinate
    687289.029,               !- Vertex 4 Xcoordinate
    4928467.186,              !- Vertex 4 Ycoordinate
    3;                        !- Vertex 4 Zcoordinate

BUILDINGSURFACE:DETAILED,
    Block 9f01e916ca8364c5_whole Storey 0 Wall 0009,    !- Name
    wall,                     !- Surface Type
    EU_wall_Construction,     !- Construction Name
    9f01e916ca8364c5_F0_whole,    !- Zone Name
    ,                         !- Space Name
    Adiabatic,                !- Outside Boundary Condition
    ,                         !- Outside Boundary Condition Object
    NoSun,                    !- Sun Exposure
    NoWind,                   !- Wind Exposure
    autocalculate,            !- View Factor to Ground
    autocalculate,            !- Number of Vertices
    687289.029,               !- Vertex 1 Xcoordinate
    4928467.186,              !- Vertex 1 Ycoordinate
    3,                        !- Vertex 1 Zcoordinate
    687289.029,               !- Vertex 2 Xcoordinate
    4928467.186,              !- Vertex 2 Ycoordinate
    0,                        !- Vertex 2 Zcoordinate
    687289.709,               !- Vertex 3 Xcoordinate
    4928466.586,              !- Vertex 3 Ycoordinate
    0,                        !- Vertex 3 Zcoordinate
    687289.709,               !- Vertex 4 Xcoordinate
    4928466.586,              !- Vertex 4 Ycoordinate
    3;                        !- Vertex 4 Zcoordinate

BUILDINGSURFACE:DETAILED,
    Block 9f01e916ca8364c5_whole Storey 0 Wall 0010,    !- Name
    wall,                     !- Surface Type
    EU_wall_Construction,     !- Construction Name
    9f01e916ca8364c5_F0_whole,    !- Zone Name
    ,                         !- Space Name
    Adiabatic,                !- Outside Boundary Condition
    ,                         !- Outside Boundary Condition Object
    NoSun,                    !- Sun Exposure
    NoWind,                   !- Wind Exposure
    autocalculate,            !- View Factor to Ground
    autocalculate,            !- Number of Vertices
    687289.709,               !- Vertex 1 Xcoordinate
    4928466.586,              !- Vertex 1 Ycoordinate
    3,                        !- Vertex 1 Zcoordinate
    687289.709,               !- Vertex 2 Xcoordinate
    4928466.586,              !- Vertex 2 Ycoordinate
    0,                        !- Vertex 2 Zcoordinate
    687291.029,               !- Vertex 3 Xcoordinate
    4928468.166,              !- Vertex 3 Ycoordinate
    0,                        !- Vertex 3 Zcoordinate
    687291.029,               !- Vertex 4 Xcoordinate
    4928468.166,              !- Vertex 4 Ycoordinate
    3;                        !- Vertex 4 Zcoordinate

BUILDINGSURFACE:DETAILED,
    Block 9f01e916ca8364c5_whole Storey 0 Wall 0011,    !- Name
    wall,                     !- Surface Type
    EU_wall_Construction,     !- Construction Name
    9f01e916ca8364c5_F0_whole,    !- Zone Name
    ,                         !- Space Name
    outdoors,                 !- Outside Boundary Condition
    ,                         !- Outside Boundary Condition Object
    SunExposed,               !- Sun Exposure
    WindExposed,              !- Wind Exposure
    autocalculate,            !- View Factor to Ground
    autocalculate,            !- Number of Vertices
    687291.029,               !- Vertex 1 Xcoordinate
    4928468.166,              !- Vertex 1 Ycoordinate
    3,                        !- Vertex 1 Zcoordinate
    687291.029,               !- Vertex 2 Xcoordinate
    4928468.166,              !- Vertex 2 Ycoordinate
    0,                        !- Vertex 2 Zcoordinate
    687294.039,               !- Vertex 3 Xcoordinate
    4928471.646,              !- Vertex 3 Ycoordinate
    0,                        !- Vertex 3 Zcoordinate
    687294.039,               !- Vertex 4 Xcoordinate
    4928471.646,              !- Vertex 4 Ycoordinate
    3;                        !- Vertex 4 Zcoordinate

BUILDINGSURFACE:DETAILED,
    Block 9f01e916ca8364c5_whole Storey 0 Wall 0012,    !- Name
    wall,                     !- Surface Type
    EU_wall_Construction,     !- Construction Name
    9f01e916ca8364c5_F0_whole,    !- Zone Name
    ,                         !- Space Name
    outdoors,                 !- Outside Boundary Condition
    ,                         !- Outside Boundary Condition Object
    SunExposed,               !- Sun Exposure
    WindExposed,              !- Wind Exposure
    autocalculate,            !- View Factor to Ground
    autocalculate,            !- Number of Vertices
    687294.039,               !- Vertex 1 Xcoordinate
    4928471.646,              !- Vertex 1 Ycoordinate
    3,                        !- Vertex 1 Zcoordinate
    687294.039,               !- Vertex 2 Xcoordinate
    4928471.646,              !- Vertex 2 Ycoordinate
    0,                        !- Vertex 2 Zcoordinate
    687304.248,               !- Vertex 3 Xcoordinate
    4928461.966,              !- Vertex 3 Ycoordinate
    0,                        !- Vertex 3 Zcoordinate
    687304.248,               !- Vertex 4 Xcoordinate
    4928461.966,              !- Vertex 4 Ycoordinate
    3;                        !- Vertex 4 Zcoordinate

BUILDINGSURFACE:DETAILED,
    Block 9f01e916ca8364c5_whole Storey 0 Wall 0013,    !- Name
    wall,                     !- Surface Type
    EU_wall_Construction,     !- Construction Name
    9f01e916ca8364c5_F0_whole,    !- Zone Name
    ,                         !- Space Name
    Adiabatic,                !- Outside Boundary Condition
    ,                         !- Outside Boundary Condition Object
    NoSun,                    !- Sun Exposure
    NoWind,                   !- Wind Exposure
    autocalculate,            !- View Factor to Ground
    autocalculate,            !- Number of Vertices
    687304.248,               !- Vertex 1 Xcoordinate
    4928461.966,              !- Vertex 1 Ycoordinate
    3,                        !- Vertex 1 Zcoordinate
    687304.248,               !- Vertex 2 Xcoordinate
    4928461.966,              !- Vertex 2 Ycoordinate
    0,                        !- Vertex 2 Zcoordinate
    687297.398,               !- Vertex 3 Xcoordinate
    4928453.956,              !- Vertex 3 Ycoordinate
    0,                        !- Vertex 3 Zcoordinate
    687297.398,               !- Vertex 4 Xcoordinate
    4928453.956,              !- Vertex 4 Ycoordinate
    3;                        !- Vertex 4 Zcoordinate

BUILDINGSURFACE:DETAILED,
    Block 9f01e916ca8364c5_whole Storey 0 Floor 0001,    !- Name
    floor,                    !- Surface Type
    EU_floor_Construction,    !- Construction Name
    9f01e916ca8364c5_F0_whole,    !- Zone Name
    ,                         !- Space Name
    ground,                   !- Outside Boundary Condition
    ,                         !- Outside Boundary Condition Object
    NoSun,                    !- Sun Exposure
    NoWind,                   !- Wind Exposure
    autocalculate,            !- View Factor to Ground
    autocalculate,            !- Number of Vertices
    687295.038,               !- Vertex 1 Xcoordinate
    4928451.337,              !- Vertex 1 Ycoordinate
    0,                        !- Vertex 1 Zcoordinate
    687297.398,               !- Vertex 2 Xcoordinate
    4928453.956,              !- Vertex 2 Ycoordinate
    0,                        !- Vertex 2 Zcoordinate
    687304.248,               !- Vertex 3 Xcoordinate
    4928461.966,              !- Vertex 3 Ycoordinate
    0,                        !- Vertex 3 Zcoordinate
    687294.039,               !- Vertex 4 Xcoordinate
    4928471.646,              !- Vertex 4 Ycoordinate
    0,                        !- Vertex 4 Zcoordinate
    687291.029,               !- Vertex 5 Xcoordinate
    4928468.166,              !- Vertex 5 Ycoordinate
    0,                        !- Vertex 5 Zcoordinate
    687289.709,               !- Vertex 6 Xcoordinate
    4928466.586,              !- Vertex 6 Ycoordinate
    0,                        !- Vertex 6 Zcoordinate
    687289.029,               !- Vertex 7 Xcoordinate
    4928467.186,              !- Vertex 7 Ycoordinate
    0,                        !- Vertex 7 Zcoordinate
    687280.609,               !- Vertex 8 Xcoordinate
    4928457.607,              !- Vertex 8 Ycoordinate
    0,                        !- Vertex 8 Zcoordinate
    687278.439,               !- Vertex 9 Xcoordinate
    4928454.897,              !- Vertex 9 Ycoordinate
    0,                        !- Vertex 9 Zcoordinate
    687272.989,               !- Vertex 10 Xcoordinate
    4928446.687,              !- Vertex 10 Ycoordinate
    0,                        !- Vertex 10 Zcoordinate
    687276.549,               !- Vertex 11 Xcoordinate
    4928444.047,              !- Vertex 11 Ycoordinate
    0,                        !- Vertex 11 Zcoordinate
    687287.248,               !- Vertex 12 Xcoordinate
    4928457.887,              !- Vertex 12 Ycoordinate
    0,                        !- Vertex 12 Zcoordinate
    687294.718,               !- Vertex 13 Xcoordinate
    4928450.937,              !- Vertex 13 Ycoordinate
    0;                        !- Vertex 13 Zcoordinate

BUILDINGSURFACE:DETAILED,
    Block 9f01e916ca8364c5_whole Storey 1 Wall 0001,    !- Name
    wall,                     !- Surface Type
    EU_wall_Construction,     !- Construction Name
    9f01e916ca8364c5_F1_whole,    !- Zone Name
    ,                         !- Space Name
    Adiabatic,                !- Outside Boundary Condition
    ,                         !- Outside Boundary Condition Object
    NoSun,                    !- Sun Exposure
    NoWind,                   !- Wind Exposure
    autocalculate,            !- View Factor to Ground
    autocalculate,            !- Number of Vertices
    687297.398,               !- Vertex 1 Xcoordinate
    4928453.956,              !- Vertex 1 Ycoordinate
    6,                        !- Vertex 1 Zcoordinate
    687297.398,               !- Vertex 2 Xcoordinate
    4928453.956,              !- Vertex 2 Ycoordinate
    3,                        !- Vertex 2 Zcoordinate
    687295.038,               !- Vertex 3 Xcoordinate
    4928451.337,              !- Vertex 3 Ycoordinate
    3,                        !- Vertex 3 Zcoordinate
    687295.038,               !- Vertex 4 Xcoordinate
    4928451.337,              !- Vertex 4 Ycoordinate
    6;                        !- Vertex 4 Zcoordinate

BUILDINGSURFACE:DETAILED,
    Block 9f01e916ca8364c5_whole Storey 1 Wall 0002,    !- Name
    wall,                     !- Surface Type
    EU_wall_Construction,     !- Construction Name
    9f01e916ca8364c5_F1_whole,    !- Zone Name
    ,                         !- Space Name
    Adiabatic,                !- Outside Boundary Condition
    ,                         !- Outside Boundary Condition Object
    NoSun,                    !- Sun Exposure
    NoWind,                   !- Wind Exposure
    autocalculate,            !- View Factor to Ground
    autocalculate,            !- Number of Vertices
    687295.038,               !- Vertex 1 Xcoordinate
    4928451.337,              !- Vertex 1 Ycoordinate
    6,                        !- Vertex 1 Zcoordinate
    687295.038,               !- Vertex 2 Xcoordinate
    4928451.337,              !- Vertex 2 Ycoordinate
    3,                        !- Vertex 2 Zcoordinate
    687294.718,               !- Vertex 3 Xcoordinate
    4928450.937,              !- Vertex 3 Ycoordinate
    3,                        !- Vertex 3 Zcoordinate
    687294.718,               !- Vertex 4 Xcoordinate
    4928450.937,              !- Vertex 4 Ycoordinate
    6;                        !- Vertex 4 Zcoordinate

BUILDINGSURFACE:DETAILED,
    Block 9f01e916ca8364c5_whole Storey 1 Wall 0003,    !- Name
    wall,                     !- Surface Type
    EU_wall_Construction,     !- Construction Name
    9f01e916ca8364c5_F1_whole,    !- Zone Name
    ,                         !- Space Name
    outdoors,                 !- Outside Boundary Condition
    ,                         !- Outside Boundary Condition Object
    SunExposed,               !- Sun Exposure
    WindExposed,              !- Wind Exposure
    autocalculate,            !- View Factor to Ground
    autocalculate,            !- Number of Vertices
    687294.718,               !- Vertex 1 Xcoordinate
    4928450.937,              !- Vertex 1 Ycoordinate
    6,                        !- Vertex 1 Zcoordinate
    687294.718,               !- Vertex 2 Xcoordinate
    4928450.937,              !- Vertex 2 Ycoordinate
    3,                        !- Vertex 2 Zcoordinate
    687287.248,               !- Vertex 3 Xcoordinate
    4928457.887,              !- Vertex 3 Ycoordinate
    3,                        !- Vertex 3 Zcoordinate
    687287.248,               !- Vertex 4 Xcoordinate
    4928457.887,              !- Vertex 4 Ycoordinate
    6;                        !- Vertex 4 Zcoordinate

BUILDINGSURFACE:DETAILED,
    Block 9f01e916ca8364c5_whole Storey 1 Wall 0004,    !- Name
    wall,                     !- Surface Type
    EU_wall_Construction,     !- Construction Name
    9f01e916ca8364c5_F1_whole,    !- Zone Name
    ,                         !- Space Name
    outdoors,                 !- Outside Boundary Condition
    ,                         !- Outside Boundary Condition Object
    SunExposed,               !- Sun Exposure
    WindExposed,              !- Wind Exposure
    autocalculate,            !- View Factor to Ground
    autocalculate,            !- Number of Vertices
    687287.248,               !- Vertex 1 Xcoordinate
    4928457.887,              !- Vertex 1 Ycoordinate
    6,                        !- Vertex 1 Zcoordinate
    687287.248,               !- Vertex 2 Xcoordinate
    4928457.887,              !- Vertex 2 Ycoordinate
    3,                        !- Vertex 2 Zcoordinate
    687276.549,               !- Vertex 3 Xcoordinate
    4928444.047,              !- Vertex 3 Ycoordinate
    3,                        !- Vertex 3 Zcoordinate
    687276.549,               !- Vertex 4 Xcoordinate
    4928444.047,              !- Vertex 4 Ycoordinate
    6;                        !- Vertex 4 Zcoordinate

BUILDINGSURFACE:DETAILED,
    Block 9f01e916ca8364c5_whole Storey 1 Wall 0005,    !- Name
    wall,                     !- Surface Type
    EU_wall_Construction,     !- Construction Name
    9f01e916ca8364c5_F1_whole,    !- Zone Name
    ,                         !- Space Name
    outdoors,                 !- Outside Boundary Condition
    ,                         !- Outside Boundary Condition Object
    SunExposed,               !- Sun Exposure
    WindExposed,              !- Wind Exposure
    autocalculate,            !- View Factor to Ground
    autocalculate,            !- Number of Vertices
    687276.549,               !- Vertex 1 Xcoordinate
    4928444.047,              !- Vertex 1 Ycoordinate
    6,                        !- Vertex 1 Zcoordinate
    687276.549,               !- Vertex 2 Xcoordinate
    4928444.047,              !- Vertex 2 Ycoordinate
    3,                        !- Vertex 2 Zcoordinate
    687272.989,               !- Vertex 3 Xcoordinate
    4928446.687,              !- Vertex 3 Ycoordinate
    3,                        !- Vertex 3 Zcoordinate
    687272.989,               !- Vertex 4 Xcoordinate
    4928446.687,              !- Vertex 4 Ycoordinate
    6;                        !- Vertex 4 Zcoordinate

BUILDINGSURFACE:DETAILED,
    Block 9f01e916ca8364c5_whole Storey 1 Wall 0006,    !- Name
    wall,                     !- Surface Type
    EU_wall_Construction,     !- Construction Name
    9f01e916ca8364c5_F1_whole,    !- Zone Name
    ,                         !- Space Name
    Adiabatic,                !- Outside Boundary Condition
    ,                         !- Outside Boundary Condition Object
    NoSun,                    !- Sun Exposure
    NoWind,                   !- Wind Exposure
    autocalculate,            !- View Factor to Ground
    autocalculate,            !- Number of Vertices
    687272.989,               !- Vertex 1 Xcoordinate
    4928446.687,              !- Vertex 1 Ycoordinate
    6,                        !- Vertex 1 Zcoordinate
    687272.989,               !- Vertex 2 Xcoordinate
    4928446.687,              !- Vertex 2 Ycoordinate
    3,                        !- Vertex 2 Zcoordinate
    687278.439,               !- Vertex 3 Xcoordinate
    4928454.897,              !- Vertex 3 Ycoordinate
    3,                        !- Vertex 3 Zcoordinate
    687278.439,               !- Vertex 4 Xcoordinate
    4928454.897,              !- Vertex 4 Ycoordinate
    6;                        !- Vertex 4 Zcoordinate

BUILDINGSURFACE:DETAILED,
    Block 9f01e916ca8364c5_whole Storey 1 Wall 0007,    !- Name
    wall,                     !- Surface Type
    EU_wall_Construction,     !- Construction Name
    9f01e916ca8364c5_F1_whole,    !- Zone Name
    ,                         !- Space Name
    Adiabatic,                !- Outside Boundary Condition
    ,                         !- Outside Boundary Condition Object
    NoSun,                    !- Sun Exposure
    NoWind,                   !- Wind Exposure
    autocalculate,            !- View Factor to Ground
    autocalculate,            !- Number of Vertices
    687278.439,               !- Vertex 1 Xcoordinate
    4928454.897,              !- Vertex 1 Ycoordinate
    6,                        !- Vertex 1 Zcoordinate
    687278.439,               !- Vertex 2 Xcoordinate
    4928454.897,              !- Vertex 2 Ycoordinate
    3,                        !- Vertex 2 Zcoordinate
    687280.609,               !- Vertex 3 Xcoordinate
    4928457.607,              !- Vertex 3 Ycoordinate
    3,                        !- Vertex 3 Zcoordinate
    687280.609,               !- Vertex 4 Xcoordinate
    4928457.607,              !- Vertex 4 Ycoordinate
    6;                        !- Vertex 4 Zcoordinate

BUILDINGSURFACE:DETAILED,
    Block 9f01e916ca8364c5_whole Storey 1 Wall 0008,    !- Name
    wall,                     !- Surface Type
    EU_wall_Construction,     !- Construction Name
    9f01e916ca8364c5_F1_whole,    !- Zone Name
    ,                         !- Space Name
    Adiabatic,                !- Outside Boundary Condition
    ,                         !- Outside Boundary Condition Object
    NoSun,                    !- Sun Exposure
    NoWind,                   !- Wind Exposure
    autocalculate,            !- View Factor to Ground
    autocalculate,            !- Number of Vertices
    687280.609,               !- Vertex 1 Xcoordinate
    4928457.607,              !- Vertex 1 Ycoordinate
    6,                        !- Vertex 1 Zcoordinate
    687280.609,               !- Vertex 2 Xcoordinate
    4928457.607,              !- Vertex 2 Ycoordinate
    3,                        !- Vertex 2 Zcoordinate
    687289.029,               !- Vertex 3 Xcoordinate
    4928467.186,              !- Vertex 3 Ycoordinate
    3,                        !- Vertex 3 Zcoordinate
    687289.029,               !- Vertex 4 Xcoordinate
    4928467.186,              !- Vertex 4 Ycoordinate
    6;                        !- Vertex 4 Zcoordinate

BUILDINGSURFACE:DETAILED,
    Block 9f01e916ca8364c5_whole Storey 1 Wall 0009,    !- Name
    wall,                     !- Surface Type
    EU_wall_Construction,     !- Construction Name
    9f01e916ca8364c5_F1_whole,    !- Zone Name
    ,                         !- Space Name
    Adiabatic,                !- Outside Boundary Condition
    ,                         !- Outside Boundary Condition Object
    NoSun,                    !- Sun Exposure
    NoWind,                   !- Wind Exposure
    autocalculate,            !- View Factor to Ground
    autocalculate,            !- Number of Vertices
    687289.029,               !- Vertex 1 Xcoordinate
    4928467.186,              !- Vertex 1 Ycoordinate
    6,                        !- Vertex 1 Zcoordinate
    687289.029,               !- Vertex 2 Xcoordinate
    4928467.186,              !- Vertex 2 Ycoordinate
    3,                        !- Vertex 2 Zcoordinate
    687289.709,               !- Vertex 3 Xcoordinate
    4928466.586,              !- Vertex 3 Ycoordinate
    3,                        !- Vertex 3 Zcoordinate
    687289.709,               !- Vertex 4 Xcoordinate
    4928466.586,              !- Vertex 4 Ycoordinate
    6;                        !- Vertex 4 Zcoordinate

BUILDINGSURFACE:DETAILED,
    Block 9f01e916ca8364c5_whole Storey 1 Wall 0010,    !- Name
    wall,                     !- Surface Type
    EU_wall_Construction,     !- Construction Name
    9f01e916ca8364c5_F1_whole,    !- Zone Name
    ,                         !- Space Name
    Adiabatic,                !- Outside Boundary Condition
    ,                         !- Outside Boundary Condition Object
    NoSun,                    !- Sun Exposure
    NoWind,                   !- Wind Exposure
    autocalculate,            !- View Factor to Ground
    autocalculate,            !- Number of Vertices
    687289.709,               !- Vertex 1 Xcoordinate
    4928466.586,              !- Vertex 1 Ycoordinate
    6,                        !- Vertex 1 Zcoordinate
    687289.709,               !- Vertex 2 Xcoordinate
    4928466.586,              !- Vertex 2 Ycoordinate
    3,                        !- Vertex 2 Zcoordinate
    687291.029,               !- Vertex 3 Xcoordinate
    4928468.166,              !- Vertex 3 Ycoordinate
    3,                        !- Vertex 3 Zcoordinate
    687291.029,               !- Vertex 4 Xcoordinate
    4928468.166,              !- Vertex 4 Ycoordinate
    6;                        !- Vertex 4 Zcoordinate

BUILDINGSURFACE:DETAILED,
    Block 9f01e916ca8364c5_whole Storey 1 Wall 0011,    !- Name
    wall,                     !- Surface Type
    EU_wall_Construction,     !- Construction Name
    9f01e916ca8364c5_F1_whole,    !- Zone Name
    ,                         !- Space Name
    outdoors,                 !- Outside Boundary Condition
    ,                         !- Outside Boundary Condition Object
    SunExposed,               !- Sun Exposure
    WindExposed,              !- Wind Exposure
    autocalculate,            !- View Factor to Ground
    autocalculate,            !- Number of Vertices
    687291.029,               !- Vertex 1 Xcoordinate
    4928468.166,              !- Vertex 1 Ycoordinate
    6,                        !- Vertex 1 Zcoordinate
    687291.029,               !- Vertex 2 Xcoordinate
    4928468.166,              !- Vertex 2 Ycoordinate
    3,                        !- Vertex 2 Zcoordinate
    687294.039,               !- Vertex 3 Xcoordinate
    4928471.646,              !- Vertex 3 Ycoordinate
    3,                        !- Vertex 3 Zcoordinate
    687294.039,               !- Vertex 4 Xcoordinate
    4928471.646,              !- Vertex 4 Ycoordinate
    6;                        !- Vertex 4 Zcoordinate

BUILDINGSURFACE:DETAILED,
    Block 9f01e916ca8364c5_whole Storey 1 Wall 0012,    !- Name
    wall,                     !- Surface Type
    EU_wall_Construction,     !- Construction Name
    9f01e916ca8364c5_F1_whole,    !- Zone Name
    ,                         !- Space Name
    outdoors,                 !- Outside Boundary Condition
    ,                         !- Outside Boundary Condition Object
    SunExposed,               !- Sun Exposure
    WindExposed,              !- Wind Exposure
    autocalculate,            !- View Factor to Ground
    autocalculate,            !- Number of Vertices
    687294.039,               !- Vertex 1 Xcoordinate
    4928471.646,              !- Vertex 1 Ycoordinate
    6,                        !- Vertex 1 Zcoordinate
    687294.039,               !- Vertex 2 Xcoordinate
    4928471.646,              !- Vertex 2 Ycoordinate
    3,                        !- Vertex 2 Zcoordinate
    687304.248,               !- Vertex 3 Xcoordinate
    4928461.966,              !- Vertex 3 Ycoordinate
    3,                        !- Vertex 3 Zcoordinate
    687304.248,               !- Vertex 4 Xcoordinate
    4928461.966,              !- Vertex 4 Ycoordinate
    6;                        !- Vertex 4 Zcoordinate

BUILDINGSURFACE:DETAILED,
    Block 9f01e916ca8364c5_whole Storey 1 Wall 0013,    !- Name
    wall,                     !- Surface Type
    EU_wall_Construction,     !- Construction Name
    9f01e916ca8364c5_F1_whole,    !- Zone Name
    ,                         !- Space Name
    Adiabatic,                !- Outside Boundary Condition
    ,                         !- Outside Boundary Condition Object
    NoSun,                    !- Sun Exposure
    NoWind,                   !- Wind Exposure
    autocalculate,            !- View Factor to Ground
    autocalculate,            !- Number of Vertices
    687304.248,               !- Vertex 1 Xcoordinate
    4928461.966,              !- Vertex 1 Ycoordinate
    6,                        !- Vertex 1 Zcoordinate
    687304.248,               !- Vertex 2 Xcoordinate
    4928461.966,              !- Vertex 2 Ycoordinate
    3,                        !- Vertex 2 Zcoordinate
    687297.398,               !- Vertex 3 Xcoordinate
    4928453.956,              !- Vertex 3 Ycoordinate
    3,                        !- Vertex 3 Zcoordinate
    687297.398,               !- Vertex 4 Xcoordinate
    4928453.956,              !- Vertex 4 Ycoordinate
    6;                        !- Vertex 4 Zcoordinate

BUILDINGSURFACE:DETAILED,
    Block 9f01e916ca8364c5_whole Storey 2 Wall 0001,    !- Name
    wall,                     !- Surface Type
    EU_wall_Construction,     !- Construction Name
    9f01e916ca8364c5_F2_whole,    !- Zone Name
    ,                         !- Space Name
    Adiabatic,                !- Outside Boundary Condition
    ,                         !- Outside Boundary Condition Object
    NoSun,                    !- Sun Exposure
    NoWind,                   !- Wind Exposure
    autocalculate,            !- View Factor to Ground
    autocalculate,            !- Number of Vertices
    687297.398,               !- Vertex 1 Xcoordinate
    4928453.956,              !- Vertex 1 Ycoordinate
    9,                        !- Vertex 1 Zcoordinate
    687297.398,               !- Vertex 2 Xcoordinate
    4928453.956,              !- Vertex 2 Ycoordinate
    6,                        !- Vertex 2 Zcoordinate
    687295.038,               !- Vertex 3 Xcoordinate
    4928451.337,              !- Vertex 3 Ycoordinate
    6,                        !- Vertex 3 Zcoordinate
    687295.038,               !- Vertex 4 Xcoordinate
    4928451.337,              !- Vertex 4 Ycoordinate
    9;                        !- Vertex 4 Zcoordinate

BUILDINGSURFACE:DETAILED,
    Block 9f01e916ca8364c5_whole Storey 2 Wall 0002,    !- Name
    wall,                     !- Surface Type
    EU_wall_Construction,     !- Construction Name
    9f01e916ca8364c5_F2_whole,    !- Zone Name
    ,                         !- Space Name
    Adiabatic,                !- Outside Boundary Condition
    ,                         !- Outside Boundary Condition Object
    NoSun,                    !- Sun Exposure
    NoWind,                   !- Wind Exposure
    autocalculate,            !- View Factor to Ground
    autocalculate,            !- Number of Vertices
    687295.038,               !- Vertex 1 Xcoordinate
    4928451.337,              !- Vertex 1 Ycoordinate
    9,                        !- Vertex 1 Zcoordinate
    687295.038,               !- Vertex 2 Xcoordinate
    4928451.337,              !- Vertex 2 Ycoordinate
    6,                        !- Vertex 2 Zcoordinate
    687294.718,               !- Vertex 3 Xcoordinate
    4928450.937,              !- Vertex 3 Ycoordinate
    6,                        !- Vertex 3 Zcoordinate
    687294.718,               !- Vertex 4 Xcoordinate
    4928450.937,              !- Vertex 4 Ycoordinate
    9;                        !- Vertex 4 Zcoordinate

BUILDINGSURFACE:DETAILED,
    Block 9f01e916ca8364c5_whole Storey 2 Wall 0003,    !- Name
    wall,                     !- Surface Type
    EU_wall_Construction,     !- Construction Name
    9f01e916ca8364c5_F2_whole,    !- Zone Name
    ,                         !- Space Name
    outdoors,                 !- Outside Boundary Condition
    ,                         !- Outside Boundary Condition Object
    SunExposed,               !- Sun Exposure
    WindExposed,              !- Wind Exposure
    autocalculate,            !- View Factor to Ground
    autocalculate,            !- Number of Vertices
    687294.718,               !- Vertex 1 Xcoordinate
    4928450.937,              !- Vertex 1 Ycoordinate
    9,                        !- Vertex 1 Zcoordinate
    687294.718,               !- Vertex 2 Xcoordinate
    4928450.937,              !- Vertex 2 Ycoordinate
    6,                        !- Vertex 2 Zcoordinate
    687287.248,               !- Vertex 3 Xcoordinate
    4928457.887,              !- Vertex 3 Ycoordinate
    6,                        !- Vertex 3 Zcoordinate
    687287.248,               !- Vertex 4 Xcoordinate
    4928457.887,              !- Vertex 4 Ycoordinate
    9;                        !- Vertex 4 Zcoordinate

BUILDINGSURFACE:DETAILED,
    Block 9f01e916ca8364c5_whole Storey 2 Wall 0004,    !- Name
    wall,                     !- Surface Type
    EU_wall_Construction,     !- Construction Name
    9f01e916ca8364c5_F2_whole,    !- Zone Name
    ,                         !- Space Name
    outdoors,                 !- Outside Boundary Condition
    ,                         !- Outside Boundary Condition Object
    SunExposed,               !- Sun Exposure
    WindExposed,              !- Wind Exposure
    autocalculate,            !- View Factor to Ground
    autocalculate,            !- Number of Vertices
    687287.248,               !- Vertex 1 Xcoordinate
    4928457.887,              !- Vertex 1 Ycoordinate
    9,                        !- Vertex 1 Zcoordinate
    687287.248,               !- Vertex 2 Xcoordinate
    4928457.887,              !- Vertex 2 Ycoordinate
    6,                        !- Vertex 2 Zcoordinate
    687276.549,               !- Vertex 3 Xcoordinate
    4928444.047,              !- Vertex 3 Ycoordinate
    6,                        !- Vertex 3 Zcoordinate
    687276.549,               !- Vertex 4 Xcoordinate
    4928444.047,              !- Vertex 4 Ycoordinate
    9;                        !- Vertex 4 Zcoordinate

BUILDINGSURFACE:DETAILED,
    Block 9f01e916ca8364c5_whole Storey 2 Wall 0005,    !- Name
    wall,                     !- Surface Type
    EU_wall_Construction,     !- Construction Name
    9f01e916ca8364c5_F2_whole,    !- Zone Name
    ,                         !- Space Name
    outdoors,                 !- Outside Boundary Condition
    ,                         !- Outside Boundary Condition Object
    SunExposed,               !- Sun Exposure
    WindExposed,              !- Wind Exposure
    autocalculate,            !- View Factor to Ground
    autocalculate,            !- Number of Vertices
    687276.549,               !- Vertex 1 Xcoordinate
    4928444.047,              !- Vertex 1 Ycoordinate
    9,                        !- Vertex 1 Zcoordinate
    687276.549,               !- Vertex 2 Xcoordinate
    4928444.047,              !- Vertex 2 Ycoordinate
    6,                        !- Vertex 2 Zcoordinate
    687272.989,               !- Vertex 3 Xcoordinate
    4928446.687,              !- Vertex 3 Ycoordinate
    6,                        !- Vertex 3 Zcoordinate
    687272.989,               !- Vertex 4 Xcoordinate
    4928446.687,              !- Vertex 4 Ycoordinate
    9;                        !- Vertex 4 Zcoordinate

BUILDINGSURFACE:DETAILED,
    Block 9f01e916ca8364c5_whole Storey 2 Wall 0006,    !- Name
    wall,                     !- Surface Type
    EU_wall_Construction,     !- Construction Name
    9f01e916ca8364c5_F2_whole,    !- Zone Name
    ,                         !- Space Name
    Adiabatic,                !- Outside Boundary Condition
    ,                         !- Outside Boundary Condition Object
    NoSun,                    !- Sun Exposure
    NoWind,                   !- Wind Exposure
    autocalculate,            !- View Factor to Ground
    autocalculate,            !- Number of Vertices
    687272.989,               !- Vertex 1 Xcoordinate
    4928446.687,              !- Vertex 1 Ycoordinate
    9,                        !- Vertex 1 Zcoordinate
    687272.989,               !- Vertex 2 Xcoordinate
    4928446.687,              !- Vertex 2 Ycoordinate
    6,                        !- Vertex 2 Zcoordinate
    687278.439,               !- Vertex 3 Xcoordinate
    4928454.897,              !- Vertex 3 Ycoordinate
    6,                        !- Vertex 3 Zcoordinate
    687278.439,               !- Vertex 4 Xcoordinate
    4928454.897,              !- Vertex 4 Ycoordinate
    9;                        !- Vertex 4 Zcoordinate

BUILDINGSURFACE:DETAILED,
    Block 9f01e916ca8364c5_whole Storey 2 Wall 0007,    !- Name
    wall,                     !- Surface Type
    EU_wall_Construction,     !- Construction Name
    9f01e916ca8364c5_F2_whole,    !- Zone Name
    ,                         !- Space Name
    Adiabatic,                !- Outside Boundary Condition
    ,                         !- Outside Boundary Condition Object
    NoSun,                    !- Sun Exposure
    NoWind,                   !- Wind Exposure
    autocalculate,            !- View Factor to Ground
    autocalculate,            !- Number of Vertices
    687278.439,               !- Vertex 1 Xcoordinate
    4928454.897,              !- Vertex 1 Ycoordinate
    9,                        !- Vertex 1 Zcoordinate
    687278.439,               !- Vertex 2 Xcoordinate
    4928454.897,              !- Vertex 2 Ycoordinate
    6,                        !- Vertex 2 Zcoordinate
    687280.609,               !- Vertex 3 Xcoordinate
    4928457.607,              !- Vertex 3 Ycoordinate
    6,                        !- Vertex 3 Zcoordinate
    687280.609,               !- Vertex 4 Xcoordinate
    4928457.607,              !- Vertex 4 Ycoordinate
    9;                        !- Vertex 4 Zcoordinate

BUILDINGSURFACE:DETAILED,
    Block 9f01e916ca8364c5_whole Storey 2 Wall 0008,    !- Name
    wall,                     !- Surface Type
    EU_wall_Construction,     !- Construction Name
    9f01e916ca8364c5_F2_whole,    !- Zone Name
    ,                         !- Space Name
    Adiabatic,                !- Outside Boundary Condition
    ,                         !- Outside Boundary Condition Object
    NoSun,                    !- Sun Exposure
    NoWind,                   !- Wind Exposure
    autocalculate,            !- View Factor to Ground
    autocalculate,            !- Number of Vertices
    687280.609,               !- Vertex 1 Xcoordinate
    4928457.607,              !- Vertex 1 Ycoordinate
    9,                        !- Vertex 1 Zcoordinate
    687280.609,               !- Vertex 2 Xcoordinate
    4928457.607,              !- Vertex 2 Ycoordinate
    6,                        !- Vertex 2 Zcoordinate
    687289.029,               !- Vertex 3 Xcoordinate
    4928467.186,              !- Vertex 3 Ycoordinate
    6,                        !- Vertex 3 Zcoordinate
    687289.029,               !- Vertex 4 Xcoordinate
    4928467.186,              !- Vertex 4 Ycoordinate
    9;                        !- Vertex 4 Zcoordinate

BUILDINGSURFACE:DETAILED,
    Block 9f01e916ca8364c5_whole Storey 2 Wall 0009,    !- Name
    wall,                     !- Surface Type
    EU_wall_Construction,     !- Construction Name
    9f01e916ca8364c5_F2_whole,    !- Zone Name
    ,                         !- Space Name
    Adiabatic,                !- Outside Boundary Condition
    ,                         !- Outside Boundary Condition Object
    NoSun,                    !- Sun Exposure
    NoWind,                   !- Wind Exposure
    autocalculate,            !- View Factor to Ground
    autocalculate,            !- Number of Vertices
    687289.029,               !- Vertex 1 Xcoordinate
    4928467.186,              !- Vertex 1 Ycoordinate
    9,                        !- Vertex 1 Zcoordinate
    687289.029,               !- Vertex 2 Xcoordinate
    4928467.186,              !- Vertex 2 Ycoordinate
    6,                        !- Vertex 2 Zcoordinate
    687289.709,               !- Vertex 3 Xcoordinate
    4928466.586,              !- Vertex 3 Ycoordinate
    6,                        !- Vertex 3 Zcoordinate
    687289.709,               !- Vertex 4 Xcoordinate
    4928466.586,              !- Vertex 4 Ycoordinate
    9;                        !- Vertex 4 Zcoordinate

BUILDINGSURFACE:DETAILED,
    Block 9f01e916ca8364c5_whole Storey 2 Wall 0010,    !- Name
    wall,                     !- Surface Type
    EU_wall_Construction,     !- Construction Name
    9f01e916ca8364c5_F2_whole,    !- Zone Name
    ,                         !- Space Name
    Adiabatic,                !- Outside Boundary Condition
    ,                         !- Outside Boundary Condition Object
    NoSun,                    !- Sun Exposure
    NoWind,                   !- Wind Exposure
    autocalculate,            !- View Factor to Ground
    autocalculate,            !- Number of Vertices
    687289.709,               !- Vertex 1 Xcoordinate
    4928466.586,              !- Vertex 1 Ycoordinate
    9,                        !- Vertex 1 Zcoordinate
    687289.709,               !- Vertex 2 Xcoordinate
    4928466.586,              !- Vertex 2 Ycoordinate
    6,                        !- Vertex 2 Zcoordinate
    687291.029,               !- Vertex 3 Xcoordinate
    4928468.166,              !- Vertex 3 Ycoordinate
    6,                        !- Vertex 3 Zcoordinate
    687291.029,               !- Vertex 4 Xcoordinate
    4928468.166,              !- Vertex 4 Ycoordinate
    9;                        !- Vertex 4 Zcoordinate

BUILDINGSURFACE:DETAILED,
    Block 9f01e916ca8364c5_whole Storey 2 Wall 0011,    !- Name
    wall,                     !- Surface Type
    EU_wall_Construction,     !- Construction Name
    9f01e916ca8364c5_F2_whole,    !- Zone Name
    ,                         !- Space Name
    outdoors,                 !- Outside Boundary Condition
    ,                         !- Outside Boundary Condition Object
    SunExposed,               !- Sun Exposure
    WindExposed,              !- Wind Exposure
    autocalculate,            !- View Factor to Ground
    autocalculate,            !- Number of Vertices
    687291.029,               !- Vertex 1 Xcoordinate
    4928468.166,              !- Vertex 1 Ycoordinate
    9,                        !- Vertex 1 Zcoordinate
    687291.029,               !- Vertex 2 Xcoordinate
    4928468.166,              !- Vertex 2 Ycoordinate
    6,                        !- Vertex 2 Zcoordinate
    687294.039,               !- Vertex 3 Xcoordinate
    4928471.646,              !- Vertex 3 Ycoordinate
    6,                        !- Vertex 3 Zcoordinate
    687294.039,               !- Vertex 4 Xcoordinate
    4928471.646,              !- Vertex 4 Ycoordinate
    9;                        !- Vertex 4 Zcoordinate

BUILDINGSURFACE:DETAILED,
    Block 9f01e916ca8364c5_whole Storey 2 Wall 0012,    !- Name
    wall,                     !- Surface Type
    EU_wall_Construction,     !- Construction Name
    9f01e916ca8364c5_F2_whole,    !- Zone Name
    ,                         !- Space Name
    outdoors,                 !- Outside Boundary Condition
    ,                         !- Outside Boundary Condition Object
    SunExposed,               !- Sun Exposure
    WindExposed,              !- Wind Exposure
    autocalculate,            !- View Factor to Ground
    autocalculate,            !- Number of Vertices
    687294.039,               !- Vertex 1 Xcoordinate
    4928471.646,              !- Vertex 1 Ycoordinate
    9,                        !- Vertex 1 Zcoordinate
    687294.039,               !- Vertex 2 Xcoordinate
    4928471.646,              !- Vertex 2 Ycoordinate
    6,                        !- Vertex 2 Zcoordinate
    687304.248,               !- Vertex 3 Xcoordinate
    4928461.966,              !- Vertex 3 Ycoordinate
    6,                        !- Vertex 3 Zcoordinate
    687304.248,               !- Vertex 4 Xcoordinate
    4928461.966,              !- Vertex 4 Ycoordinate
    9;                        !- Vertex 4 Zcoordinate

BUILDINGSURFACE:DETAILED,
    Block 9f01e916ca8364c5_whole Storey 2 Wall 0013,    !- Name
    wall,                     !- Surface Type
    EU_wall_Construction,     !- Construction Name
    9f01e916ca8364c5_F2_whole,    !- Zone Name
    ,                         !- Space Name
    Adiabatic,                !- Outside Boundary Condition
    ,                         !- Outside Boundary Condition Object
    NoSun,                    !- Sun Exposure
    NoWind,                   !- Wind Exposure
    autocalculate,            !- View Factor to Ground
    autocalculate,            !- Number of Vertices
    687304.248,               !- Vertex 1 Xcoordinate
    4928461.966,              !- Vertex 1 Ycoordinate
    9,                        !- Vertex 1 Zcoordinate
    687304.248,               !- Vertex 2 Xcoordinate
    4928461.966,              !- Vertex 2 Ycoordinate
    6,                        !- Vertex 2 Zcoordinate
    687297.398,               !- Vertex 3 Xcoordinate
    4928453.956,              !- Vertex 3 Ycoordinate
    6,                        !- Vertex 3 Zcoordinate
    687297.398,               !- Vertex 4 Xcoordinate
    4928453.956,              !- Vertex 4 Ycoordinate
    9;                        !- Vertex 4 Zcoordinate

BUILDINGSURFACE:DETAILED,
    Block 9f01e916ca8364c5_whole Storey 3 Wall 0001,    !- Name
    wall,                     !- Surface Type
    EU_wall_Construction,     !- Construction Name
    9f01e916ca8364c5_F3_whole,    !- Zone Name
    ,                         !- Space Name
    Adiabatic,                !- Outside Boundary Condition
    ,                         !- Outside Boundary Condition Object
    NoSun,                    !- Sun Exposure
    NoWind,                   !- Wind Exposure
    autocalculate,            !- View Factor to Ground
    autocalculate,            !- Number of Vertices
    687297.398,               !- Vertex 1 Xcoordinate
    4928453.956,              !- Vertex 1 Ycoordinate
    12,                       !- Vertex 1 Zcoordinate
    687297.398,               !- Vertex 2 Xcoordinate
    4928453.956,              !- Vertex 2 Ycoordinate
    9,                        !- Vertex 2 Zcoordinate
    687295.038,               !- Vertex 3 Xcoordinate
    4928451.337,              !- Vertex 3 Ycoordinate
    9,                        !- Vertex 3 Zcoordinate
    687295.038,               !- Vertex 4 Xcoordinate
    4928451.337,              !- Vertex 4 Ycoordinate
    12;                       !- Vertex 4 Zcoordinate

BUILDINGSURFACE:DETAILED,
    Block 9f01e916ca8364c5_whole Storey 3 Wall 0002,    !- Name
    wall,                     !- Surface Type
    EU_wall_Construction,     !- Construction Name
    9f01e916ca8364c5_F3_whole,    !- Zone Name
    ,                         !- Space Name
    Adiabatic,                !- Outside Boundary Condition
    ,                         !- Outside Boundary Condition Object
    NoSun,                    !- Sun Exposure
    NoWind,                   !- Wind Exposure
    autocalculate,            !- View Factor to Ground
    autocalculate,            !- Number of Vertices
    687295.038,               !- Vertex 1 Xcoordinate
    4928451.337,              !- Vertex 1 Ycoordinate
    12,                       !- Vertex 1 Zcoordinate
    687295.038,               !- Vertex 2 Xcoordinate
    4928451.337,              !- Vertex 2 Ycoordinate
    9,                        !- Vertex 2 Zcoordinate
    687294.718,               !- Vertex 3 Xcoordinate
    4928450.937,              !- Vertex 3 Ycoordinate
    9,                        !- Vertex 3 Zcoordinate
    687294.718,               !- Vertex 4 Xcoordinate
    4928450.937,              !- Vertex 4 Ycoordinate
    12;                       !- Vertex 4 Zcoordinate

BUILDINGSURFACE:DETAILED,
    Block 9f01e916ca8364c5_whole Storey 3 Wall 0003,    !- Name
    wall,                     !- Surface Type
    EU_wall_Construction,     !- Construction Name
    9f01e916ca8364c5_F3_whole,    !- Zone Name
    ,                         !- Space Name
    outdoors,                 !- Outside Boundary Condition
    ,                         !- Outside Boundary Condition Object
    SunExposed,               !- Sun Exposure
    WindExposed,              !- Wind Exposure
    autocalculate,            !- View Factor to Ground
    autocalculate,            !- Number of Vertices
    687294.718,               !- Vertex 1 Xcoordinate
    4928450.937,              !- Vertex 1 Ycoordinate
    12,                       !- Vertex 1 Zcoordinate
    687294.718,               !- Vertex 2 Xcoordinate
    4928450.937,              !- Vertex 2 Ycoordinate
    9,                        !- Vertex 2 Zcoordinate
    687287.248,               !- Vertex 3 Xcoordinate
    4928457.887,              !- Vertex 3 Ycoordinate
    9,                        !- Vertex 3 Zcoordinate
    687287.248,               !- Vertex 4 Xcoordinate
    4928457.887,              !- Vertex 4 Ycoordinate
    12;                       !- Vertex 4 Zcoordinate

BUILDINGSURFACE:DETAILED,
    Block 9f01e916ca8364c5_whole Storey 3 Wall 0004,    !- Name
    wall,                     !- Surface Type
    EU_wall_Construction,     !- Construction Name
    9f01e916ca8364c5_F3_whole,    !- Zone Name
    ,                         !- Space Name
    outdoors,                 !- Outside Boundary Condition
    ,                         !- Outside Boundary Condition Object
    SunExposed,               !- Sun Exposure
    WindExposed,              !- Wind Exposure
    autocalculate,            !- View Factor to Ground
    autocalculate,            !- Number of Vertices
    687287.248,               !- Vertex 1 Xcoordinate
    4928457.887,              !- Vertex 1 Ycoordinate
    12,                       !- Vertex 1 Zcoordinate
    687287.248,               !- Vertex 2 Xcoordinate
    4928457.887,              !- Vertex 2 Ycoordinate
    9,                        !- Vertex 2 Zcoordinate
    687276.549,               !- Vertex 3 Xcoordinate
    4928444.047,              !- Vertex 3 Ycoordinate
    9,                        !- Vertex 3 Zcoordinate
    687276.549,               !- Vertex 4 Xcoordinate
    4928444.047,              !- Vertex 4 Ycoordinate
    12;                       !- Vertex 4 Zcoordinate

BUILDINGSURFACE:DETAILED,
    Block 9f01e916ca8364c5_whole Storey 3 Wall 0005,    !- Name
    wall,                     !- Surface Type
    EU_wall_Construction,     !- Construction Name
    9f01e916ca8364c5_F3_whole,    !- Zone Name
    ,                         !- Space Name
    outdoors,                 !- Outside Boundary Condition
    ,                         !- Outside Boundary Condition Object
    SunExposed,               !- Sun Exposure
    WindExposed,              !- Wind Exposure
    autocalculate,            !- View Factor to Ground
    autocalculate,            !- Number of Vertices
    687276.549,               !- Vertex 1 Xcoordinate
    4928444.047,              !- Vertex 1 Ycoordinate
    12,                       !- Vertex 1 Zcoordinate
    687276.549,               !- Vertex 2 Xcoordinate
    4928444.047,              !- Vertex 2 Ycoordinate
    9,                        !- Vertex 2 Zcoordinate
    687272.989,               !- Vertex 3 Xcoordinate
    4928446.687,              !- Vertex 3 Ycoordinate
    9,                        !- Vertex 3 Zcoordinate
    687272.989,               !- Vertex 4 Xcoordinate
    4928446.687,              !- Vertex 4 Ycoordinate
    12;                       !- Vertex 4 Zcoordinate

BUILDINGSURFACE:DETAILED,
    Block 9f01e916ca8364c5_whole Storey 3 Wall 0006,    !- Name
    wall,                     !- Surface Type
    EU_wall_Construction,     !- Construction Name
    9f01e916ca8364c5_F3_whole,    !- Zone Name
    ,                         !- Space Name
    Adiabatic,                !- Outside Boundary Condition
    ,                         !- Outside Boundary Condition Object
    NoSun,                    !- Sun Exposure
    NoWind,                   !- Wind Exposure
    autocalculate,            !- View Factor to Ground
    autocalculate,            !- Number of Vertices
    687272.989,               !- Vertex 1 Xcoordinate
    4928446.687,              !- Vertex 1 Ycoordinate
    12,                       !- Vertex 1 Zcoordinate
    687272.989,               !- Vertex 2 Xcoordinate
    4928446.687,              !- Vertex 2 Ycoordinate
    9,                        !- Vertex 2 Zcoordinate
    687278.439,               !- Vertex 3 Xcoordinate
    4928454.897,              !- Vertex 3 Ycoordinate
    9,                        !- Vertex 3 Zcoordinate
    687278.439,               !- Vertex 4 Xcoordinate
    4928454.897,              !- Vertex 4 Ycoordinate
    12;                       !- Vertex 4 Zcoordinate

BUILDINGSURFACE:DETAILED,
    Block 9f01e916ca8364c5_whole Storey 3 Wall 0007,    !- Name
    wall,                     !- Surface Type
    EU_wall_Construction,     !- Construction Name
    9f01e916ca8364c5_F3_whole,    !- Zone Name
    ,                         !- Space Name
    Adiabatic,                !- Outside Boundary Condition
    ,                         !- Outside Boundary Condition Object
    NoSun,                    !- Sun Exposure
    NoWind,                   !- Wind Exposure
    autocalculate,            !- View Factor to Ground
    autocalculate,            !- Number of Vertices
    687278.439,               !- Vertex 1 Xcoordinate
    4928454.897,              !- Vertex 1 Ycoordinate
    12,                       !- Vertex 1 Zcoordinate
    687278.439,               !- Vertex 2 Xcoordinate
    4928454.897,              !- Vertex 2 Ycoordinate
    9,                        !- Vertex 2 Zcoordinate
    687280.609,               !- Vertex 3 Xcoordinate
    4928457.607,              !- Vertex 3 Ycoordinate
    9,                        !- Vertex 3 Zcoordinate
    687280.609,               !- Vertex 4 Xcoordinate
    4928457.607,              !- Vertex 4 Ycoordinate
    12;                       !- Vertex 4 Zcoordinate

BUILDINGSURFACE:DETAILED,
    Block 9f01e916ca8364c5_whole Storey 3 Wall 0008,    !- Name
    wall,                     !- Surface Type
    EU_wall_Construction,     !- Construction Name
    9f01e916ca8364c5_F3_whole,    !- Zone Name
    ,                         !- Space Name
    Adiabatic,                !- Outside Boundary Condition
    ,                         !- Outside Boundary Condition Object
    NoSun,                    !- Sun Exposure
    NoWind,                   !- Wind Exposure
    autocalculate,            !- View Factor to Ground
    autocalculate,            !- Number of Vertices
    687280.609,               !- Vertex 1 Xcoordinate
    4928457.607,              !- Vertex 1 Ycoordinate
    12,                       !- Vertex 1 Zcoordinate
    687280.609,               !- Vertex 2 Xcoordinate
    4928457.607,              !- Vertex 2 Ycoordinate
    9,                        !- Vertex 2 Zcoordinate
    687289.029,               !- Vertex 3 Xcoordinate
    4928467.186,              !- Vertex 3 Ycoordinate
    9,                        !- Vertex 3 Zcoordinate
    687289.029,               !- Vertex 4 Xcoordinate
    4928467.186,              !- Vertex 4 Ycoordinate
    12;                       !- Vertex 4 Zcoordinate

BUILDINGSURFACE:DETAILED,
    Block 9f01e916ca8364c5_whole Storey 3 Wall 0009,    !- Name
    wall,                     !- Surface Type
    EU_wall_Construction,     !- Construction Name
    9f01e916ca8364c5_F3_whole,    !- Zone Name
    ,                         !- Space Name
    Adiabatic,                !- Outside Boundary Condition
    ,                         !- Outside Boundary Condition Object
    NoSun,                    !- Sun Exposure
    NoWind,                   !- Wind Exposure
    autocalculate,            !- View Factor to Ground
    autocalculate,            !- Number of Vertices
    687289.029,               !- Vertex 1 Xcoordinate
    4928467.186,              !- Vertex 1 Ycoordinate
    12,                       !- Vertex 1 Zcoordinate
    687289.029,               !- Vertex 2 Xcoordinate
    4928467.186,              !- Vertex 2 Ycoordinate
    9,                        !- Vertex 2 Zcoordinate
    687289.709,               !- Vertex 3 Xcoordinate
    4928466.586,              !- Vertex 3 Ycoordinate
    9,                        !- Vertex 3 Zcoordinate
    687289.709,               !- Vertex 4 Xcoordinate
    4928466.586,              !- Vertex 4 Ycoordinate
    12;                       !- Vertex 4 Zcoordinate

BUILDINGSURFACE:DETAILED,
    Block 9f01e916ca8364c5_whole Storey 3 Wall 0010,    !- Name
    wall,                     !- Surface Type
    EU_wall_Construction,     !- Construction Name
    9f01e916ca8364c5_F3_whole,    !- Zone Name
    ,                         !- Space Name
    Adiabatic,                !- Outside Boundary Condition
    ,                         !- Outside Boundary Condition Object
    NoSun,                    !- Sun Exposure
    NoWind,                   !- Wind Exposure
    autocalculate,            !- View Factor to Ground
    autocalculate,            !- Number of Vertices
    687289.709,               !- Vertex 1 Xcoordinate
    4928466.586,              !- Vertex 1 Ycoordinate
    12,                       !- Vertex 1 Zcoordinate
    687289.709,               !- Vertex 2 Xcoordinate
    4928466.586,              !- Vertex 2 Ycoordinate
    9,                        !- Vertex 2 Zcoordinate
    687291.029,               !- Vertex 3 Xcoordinate
    4928468.166,              !- Vertex 3 Ycoordinate
    9,                        !- Vertex 3 Zcoordinate
    687291.029,               !- Vertex 4 Xcoordinate
    4928468.166,              !- Vertex 4 Ycoordinate
    12;                       !- Vertex 4 Zcoordinate

BUILDINGSURFACE:DETAILED,
    Block 9f01e916ca8364c5_whole Storey 3 Wall 0011,    !- Name
    wall,                     !- Surface Type
    EU_wall_Construction,     !- Construction Name
    9f01e916ca8364c5_F3_whole,    !- Zone Name
    ,                         !- Space Name
    outdoors,                 !- Outside Boundary Condition
    ,                         !- Outside Boundary Condition Object
    SunExposed,               !- Sun Exposure
    WindExposed,              !- Wind Exposure
    autocalculate,            !- View Factor to Ground
    autocalculate,            !- Number of Vertices
    687291.029,               !- Vertex 1 Xcoordinate
    4928468.166,              !- Vertex 1 Ycoordinate
    12,                       !- Vertex 1 Zcoordinate
    687291.029,               !- Vertex 2 Xcoordinate
    4928468.166,              !- Vertex 2 Ycoordinate
    9,                        !- Vertex 2 Zcoordinate
    687294.039,               !- Vertex 3 Xcoordinate
    4928471.646,              !- Vertex 3 Ycoordinate
    9,                        !- Vertex 3 Zcoordinate
    687294.039,               !- Vertex 4 Xcoordinate
    4928471.646,              !- Vertex 4 Ycoordinate
    12;                       !- Vertex 4 Zcoordinate

BUILDINGSURFACE:DETAILED,
    Block 9f01e916ca8364c5_whole Storey 3 Wall 0012,    !- Name
    wall,                     !- Surface Type
    EU_wall_Construction,     !- Construction Name
    9f01e916ca8364c5_F3_whole,    !- Zone Name
    ,                         !- Space Name
    outdoors,                 !- Outside Boundary Condition
    ,                         !- Outside Boundary Condition Object
    SunExposed,               !- Sun Exposure
    WindExposed,              !- Wind Exposure
    autocalculate,            !- View Factor to Ground
    autocalculate,            !- Number of Vertices
    687294.039,               !- Vertex 1 Xcoordinate
    4928471.646,              !- Vertex 1 Ycoordinate
    12,                       !- Vertex 1 Zcoordinate
    687294.039,               !- Vertex 2 Xcoordinate
    4928471.646,              !- Vertex 2 Ycoordinate
    9,                        !- Vertex 2 Zcoordinate
    687304.248,               !- Vertex 3 Xcoordinate
    4928461.966,              !- Vertex 3 Ycoordinate
    9,                        !- Vertex 3 Zcoordinate
    687304.248,               !- Vertex 4 Xcoordinate
    4928461.966,              !- Vertex 4 Ycoordinate
    12;                       !- Vertex 4 Zcoordinate

BUILDINGSURFACE:DETAILED,
    Block 9f01e916ca8364c5_whole Storey 3 Wall 0013,    !- Name
    wall,                     !- Surface Type
    EU_wall_Construction,     !- Construction Name
    9f01e916ca8364c5_F3_whole,    !- Zone Name
    ,                         !- Space Name
    Adiabatic,                !- Outside Boundary Condition
    ,                         !- Outside Boundary Condition Object
    NoSun,                    !- Sun Exposure
    NoWind,                   !- Wind Exposure
    autocalculate,            !- View Factor to Ground
    autocalculate,            !- Number of Vertices
    687304.248,               !- Vertex 1 Xcoordinate
    4928461.966,              !- Vertex 1 Ycoordinate
    12,                       !- Vertex 1 Zcoordinate
    687304.248,               !- Vertex 2 Xcoordinate
    4928461.966,              !- Vertex 2 Ycoordinate
    9,                        !- Vertex 2 Zcoordinate
    687297.398,               !- Vertex 3 Xcoordinate
    4928453.956,              !- Vertex 3 Ycoordinate
    9,                        !- Vertex 3 Zcoordinate
    687297.398,               !- Vertex 4 Xcoordinate
    4928453.956,              !- Vertex 4 Ycoordinate
    12;                       !- Vertex 4 Zcoordinate

BUILDINGSURFACE:DETAILED,
    Block 9f01e916ca8364c5_whole Storey 4 Wall 0001,    !- Name
    wall,                     !- Surface Type
    EU_wall_Construction,     !- Construction Name
    9f01e916ca8364c5_F4_whole,    !- Zone Name
    ,                         !- Space Name
    Adiabatic,                !- Outside Boundary Condition
    ,                         !- Outside Boundary Condition Object
    NoSun,                    !- Sun Exposure
    NoWind,                   !- Wind Exposure
    autocalculate,            !- View Factor to Ground
    autocalculate,            !- Number of Vertices
    687297.398,               !- Vertex 1 Xcoordinate
    4928453.956,              !- Vertex 1 Ycoordinate
    15,                       !- Vertex 1 Zcoordinate
    687297.398,               !- Vertex 2 Xcoordinate
    4928453.956,              !- Vertex 2 Ycoordinate
    12,                       !- Vertex 2 Zcoordinate
    687295.038,               !- Vertex 3 Xcoordinate
    4928451.337,              !- Vertex 3 Ycoordinate
    12,                       !- Vertex 3 Zcoordinate
    687295.038,               !- Vertex 4 Xcoordinate
    4928451.337,              !- Vertex 4 Ycoordinate
    15;                       !- Vertex 4 Zcoordinate

BUILDINGSURFACE:DETAILED,
    Block 9f01e916ca8364c5_whole Storey 4 Wall 0002,    !- Name
    wall,                     !- Surface Type
    EU_wall_Construction,     !- Construction Name
    9f01e916ca8364c5_F4_whole,    !- Zone Name
    ,                         !- Space Name
    Adiabatic,                !- Outside Boundary Condition
    ,                         !- Outside Boundary Condition Object
    NoSun,                    !- Sun Exposure
    NoWind,                   !- Wind Exposure
    autocalculate,            !- View Factor to Ground
    autocalculate,            !- Number of Vertices
    687295.038,               !- Vertex 1 Xcoordinate
    4928451.337,              !- Vertex 1 Ycoordinate
    15,                       !- Vertex 1 Zcoordinate
    687295.038,               !- Vertex 2 Xcoordinate
    4928451.337,              !- Vertex 2 Ycoordinate
    12,                       !- Vertex 2 Zcoordinate
    687294.718,               !- Vertex 3 Xcoordinate
    4928450.937,              !- Vertex 3 Ycoordinate
    12,                       !- Vertex 3 Zcoordinate
    687294.718,               !- Vertex 4 Xcoordinate
    4928450.937,              !- Vertex 4 Ycoordinate
    15;                       !- Vertex 4 Zcoordinate

BUILDINGSURFACE:DETAILED,
    Block 9f01e916ca8364c5_whole Storey 4 Wall 0003,    !- Name
    wall,                     !- Surface Type
    EU_wall_Construction,     !- Construction Name
    9f01e916ca8364c5_F4_whole,    !- Zone Name
    ,                         !- Space Name
    outdoors,                 !- Outside Boundary Condition
    ,                         !- Outside Boundary Condition Object
    SunExposed,               !- Sun Exposure
    WindExposed,              !- Wind Exposure
    autocalculate,            !- View Factor to Ground
    autocalculate,            !- Number of Vertices
    687294.718,               !- Vertex 1 Xcoordinate
    4928450.937,              !- Vertex 1 Ycoordinate
    15,                       !- Vertex 1 Zcoordinate
    687294.718,               !- Vertex 2 Xcoordinate
    4928450.937,              !- Vertex 2 Ycoordinate
    12,                       !- Vertex 2 Zcoordinate
    687287.248,               !- Vertex 3 Xcoordinate
    4928457.887,              !- Vertex 3 Ycoordinate
    12,                       !- Vertex 3 Zcoordinate
    687287.248,               !- Vertex 4 Xcoordinate
    4928457.887,              !- Vertex 4 Ycoordinate
    15;                       !- Vertex 4 Zcoordinate

BUILDINGSURFACE:DETAILED,
    Block 9f01e916ca8364c5_whole Storey 4 Wall 0004,    !- Name
    wall,                     !- Surface Type
    EU_wall_Construction,     !- Construction Name
    9f01e916ca8364c5_F4_whole,    !- Zone Name
    ,                         !- Space Name
    outdoors,                 !- Outside Boundary Condition
    ,                         !- Outside Boundary Condition Object
    SunExposed,               !- Sun Exposure
    WindExposed,              !- Wind Exposure
    autocalculate,            !- View Factor to Ground
    autocalculate,            !- Number of Vertices
    687287.248,               !- Vertex 1 Xcoordinate
    4928457.887,              !- Vertex 1 Ycoordinate
    15,                       !- Vertex 1 Zcoordinate
    687287.248,               !- Vertex 2 Xcoordinate
    4928457.887,              !- Vertex 2 Ycoordinate
    12,                       !- Vertex 2 Zcoordinate
    687276.549,               !- Vertex 3 Xcoordinate
    4928444.047,              !- Vertex 3 Ycoordinate
    12,                       !- Vertex 3 Zcoordinate
    687276.549,               !- Vertex 4 Xcoordinate
    4928444.047,              !- Vertex 4 Ycoordinate
    15;                       !- Vertex 4 Zcoordinate

BUILDINGSURFACE:DETAILED,
    Block 9f01e916ca8364c5_whole Storey 4 Wall 0005,    !- Name
    wall,                     !- Surface Type
    EU_wall_Construction,     !- Construction Name
    9f01e916ca8364c5_F4_whole,    !- Zone Name
    ,                         !- Space Name
    outdoors,                 !- Outside Boundary Condition
    ,                         !- Outside Boundary Condition Object
    SunExposed,               !- Sun Exposure
    WindExposed,              !- Wind Exposure
    autocalculate,            !- View Factor to Ground
    autocalculate,            !- Number of Vertices
    687276.549,               !- Vertex 1 Xcoordinate
    4928444.047,              !- Vertex 1 Ycoordinate
    15,                       !- Vertex 1 Zcoordinate
    687276.549,               !- Vertex 2 Xcoordinate
    4928444.047,              !- Vertex 2 Ycoordinate
    12,                       !- Vertex 2 Zcoordinate
    687272.989,               !- Vertex 3 Xcoordinate
    4928446.687,              !- Vertex 3 Ycoordinate
    12,                       !- Vertex 3 Zcoordinate
    687272.989,               !- Vertex 4 Xcoordinate
    4928446.687,              !- Vertex 4 Ycoordinate
    15;                       !- Vertex 4 Zcoordinate

BUILDINGSURFACE:DETAILED,
    Block 9f01e916ca8364c5_whole Storey 4 Wall 0006,    !- Name
    wall,                     !- Surface Type
    EU_wall_Construction,     !- Construction Name
    9f01e916ca8364c5_F4_whole,    !- Zone Name
    ,                         !- Space Name
    Adiabatic,                !- Outside Boundary Condition
    ,                         !- Outside Boundary Condition Object
    NoSun,                    !- Sun Exposure
    NoWind,                   !- Wind Exposure
    autocalculate,            !- View Factor to Ground
    autocalculate,            !- Number of Vertices
    687272.989,               !- Vertex 1 Xcoordinate
    4928446.687,              !- Vertex 1 Ycoordinate
    15,                       !- Vertex 1 Zcoordinate
    687272.989,               !- Vertex 2 Xcoordinate
    4928446.687,              !- Vertex 2 Ycoordinate
    12,                       !- Vertex 2 Zcoordinate
    687278.439,               !- Vertex 3 Xcoordinate
    4928454.897,              !- Vertex 3 Ycoordinate
    12,                       !- Vertex 3 Zcoordinate
    687278.439,               !- Vertex 4 Xcoordinate
    4928454.897,              !- Vertex 4 Ycoordinate
    15;                       !- Vertex 4 Zcoordinate

BUILDINGSURFACE:DETAILED,
    Block 9f01e916ca8364c5_whole Storey 4 Wall 0007,    !- Name
    wall,                     !- Surface Type
    EU_wall_Construction,     !- Construction Name
    9f01e916ca8364c5_F4_whole,    !- Zone Name
    ,                         !- Space Name
    Adiabatic,                !- Outside Boundary Condition
    ,                         !- Outside Boundary Condition Object
    NoSun,                    !- Sun Exposure
    NoWind,                   !- Wind Exposure
    autocalculate,            !- View Factor to Ground
    autocalculate,            !- Number of Vertices
    687278.439,               !- Vertex 1 Xcoordinate
    4928454.897,              !- Vertex 1 Ycoordinate
    15,                       !- Vertex 1 Zcoordinate
    687278.439,               !- Vertex 2 Xcoordinate
    4928454.897,              !- Vertex 2 Ycoordinate
    12,                       !- Vertex 2 Zcoordinate
    687280.609,               !- Vertex 3 Xcoordinate
    4928457.607,              !- Vertex 3 Ycoordinate
    12,                       !- Vertex 3 Zcoordinate
    687280.609,               !- Vertex 4 Xcoordinate
    4928457.607,              !- Vertex 4 Ycoordinate
    15;                       !- Vertex 4 Zcoordinate

BUILDINGSURFACE:DETAILED,
    Block 9f01e916ca8364c5_whole Storey 4 Wall 0008,    !- Name
    wall,                     !- Surface Type
    EU_wall_Construction,     !- Construction Name
    9f01e916ca8364c5_F4_whole,    !- Zone Name
    ,                         !- Space Name
    Adiabatic,                !- Outside Boundary Condition
    ,                         !- Outside Boundary Condition Object
    NoSun,                    !- Sun Exposure
    NoWind,                   !- Wind Exposure
    autocalculate,            !- View Factor to Ground
    autocalculate,            !- Number of Vertices
    687280.609,               !- Vertex 1 Xcoordinate
    4928457.607,              !- Vertex 1 Ycoordinate
    15,                       !- Vertex 1 Zcoordinate
    687280.609,               !- Vertex 2 Xcoordinate
    4928457.607,              !- Vertex 2 Ycoordinate
    12,                       !- Vertex 2 Zcoordinate
    687289.029,               !- Vertex 3 Xcoordinate
    4928467.186,              !- Vertex 3 Ycoordinate
    12,                       !- Vertex 3 Zcoordinate
    687289.029,               !- Vertex 4 Xcoordinate
    4928467.186,              !- Vertex 4 Ycoordinate
    15;                       !- Vertex 4 Zcoordinate

BUILDINGSURFACE:DETAILED,
    Block 9f01e916ca8364c5_whole Storey 4 Wall 0009,    !- Name
    wall,                     !- Surface Type
    EU_wall_Construction,     !- Construction Name
    9f01e916ca8364c5_F4_whole,    !- Zone Name
    ,                         !- Space Name
    Adiabatic,                !- Outside Boundary Condition
    ,                         !- Outside Boundary Condition Object
    NoSun,                    !- Sun Exposure
    NoWind,                   !- Wind Exposure
    autocalculate,            !- View Factor to Ground
    autocalculate,            !- Number of Vertices
    687289.029,               !- Vertex 1 Xcoordinate
    4928467.186,              !- Vertex 1 Ycoordinate
    15,                       !- Vertex 1 Zcoordinate
    687289.029,               !- Vertex 2 Xcoordinate
    4928467.186,              !- Vertex 2 Ycoordinate
    12,                       !- Vertex 2 Zcoordinate
    687289.709,               !- Vertex 3 Xcoordinate
    4928466.586,              !- Vertex 3 Ycoordinate
    12,                       !- Vertex 3 Zcoordinate
    687289.709,               !- Vertex 4 Xcoordinate
    4928466.586,              !- Vertex 4 Ycoordinate
    15;                       !- Vertex 4 Zcoordinate

BUILDINGSURFACE:DETAILED,
    Block 9f01e916ca8364c5_whole Storey 4 Wall 0010,    !- Name
    wall,                     !- Surface Type
    EU_wall_Construction,     !- Construction Name
    9f01e916ca8364c5_F4_whole,    !- Zone Name
    ,                         !- Space Name
    Adiabatic,                !- Outside Boundary Condition
    ,                         !- Outside Boundary Condition Object
    NoSun,                    !- Sun Exposure
    NoWind,                   !- Wind Exposure
    autocalculate,            !- View Factor to Ground
    autocalculate,            !- Number of Vertices
    687289.709,               !- Vertex 1 Xcoordinate
    4928466.586,              !- Vertex 1 Ycoordinate
    15,                       !- Vertex 1 Zcoordinate
    687289.709,               !- Vertex 2 Xcoordinate
    4928466.586,              !- Vertex 2 Ycoordinate
    12,                       !- Vertex 2 Zcoordinate
    687291.029,               !- Vertex 3 Xcoordinate
    4928468.166,              !- Vertex 3 Ycoordinate
    12,                       !- Vertex 3 Zcoordinate
    687291.029,               !- Vertex 4 Xcoordinate
    4928468.166,              !- Vertex 4 Ycoordinate
    15;                       !- Vertex 4 Zcoordinate

BUILDINGSURFACE:DETAILED,
    Block 9f01e916ca8364c5_whole Storey 4 Wall 0011,    !- Name
    wall,                     !- Surface Type
    EU_wall_Construction,     !- Construction Name
    9f01e916ca8364c5_F4_whole,    !- Zone Name
    ,                         !- Space Name
    outdoors,                 !- Outside Boundary Condition
    ,                         !- Outside Boundary Condition Object
    SunExposed,               !- Sun Exposure
    WindExposed,              !- Wind Exposure
    autocalculate,            !- View Factor to Ground
    autocalculate,            !- Number of Vertices
    687291.029,               !- Vertex 1 Xcoordinate
    4928468.166,              !- Vertex 1 Ycoordinate
    15,                       !- Vertex 1 Zcoordinate
    687291.029,               !- Vertex 2 Xcoordinate
    4928468.166,              !- Vertex 2 Ycoordinate
    12,                       !- Vertex 2 Zcoordinate
    687294.039,               !- Vertex 3 Xcoordinate
    4928471.646,              !- Vertex 3 Ycoordinate
    12,                       !- Vertex 3 Zcoordinate
    687294.039,               !- Vertex 4 Xcoordinate
    4928471.646,              !- Vertex 4 Ycoordinate
    15;                       !- Vertex 4 Zcoordinate

BUILDINGSURFACE:DETAILED,
    Block 9f01e916ca8364c5_whole Storey 4 Wall 0012,    !- Name
    wall,                     !- Surface Type
    EU_wall_Construction,     !- Construction Name
    9f01e916ca8364c5_F4_whole,    !- Zone Name
    ,                         !- Space Name
    outdoors,                 !- Outside Boundary Condition
    ,                         !- Outside Boundary Condition Object
    SunExposed,               !- Sun Exposure
    WindExposed,              !- Wind Exposure
    autocalculate,            !- View Factor to Ground
    autocalculate,            !- Number of Vertices
    687294.039,               !- Vertex 1 Xcoordinate
    4928471.646,              !- Vertex 1 Ycoordinate
    15,                       !- Vertex 1 Zcoordinate
    687294.039,               !- Vertex 2 Xcoordinate
    4928471.646,              !- Vertex 2 Ycoordinate
    12,                       !- Vertex 2 Zcoordinate
    687304.248,               !- Vertex 3 Xcoordinate
    4928461.966,              !- Vertex 3 Ycoordinate
    12,                       !- Vertex 3 Zcoordinate
    687304.248,               !- Vertex 4 Xcoordinate
    4928461.966,              !- Vertex 4 Ycoordinate
    15;                       !- Vertex 4 Zcoordinate

BUILDINGSURFACE:DETAILED,
    Block 9f01e916ca8364c5_whole Storey 4 Wall 0013,    !- Name
    wall,                     !- Surface Type
    EU_wall_Construction,     !- Construction Name
    9f01e916ca8364c5_F4_whole,    !- Zone Name
    ,                         !- Space Name
    Adiabatic,                !- Outside Boundary Condition
    ,                         !- Outside Boundary Condition Object
    NoSun,                    !- Sun Exposure
    NoWind,                   !- Wind Exposure
    autocalculate,            !- View Factor to Ground
    autocalculate,            !- Number of Vertices
    687304.248,               !- Vertex 1 Xcoordinate
    4928461.966,              !- Vertex 1 Ycoordinate
    15,                       !- Vertex 1 Zcoordinate
    687304.248,               !- Vertex 2 Xcoordinate
    4928461.966,              !- Vertex 2 Ycoordinate
    12,                       !- Vertex 2 Zcoordinate
    687297.398,               !- Vertex 3 Xcoordinate
    4928453.956,              !- Vertex 3 Ycoordinate
    12,                       !- Vertex 3 Zcoordinate
    687297.398,               !- Vertex 4 Xcoordinate
    4928453.956,              !- Vertex 4 Ycoordinate
    15;                       !- Vertex 4 Zcoordinate

BUILDINGSURFACE:DETAILED,
    Block 9f01e916ca8364c5_whole Storey 4 Roof 0001,    !- Name
    roof,                     !- Surface Type
    EU_roof_Construction,     !- Construction Name
    9f01e916ca8364c5_F4_whole,    !- Zone Name
    ,                         !- Space Name
    outdoors,                 !- Outside Boundary Condition
    ,                         !- Outside Boundary Condition Object
    NoSun,                    !- Sun Exposure
    WindExposed,              !- Wind Exposure
    autocalculate,            !- View Factor to Ground
    autocalculate,            !- Number of Vertices
    687304.248,               !- Vertex 1 Xcoordinate
    4928461.966,              !- Vertex 1 Ycoordinate
    15,                       !- Vertex 1 Zcoordinate
    687297.398,               !- Vertex 2 Xcoordinate
    4928453.956,              !- Vertex 2 Ycoordinate
    15,                       !- Vertex 2 Zcoordinate
    687295.038,               !- Vertex 3 Xcoordinate
    4928451.337,              !- Vertex 3 Ycoordinate
    15,                       !- Vertex 3 Zcoordinate
    687294.718,               !- Vertex 4 Xcoordinate
    4928450.937,              !- Vertex 4 Ycoordinate
    15,                       !- Vertex 4 Zcoordinate
    687287.248,               !- Vertex 5 Xcoordinate
    4928457.887,              !- Vertex 5 Ycoordinate
    15,                       !- Vertex 5 Zcoordinate
    687276.549,               !- Vertex 6 Xcoordinate
    4928444.047,              !- Vertex 6 Ycoordinate
    15,                       !- Vertex 6 Zcoordinate
    687272.989,               !- Vertex 7 Xcoordinate
    4928446.687,              !- Vertex 7 Ycoordinate
    15,                       !- Vertex 7 Zcoordinate
    687278.439,               !- Vertex 8 Xcoordinate
    4928454.897,              !- Vertex 8 Ycoordinate
    15,                       !- Vertex 8 Zcoordinate
    687280.609,               !- Vertex 9 Xcoordinate
    4928457.607,              !- Vertex 9 Ycoordinate
    15,                       !- Vertex 9 Zcoordinate
    687289.029,               !- Vertex 10 Xcoordinate
    4928467.186,              !- Vertex 10 Ycoordinate
    15,                       !- Vertex 10 Zcoordinate
    687289.709,               !- Vertex 11 Xcoordinate
    4928466.586,              !- Vertex 11 Ycoordinate
    15,                       !- Vertex 11 Zcoordinate
    687291.029,               !- Vertex 12 Xcoordinate
    4928468.166,              !- Vertex 12 Ycoordinate
    15,                       !- Vertex 12 Zcoordinate
    687294.039,               !- Vertex 13 Xcoordinate
    4928471.646,              !- Vertex 13 Ycoordinate
    15;                       !- Vertex 13 Zcoordinate

BUILDINGSURFACE:DETAILED,
    Block 9f01e916ca8364c5_whole Storey 0 Ceiling 0001_1,    !- Name
    ceiling,                  !- Surface Type
    EU_floor_Construction,    !- Construction Name
    9f01e916ca8364c5_F0_whole,    !- Zone Name
    ,                         !- Space Name
    Surface,                  !- Outside Boundary Condition
    Block 9f01e916ca8364c5_whole Storey 1 Floor 0001_1,    !- Outside Boundary Condition Object
    NoSun,                    !- Sun Exposure
    NoWind,                   !- Wind Exposure
    autocalculate,            !- View Factor to Ground
    autocalculate,            !- Number of Vertices
    687304.2479999997,        !- Vertex 1 Xcoordinate
    4928461.966,              !- Vertex 1 Ycoordinate
    3,                        !- Vertex 1 Zcoordinate
    687297.398,               !- Vertex 2 Xcoordinate
    4928453.956,              !- Vertex 2 Ycoordinate
    3,                        !- Vertex 2 Zcoordinate
    687295.0379999997,        !- Vertex 3 Xcoordinate
    4928451.337,              !- Vertex 3 Ycoordinate
    3,                        !- Vertex 3 Zcoordinate
    687294.7179999999,        !- Vertex 4 Xcoordinate
    4928450.937,              !- Vertex 4 Ycoordinate
    3,                        !- Vertex 4 Zcoordinate
    687287.2479999997,        !- Vertex 5 Xcoordinate
    4928457.887,              !- Vertex 5 Ycoordinate
    3,                        !- Vertex 5 Zcoordinate
    687276.5489999996,        !- Vertex 6 Xcoordinate
    4928444.047,              !- Vertex 6 Ycoordinate
    3,                        !- Vertex 6 Zcoordinate
    687272.9889999996,        !- Vertex 7 Xcoordinate
    4928446.687,              !- Vertex 7 Ycoordinate
    3,                        !- Vertex 7 Zcoordinate
    687278.4389999998,        !- Vertex 8 Xcoordinate
    4928454.897,              !- Vertex 8 Ycoordinate
    3,                        !- Vertex 8 Zcoordinate
    687280.6089999997,        !- Vertex 9 Xcoordinate
    4928457.607,              !- Vertex 9 Ycoordinate
    3,                        !- Vertex 9 Zcoordinate
    687289.0289999996,        !- Vertex 10 Xcoordinate
    4928467.186,              !- Vertex 10 Ycoordinate
    3,                        !- Vertex 10 Zcoordinate
    687289.7089999998,        !- Vertex 11 Xcoordinate
    4928466.586,              !- Vertex 11 Ycoordinate
    3,                        !- Vertex 11 Zcoordinate
    687291.0289999996,        !- Vertex 12 Xcoordinate
    4928468.166,              !- Vertex 12 Ycoordinate
    3,                        !- Vertex 12 Zcoordinate
    687294.0389999999,        !- Vertex 13 Xcoordinate
    4928471.646,              !- Vertex 13 Ycoordinate
    3;                        !- Vertex 13 Zcoordinate

BUILDINGSURFACE:DETAILED,
    Block 9f01e916ca8364c5_whole Storey 1 Floor 0001_1,    !- Name
    floor,                    !- Surface Type
    EU_floor_Construction,    !- Construction Name
    9f01e916ca8364c5_F1_whole,    !- Zone Name
    ,                         !- Space Name
    Surface,                  !- Outside Boundary Condition
    Block 9f01e916ca8364c5_whole Storey 0 Ceiling 0001_1,    !- Outside Boundary Condition Object
    NoSun,                    !- Sun Exposure
    NoWind,                   !- Wind Exposure
    autocalculate,            !- View Factor to Ground
    autocalculate,            !- Number of Vertices
    687295.0379999997,        !- Vertex 1 Xcoordinate
    4928451.337,              !- Vertex 1 Ycoordinate
    3,                        !- Vertex 1 Zcoordinate
    687297.398,               !- Vertex 2 Xcoordinate
    4928453.956,              !- Vertex 2 Ycoordinate
    3,                        !- Vertex 2 Zcoordinate
    687304.2479999997,        !- Vertex 3 Xcoordinate
    4928461.966,              !- Vertex 3 Ycoordinate
    3,                        !- Vertex 3 Zcoordinate
    687294.0389999999,        !- Vertex 4 Xcoordinate
    4928471.646,              !- Vertex 4 Ycoordinate
    3,                        !- Vertex 4 Zcoordinate
    687291.0289999996,        !- Vertex 5 Xcoordinate
    4928468.166,              !- Vertex 5 Ycoordinate
    3,                        !- Vertex 5 Zcoordinate
    687289.7089999998,        !- Vertex 6 Xcoordinate
    4928466.586,              !- Vertex 6 Ycoordinate
    3,                        !- Vertex 6 Zcoordinate
    687289.0289999996,        !- Vertex 7 Xcoordinate
    4928467.186,              !- Vertex 7 Ycoordinate
    3,                        !- Vertex 7 Zcoordinate
    687280.6089999997,        !- Vertex 8 Xcoordinate
    4928457.607,              !- Vertex 8 Ycoordinate
    3,                        !- Vertex 8 Zcoordinate
    687278.4389999998,        !- Vertex 9 Xcoordinate
    4928454.897,              !- Vertex 9 Ycoordinate
    3,                        !- Vertex 9 Zcoordinate
    687272.9889999996,        !- Vertex 10 Xcoordinate
    4928446.687,              !- Vertex 10 Ycoordinate
    3,                        !- Vertex 10 Zcoordinate
    687276.5489999996,        !- Vertex 11 Xcoordinate
    4928444.047,              !- Vertex 11 Ycoordinate
    3,                        !- Vertex 11 Zcoordinate
    687287.2479999997,        !- Vertex 12 Xcoordinate
    4928457.887,              !- Vertex 12 Ycoordinate
    3,                        !- Vertex 12 Zcoordinate
    687294.7179999999,        !- Vertex 13 Xcoordinate
    4928450.937,              !- Vertex 13 Ycoordinate
    3;                        !- Vertex 13 Zcoordinate

BUILDINGSURFACE:DETAILED,
    Block 9f01e916ca8364c5_whole Storey 1 Ceiling 0001_1,    !- Name
    ceiling,                  !- Surface Type
    EU_floor_Construction,    !- Construction Name
    9f01e916ca8364c5_F1_whole,    !- Zone Name
    ,                         !- Space Name
    Surface,                  !- Outside Boundary Condition
    Block 9f01e916ca8364c5_whole Storey 2 Floor 0001_1,    !- Outside Boundary Condition Object
    NoSun,                    !- Sun Exposure
    NoWind,                   !- Wind Exposure
    autocalculate,            !- View Factor to Ground
    autocalculate,            !- Number of Vertices
    687304.2479999997,        !- Vertex 1 Xcoordinate
    4928461.966,              !- Vertex 1 Ycoordinate
    6,                        !- Vertex 1 Zcoordinate
    687297.398,               !- Vertex 2 Xcoordinate
    4928453.956,              !- Vertex 2 Ycoordinate
    6,                        !- Vertex 2 Zcoordinate
    687295.0379999997,        !- Vertex 3 Xcoordinate
    4928451.337,              !- Vertex 3 Ycoordinate
    6,                        !- Vertex 3 Zcoordinate
    687294.7179999999,        !- Vertex 4 Xcoordinate
    4928450.937,              !- Vertex 4 Ycoordinate
    6,                        !- Vertex 4 Zcoordinate
    687287.2479999997,        !- Vertex 5 Xcoordinate
    4928457.887,              !- Vertex 5 Ycoordinate
    6,                        !- Vertex 5 Zcoordinate
    687276.5489999996,        !- Vertex 6 Xcoordinate
    4928444.047,              !- Vertex 6 Ycoordinate
    6,                        !- Vertex 6 Zcoordinate
    687272.9889999996,        !- Vertex 7 Xcoordinate
    4928446.687,              !- Vertex 7 Ycoordinate
    6,                        !- Vertex 7 Zcoordinate
    687278.4389999998,        !- Vertex 8 Xcoordinate
    4928454.897,              !- Vertex 8 Ycoordinate
    6,                        !- Vertex 8 Zcoordinate
    687280.6089999997,        !- Vertex 9 Xcoordinate
    4928457.607,              !- Vertex 9 Ycoordinate
    6,                        !- Vertex 9 Zcoordinate
    687289.0289999996,        !- Vertex 10 Xcoordinate
    4928467.186,              !- Vertex 10 Ycoordinate
    6,                        !- Vertex 10 Zcoordinate
    687289.7089999998,        !- Vertex 11 Xcoordinate
    4928466.586,              !- Vertex 11 Ycoordinate
    6,                        !- Vertex 11 Zcoordinate
    687291.0289999996,        !- Vertex 12 Xcoordinate
    4928468.166,              !- Vertex 12 Ycoordinate
    6,                        !- Vertex 12 Zcoordinate
    687294.0389999999,        !- Vertex 13 Xcoordinate
    4928471.646,              !- Vertex 13 Ycoordinate
    6;                        !- Vertex 13 Zcoordinate

BUILDINGSURFACE:DETAILED,
    Block 9f01e916ca8364c5_whole Storey 2 Floor 0001_1,    !- Name
    floor,                    !- Surface Type
    EU_floor_Construction,    !- Construction Name
    9f01e916ca8364c5_F2_whole,    !- Zone Name
    ,                         !- Space Name
    Surface,                  !- Outside Boundary Condition
    Block 9f01e916ca8364c5_whole Storey 1 Ceiling 0001_1,    !- Outside Boundary Condition Object
    NoSun,                    !- Sun Exposure
    NoWind,                   !- Wind Exposure
    autocalculate,            !- View Factor to Ground
    autocalculate,            !- Number of Vertices
    687295.0379999997,        !- Vertex 1 Xcoordinate
    4928451.337,              !- Vertex 1 Ycoordinate
    6,                        !- Vertex 1 Zcoordinate
    687297.398,               !- Vertex 2 Xcoordinate
    4928453.956,              !- Vertex 2 Ycoordinate
    6,                        !- Vertex 2 Zcoordinate
    687304.2479999997,        !- Vertex 3 Xcoordinate
    4928461.966,              !- Vertex 3 Ycoordinate
    6,                        !- Vertex 3 Zcoordinate
    687294.0389999999,        !- Vertex 4 Xcoordinate
    4928471.646,              !- Vertex 4 Ycoordinate
    6,                        !- Vertex 4 Zcoordinate
    687291.0289999996,        !- Vertex 5 Xcoordinate
    4928468.166,              !- Vertex 5 Ycoordinate
    6,                        !- Vertex 5 Zcoordinate
    687289.7089999998,        !- Vertex 6 Xcoordinate
    4928466.586,              !- Vertex 6 Ycoordinate
    6,                        !- Vertex 6 Zcoordinate
    687289.0289999996,        !- Vertex 7 Xcoordinate
    4928467.186,              !- Vertex 7 Ycoordinate
    6,                        !- Vertex 7 Zcoordinate
    687280.6089999997,        !- Vertex 8 Xcoordinate
    4928457.607,              !- Vertex 8 Ycoordinate
    6,                        !- Vertex 8 Zcoordinate
    687278.4389999998,        !- Vertex 9 Xcoordinate
    4928454.897,              !- Vertex 9 Ycoordinate
    6,                        !- Vertex 9 Zcoordinate
    687272.9889999996,        !- Vertex 10 Xcoordinate
    4928446.687,              !- Vertex 10 Ycoordinate
    6,                        !- Vertex 10 Zcoordinate
    687276.5489999996,        !- Vertex 11 Xcoordinate
    4928444.047,              !- Vertex 11 Ycoordinate
    6,                        !- Vertex 11 Zcoordinate
    687287.2479999997,        !- Vertex 12 Xcoordinate
    4928457.887,              !- Vertex 12 Ycoordinate
    6,                        !- Vertex 12 Zcoordinate
    687294.7179999999,        !- Vertex 13 Xcoordinate
    4928450.937,              !- Vertex 13 Ycoordinate
    6;                        !- Vertex 13 Zcoordinate

BUILDINGSURFACE:DETAILED,
    Block 9f01e916ca8364c5_whole Storey 2 Ceiling 0001_1,    !- Name
    ceiling,                  !- Surface Type
    EU_floor_Construction,    !- Construction Name
    9f01e916ca8364c5_F2_whole,    !- Zone Name
    ,                         !- Space Name
    Surface,                  !- Outside Boundary Condition
    Block 9f01e916ca8364c5_whole Storey 3 Floor 0001_1,    !- Outside Boundary Condition Object
    NoSun,                    !- Sun Exposure
    NoWind,                   !- Wind Exposure
    autocalculate,            !- View Factor to Ground
    autocalculate,            !- Number of Vertices
    687304.2479999997,        !- Vertex 1 Xcoordinate
    4928461.966,              !- Vertex 1 Ycoordinate
    9,                        !- Vertex 1 Zcoordinate
    687297.398,               !- Vertex 2 Xcoordinate
    4928453.956,              !- Vertex 2 Ycoordinate
    9,                        !- Vertex 2 Zcoordinate
    687295.0379999997,        !- Vertex 3 Xcoordinate
    4928451.337,              !- Vertex 3 Ycoordinate
    9,                        !- Vertex 3 Zcoordinate
    687294.7179999999,        !- Vertex 4 Xcoordinate
    4928450.937,              !- Vertex 4 Ycoordinate
    9,                        !- Vertex 4 Zcoordinate
    687287.2479999997,        !- Vertex 5 Xcoordinate
    4928457.887,              !- Vertex 5 Ycoordinate
    9,                        !- Vertex 5 Zcoordinate
    687276.5489999996,        !- Vertex 6 Xcoordinate
    4928444.047,              !- Vertex 6 Ycoordinate
    9,                        !- Vertex 6 Zcoordinate
    687272.9889999996,        !- Vertex 7 Xcoordinate
    4928446.687,              !- Vertex 7 Ycoordinate
    9,                        !- Vertex 7 Zcoordinate
    687278.4389999998,        !- Vertex 8 Xcoordinate
    4928454.897,              !- Vertex 8 Ycoordinate
    9,                        !- Vertex 8 Zcoordinate
    687280.6089999997,        !- Vertex 9 Xcoordinate
    4928457.607,              !- Vertex 9 Ycoordinate
    9,                        !- Vertex 9 Zcoordinate
    687289.0289999996,        !- Vertex 10 Xcoordinate
    4928467.186,              !- Vertex 10 Ycoordinate
    9,                        !- Vertex 10 Zcoordinate
    687289.7089999998,        !- Vertex 11 Xcoordinate
    4928466.586,              !- Vertex 11 Ycoordinate
    9,                        !- Vertex 11 Zcoordinate
    687291.0289999996,        !- Vertex 12 Xcoordinate
    4928468.166,              !- Vertex 12 Ycoordinate
    9,                        !- Vertex 12 Zcoordinate
    687294.0389999999,        !- Vertex 13 Xcoordinate
    4928471.646,              !- Vertex 13 Ycoordinate
    9;                        !- Vertex 13 Zcoordinate

BUILDINGSURFACE:DETAILED,
    Block 9f01e916ca8364c5_whole Storey 3 Floor 0001_1,    !- Name
    floor,                    !- Surface Type
    EU_floor_Construction,    !- Construction Name
    9f01e916ca8364c5_F3_whole,    !- Zone Name
    ,                         !- Space Name
    Surface,                  !- Outside Boundary Condition
    Block 9f01e916ca8364c5_whole Storey 2 Ceiling 0001_1,    !- Outside Boundary Condition Object
    NoSun,                    !- Sun Exposure
    NoWind,                   !- Wind Exposure
    autocalculate,            !- View Factor to Ground
    autocalculate,            !- Number of Vertices
    687295.0379999997,        !- Vertex 1 Xcoordinate
    4928451.337,              !- Vertex 1 Ycoordinate
    9,                        !- Vertex 1 Zcoordinate
    687297.398,               !- Vertex 2 Xcoordinate
    4928453.956,              !- Vertex 2 Ycoordinate
    9,                        !- Vertex 2 Zcoordinate
    687304.2479999997,        !- Vertex 3 Xcoordinate
    4928461.966,              !- Vertex 3 Ycoordinate
    9,                        !- Vertex 3 Zcoordinate
    687294.0389999999,        !- Vertex 4 Xcoordinate
    4928471.646,              !- Vertex 4 Ycoordinate
    9,                        !- Vertex 4 Zcoordinate
    687291.0289999996,        !- Vertex 5 Xcoordinate
    4928468.166,              !- Vertex 5 Ycoordinate
    9,                        !- Vertex 5 Zcoordinate
    687289.7089999998,        !- Vertex 6 Xcoordinate
    4928466.586,              !- Vertex 6 Ycoordinate
    9,                        !- Vertex 6 Zcoordinate
    687289.0289999996,        !- Vertex 7 Xcoordinate
    4928467.186,              !- Vertex 7 Ycoordinate
    9,                        !- Vertex 7 Zcoordinate
    687280.6089999997,        !- Vertex 8 Xcoordinate
    4928457.607,              !- Vertex 8 Ycoordinate
    9,                        !- Vertex 8 Zcoordinate
    687278.4389999998,        !- Vertex 9 Xcoordinate
    4928454.897,              !- Vertex 9 Ycoordinate
    9,                        !- Vertex 9 Zcoordinate
    687272.9889999996,        !- Vertex 10 Xcoordinate
    4928446.687,              !- Vertex 10 Ycoordinate
    9,                        !- Vertex 10 Zcoordinate
    687276.5489999996,        !- Vertex 11 Xcoordinate
    4928444.047,              !- Vertex 11 Ycoordinate
    9,                        !- Vertex 11 Zcoordinate
    687287.2479999997,        !- Vertex 12 Xcoordinate
    4928457.887,              !- Vertex 12 Ycoordinate
    9,                        !- Vertex 12 Zcoordinate
    687294.7179999999,        !- Vertex 13 Xcoordinate
    4928450.937,              !- Vertex 13 Ycoordinate
    9;                        !- Vertex 13 Zcoordinate

BUILDINGSURFACE:DETAILED,
    Block 9f01e916ca8364c5_whole Storey 3 Ceiling 0001_1,    !- Name
    ceiling,                  !- Surface Type
    EU_floor_Construction,    !- Construction Name
    9f01e916ca8364c5_F3_whole,    !- Zone Name
    ,                         !- Space Name
    Surface,                  !- Outside Boundary Condition
    Block 9f01e916ca8364c5_whole Storey 4 Floor 0001_1,    !- Outside Boundary Condition Object
    NoSun,                    !- Sun Exposure
    NoWind,                   !- Wind Exposure
    autocalculate,            !- View Factor to Ground
    autocalculate,            !- Number of Vertices
    687304.2479999997,        !- Vertex 1 Xcoordinate
    4928461.966,              !- Vertex 1 Ycoordinate
    12,                       !- Vertex 1 Zcoordinate
    687297.398,               !- Vertex 2 Xcoordinate
    4928453.956,              !- Vertex 2 Ycoordinate
    12,                       !- Vertex 2 Zcoordinate
    687295.0379999997,        !- Vertex 3 Xcoordinate
    4928451.337,              !- Vertex 3 Ycoordinate
    12,                       !- Vertex 3 Zcoordinate
    687294.7179999999,        !- Vertex 4 Xcoordinate
    4928450.937,              !- Vertex 4 Ycoordinate
    12,                       !- Vertex 4 Zcoordinate
    687287.2479999997,        !- Vertex 5 Xcoordinate
    4928457.887,              !- Vertex 5 Ycoordinate
    12,                       !- Vertex 5 Zcoordinate
    687276.5489999996,        !- Vertex 6 Xcoordinate
    4928444.047,              !- Vertex 6 Ycoordinate
    12,                       !- Vertex 6 Zcoordinate
    687272.9889999996,        !- Vertex 7 Xcoordinate
    4928446.687,              !- Vertex 7 Ycoordinate
    12,                       !- Vertex 7 Zcoordinate
    687278.4389999998,        !- Vertex 8 Xcoordinate
    4928454.897,              !- Vertex 8 Ycoordinate
    12,                       !- Vertex 8 Zcoordinate
    687280.6089999997,        !- Vertex 9 Xcoordinate
    4928457.607,              !- Vertex 9 Ycoordinate
    12,                       !- Vertex 9 Zcoordinate
    687289.0289999996,        !- Vertex 10 Xcoordinate
    4928467.186,              !- Vertex 10 Ycoordinate
    12,                       !- Vertex 10 Zcoordinate
    687289.7089999998,        !- Vertex 11 Xcoordinate
    4928466.586,              !- Vertex 11 Ycoordinate
    12,                       !- Vertex 11 Zcoordinate
    687291.0289999996,        !- Vertex 12 Xcoordinate
    4928468.166,              !- Vertex 12 Ycoordinate
    12,                       !- Vertex 12 Zcoordinate
    687294.0389999999,        !- Vertex 13 Xcoordinate
    4928471.646,              !- Vertex 13 Ycoordinate
    12;                       !- Vertex 13 Zcoordinate

BUILDINGSURFACE:DETAILED,
    Block 9f01e916ca8364c5_whole Storey 4 Floor 0001_1,    !- Name
    floor,                    !- Surface Type
    EU_floor_Construction,    !- Construction Name
    9f01e916ca8364c5_F4_whole,    !- Zone Name
    ,                         !- Space Name
    Surface,                  !- Outside Boundary Condition
    Block 9f01e916ca8364c5_whole Storey 3 Ceiling 0001_1,    !- Outside Boundary Condition Object
    NoSun,                    !- Sun Exposure
    NoWind,                   !- Wind Exposure
    autocalculate,            !- View Factor to Ground
    autocalculate,            !- Number of Vertices
    687295.0379999997,        !- Vertex 1 Xcoordinate
    4928451.337,              !- Vertex 1 Ycoordinate
    12,                       !- Vertex 1 Zcoordinate
    687297.398,               !- Vertex 2 Xcoordinate
    4928453.956,              !- Vertex 2 Ycoordinate
    12,                       !- Vertex 2 Zcoordinate
    687304.2479999997,        !- Vertex 3 Xcoordinate
    4928461.966,              !- Vertex 3 Ycoordinate
    12,                       !- Vertex 3 Zcoordinate
    687294.0389999999,        !- Vertex 4 Xcoordinate
    4928471.646,              !- Vertex 4 Ycoordinate
    12,                       !- Vertex 4 Zcoordinate
    687291.0289999996,        !- Vertex 5 Xcoordinate
    4928468.166,              !- Vertex 5 Ycoordinate
    12,                       !- Vertex 5 Zcoordinate
    687289.7089999998,        !- Vertex 6 Xcoordinate
    4928466.586,              !- Vertex 6 Ycoordinate
    12,                       !- Vertex 6 Zcoordinate
    687289.0289999996,        !- Vertex 7 Xcoordinate
    4928467.186,              !- Vertex 7 Ycoordinate
    12,                       !- Vertex 7 Zcoordinate
    687280.6089999997,        !- Vertex 8 Xcoordinate
    4928457.607,              !- Vertex 8 Ycoordinate
    12,                       !- Vertex 8 Zcoordinate
    687278.4389999998,        !- Vertex 9 Xcoordinate
    4928454.897,              !- Vertex 9 Ycoordinate
    12,                       !- Vertex 9 Zcoordinate
    687272.9889999996,        !- Vertex 10 Xcoordinate
    4928446.687,              !- Vertex 10 Ycoordinate
    12,                       !- Vertex 10 Zcoordinate
    687276.5489999996,        !- Vertex 11 Xcoordinate
    4928444.047,              !- Vertex 11 Ycoordinate
    12,                       !- Vertex 11 Zcoordinate
    687287.2479999997,        !- Vertex 12 Xcoordinate
    4928457.887,              !- Vertex 12 Ycoordinate
    12,                       !- Vertex 12 Zcoordinate
    687294.7179999999,        !- Vertex 13 Xcoordinate
    4928450.937,              !- Vertex 13 Ycoordinate
    12;                       !- Vertex 13 Zcoordinate

INTERNALMASS,
    9f01e916ca8364c5_F0_whole_EU_InternalMass,    !- Name
    EU_InternalMass_Construction,    !- Construction Name
    9f01e916ca8364c5_F0_whole,    !- Zone or ZoneList Name
    ,                         !- Space or SpaceList Name
    300.2175609897274;        !- Surface Area

INTERNALMASS,
    9f01e916ca8364c5_F1_whole_EU_InternalMass,    !- Name
    EU_InternalMass_Construction,    !- Construction Name
    9f01e916ca8364c5_F1_whole,    !- Zone or ZoneList Name
    ,                         !- Space or SpaceList Name
    300.2175609897274;        !- Surface Area

INTERNALMASS,
    9f01e916ca8364c5_F2_whole_EU_InternalMass,    !- Name
    EU_InternalMass_Construction,    !- Construction Name
    9f01e916ca8364c5_F2_whole,    !- Zone or ZoneList Name
    ,                         !- Space or SpaceList Name
    300.2175609897274;        !- Surface Area

INTERNALMASS,
    9f01e916ca8364c5_F3_whole_EU_InternalMass,    !- Name
    EU_InternalMass_Construction,    !- Construction Name
    9f01e916ca8364c5_F3_whole,    !- Zone or ZoneList Name
    ,                         !- Space or SpaceList Name
    300.2175609897274;        !- Surface Area

INTERNALMASS,
    9f01e916ca8364c5_F4_whole_EU_InternalMass,    !- Name
    EU_InternalMass_Construction,    !- Construction Name
    9f01e916ca8364c5_F4_whole,    !- Zone or ZoneList Name
    ,                         !- Space or SpaceList Name
    300.2175609897274;        !- Surface Area

SHADING:SITE:DETAILED,
    shade_33580_1,            !- Name
    ,                         !- Transmittance Schedule Name
    autocalculate,            !- Number of Vertices
    687334.0479984878,        !- Vertex 1 Xcoordinate
    4928432.356119188,        !- Vertex 1 Ycoordinate
    15,                       !- Vertex 1 Zcoordinate
    687334.0479984878,        !- Vertex 2 Xcoordinate
    4928432.356119188,        !- Vertex 2 Ycoordinate
    0,                        !- Vertex 2 Zcoordinate
    687306.4872309718,        !- Vertex 3 Xcoordinate
    4928418.566465696,        !- Vertex 3 Ycoordinate
    0,                        !- Vertex 3 Zcoordinate
    687306.4872309718,        !- Vertex 4 Xcoordinate
    4928418.566465696,        !- Vertex 4 Ycoordinate
    15;                       !- Vertex 4 Zcoordinate

SHADING:SITE:DETAILED,
    shade_33580_2,            !- Name
    ,                         !- Transmittance Schedule Name
    autocalculate,            !- Number of Vertices
    687306.4872309718,        !- Vertex 1 Xcoordinate
    4928418.566465696,        !- Vertex 1 Ycoordinate
    15,                       !- Vertex 1 Zcoordinate
    687306.4872309718,        !- Vertex 2 Xcoordinate
    4928418.566465696,        !- Vertex 2 Ycoordinate
    0,                        !- Vertex 2 Zcoordinate
    687299.734489093,         !- Vertex 3 Xcoordinate
    4928432.063134501,        !- Vertex 3 Ycoordinate
    0,                        !- Vertex 3 Zcoordinate
    687299.734489093,         !- Vertex 4 Xcoordinate
    4928432.063134501,        !- Vertex 4 Ycoordinate
    15;                       !- Vertex 4 Zcoordinate

SHADING:SITE:DETAILED,
    shade_33580_3,            !- Name
    ,                         !- Transmittance Schedule Name
    autocalculate,            !- Number of Vertices
    687299.734489093,         !- Vertex 1 Xcoordinate
    4928432.063134501,        !- Vertex 1 Ycoordinate
    15,                       !- Vertex 1 Zcoordinate
    687299.734489093,         !- Vertex 2 Xcoordinate
    4928432.063134501,        !- Vertex 2 Ycoordinate
    0,                        !- Vertex 2 Zcoordinate
    687327.2950744282,        !- Vertex 3 Xcoordinate
    4928445.85242735,         !- Vertex 3 Ycoordinate
    0,                        !- Vertex 3 Zcoordinate
    687327.2950744282,        !- Vertex 4 Xcoordinate
    4928445.85242735,         !- Vertex 4 Ycoordinate
    15;                       !- Vertex 4 Zcoordinate

SHADING:SITE:DETAILED,
    shade_33580_4,            !- Name
    ,                         !- Transmittance Schedule Name
    autocalculate,            !- Number of Vertices
    687327.2950744282,        !- Vertex 1 Xcoordinate
    4928445.85242735,         !- Vertex 1 Ycoordinate
    15,                       !- Vertex 1 Zcoordinate
    687327.2950744282,        !- Vertex 2 Xcoordinate
    4928445.85242735,         !- Vertex 2 Ycoordinate
    0,                        !- Vertex 2 Zcoordinate
    687334.0479984878,        !- Vertex 3 Xcoordinate
    4928432.356119188,        !- Vertex 3 Ycoordinate
    0,                        !- Vertex 3 Zcoordinate
    687334.0479984878,        !- Vertex 4 Xcoordinate
    4928432.356119188,        !- Vertex 4 Ycoordinate
    15;                       !- Vertex 4 Zcoordinate

SHADING:SITE:DETAILED,
    shade_33483_1,            !- Name
    ,                         !- Transmittance Schedule Name
    autocalculate,            !- Number of Vertices
    687327.0869341457,        !- Vertex 1 Xcoordinate
    4928440.0976919625,       !- Vertex 1 Ycoordinate
    15,                       !- Vertex 1 Zcoordinate
    687327.0869341457,        !- Vertex 2 Xcoordinate
    4928440.0976919625,       !- Vertex 2 Ycoordinate
    0,                        !- Vertex 2 Zcoordinate
    687309.2895532097,        !- Vertex 3 Xcoordinate
    4928421.751493129,        !- Vertex 3 Ycoordinate
    0,                        !- Vertex 3 Zcoordinate
    687309.2895532097,        !- Vertex 4 Xcoordinate
    4928421.751493129,        !- Vertex 4 Ycoordinate
    15;                       !- Vertex 4 Zcoordinate

SHADING:SITE:DETAILED,
    shade_33483_2,            !- Name
    ,                         !- Transmittance Schedule Name
    autocalculate,            !- Number of Vertices
    687309.2895532097,        !- Vertex 1 Xcoordinate
    4928421.751493129,        !- Vertex 1 Ycoordinate
    15,                       !- Vertex 1 Zcoordinate
    687309.2895532097,        !- Vertex 2 Xcoordinate
    4928421.751493129,        !- Vertex 2 Ycoordinate
    0,                        !- Vertex 2 Zcoordinate
    687286.5940960987,        !- Vertex 3 Xcoordinate
    4928443.768026329,        !- Vertex 3 Ycoordinate
    0,                        !- Vertex 3 Zcoordinate
    687286.5940960987,        !- Vertex 4 Xcoordinate
    4928443.768026329,        !- Vertex 4 Ycoordinate
    15;                       !- Vertex 4 Zcoordinate

SHADING:SITE:DETAILED,
    shade_33483_3,            !- Name
    ,                         !- Transmittance Schedule Name
    autocalculate,            !- Number of Vertices
    687286.5940960987,        !- Vertex 1 Xcoordinate
    4928443.768026329,        !- Vertex 1 Ycoordinate
    15,                       !- Vertex 1 Zcoordinate
    687286.5940960987,        !- Vertex 2 Xcoordinate
    4928443.768026329,        !- Vertex 2 Ycoordinate
    0,                        !- Vertex 2 Zcoordinate
    687304.3914770347,        !- Vertex 3 Xcoordinate
    4928462.114225162,        !- Vertex 3 Ycoordinate
    0,                        !- Vertex 3 Zcoordinate
    687304.3914770347,        !- Vertex 4 Xcoordinate
    4928462.114225162,        !- Vertex 4 Ycoordinate
    15;                       !- Vertex 4 Zcoordinate

SHADING:SITE:DETAILED,
    shade_33483_4,            !- Name
    ,                         !- Transmittance Schedule Name
    autocalculate,            !- Number of Vertices
    687304.3914770347,        !- Vertex 1 Xcoordinate
    4928462.114225162,        !- Vertex 1 Ycoordinate
    15,                       !- Vertex 1 Zcoordinate
    687304.3914770347,        !- Vertex 2 Xcoordinate
    4928462.114225162,        !- Vertex 2 Ycoordinate
    0,                        !- Vertex 2 Zcoordinate
    687327.0869341457,        !- Vertex 3 Xcoordinate
    4928440.0976919625,       !- Vertex 3 Ycoordinate
    0,                        !- Vertex 3 Zcoordinate
    687327.0869341457,        !- Vertex 4 Xcoordinate
    4928440.0976919625,       !- Vertex 4 Ycoordinate
    15;                       !- Vertex 4 Zcoordinate

SHADING:SITE:DETAILED,
    shade_33388_1,            !- Name
    ,                         !- Transmittance Schedule Name
    autocalculate,            !- Number of Vertices
    687340.8285082474,        !- Vertex 1 Xcoordinate
    4928486.034085382,        !- Vertex 1 Ycoordinate
    15,                       !- Vertex 1 Zcoordinate
    687340.8285082474,        !- Vertex 2 Xcoordinate
    4928486.034085382,        !- Vertex 2 Ycoordinate
    0,                        !- Vertex 2 Zcoordinate
    687356.5637826527,        !- Vertex 3 Xcoordinate
    4928470.53431979,         !- Vertex 3 Ycoordinate
    0,                        !- Vertex 3 Zcoordinate
    687356.5637826527,        !- Vertex 4 Xcoordinate
    4928470.53431979,         !- Vertex 4 Ycoordinate
    15;                       !- Vertex 4 Zcoordinate

SHADING:SITE:DETAILED,
    shade_33388_2,            !- Name
    ,                         !- Transmittance Schedule Name
    autocalculate,            !- Number of Vertices
    687356.5637826527,        !- Vertex 1 Xcoordinate
    4928470.53431979,         !- Vertex 1 Ycoordinate
    15,                       !- Vertex 1 Zcoordinate
    687356.5637826527,        !- Vertex 2 Xcoordinate
    4928470.53431979,         !- Vertex 2 Ycoordinate
    0,                        !- Vertex 2 Zcoordinate
    687332.6347932954,        !- Vertex 3 Xcoordinate
    4928446.241745082,        !- Vertex 3 Ycoordinate
    0,                        !- Vertex 3 Zcoordinate
    687332.6347932954,        !- Vertex 4 Xcoordinate
    4928446.241745082,        !- Vertex 4 Ycoordinate
    15;                       !- Vertex 4 Zcoordinate

SHADING:SITE:DETAILED,
    shade_33388_3,            !- Name
    ,                         !- Transmittance Schedule Name
    autocalculate,            !- Number of Vertices
    687332.6347932954,        !- Vertex 1 Xcoordinate
    4928446.241745082,        !- Vertex 1 Ycoordinate
    15,                       !- Vertex 1 Zcoordinate
    687332.6347932954,        !- Vertex 2 Xcoordinate
    4928446.241745082,        !- Vertex 2 Ycoordinate
    0,                        !- Vertex 2 Zcoordinate
    687316.89951889,          !- Vertex 3 Xcoordinate
    4928461.741510673,        !- Vertex 3 Ycoordinate
    0,                        !- Vertex 3 Zcoordinate
    687316.89951889,          !- Vertex 4 Xcoordinate
    4928461.741510673,        !- Vertex 4 Ycoordinate
    15;                       !- Vertex 4 Zcoordinate

SHADING:SITE:DETAILED,
    shade_33388_4,            !- Name
    ,                         !- Transmittance Schedule Name
    autocalculate,            !- Number of Vertices
    687316.89951889,          !- Vertex 1 Xcoordinate
    4928461.741510673,        !- Vertex 1 Ycoordinate
    15,                       !- Vertex 1 Zcoordinate
    687316.89951889,          !- Vertex 2 Xcoordinate
    4928461.741510673,        !- Vertex 2 Ycoordinate
    0,                        !- Vertex 2 Zcoordinate
    687340.8285082474,        !- Vertex 3 Xcoordinate
    4928486.034085382,        !- Vertex 3 Ycoordinate
    0,                        !- Vertex 3 Zcoordinate
    687340.8285082474,        !- Vertex 4 Xcoordinate
    4928486.034085382,        !- Vertex 4 Ycoordinate
    15;                       !- Vertex 4 Zcoordinate

SHADING:SITE:DETAILED,
    shade_33359_1,            !- Name
    ,                         !- Transmittance Schedule Name
    autocalculate,            !- Number of Vertices
    687309.2809251784,        !- Vertex 1 Xcoordinate
    4928465.390305762,        !- Vertex 1 Ycoordinate
    15,                       !- Vertex 1 Zcoordinate
    687309.2809251784,        !- Vertex 2 Xcoordinate
    4928465.390305762,        !- Vertex 2 Ycoordinate
    0,                        !- Vertex 2 Zcoordinate
    687329.8025730529,        !- Vertex 3 Xcoordinate
    4928499.758368523,        !- Vertex 3 Ycoordinate
    0,                        !- Vertex 3 Zcoordinate
    687329.8025730529,        !- Vertex 4 Xcoordinate
    4928499.758368523,        !- Vertex 4 Ycoordinate
    15;                       !- Vertex 4 Zcoordinate

SHADING:SITE:DETAILED,
    shade_33359_2,            !- Name
    ,                         !- Transmittance Schedule Name
    autocalculate,            !- Number of Vertices
    687329.8025730529,        !- Vertex 1 Xcoordinate
    4928499.758368523,        !- Vertex 1 Ycoordinate
    15,                       !- Vertex 1 Zcoordinate
    687329.8025730529,        !- Vertex 2 Xcoordinate
    4928499.758368523,        !- Vertex 2 Ycoordinate
    0,                        !- Vertex 2 Zcoordinate
    687343.2981287031,        !- Vertex 3 Xcoordinate
    4928491.699984695,        !- Vertex 3 Ycoordinate
    0,                        !- Vertex 3 Zcoordinate
    687343.2981287031,        !- Vertex 4 Xcoordinate
    4928491.699984695,        !- Vertex 4 Ycoordinate
    15;                       !- Vertex 4 Zcoordinate

SHADING:SITE:DETAILED,
    shade_33359_3,            !- Name
    ,                         !- Transmittance Schedule Name
    autocalculate,            !- Number of Vertices
    687343.2981287031,        !- Vertex 1 Xcoordinate
    4928491.699984695,        !- Vertex 1 Ycoordinate
    15,                       !- Vertex 1 Zcoordinate
    687343.2981287031,        !- Vertex 2 Xcoordinate
    4928491.699984695,        !- Vertex 2 Ycoordinate
    0,                        !- Vertex 2 Zcoordinate
    687322.7764808286,        !- Vertex 3 Xcoordinate
    4928457.331921934,        !- Vertex 3 Ycoordinate
    0,                        !- Vertex 3 Zcoordinate
    687322.7764808286,        !- Vertex 4 Xcoordinate
    4928457.331921934,        !- Vertex 4 Ycoordinate
    15;                       !- Vertex 4 Zcoordinate

SHADING:SITE:DETAILED,
    shade_33359_4,            !- Name
    ,                         !- Transmittance Schedule Name
    autocalculate,            !- Number of Vertices
    687322.7764808286,        !- Vertex 1 Xcoordinate
    4928457.331921934,        !- Vertex 1 Ycoordinate
    15,                       !- Vertex 1 Zcoordinate
    687322.7764808286,        !- Vertex 2 Xcoordinate
    4928457.331921934,        !- Vertex 2 Ycoordinate
    0,                        !- Vertex 2 Zcoordinate
    687309.2809251784,        !- Vertex 3 Xcoordinate
    4928465.390305762,        !- Vertex 3 Ycoordinate
    0,                        !- Vertex 3 Zcoordinate
    687309.2809251784,        !- Vertex 4 Xcoordinate
    4928465.390305762,        !- Vertex 4 Ycoordinate
    15;                       !- Vertex 4 Zcoordinate

SHADING:SITE:DETAILED,
    shade_33320_1,            !- Name
    ,                         !- Transmittance Schedule Name
    autocalculate,            !- Number of Vertices
    687297.8649097879,        !- Vertex 1 Xcoordinate
    4928475.86081914,         !- Vertex 1 Ycoordinate
    15,                       !- Vertex 1 Zcoordinate
    687297.8649097879,        !- Vertex 2 Xcoordinate
    4928475.86081914,         !- Vertex 2 Ycoordinate
    0,                        !- Vertex 2 Zcoordinate
    687312.551571513,         !- Vertex 3 Xcoordinate
    4928500.087594219,        !- Vertex 3 Ycoordinate
    0,                        !- Vertex 3 Zcoordinate
    687312.551571513,         !- Vertex 4 Xcoordinate
    4928500.087594219,        !- Vertex 4 Ycoordinate
    15;                       !- Vertex 4 Zcoordinate

SHADING:SITE:DETAILED,
    shade_33320_2,            !- Name
    ,                         !- Transmittance Schedule Name
    autocalculate,            !- Number of Vertices
    687312.551571513,         !- Vertex 1 Xcoordinate
    4928500.087594219,        !- Vertex 1 Ycoordinate
    15,                       !- Vertex 1 Zcoordinate
    687312.551571513,         !- Vertex 2 Xcoordinate
    4928500.087594219,        !- Vertex 2 Ycoordinate
    0,                        !- Vertex 2 Zcoordinate
    687325.7578530943,        !- Vertex 3 Xcoordinate
    4928492.08173337,         !- Vertex 3 Ycoordinate
    0,                        !- Vertex 3 Zcoordinate
    687325.7578530943,        !- Vertex 4 Xcoordinate
    4928492.08173337,         !- Vertex 4 Ycoordinate
    15;                       !- Vertex 4 Zcoordinate

SHADING:SITE:DETAILED,
    shade_33320_3,            !- Name
    ,                         !- Transmittance Schedule Name
    autocalculate,            !- Number of Vertices
    687325.7578530943,        !- Vertex 1 Xcoordinate
    4928492.08173337,         !- Vertex 1 Ycoordinate
    15,                       !- Vertex 1 Zcoordinate
    687325.7578530943,        !- Vertex 2 Xcoordinate
    4928492.08173337,         !- Vertex 2 Ycoordinate
    0,                        !- Vertex 2 Zcoordinate
    687311.0711913692,        !- Vertex 3 Xcoordinate
    4928467.854958292,        !- Vertex 3 Ycoordinate
    0,                        !- Vertex 3 Zcoordinate
    687311.0711913692,        !- Vertex 4 Xcoordinate
    4928467.854958292,        !- Vertex 4 Ycoordinate
    15;                       !- Vertex 4 Zcoordinate

SHADING:SITE:DETAILED,
    shade_33320_4,            !- Name
    ,                         !- Transmittance Schedule Name
    autocalculate,            !- Number of Vertices
    687311.0711913692,        !- Vertex 1 Xcoordinate
    4928467.854958292,        !- Vertex 1 Ycoordinate
    15,                       !- Vertex 1 Zcoordinate
    687311.0711913692,        !- Vertex 2 Xcoordinate
    4928467.854958292,        !- Vertex 2 Ycoordinate
    0,                        !- Vertex 2 Zcoordinate
    687297.8649097879,        !- Vertex 3 Xcoordinate
    4928475.86081914,         !- Vertex 3 Ycoordinate
    0,                        !- Vertex 3 Zcoordinate
    687297.8649097879,        !- Vertex 4 Xcoordinate
    4928475.86081914,         !- Vertex 4 Ycoordinate
    15;                       !- Vertex 4 Zcoordinate

SHADING:SITE:DETAILED,
    shade_33260_1,            !- Name
    ,                         !- Transmittance Schedule Name
    autocalculate,            !- Number of Vertices
    687284.3015151736,        !- Vertex 1 Xcoordinate
    4928490.303432181,        !- Vertex 1 Ycoordinate
    15,                       !- Vertex 1 Zcoordinate
    687284.3015151736,        !- Vertex 2 Xcoordinate
    4928490.303432181,        !- Vertex 2 Ycoordinate
    0,                        !- Vertex 2 Zcoordinate
    687300.3089984882,        !- Vertex 3 Xcoordinate
    4928512.305119187,        !- Vertex 3 Ycoordinate
    0,                        !- Vertex 3 Zcoordinate
    687300.3089984882,        !- Vertex 4 Xcoordinate
    4928512.305119187,        !- Vertex 4 Ycoordinate
    15;                       !- Vertex 4 Zcoordinate

SHADING:SITE:DETAILED,
    shade_33260_2,            !- Name
    ,                         !- Transmittance Schedule Name
    autocalculate,            !- Number of Vertices
    687300.3089984882,        !- Vertex 1 Xcoordinate
    4928512.305119187,        !- Vertex 1 Ycoordinate
    15,                       !- Vertex 1 Zcoordinate
    687300.3089984882,        !- Vertex 2 Xcoordinate
    4928512.305119187,        !- Vertex 2 Ycoordinate
    0,                        !- Vertex 2 Zcoordinate
    687315.7953545338,        !- Vertex 3 Xcoordinate
    4928501.038181492,        !- Vertex 3 Ycoordinate
    0,                        !- Vertex 3 Zcoordinate
    687315.7953545338,        !- Vertex 4 Xcoordinate
    4928501.038181492,        !- Vertex 4 Ycoordinate
    15;                       !- Vertex 4 Zcoordinate

SHADING:SITE:DETAILED,
    shade_33260_3,            !- Name
    ,                         !- Transmittance Schedule Name
    autocalculate,            !- Number of Vertices
    687315.7953545338,        !- Vertex 1 Xcoordinate
    4928501.038181492,        !- Vertex 1 Ycoordinate
    15,                       !- Vertex 1 Zcoordinate
    687315.7953545338,        !- Vertex 2 Xcoordinate
    4928501.038181492,        !- Vertex 2 Ycoordinate
    0,                        !- Vertex 2 Zcoordinate
    687299.7889984881,        !- Vertex 3 Xcoordinate
    4928479.036119188,        !- Vertex 3 Ycoordinate
    0,                        !- Vertex 3 Zcoordinate
    687299.7889984881,        !- Vertex 4 Xcoordinate
    4928479.036119188,        !- Vertex 4 Ycoordinate
    15;                       !- Vertex 4 Zcoordinate

SHADING:SITE:DETAILED,
    shade_33260_4,            !- Name
    ,                         !- Transmittance Schedule Name
    autocalculate,            !- Number of Vertices
    687299.7889984881,        !- Vertex 1 Xcoordinate
    4928479.036119188,        !- Vertex 1 Ycoordinate
    15,                       !- Vertex 1 Zcoordinate
    687299.7889984881,        !- Vertex 2 Xcoordinate
    4928479.036119188,        !- Vertex 2 Ycoordinate
    0,                        !- Vertex 2 Zcoordinate
    687284.3015151736,        !- Vertex 3 Xcoordinate
    4928490.303432181,        !- Vertex 3 Ycoordinate
    0,                        !- Vertex 3 Zcoordinate
    687284.3015151736,        !- Vertex 4 Xcoordinate
    4928490.303432181,        !- Vertex 4 Ycoordinate
    15;                       !- Vertex 4 Zcoordinate

SHADING:SITE:DETAILED,
    shade_32994_1,            !- Name
    ,                         !- Transmittance Schedule Name
    autocalculate,            !- Number of Vertices
    687197.550998489,         !- Vertex 1 Xcoordinate
    4928560.426119188,        !- Vertex 1 Ycoordinate
    15,                       !- Vertex 1 Zcoordinate
    687197.550998489,         !- Vertex 2 Xcoordinate
    4928560.426119188,        !- Vertex 2 Ycoordinate
    0,                        !- Vertex 2 Zcoordinate
    687293.5300059322,        !- Vertex 3 Xcoordinate
    4928465.697508849,        !- Vertex 3 Ycoordinate
    0,                        !- Vertex 3 Zcoordinate
    687293.5300059322,        !- Vertex 4 Xcoordinate
    4928465.697508849,        !- Vertex 4 Ycoordinate
    15;                       !- Vertex 4 Zcoordinate

SHADING:SITE:DETAILED,
    shade_32994_2,            !- Name
    ,                         !- Transmittance Schedule Name
    autocalculate,            !- Number of Vertices
    687293.5300059322,        !- Vertex 1 Xcoordinate
    4928465.697508849,        !- Vertex 1 Ycoordinate
    15,                       !- Vertex 1 Zcoordinate
    687293.5300059322,        !- Vertex 2 Xcoordinate
    4928465.697508849,        !- Vertex 2 Ycoordinate
    0,                        !- Vertex 2 Zcoordinate
    687249.1699785417,        !- Vertex 3 Xcoordinate
    4928420.751848312,        !- Vertex 3 Ycoordinate
    0,                        !- Vertex 3 Zcoordinate
    687249.1699785417,        !- Vertex 4 Xcoordinate
    4928420.751848312,        !- Vertex 4 Ycoordinate
    15;                       !- Vertex 4 Zcoordinate

SHADING:SITE:DETAILED,
    shade_32994_3,            !- Name
    ,                         !- Transmittance Schedule Name
    autocalculate,            !- Number of Vertices
    687249.1699785417,        !- Vertex 1 Xcoordinate
    4928420.751848312,        !- Vertex 1 Ycoordinate
    15,                       !- Vertex 1 Zcoordinate
    687249.1699785417,        !- Vertex 2 Xcoordinate
    4928420.751848312,        !- Vertex 2 Ycoordinate
    0,                        !- Vertex 2 Zcoordinate
    687153.1904053878,        !- Vertex 3 Xcoordinate
    4928515.480826486,        !- Vertex 3 Ycoordinate
    0,                        !- Vertex 3 Zcoordinate
    687153.1904053878,        !- Vertex 4 Xcoordinate
    4928515.480826486,        !- Vertex 4 Ycoordinate
    15;                       !- Vertex 4 Zcoordinate

SHADING:SITE:DETAILED,
    shade_32994_4,            !- Name
    ,                         !- Transmittance Schedule Name
    autocalculate,            !- Number of Vertices
    687153.1904053878,        !- Vertex 1 Xcoordinate
    4928515.480826486,        !- Vertex 1 Ycoordinate
    15,                       !- Vertex 1 Zcoordinate
    687153.1904053878,        !- Vertex 2 Xcoordinate
    4928515.480826486,        !- Vertex 2 Ycoordinate
    0,                        !- Vertex 2 Zcoordinate
    687197.550998489,         !- Vertex 3 Xcoordinate
    4928560.426119188,        !- Vertex 3 Ycoordinate
    0,                        !- Vertex 3 Zcoordinate
    687197.550998489,         !- Vertex 4 Xcoordinate
    4928560.426119188,        !- Vertex 4 Ycoordinate
    15;                       !- Vertex 4 Zcoordinate

OTHEREQUIPMENT,
    EU_Step8_InternalGain_9f01e916ca8364c5_F0_whole_f000,    !- Name
    Electricity,              !- Fuel Type
    9f01e916ca8364c5_F0_whole,    !- Zone or ZoneList or Space or SpaceList Name
    EU_Step8_GainSchedule_9f01e916ca8364c5_F0_whole_f000,    !- Schedule Name
    Watts/Area,               !- Design Level Calculation Method
    ,                         !- Design Level
    1,                        !- Power per Zone Floor Area
    ,                         !- Power per Person
    0,                        !- Fraction Latent
    0,                        !- Fraction Radiant
    0,                        !- Fraction Lost
    0,                        !- Carbon Dioxide Generation Rate
    EU_Step8_InternalGains;    !- EndUse Subcategory

OTHEREQUIPMENT,
    EU_Step8_InternalGain_9f01e916ca8364c5_F1_whole_f000,    !- Name
    Electricity,              !- Fuel Type
    9f01e916ca8364c5_F1_whole,    !- Zone or ZoneList or Space or SpaceList Name
    EU_Step8_GainSchedule_9f01e916ca8364c5_F1_whole_f000,    !- Schedule Name
    Watts/Area,               !- Design Level Calculation Method
    ,                         !- Design Level
    1,                        !- Power per Zone Floor Area
    ,                         !- Power per Person
    0,                        !- Fraction Latent
    0,                        !- Fraction Radiant
    0,                        !- Fraction Lost
    0,                        !- Carbon Dioxide Generation Rate
    EU_Step8_InternalGains;    !- EndUse Subcategory

OTHEREQUIPMENT,
    EU_Step8_InternalGain_9f01e916ca8364c5_F2_whole_f000,    !- Name
    Electricity,              !- Fuel Type
    9f01e916ca8364c5_F2_whole,    !- Zone or ZoneList or Space or SpaceList Name
    EU_Step8_GainSchedule_9f01e916ca8364c5_F2_whole_f000,    !- Schedule Name
    Watts/Area,               !- Design Level Calculation Method
    ,                         !- Design Level
    1,                        !- Power per Zone Floor Area
    ,                         !- Power per Person
    0,                        !- Fraction Latent
    0,                        !- Fraction Radiant
    0,                        !- Fraction Lost
    0,                        !- Carbon Dioxide Generation Rate
    EU_Step8_InternalGains;    !- EndUse Subcategory

OTHEREQUIPMENT,
    EU_Step8_InternalGain_9f01e916ca8364c5_F3_whole_f000,    !- Name
    Electricity,              !- Fuel Type
    9f01e916ca8364c5_F3_whole,    !- Zone or ZoneList or Space or SpaceList Name
    EU_Step8_GainSchedule_9f01e916ca8364c5_F3_whole_f000,    !- Schedule Name
    Watts/Area,               !- Design Level Calculation Method
    ,                         !- Design Level
    1,                        !- Power per Zone Floor Area
    ,                         !- Power per Person
    0,                        !- Fraction Latent
    0,                        !- Fraction Radiant
    0,                        !- Fraction Lost
    0,                        !- Carbon Dioxide Generation Rate
    EU_Step8_InternalGains;    !- EndUse Subcategory

OTHEREQUIPMENT,
    EU_Step8_InternalGain_9f01e916ca8364c5_F4_whole_f000,    !- Name
    Electricity,              !- Fuel Type
    9f01e916ca8364c5_F4_whole,    !- Zone or ZoneList or Space or SpaceList Name
    EU_Step8_GainSchedule_9f01e916ca8364c5_F4_whole_f000,    !- Schedule Name
    Watts/Area,               !- Design Level Calculation Method
    ,                         !- Design Level
    1,                        !- Power per Zone Floor Area
    ,                         !- Power per Person
    0,                        !- Fraction Latent
    0,                        !- Fraction Radiant
    0,                        !- Fraction Lost
    0,                        !- Carbon Dioxide Generation Rate
    EU_Step8_InternalGains;    !- EndUse Subcategory

ZONEVENTILATION:DESIGNFLOWRATE,
    EU_ConstantAir_9f01e916ca8364c5_F0_whole,    !- Name
    9f01e916ca8364c5_F0_whole,    !- Zone or ZoneList or Space or SpaceList Name
    EU_AlwaysOn,              !- Schedule Name
    AirChanges/Hour,          !- Design Flow Rate Calculation Method
    ,                         !- Design Flow Rate
    ,                         !- Flow Rate per Floor Area
    ,                         !- Flow Rate per Person
    0.7312898234710613,       !- Air Changes per Hour
    Natural,                  !- Ventilation Type
    0,                        !- Fan Pressure Rise
    1,                        !- Fan Total Efficiency
    1,                        !- Constant Term Coefficient
    0,                        !- Temperature Term Coefficient
    0,                        !- Velocity Term Coefficient
    0,                        !- Velocity Squared Term Coefficient
    -100,                     !- Minimum Indoor Temperature
    ,                         !- Minimum Indoor Temperature Schedule Name
    100,                      !- Maximum Indoor Temperature
    ,                         !- Maximum Indoor Temperature Schedule Name
    -100,                     !- Delta Temperature
    ,                         !- Delta Temperature Schedule Name
    -100,                     !- Minimum Outdoor Temperature
    ,                         !- Minimum Outdoor Temperature Schedule Name
    100,                      !- Maximum Outdoor Temperature
    ,                         !- Maximum Outdoor Temperature Schedule Name
    40;                       !- Maximum Wind Speed

ZONEVENTILATION:DESIGNFLOWRATE,
    EU_ConstantAir_9f01e916ca8364c5_F1_whole,    !- Name
    9f01e916ca8364c5_F1_whole,    !- Zone or ZoneList or Space or SpaceList Name
    EU_AlwaysOn,              !- Schedule Name
    AirChanges/Hour,          !- Design Flow Rate Calculation Method
    ,                         !- Design Flow Rate
    ,                         !- Flow Rate per Floor Area
    ,                         !- Flow Rate per Person
    0.7312898234710613,       !- Air Changes per Hour
    Natural,                  !- Ventilation Type
    0,                        !- Fan Pressure Rise
    1,                        !- Fan Total Efficiency
    1,                        !- Constant Term Coefficient
    0,                        !- Temperature Term Coefficient
    0,                        !- Velocity Term Coefficient
    0,                        !- Velocity Squared Term Coefficient
    -100,                     !- Minimum Indoor Temperature
    ,                         !- Minimum Indoor Temperature Schedule Name
    100,                      !- Maximum Indoor Temperature
    ,                         !- Maximum Indoor Temperature Schedule Name
    -100,                     !- Delta Temperature
    ,                         !- Delta Temperature Schedule Name
    -100,                     !- Minimum Outdoor Temperature
    ,                         !- Minimum Outdoor Temperature Schedule Name
    100,                      !- Maximum Outdoor Temperature
    ,                         !- Maximum Outdoor Temperature Schedule Name
    40;                       !- Maximum Wind Speed

ZONEVENTILATION:DESIGNFLOWRATE,
    EU_ConstantAir_9f01e916ca8364c5_F2_whole,    !- Name
    9f01e916ca8364c5_F2_whole,    !- Zone or ZoneList or Space or SpaceList Name
    EU_AlwaysOn,              !- Schedule Name
    AirChanges/Hour,          !- Design Flow Rate Calculation Method
    ,                         !- Design Flow Rate
    ,                         !- Flow Rate per Floor Area
    ,                         !- Flow Rate per Person
    0.7312898234710613,       !- Air Changes per Hour
    Natural,                  !- Ventilation Type
    0,                        !- Fan Pressure Rise
    1,                        !- Fan Total Efficiency
    1,                        !- Constant Term Coefficient
    0,                        !- Temperature Term Coefficient
    0,                        !- Velocity Term Coefficient
    0,                        !- Velocity Squared Term Coefficient
    -100,                     !- Minimum Indoor Temperature
    ,                         !- Minimum Indoor Temperature Schedule Name
    100,                      !- Maximum Indoor Temperature
    ,                         !- Maximum Indoor Temperature Schedule Name
    -100,                     !- Delta Temperature
    ,                         !- Delta Temperature Schedule Name
    -100,                     !- Minimum Outdoor Temperature
    ,                         !- Minimum Outdoor Temperature Schedule Name
    100,                      !- Maximum Outdoor Temperature
    ,                         !- Maximum Outdoor Temperature Schedule Name
    40;                       !- Maximum Wind Speed

ZONEVENTILATION:DESIGNFLOWRATE,
    EU_ConstantAir_9f01e916ca8364c5_F3_whole,    !- Name
    9f01e916ca8364c5_F3_whole,    !- Zone or ZoneList or Space or SpaceList Name
    EU_AlwaysOn,              !- Schedule Name
    AirChanges/Hour,          !- Design Flow Rate Calculation Method
    ,                         !- Design Flow Rate
    ,                         !- Flow Rate per Floor Area
    ,                         !- Flow Rate per Person
    0.7312898234710613,       !- Air Changes per Hour
    Natural,                  !- Ventilation Type
    0,                        !- Fan Pressure Rise
    1,                        !- Fan Total Efficiency
    1,                        !- Constant Term Coefficient
    0,                        !- Temperature Term Coefficient
    0,                        !- Velocity Term Coefficient
    0,                        !- Velocity Squared Term Coefficient
    -100,                     !- Minimum Indoor Temperature
    ,                         !- Minimum Indoor Temperature Schedule Name
    100,                      !- Maximum Indoor Temperature
    ,                         !- Maximum Indoor Temperature Schedule Name
    -100,                     !- Delta Temperature
    ,                         !- Delta Temperature Schedule Name
    -100,                     !- Minimum Outdoor Temperature
    ,                         !- Minimum Outdoor Temperature Schedule Name
    100,                      !- Maximum Outdoor Temperature
    ,                         !- Maximum Outdoor Temperature Schedule Name
    40;                       !- Maximum Wind Speed

ZONEVENTILATION:DESIGNFLOWRATE,
    EU_ConstantAir_9f01e916ca8364c5_F4_whole,    !- Name
    9f01e916ca8364c5_F4_whole,    !- Zone or ZoneList or Space or SpaceList Name
    EU_AlwaysOn,              !- Schedule Name
    AirChanges/Hour,          !- Design Flow Rate Calculation Method
    ,                         !- Design Flow Rate
    ,                         !- Flow Rate per Floor Area
    ,                         !- Flow Rate per Person
    0.7312898234710613,       !- Air Changes per Hour
    Natural,                  !- Ventilation Type
    0,                        !- Fan Pressure Rise
    1,                        !- Fan Total Efficiency
    1,                        !- Constant Term Coefficient
    0,                        !- Temperature Term Coefficient
    0,                        !- Velocity Term Coefficient
    0,                        !- Velocity Squared Term Coefficient
    -100,                     !- Minimum Indoor Temperature
    ,                         !- Minimum Indoor Temperature Schedule Name
    100,                      !- Maximum Indoor Temperature
    ,                         !- Maximum Indoor Temperature Schedule Name
    -100,                     !- Delta Temperature
    ,                         !- Delta Temperature Schedule Name
    -100,                     !- Minimum Outdoor Temperature
    ,                         !- Minimum Outdoor Temperature Schedule Name
    100,                      !- Maximum Outdoor Temperature
    ,                         !- Maximum Outdoor Temperature Schedule Name
    40;                       !- Maximum Wind Speed

HVACTEMPLATE:THERMOSTAT,
    EU_HeatOnly_9f01e916ca8364c5_F0_whole,    !- Name
    ,                         !- Heating Setpoint Schedule Name
    20,                       !- Constant Heating Setpoint
    ,                         !- Cooling Setpoint Schedule Name
    50;                       !- Constant Cooling Setpoint

HVACTEMPLATE:THERMOSTAT,
    EU_HeatOnly_9f01e916ca8364c5_F1_whole,    !- Name
    ,                         !- Heating Setpoint Schedule Name
    20,                       !- Constant Heating Setpoint
    ,                         !- Cooling Setpoint Schedule Name
    50;                       !- Constant Cooling Setpoint

HVACTEMPLATE:THERMOSTAT,
    EU_HeatOnly_9f01e916ca8364c5_F2_whole,    !- Name
    ,                         !- Heating Setpoint Schedule Name
    20,                       !- Constant Heating Setpoint
    ,                         !- Cooling Setpoint Schedule Name
    50;                       !- Constant Cooling Setpoint

HVACTEMPLATE:THERMOSTAT,
    EU_HeatOnly_9f01e916ca8364c5_F3_whole,    !- Name
    ,                         !- Heating Setpoint Schedule Name
    20,                       !- Constant Heating Setpoint
    ,                         !- Cooling Setpoint Schedule Name
    50;                       !- Constant Cooling Setpoint

HVACTEMPLATE:THERMOSTAT,
    EU_HeatOnly_9f01e916ca8364c5_F4_whole,    !- Name
    ,                         !- Heating Setpoint Schedule Name
    20,                       !- Constant Heating Setpoint
    ,                         !- Cooling Setpoint Schedule Name
    50;                       !- Constant Cooling Setpoint

HVACTEMPLATE:ZONE:IDEALLOADSAIRSYSTEM,
    9f01e916ca8364c5_F0_whole,    !- Zone Name
    EU_HeatOnly_9f01e916ca8364c5_F0_whole,    !- Template Thermostat Name
    EU_AlwaysOn,              !- System Availability Schedule Name
    50,                       !- Maximum Heating Supply Air Temperature
    13,                       !- Minimum Cooling Supply Air Temperature
    0.0156,                   !- Maximum Heating Supply Air Humidity Ratio
    0.0077,                   !- Minimum Cooling Supply Air Humidity Ratio
    NoLimit,                  !- Heating Limit
    ,                         !- Maximum Heating Air Flow Rate
    ,                         !- Maximum Sensible Heating Capacity
    NoLimit,                  !- Cooling Limit
    ,                         !- Maximum Cooling Air Flow Rate
    ,                         !- Maximum Total Cooling Capacity
    EU_AlwaysOn,              !- Heating Availability Schedule Name
    EU_CoolingOff,            !- Cooling Availability Schedule Name
    ConstantSensibleHeatRatio,    !- Dehumidification Control Type
    0.7,                      !- Cooling Sensible Heat Ratio
    60,                       !- Dehumidification Setpoint
    None,                     !- Humidification Control Type
    30,                       !- Humidification Setpoint
    None,                     !- Outdoor Air Method
    0.00944,                  !- Outdoor Air Flow Rate per Person
    0.0,                      !- Outdoor Air Flow Rate per Zone Floor Area
    0,                        !- Outdoor Air Flow Rate per Zone
    ,                         !- Design Specification Outdoor Air Object Name
    None,                     !- Demand Controlled Ventilation Type
    NoEconomizer,             !- Outdoor Air Economizer Type
    None,                     !- Heat Recovery Type
    0.70,                     !- Sensible Heat Recovery Effectiveness
    0.65;                     !- Latent Heat Recovery Effectiveness

HVACTEMPLATE:ZONE:IDEALLOADSAIRSYSTEM,
    9f01e916ca8364c5_F1_whole,    !- Zone Name
    EU_HeatOnly_9f01e916ca8364c5_F1_whole,    !- Template Thermostat Name
    EU_AlwaysOn,              !- System Availability Schedule Name
    50,                       !- Maximum Heating Supply Air Temperature
    13,                       !- Minimum Cooling Supply Air Temperature
    0.0156,                   !- Maximum Heating Supply Air Humidity Ratio
    0.0077,                   !- Minimum Cooling Supply Air Humidity Ratio
    NoLimit,                  !- Heating Limit
    ,                         !- Maximum Heating Air Flow Rate
    ,                         !- Maximum Sensible Heating Capacity
    NoLimit,                  !- Cooling Limit
    ,                         !- Maximum Cooling Air Flow Rate
    ,                         !- Maximum Total Cooling Capacity
    EU_AlwaysOn,              !- Heating Availability Schedule Name
    EU_CoolingOff,            !- Cooling Availability Schedule Name
    ConstantSensibleHeatRatio,    !- Dehumidification Control Type
    0.7,                      !- Cooling Sensible Heat Ratio
    60,                       !- Dehumidification Setpoint
    None,                     !- Humidification Control Type
    30,                       !- Humidification Setpoint
    None,                     !- Outdoor Air Method
    0.00944,                  !- Outdoor Air Flow Rate per Person
    0.0,                      !- Outdoor Air Flow Rate per Zone Floor Area
    0,                        !- Outdoor Air Flow Rate per Zone
    ,                         !- Design Specification Outdoor Air Object Name
    None,                     !- Demand Controlled Ventilation Type
    NoEconomizer,             !- Outdoor Air Economizer Type
    None,                     !- Heat Recovery Type
    0.70,                     !- Sensible Heat Recovery Effectiveness
    0.65;                     !- Latent Heat Recovery Effectiveness

HVACTEMPLATE:ZONE:IDEALLOADSAIRSYSTEM,
    9f01e916ca8364c5_F2_whole,    !- Zone Name
    EU_HeatOnly_9f01e916ca8364c5_F2_whole,    !- Template Thermostat Name
    EU_AlwaysOn,              !- System Availability Schedule Name
    50,                       !- Maximum Heating Supply Air Temperature
    13,                       !- Minimum Cooling Supply Air Temperature
    0.0156,                   !- Maximum Heating Supply Air Humidity Ratio
    0.0077,                   !- Minimum Cooling Supply Air Humidity Ratio
    NoLimit,                  !- Heating Limit
    ,                         !- Maximum Heating Air Flow Rate
    ,                         !- Maximum Sensible Heating Capacity
    NoLimit,                  !- Cooling Limit
    ,                         !- Maximum Cooling Air Flow Rate
    ,                         !- Maximum Total Cooling Capacity
    EU_AlwaysOn,              !- Heating Availability Schedule Name
    EU_CoolingOff,            !- Cooling Availability Schedule Name
    ConstantSensibleHeatRatio,    !- Dehumidification Control Type
    0.7,                      !- Cooling Sensible Heat Ratio
    60,                       !- Dehumidification Setpoint
    None,                     !- Humidification Control Type
    30,                       !- Humidification Setpoint
    None,                     !- Outdoor Air Method
    0.00944,                  !- Outdoor Air Flow Rate per Person
    0.0,                      !- Outdoor Air Flow Rate per Zone Floor Area
    0,                        !- Outdoor Air Flow Rate per Zone
    ,                         !- Design Specification Outdoor Air Object Name
    None,                     !- Demand Controlled Ventilation Type
    NoEconomizer,             !- Outdoor Air Economizer Type
    None,                     !- Heat Recovery Type
    0.70,                     !- Sensible Heat Recovery Effectiveness
    0.65;                     !- Latent Heat Recovery Effectiveness

HVACTEMPLATE:ZONE:IDEALLOADSAIRSYSTEM,
    9f01e916ca8364c5_F3_whole,    !- Zone Name
    EU_HeatOnly_9f01e916ca8364c5_F3_whole,    !- Template Thermostat Name
    EU_AlwaysOn,              !- System Availability Schedule Name
    50,                       !- Maximum Heating Supply Air Temperature
    13,                       !- Minimum Cooling Supply Air Temperature
    0.0156,                   !- Maximum Heating Supply Air Humidity Ratio
    0.0077,                   !- Minimum Cooling Supply Air Humidity Ratio
    NoLimit,                  !- Heating Limit
    ,                         !- Maximum Heating Air Flow Rate
    ,                         !- Maximum Sensible Heating Capacity
    NoLimit,                  !- Cooling Limit
    ,                         !- Maximum Cooling Air Flow Rate
    ,                         !- Maximum Total Cooling Capacity
    EU_AlwaysOn,              !- Heating Availability Schedule Name
    EU_CoolingOff,            !- Cooling Availability Schedule Name
    ConstantSensibleHeatRatio,    !- Dehumidification Control Type
    0.7,                      !- Cooling Sensible Heat Ratio
    60,                       !- Dehumidification Setpoint
    None,                     !- Humidification Control Type
    30,                       !- Humidification Setpoint
    None,                     !- Outdoor Air Method
    0.00944,                  !- Outdoor Air Flow Rate per Person
    0.0,                      !- Outdoor Air Flow Rate per Zone Floor Area
    0,                        !- Outdoor Air Flow Rate per Zone
    ,                         !- Design Specification Outdoor Air Object Name
    None,                     !- Demand Controlled Ventilation Type
    NoEconomizer,             !- Outdoor Air Economizer Type
    None,                     !- Heat Recovery Type
    0.70,                     !- Sensible Heat Recovery Effectiveness
    0.65;                     !- Latent Heat Recovery Effectiveness

HVACTEMPLATE:ZONE:IDEALLOADSAIRSYSTEM,
    9f01e916ca8364c5_F4_whole,    !- Zone Name
    EU_HeatOnly_9f01e916ca8364c5_F4_whole,    !- Template Thermostat Name
    EU_AlwaysOn,              !- System Availability Schedule Name
    50,                       !- Maximum Heating Supply Air Temperature
    13,                       !- Minimum Cooling Supply Air Temperature
    0.0156,                   !- Maximum Heating Supply Air Humidity Ratio
    0.0077,                   !- Minimum Cooling Supply Air Humidity Ratio
    NoLimit,                  !- Heating Limit
    ,                         !- Maximum Heating Air Flow Rate
    ,                         !- Maximum Sensible Heating Capacity
    NoLimit,                  !- Cooling Limit
    ,                         !- Maximum Cooling Air Flow Rate
    ,                         !- Maximum Total Cooling Capacity
    EU_AlwaysOn,              !- Heating Availability Schedule Name
    EU_CoolingOff,            !- Cooling Availability Schedule Name
    ConstantSensibleHeatRatio,    !- Dehumidification Control Type
    0.7,                      !- Cooling Sensible Heat Ratio
    60,                       !- Dehumidification Setpoint
    None,                     !- Humidification Control Type
    30,                       !- Humidification Setpoint
    None,                     !- Outdoor Air Method
    0.00944,                  !- Outdoor Air Flow Rate per Person
    0.0,                      !- Outdoor Air Flow Rate per Zone Floor Area
    0,                        !- Outdoor Air Flow Rate per Zone
    ,                         !- Design Specification Outdoor Air Object Name
    None,                     !- Demand Controlled Ventilation Type
    NoEconomizer,             !- Outdoor Air Economizer Type
    None,                     !- Heat Recovery Type
    0.70,                     !- Sensible Heat Recovery Effectiveness
    0.65;                     !- Latent Heat Recovery Effectiveness

SIZING:ZONE,
    9f01e916ca8364c5_F0_whole,    !- Zone or ZoneList Name
    SupplyAirTemperature,     !- Zone Cooling Design Supply Air Temperature Input Method
    13,                       !- Zone Cooling Design Supply Air Temperature
    ,                         !- Zone Cooling Design Supply Air Temperature Difference
    SupplyAirTemperature,     !- Zone Heating Design Supply Air Temperature Input Method
    50,                       !- Zone Heating Design Supply Air Temperature
    ,                         !- Zone Heating Design Supply Air Temperature Difference
    0.008,                    !- Zone Cooling Design Supply Air Humidity Ratio
    0.008,                    !- Zone Heating Design Supply Air Humidity Ratio
    ,                         !- Design Specification Outdoor Air Object Name
    ,                         !- Zone Heating Sizing Factor
    ,                         !- Zone Cooling Sizing Factor
    DesignDay,                !- Cooling Design Air Flow Method
    0,                        !- Cooling Design Air Flow Rate
    0.000762,                 !- Cooling Minimum Air Flow per Zone Floor Area
    0,                        !- Cooling Minimum Air Flow
    0.2,                      !- Cooling Minimum Air Flow Fraction
    DesignDay,                !- Heating Design Air Flow Method
    0,                        !- Heating Design Air Flow Rate
    0.002032,                 !- Heating Maximum Air Flow per Zone Floor Area
    0.1415762,                !- Heating Maximum Air Flow
    0.3,                      !- Heating Maximum Air Flow Fraction
    ,                         !- Design Specification Zone Air Distribution Object Name
    No,                       !- Account for Dedicated Outdoor Air System
    NeutralSupplyAir,         !- Dedicated Outdoor Air System Control Strategy
    autosize,                 !- Dedicated Outdoor Air Low Setpoint Temperature for Design
    autosize,                 !- Dedicated Outdoor Air High Setpoint Temperature for Design
    Sensible Load Only No Latent Load,    !- Zone Load Sizing Method
    HumidityRatioDifference,    !- Zone Latent Cooling Design Supply Air Humidity Ratio Input Method
    ,                         !- Zone Dehumidification Design Supply Air Humidity Ratio
    0.005,                    !- Zone Cooling Design Supply Air Humidity Ratio Difference
    HumidityRatioDifference,    !- Zone Latent Heating Design Supply Air Humidity Ratio Input Method
    ,                         !- Zone Humidification Design Supply Air Humidity Ratio
    0.005;                    !- Zone Humidification Design Supply Air Humidity Ratio Difference

SIZING:ZONE,
    9f01e916ca8364c5_F1_whole,    !- Zone or ZoneList Name
    SupplyAirTemperature,     !- Zone Cooling Design Supply Air Temperature Input Method
    13,                       !- Zone Cooling Design Supply Air Temperature
    ,                         !- Zone Cooling Design Supply Air Temperature Difference
    SupplyAirTemperature,     !- Zone Heating Design Supply Air Temperature Input Method
    50,                       !- Zone Heating Design Supply Air Temperature
    ,                         !- Zone Heating Design Supply Air Temperature Difference
    0.008,                    !- Zone Cooling Design Supply Air Humidity Ratio
    0.008,                    !- Zone Heating Design Supply Air Humidity Ratio
    ,                         !- Design Specification Outdoor Air Object Name
    ,                         !- Zone Heating Sizing Factor
    ,                         !- Zone Cooling Sizing Factor
    DesignDay,                !- Cooling Design Air Flow Method
    0,                        !- Cooling Design Air Flow Rate
    0.000762,                 !- Cooling Minimum Air Flow per Zone Floor Area
    0,                        !- Cooling Minimum Air Flow
    0.2,                      !- Cooling Minimum Air Flow Fraction
    DesignDay,                !- Heating Design Air Flow Method
    0,                        !- Heating Design Air Flow Rate
    0.002032,                 !- Heating Maximum Air Flow per Zone Floor Area
    0.1415762,                !- Heating Maximum Air Flow
    0.3,                      !- Heating Maximum Air Flow Fraction
    ,                         !- Design Specification Zone Air Distribution Object Name
    No,                       !- Account for Dedicated Outdoor Air System
    NeutralSupplyAir,         !- Dedicated Outdoor Air System Control Strategy
    autosize,                 !- Dedicated Outdoor Air Low Setpoint Temperature for Design
    autosize,                 !- Dedicated Outdoor Air High Setpoint Temperature for Design
    Sensible Load Only No Latent Load,    !- Zone Load Sizing Method
    HumidityRatioDifference,    !- Zone Latent Cooling Design Supply Air Humidity Ratio Input Method
    ,                         !- Zone Dehumidification Design Supply Air Humidity Ratio
    0.005,                    !- Zone Cooling Design Supply Air Humidity Ratio Difference
    HumidityRatioDifference,    !- Zone Latent Heating Design Supply Air Humidity Ratio Input Method
    ,                         !- Zone Humidification Design Supply Air Humidity Ratio
    0.005;                    !- Zone Humidification Design Supply Air Humidity Ratio Difference

SIZING:ZONE,
    9f01e916ca8364c5_F2_whole,    !- Zone or ZoneList Name
    SupplyAirTemperature,     !- Zone Cooling Design Supply Air Temperature Input Method
    13,                       !- Zone Cooling Design Supply Air Temperature
    ,                         !- Zone Cooling Design Supply Air Temperature Difference
    SupplyAirTemperature,     !- Zone Heating Design Supply Air Temperature Input Method
    50,                       !- Zone Heating Design Supply Air Temperature
    ,                         !- Zone Heating Design Supply Air Temperature Difference
    0.008,                    !- Zone Cooling Design Supply Air Humidity Ratio
    0.008,                    !- Zone Heating Design Supply Air Humidity Ratio
    ,                         !- Design Specification Outdoor Air Object Name
    ,                         !- Zone Heating Sizing Factor
    ,                         !- Zone Cooling Sizing Factor
    DesignDay,                !- Cooling Design Air Flow Method
    0,                        !- Cooling Design Air Flow Rate
    0.000762,                 !- Cooling Minimum Air Flow per Zone Floor Area
    0,                        !- Cooling Minimum Air Flow
    0.2,                      !- Cooling Minimum Air Flow Fraction
    DesignDay,                !- Heating Design Air Flow Method
    0,                        !- Heating Design Air Flow Rate
    0.002032,                 !- Heating Maximum Air Flow per Zone Floor Area
    0.1415762,                !- Heating Maximum Air Flow
    0.3,                      !- Heating Maximum Air Flow Fraction
    ,                         !- Design Specification Zone Air Distribution Object Name
    No,                       !- Account for Dedicated Outdoor Air System
    NeutralSupplyAir,         !- Dedicated Outdoor Air System Control Strategy
    autosize,                 !- Dedicated Outdoor Air Low Setpoint Temperature for Design
    autosize,                 !- Dedicated Outdoor Air High Setpoint Temperature for Design
    Sensible Load Only No Latent Load,    !- Zone Load Sizing Method
    HumidityRatioDifference,    !- Zone Latent Cooling Design Supply Air Humidity Ratio Input Method
    ,                         !- Zone Dehumidification Design Supply Air Humidity Ratio
    0.005,                    !- Zone Cooling Design Supply Air Humidity Ratio Difference
    HumidityRatioDifference,    !- Zone Latent Heating Design Supply Air Humidity Ratio Input Method
    ,                         !- Zone Humidification Design Supply Air Humidity Ratio
    0.005;                    !- Zone Humidification Design Supply Air Humidity Ratio Difference

SIZING:ZONE,
    9f01e916ca8364c5_F3_whole,    !- Zone or ZoneList Name
    SupplyAirTemperature,     !- Zone Cooling Design Supply Air Temperature Input Method
    13,                       !- Zone Cooling Design Supply Air Temperature
    ,                         !- Zone Cooling Design Supply Air Temperature Difference
    SupplyAirTemperature,     !- Zone Heating Design Supply Air Temperature Input Method
    50,                       !- Zone Heating Design Supply Air Temperature
    ,                         !- Zone Heating Design Supply Air Temperature Difference
    0.008,                    !- Zone Cooling Design Supply Air Humidity Ratio
    0.008,                    !- Zone Heating Design Supply Air Humidity Ratio
    ,                         !- Design Specification Outdoor Air Object Name
    ,                         !- Zone Heating Sizing Factor
    ,                         !- Zone Cooling Sizing Factor
    DesignDay,                !- Cooling Design Air Flow Method
    0,                        !- Cooling Design Air Flow Rate
    0.000762,                 !- Cooling Minimum Air Flow per Zone Floor Area
    0,                        !- Cooling Minimum Air Flow
    0.2,                      !- Cooling Minimum Air Flow Fraction
    DesignDay,                !- Heating Design Air Flow Method
    0,                        !- Heating Design Air Flow Rate
    0.002032,                 !- Heating Maximum Air Flow per Zone Floor Area
    0.1415762,                !- Heating Maximum Air Flow
    0.3,                      !- Heating Maximum Air Flow Fraction
    ,                         !- Design Specification Zone Air Distribution Object Name
    No,                       !- Account for Dedicated Outdoor Air System
    NeutralSupplyAir,         !- Dedicated Outdoor Air System Control Strategy
    autosize,                 !- Dedicated Outdoor Air Low Setpoint Temperature for Design
    autosize,                 !- Dedicated Outdoor Air High Setpoint Temperature for Design
    Sensible Load Only No Latent Load,    !- Zone Load Sizing Method
    HumidityRatioDifference,    !- Zone Latent Cooling Design Supply Air Humidity Ratio Input Method
    ,                         !- Zone Dehumidification Design Supply Air Humidity Ratio
    0.005,                    !- Zone Cooling Design Supply Air Humidity Ratio Difference
    HumidityRatioDifference,    !- Zone Latent Heating Design Supply Air Humidity Ratio Input Method
    ,                         !- Zone Humidification Design Supply Air Humidity Ratio
    0.005;                    !- Zone Humidification Design Supply Air Humidity Ratio Difference

SIZING:ZONE,
    9f01e916ca8364c5_F4_whole,    !- Zone or ZoneList Name
    SupplyAirTemperature,     !- Zone Cooling Design Supply Air Temperature Input Method
    13,                       !- Zone Cooling Design Supply Air Temperature
    ,                         !- Zone Cooling Design Supply Air Temperature Difference
    SupplyAirTemperature,     !- Zone Heating Design Supply Air Temperature Input Method
    50,                       !- Zone Heating Design Supply Air Temperature
    ,                         !- Zone Heating Design Supply Air Temperature Difference
    0.008,                    !- Zone Cooling Design Supply Air Humidity Ratio
    0.008,                    !- Zone Heating Design Supply Air Humidity Ratio
    ,                         !- Design Specification Outdoor Air Object Name
    ,                         !- Zone Heating Sizing Factor
    ,                         !- Zone Cooling Sizing Factor
    DesignDay,                !- Cooling Design Air Flow Method
    0,                        !- Cooling Design Air Flow Rate
    0.000762,                 !- Cooling Minimum Air Flow per Zone Floor Area
    0,                        !- Cooling Minimum Air Flow
    0.2,                      !- Cooling Minimum Air Flow Fraction
    DesignDay,                !- Heating Design Air Flow Method
    0,                        !- Heating Design Air Flow Rate
    0.002032,                 !- Heating Maximum Air Flow per Zone Floor Area
    0.1415762,                !- Heating Maximum Air Flow
    0.3,                      !- Heating Maximum Air Flow Fraction
    ,                         !- Design Specification Zone Air Distribution Object Name
    No,                       !- Account for Dedicated Outdoor Air System
    NeutralSupplyAir,         !- Dedicated Outdoor Air System Control Strategy
    autosize,                 !- Dedicated Outdoor Air Low Setpoint Temperature for Design
    autosize,                 !- Dedicated Outdoor Air High Setpoint Temperature for Design
    Sensible Load Only No Latent Load,    !- Zone Load Sizing Method
    HumidityRatioDifference,    !- Zone Latent Cooling Design Supply Air Humidity Ratio Input Method
    ,                         !- Zone Dehumidification Design Supply Air Humidity Ratio
    0.005,                    !- Zone Cooling Design Supply Air Humidity Ratio Difference
    HumidityRatioDifference,    !- Zone Latent Heating Design Supply Air Humidity Ratio Input Method
    ,                         !- Zone Humidification Design Supply Air Humidity Ratio
    0.005;                    !- Zone Humidification Design Supply Air Humidity Ratio Difference

OUTPUT:VARIABLE,
    *,                        !- Key Value
    Zone Ideal Loads Zone Total Heating Energy,    !- Variable Name
    Hourly;                   !- Reporting Frequency

OUTPUT:SQLITE,
    SimpleAndTabular,         !- Option Type
    UseOutputControlTableStyle;    !- Unit Conversion for Tabular Data