!- Windows Line endings 

Version,
    23.1;                     !- Version Identifier

SimulationControl,
    Yes,                      !- Do Zone Sizing Calculation
    Yes,                      !- Do System Sizing Calculation
    Yes,                      !- Do Plant Sizing Calculation
    No,                       !- Run Simulation for Sizing Periods
    Yes,                      !- Run Simulation for Weather File Run Periods
    No,                       !- Do HVAC Sizing Simulation for Sizing Periods
    1;                        !- Maximum Number of HVAC Sizing Simulation Passes

Building,
    EU S2 Campaign,           !- Name
    0,                        !- North Axis
    City,                     !- Terrain
    ,                         !- Loads Convergence Tolerance Value
    ,                         !- Temperature Convergence Tolerance Value
    FullExterior,             !- Solar Distribution
    ,                         !- Maximum Number of Warmup Days
    ;                         !- Minimum Number of Warmup Days

ShadowCalculation,
    PolygonClipping,          !- Shading Calculation Method
    Periodic,                 !- Shading Calculation Update Frequency Method
    1;                        !- Shading Calculation Update Frequency

HeatBalanceAlgorithm,
    ConductionTransferFunction,    !- Algorithm
    200,                      !- Surface Temperature Upper Limit
    0.1,                      !- Minimum Surface Convection Heat Transfer Coefficient Value
    10000000;                 !- Maximum Surface Convection Heat Transfer Coefficient Value

Timestep,
    12;                       !- Number of Timesteps per Hour

Site:Location,
    Bologna,                  !- Name
    44.5,                     !- Latitude
    11.25,                    !- Longitude
    1,                        !- Time Zone
    37;                       !- Elevation

SizingPeriod:WeatherFileDays,
    AnnualSizingPeriod,       !- Name
    1,                        !- Begin Month
    1,                        !- Begin Day of Month
    12,                       !- End Month
    31,                       !- End Day of Month
    Monday,                   !- Day of Week for Start Day
    No,                       !- Use Weather File Daylight Saving Period
    No;                       !- Use Weather File Rain and Snow Indicators

RunPeriod,
    RunPeriod1,               !- Name
    1,                        !- Begin Month
    1,                        !- Begin Day of Month
    ,                         !- Begin Year
    12,                       !- End Month
    31,                       !- End Day of Month
    ,                         !- End Year
    Sunday,                   !- Day of Week for Start Day
    No,                       !- Use Weather File Holidays and Special Days
    No,                       !- Use Weather File Daylight Saving Period
    No,                       !- Apply Weekend Holiday Rule
    Yes,                      !- Use Weather File Rain Indicators
    Yes;                      !- Use Weather File Snow Indicators

ScheduleTypeLimits,
    Any Number;               !- Name

SCHEDULETYPELIMITS,
    EU_Step8_AnyNumber_Wm2,    !- Name
    ,                         !- Lower Limit Value
    ,                         !- Upper Limit Value
    Continuous,               !- Numeric Type
    Dimensionless;            !- Unit Type

SCHEDULE:CONSTANT,
    EU_AlwaysOn,              !- Name
    ,                         !- Schedule Type Limits Name
    1;                        !- Hourly Value

SCHEDULE:CONSTANT,
    EU_CoolingOff,            !- Name
    ,                         !- Schedule Type Limits Name
    0;                        !- Hourly Value

SCHEDULE:FILE,
    EU_Step8_GainSchedule_e23ce139c5dc9bcc_F0_whole_f000,    !- Name
    EU_Step8_AnyNumber_Wm2,    !- Schedule Type Limits Name
    ../../schedules/e23ce139c5dc9bcc/e23ce139c5dc9bcc_F0_whole_f000_gain.csv,    !- File Name
    1,                        !- Column Number
    0,                        !- Rows to Skip at Top
    8760,                     !- Number of Hours of Data
    Comma,                    !- Column Separator
    No,                       !- Interpolate to Timestep
    60,                       !- Minutes per Item
    Yes;                      !- Adjust Schedule for Daylight Savings

SCHEDULE:FILE,
    EU_Step8_GainSchedule_e23ce139c5dc9bcc_F1_whole_f000,    !- Name
    EU_Step8_AnyNumber_Wm2,    !- Schedule Type Limits Name
    ../../schedules/e23ce139c5dc9bcc/e23ce139c5dc9bcc_F1_whole_f000_gain.csv,    !- File Name
    1,                        !- Column Number
    0,                        !- Rows to Skip at Top
    8760,                     !- Number of Hours of Data
    Comma,                    !- Column Separator
    No,                       !- Interpolate to Timestep
    60,                       !- Minutes per Item
    Yes;                      !- Adjust Schedule for Daylight Savings

SCHEDULE:FILE,
    EU_Step8_GainSchedule_e23ce139c5dc9bcc_F2_whole_f000,    !- Name
    EU_Step8_AnyNumber_Wm2,    !- Schedule Type Limits Name
    ../../schedules/e23ce139c5dc9bcc/e23ce139c5dc9bcc_F2_whole_f000_gain.csv,    !- File Name
    1,                        !- Column Number
    0,                        !- Rows to Skip at Top
    8760,                     !- Number of Hours of Data
    Comma,                    !- Column Separator
    No,                       !- Interpolate to Timestep
    60,                       !- Minutes per Item
    Yes;                      !- Adjust Schedule for Daylight Savings

SCHEDULE:FILE,
    EU_Step8_GainSchedule_e23ce139c5dc9bcc_F3_whole_f000,    !- Name
    EU_Step8_AnyNumber_Wm2,    !- Schedule Type Limits Name
    ../../schedules/e23ce139c5dc9bcc/e23ce139c5dc9bcc_F3_whole_f000_gain.csv,    !- File Name
    1,                        !- Column Number
    0,                        !- Rows to Skip at Top
    8760,                     !- Number of Hours of Data
    Comma,                    !- Column Separator
    No,                       !- Interpolate to Timestep
    60,                       !- Minutes per Item
    Yes;                      !- Adjust Schedule for Daylight Savings

MATERIAL,
    EU_InternalMass_Material,    !- Name
    MediumRough,              !- Roughness
    0.1,                      !- Thickness
    1,                        !- Conductivity
    1800,                     !- Density
    900,                      !- Specific Heat
    0.9,                      !- Thermal Absorptance
    0.7,                      !- Solar Absorptance
    0.7;                      !- Visible Absorptance

MATERIAL:NOMASS,
    EU_wall_NoMass,           !- Name
    MediumRough,              !- Roughness
    0.9378813067869615,       !- Thermal Resistance
    0.9,                      !- Thermal Absorptance
    0.7,                      !- Solar Absorptance
    0.7;                      !- Visible Absorptance

MATERIAL:NOMASS,
    EU_roof_NoMass,           !- Name
    MediumRough,              !- Roughness
    0.5485720851018077,       !- Thermal Resistance
    0.9,                      !- Thermal Absorptance
    0.7,                      !- Solar Absorptance
    0.7;                      !- Visible Absorptance

MATERIAL:NOMASS,
    EU_floor_NoMass,          !- Name
    MediumRough,              !- Roughness
    0.7134802579238234,       !- Thermal Resistance
    0.9,                      !- Thermal Absorptance
    0.7,                      !- Solar Absorptance
    0.7;                      !- Visible Absorptance

CONSTRUCTION,
    EU_wall_Construction,     !- Name
    EU_wall_NoMass;           !- Outside Layer

CONSTRUCTION,
    EU_roof_Construction,     !- Name
    EU_roof_NoMass;           !- Outside Layer

CONSTRUCTION,
    EU_floor_Construction,    !- Name
    EU_floor_NoMass;          !- Outside Layer

CONSTRUCTION,
    EU_InternalMass_Construction,    !- Name
    EU_InternalMass_Material;    !- Outside Layer

GlobalGeometryRules,
    UpperLeftCorner,          !- Starting Vertex Position
    CounterClockWise,         !- Vertex Entry Direction
    World;                    !- Coordinate System

ZONE,
    e23ce139c5dc9bcc_F0_whole,    !- Name
    0,                        !- Direction of Relative North
    0,                        !- X Origin
    0,                        !- Y Origin
    0,                        !- Z Origin
    1,                        !- Type
    1,                        !- Multiplier
    autocalculate,            !- Ceiling Height
    170.088134765625,         !- Volume
    autocalculate,            !- Floor Area
    ,                         !- Zone Inside Convection Algorithm
    ,                         !- Zone Outside Convection Algorithm
    Yes;                      !- Part of Total Floor Area

ZONE,
    e23ce139c5dc9bcc_F1_whole,    !- Name
    0,                        !- Direction of Relative North
    0,                        !- X Origin
    0,                        !- Y Origin
    0,                        !- Z Origin
    1,                        !- Type
    1,                        !- Multiplier
    autocalculate,            !- Ceiling Height
    170.0888671875,           !- Volume
    autocalculate,            !- Floor Area
    ,                         !- Zone Inside Convection Algorithm
    ,                         !- Zone Outside Convection Algorithm
    Yes;                      !- Part of Total Floor Area

ZONE,
    e23ce139c5dc9bcc_F2_whole,    !- Name
    0,                        !- Direction of Relative North
    0,                        !- X Origin
    0,                        !- Y Origin
    0,                        !- Z Origin
    1,                        !- Type
    1,                        !- Multiplier
    autocalculate,            !- Ceiling Height
    170.0888671875,           !- Volume
    autocalculate,            !- Floor Area
    ,                         !- Zone Inside Convection Algorithm
    ,                         !- Zone Outside Convection Algorithm
    Yes;                      !- Part of Total Floor Area

ZONE,
    e23ce139c5dc9bcc_F3_whole,    !- Name
    0,                        !- Direction of Relative North
    0,                        !- X Origin
    0,                        !- Y Origin
    0,                        !- Z Origin
    1,                        !- Type
    1,                        !- Multiplier
    autocalculate,            !- Ceiling Height
    170.0888671875,           !- Volume
    autocalculate,            !- Floor Area
    ,                         !- Zone Inside Convection Algorithm
    ,                         !- Zone Outside Convection Algorithm
    Yes;                      !- Part of Total Floor Area

BUILDINGSURFACE:DETAILED,
    Block e23ce139c5dc9bcc_whole Storey 0 Wall 0001,    !- Name
    wall,                     !- Surface Type
    EU_wall_Construction,     !- Construction Name
    e23ce139c5dc9bcc_F0_whole,    !- Zone Name
    ,                         !- Space Name
    outdoors,                 !- Outside Boundary Condition
    ,                         !- Outside Boundary Condition Object
    SunExposed,               !- Sun Exposure
    WindExposed,              !- Wind Exposure
    autocalculate,            !- View Factor to Ground
    autocalculate,            !- Number of Vertices
    687035.92,                !- Vertex 1 Xcoordinate
    4928850.225,              !- Vertex 1 Ycoordinate
    3,                        !- Vertex 1 Zcoordinate
    687035.92,                !- Vertex 2 Xcoordinate
    4928850.225,              !- Vertex 2 Ycoordinate
    0,                        !- Vertex 2 Zcoordinate
    687045.82,                !- Vertex 3 Xcoordinate
    4928858.085,              !- Vertex 3 Ycoordinate
    0,                        !- Vertex 3 Zcoordinate
    687045.82,                !- Vertex 4 Xcoordinate
    4928858.085,              !- Vertex 4 Ycoordinate
    3;                        !- Vertex 4 Zcoordinate

BUILDINGSURFACE:DETAILED,
    Block e23ce139c5dc9bcc_whole Storey 0 Wall 0002,    !- Name
    wall,                     !- Surface Type
    EU_wall_Construction,     !- Construction Name
    e23ce139c5dc9bcc_F0_whole,    !- Zone Name
    ,                         !- Space Name
    outdoors,                 !- Outside Boundary Condition
    ,                         !- Outside Boundary Condition Object
    SunExposed,               !- Sun Exposure
    WindExposed,              !- Wind Exposure
    autocalculate,            !- View Factor to Ground
    autocalculate,            !- Number of Vertices
    687045.82,                !- Vertex 1 Xcoordinate
    4928858.085,              !- Vertex 1 Ycoordinate
    3,                        !- Vertex 1 Zcoordinate
    687045.82,                !- Vertex 2 Xcoordinate
    4928858.085,              !- Vertex 2 Ycoordinate
    0,                        !- Vertex 2 Zcoordinate
    687048.61,                !- Vertex 3 Xcoordinate
    4928854.57,               !- Vertex 3 Ycoordinate
    0,                        !- Vertex 3 Zcoordinate
    687048.61,                !- Vertex 4 Xcoordinate
    4928854.57,               !- Vertex 4 Ycoordinate
    3;                        !- Vertex 4 Zcoordinate

BUILDINGSURFACE:DETAILED,
    Block e23ce139c5dc9bcc_whole Storey 0 Wall 0003,    !- Name
    wall,                     !- Surface Type
    EU_wall_Construction,     !- Construction Name
    e23ce139c5dc9bcc_F0_whole,    !- Zone Name
    ,                         !- Space Name
    outdoors,                 !- Outside Boundary Condition
    ,                         !- Outside Boundary Condition Object
    SunExposed,               !- Sun Exposure
    WindExposed,              !- Wind Exposure
    autocalculate,            !- View Factor to Ground
    autocalculate,            !- Number of Vertices
    687048.61,                !- Vertex 1 Xcoordinate
    4928854.57,               !- Vertex 1 Ycoordinate
    3,                        !- Vertex 1 Zcoordinate
    687048.61,                !- Vertex 2 Xcoordinate
    4928854.57,               !- Vertex 2 Ycoordinate
    0,                        !- Vertex 2 Zcoordinate
    687038.71,                !- Vertex 3 Xcoordinate
    4928846.715,              !- Vertex 3 Ycoordinate
    0,                        !- Vertex 3 Zcoordinate
    687038.71,                !- Vertex 4 Xcoordinate
    4928846.715,              !- Vertex 4 Ycoordinate
    3;                        !- Vertex 4 Zcoordinate

BUILDINGSURFACE:DETAILED,
    Block e23ce139c5dc9bcc_whole Storey 0 Wall 0004,    !- Name
    wall,                     !- Surface Type
    EU_wall_Construction,     !- Construction Name
    e23ce139c5dc9bcc_F0_whole,    !- Zone Name
    ,                         !- Space Name
    Adiabatic,                !- Outside Boundary Condition
    ,                         !- Outside Boundary Condition Object
    NoSun,                    !- Sun Exposure
    NoWind,                   !- Wind Exposure
    autocalculate,            !- View Factor to Ground
    autocalculate,            !- Number of Vertices
    687038.71,                !- Vertex 1 Xcoordinate
    4928846.715,              !- Vertex 1 Ycoordinate
    3,                        !- Vertex 1 Zcoordinate
    687038.71,                !- Vertex 2 Xcoordinate
    4928846.715,              !- Vertex 2 Ycoordinate
    0,                        !- Vertex 2 Zcoordinate
    687035.92,                !- Vertex 3 Xcoordinate
    4928850.225,              !- Vertex 3 Ycoordinate
    0,                        !- Vertex 3 Zcoordinate
    687035.92,                !- Vertex 4 Xcoordinate
    4928850.225,              !- Vertex 4 Ycoordinate
    3;                        !- Vertex 4 Zcoordinate

BUILDINGSURFACE:DETAILED,
    Block e23ce139c5dc9bcc_whole Storey 0 Floor 0001,    !- Name
    floor,                    !- Surface Type
    EU_floor_Construction,    !- Construction Name
    e23ce139c5dc9bcc_F0_whole,    !- Zone Name
    ,                         !- Space Name
    ground,                   !- Outside Boundary Condition
    ,                         !- Outside Boundary Condition Object
    NoSun,                    !- Sun Exposure
    NoWind,                   !- Wind Exposure
    autocalculate,            !- View Factor to Ground
    autocalculate,            !- Number of Vertices
    687048.61,                !- Vertex 1 Xcoordinate
    4928854.57,               !- Vertex 1 Ycoordinate
    0,                        !- Vertex 1 Zcoordinate
    687045.82,                !- Vertex 2 Xcoordinate
    4928858.085,              !- Vertex 2 Ycoordinate
    0,                        !- Vertex 2 Zcoordinate
    687035.92,                !- Vertex 3 Xcoordinate
    4928850.225,              !- Vertex 3 Ycoordinate
    0,                        !- Vertex 3 Zcoordinate
    687038.71,                !- Vertex 4 Xcoordinate
    4928846.715,              !- Vertex 4 Ycoordinate
    0;                        !- Vertex 4 Zcoordinate

BUILDINGSURFACE:DETAILED,
    Block e23ce139c5dc9bcc_whole Storey 1 Wall 0001,    !- Name
    wall,                     !- Surface Type
    EU_wall_Construction,     !- Construction Name
    e23ce139c5dc9bcc_F1_whole,    !- Zone Name
    ,                         !- Space Name
    outdoors,                 !- Outside Boundary Condition
    ,                         !- Outside Boundary Condition Object
    SunExposed,               !- Sun Exposure
    WindExposed,              !- Wind Exposure
    autocalculate,            !- View Factor to Ground
    autocalculate,            !- Number of Vertices
    687035.92,                !- Vertex 1 Xcoordinate
    4928850.225,              !- Vertex 1 Ycoordinate
    6,                        !- Vertex 1 Zcoordinate
    687035.92,                !- Vertex 2 Xcoordinate
    4928850.225,              !- Vertex 2 Ycoordinate
    3,                        !- Vertex 2 Zcoordinate
    687045.82,                !- Vertex 3 Xcoordinate
    4928858.085,              !- Vertex 3 Ycoordinate
    3,                        !- Vertex 3 Zcoordinate
    687045.82,                !- Vertex 4 Xcoordinate
    4928858.085,              !- Vertex 4 Ycoordinate
    6;                        !- Vertex 4 Zcoordinate

BUILDINGSURFACE:DETAILED,
    Block e23ce139c5dc9bcc_whole Storey 1 Wall 0002,    !- Name
    wall,                     !- Surface Type
    EU_wall_Construction,     !- Construction Name
    e23ce139c5dc9bcc_F1_whole,    !- Zone Name
    ,                         !- Space Name
    outdoors,                 !- Outside Boundary Condition
    ,                         !- Outside Boundary Condition Object
    SunExposed,               !- Sun Exposure
    WindExposed,              !- Wind Exposure
    autocalculate,            !- View Factor to Ground
    autocalculate,            !- Number of Vertices
    687045.82,                !- Vertex 1 Xcoordinate
    4928858.085,              !- Vertex 1 Ycoordinate
    6,                        !- Vertex 1 Zcoordinate
    687045.82,                !- Vertex 2 Xcoordinate
    4928858.085,              !- Vertex 2 Ycoordinate
    3,                        !- Vertex 2 Zcoordinate
    687048.61,                !- Vertex 3 Xcoordinate
    4928854.57,               !- Vertex 3 Ycoordinate
    3,                        !- Vertex 3 Zcoordinate
    687048.61,                !- Vertex 4 Xcoordinate
    4928854.57,               !- Vertex 4 Ycoordinate
    6;                        !- Vertex 4 Zcoordinate

BUILDINGSURFACE:DETAILED,
    Block e23ce139c5dc9bcc_whole Storey 1 Wall 0003,    !- Name
    wall,                     !- Surface Type
    EU_wall_Construction,     !- Construction Name
    e23ce139c5dc9bcc_F1_whole,    !- Zone Name
    ,                         !- Space Name
    outdoors,                 !- Outside Boundary Condition
    ,                         !- Outside Boundary Condition Object
    SunExposed,               !- Sun Exposure
    WindExposed,              !- Wind Exposure
    autocalculate,            !- View Factor to Ground
    autocalculate,            !- Number of Vertices
    687048.61,                !- Vertex 1 Xcoordinate
    4928854.57,               !- Vertex 1 Ycoordinate
    6,                        !- Vertex 1 Zcoordinate
    687048.61,                !- Vertex 2 Xcoordinate
    4928854.57,               !- Vertex 2 Ycoordinate
    3,                        !- Vertex 2 Zcoordinate
    687038.71,                !- Vertex 3 Xcoordinate
    4928846.715,              !- Vertex 3 Ycoordinate
    3,                        !- Vertex 3 Zcoordinate
    687038.71,                !- Vertex 4 Xcoordinate
    4928846.715,              !- Vertex 4 Ycoordinate
    6;                        !- Vertex 4 Zcoordinate

BUILDINGSURFACE:DETAILED,
    Block e23ce139c5dc9bcc_whole Storey 1 Wall 0004,    !- Name
    wall,                     !- Surface Type
    EU_wall_Construction,     !- Construction Name
    e23ce139c5dc9bcc_F1_whole,    !- Zone Name
    ,                         !- Space Name
    Adiabatic,                !- Outside Boundary Condition
    ,                         !- Outside Boundary Condition Object
    NoSun,                    !- Sun Exposure
    NoWind,                   !- Wind Exposure
    autocalculate,            !- View Factor to Ground
    autocalculate,            !- Number of Vertices
    687038.71,                !- Vertex 1 Xcoordinate
    4928846.715,              !- Vertex 1 Ycoordinate
    6,                        !- Vertex 1 Zcoordinate
    687038.71,                !- Vertex 2 Xcoordinate
    4928846.715,              !- Vertex 2 Ycoordinate
    3,                        !- Vertex 2 Zcoordinate
    687035.92,                !- Vertex 3 Xcoordinate
    4928850.225,              !- Vertex 3 Ycoordinate
    3,                        !- Vertex 3 Zcoordinate
    687035.92,                !- Vertex 4 Xcoordinate
    4928850.225,              !- Vertex 4 Ycoordinate
    6;                        !- Vertex 4 Zcoordinate

BUILDINGSURFACE:DETAILED,
    Block e23ce139c5dc9bcc_whole Storey 2 Wall 0001,    !- Name
    wall,                     !- Surface Type
    EU_wall_Construction,     !- Construction Name
    e23ce139c5dc9bcc_F2_whole,    !- Zone Name
    ,                         !- Space Name
    outdoors,                 !- Outside Boundary Condition
    ,                         !- Outside Boundary Condition Object
    SunExposed,               !- Sun Exposure
    WindExposed,              !- Wind Exposure
    autocalculate,            !- View Factor to Ground
    autocalculate,            !- Number of Vertices
    687035.92,                !- Vertex 1 Xcoordinate
    4928850.225,              !- Vertex 1 Ycoordinate
    9,                        !- Vertex 1 Zcoordinate
    687035.92,                !- Vertex 2 Xcoordinate
    4928850.225,              !- Vertex 2 Ycoordinate
    6,                        !- Vertex 2 Zcoordinate
    687045.82,                !- Vertex 3 Xcoordinate
    4928858.085,              !- Vertex 3 Ycoordinate
    6,                        !- Vertex 3 Zcoordinate
    687045.82,                !- Vertex 4 Xcoordinate
    4928858.085,              !- Vertex 4 Ycoordinate
    9;                        !- Vertex 4 Zcoordinate

BUILDINGSURFACE:DETAILED,
    Block e23ce139c5dc9bcc_whole Storey 2 Wall 0002,    !- Name
    wall,                     !- Surface Type
    EU_wall_Construction,     !- Construction Name
    e23ce139c5dc9bcc_F2_whole,    !- Zone Name
    ,                         !- Space Name
    outdoors,                 !- Outside Boundary Condition
    ,                         !- Outside Boundary Condition Object
    SunExposed,               !- Sun Exposure
    WindExposed,              !- Wind Exposure
    autocalculate,            !- View Factor to Ground
    autocalculate,            !- Number of Vertices
    687045.82,                !- Vertex 1 Xcoordinate
    4928858.085,              !- Vertex 1 Ycoordinate
    9,                        !- Vertex 1 Zcoordinate
    687045.82,                !- Vertex 2 Xcoordinate
    4928858.085,              !- Vertex 2 Ycoordinate
    6,                        !- Vertex 2 Zcoordinate
    687048.61,                !- Vertex 3 Xcoordinate
    4928854.57,               !- Vertex 3 Ycoordinate
    6,                        !- Vertex 3 Zcoordinate
    687048.61,                !- Vertex 4 Xcoordinate
    4928854.57,               !- Vertex 4 Ycoordinate
    9;                        !- Vertex 4 Zcoordinate

BUILDINGSURFACE:DETAILED,
    Block e23ce139c5dc9bcc_whole Storey 2 Wall 0003,    !- Name
    wall,                     !- Surface Type
    EU_wall_Construction,     !- Construction Name
    e23ce139c5dc9bcc_F2_whole,    !- Zone Name
    ,                         !- Space Name
    outdoors,                 !- Outside Boundary Condition
    ,                         !- Outside Boundary Condition Object
    SunExposed,               !- Sun Exposure
    WindExposed,              !- Wind Exposure
    autocalculate,            !- View Factor to Ground
    autocalculate,            !- Number of Vertices
    687048.61,                !- Vertex 1 Xcoordinate
    4928854.57,               !- Vertex 1 Ycoordinate
    9,                        !- Vertex 1 Zcoordinate
    687048.61,                !- Vertex 2 Xcoordinate
    4928854.57,               !- Vertex 2 Ycoordinate
    6,                        !- Vertex 2 Zcoordinate
    687038.71,                !- Vertex 3 Xcoordinate
    4928846.715,              !- Vertex 3 Ycoordinate
    6,                        !- Vertex 3 Zcoordinate
    687038.71,                !- Vertex 4 Xcoordinate
    4928846.715,              !- Vertex 4 Ycoordinate
    9;                        !- Vertex 4 Zcoordinate

BUILDINGSURFACE:DETAILED,
    Block e23ce139c5dc9bcc_whole Storey 2 Wall 0004,    !- Name
    wall,                     !- Surface Type
    EU_wall_Construction,     !- Construction Name
    e23ce139c5dc9bcc_F2_whole,    !- Zone Name
    ,                         !- Space Name
    Adiabatic,                !- Outside Boundary Condition
    ,                         !- Outside Boundary Condition Object
    NoSun,                    !- Sun Exposure
    NoWind,                   !- Wind Exposure
    autocalculate,            !- View Factor to Ground
    autocalculate,            !- Number of Vertices
    687038.71,                !- Vertex 1 Xcoordinate
    4928846.715,              !- Vertex 1 Ycoordinate
    9,                        !- Vertex 1 Zcoordinate
    687038.71,                !- Vertex 2 Xcoordinate
    4928846.715,              !- Vertex 2 Ycoordinate
    6,                        !- Vertex 2 Zcoordinate
    687035.92,                !- Vertex 3 Xcoordinate
    4928850.225,              !- Vertex 3 Ycoordinate
    6,                        !- Vertex 3 Zcoordinate
    687035.92,                !- Vertex 4 Xcoordinate
    4928850.225,              !- Vertex 4 Ycoordinate
    9;                        !- Vertex 4 Zcoordinate

BUILDINGSURFACE:DETAILED,
    Block e23ce139c5dc9bcc_whole Storey 3 Wall 0001,    !- Name
    wall,                     !- Surface Type
    EU_wall_Construction,     !- Construction Name
    e23ce139c5dc9bcc_F3_whole,    !- Zone Name
    ,                         !- Space Name
    outdoors,                 !- Outside Boundary Condition
    ,                         !- Outside Boundary Condition Object
    SunExposed,               !- Sun Exposure
    WindExposed,              !- Wind Exposure
    autocalculate,            !- View Factor to Ground
    autocalculate,            !- Number of Vertices
    687035.92,                !- Vertex 1 Xcoordinate
    4928850.225,              !- Vertex 1 Ycoordinate
    12,                       !- Vertex 1 Zcoordinate
    687035.92,                !- Vertex 2 Xcoordinate
    4928850.225,              !- Vertex 2 Ycoordinate
    9,                        !- Vertex 2 Zcoordinate
    687045.82,                !- Vertex 3 Xcoordinate
    4928858.085,              !- Vertex 3 Ycoordinate
    9,                        !- Vertex 3 Zcoordinate
    687045.82,                !- Vertex 4 Xcoordinate
    4928858.085,              !- Vertex 4 Ycoordinate
    12;                       !- Vertex 4 Zcoordinate

BUILDINGSURFACE:DETAILED,
    Block e23ce139c5dc9bcc_whole Storey 3 Wall 0002,    !- Name
    wall,                     !- Surface Type
    EU_wall_Construction,     !- Construction Name
    e23ce139c5dc9bcc_F3_whole,    !- Zone Name
    ,                         !- Space Name
    outdoors,                 !- Outside Boundary Condition
    ,                         !- Outside Boundary Condition Object
    SunExposed,               !- Sun Exposure
    WindExposed,              !- Wind Exposure
    autocalculate,            !- View Factor to Ground
    autocalculate,            !- Number of Vertices
    687045.82,                !- Vertex 1 Xcoordinate
    4928858.085,              !- Vertex 1 Ycoordinate
    12,                       !- Vertex 1 Zcoordinate
    687045.82,                !- Vertex 2 Xcoordinate
    4928858.085,              !- Vertex 2 Ycoordinate
    9,                        !- Vertex 2 Zcoordinate
    687048.61,                !- Vertex 3 Xcoordinate
    4928854.57,               !- Vertex 3 Ycoordinate
    9,                        !- Vertex 3 Zcoordinate
    687048.61,                !- Vertex 4 Xcoordinate
    4928854.57,               !- Vertex 4 Ycoordinate
    12;                       !- Vertex 4 Zcoordinate

BUILDINGSURFACE:DETAILED,
    Block e23ce139c5dc9bcc_whole Storey 3 Wall 0003,    !- Name
    wall,                     !- Surface Type
    EU_wall_Construction,     !- Construction Name
    e23ce139c5dc9bcc_F3_whole,    !- Zone Name
    ,                         !- Space Name
    outdoors,                 !- Outside Boundary Condition
    ,                         !- Outside Boundary Condition Object
    SunExposed,               !- Sun Exposure
    WindExposed,              !- Wind Exposure
    autocalculate,            !- View Factor to Ground
    autocalculate,            !- Number of Vertices
    687048.61,                !- Vertex 1 Xcoordinate
    4928854.57,               !- Vertex 1 Ycoordinate
    12,                       !- Vertex 1 Zcoordinate
    687048.61,                !- Vertex 2 Xcoordinate
    4928854.57,               !- Vertex 2 Ycoordinate
    9,                        !- Vertex 2 Zcoordinate
    687038.71,                !- Vertex 3 Xcoordinate
    4928846.715,              !- Vertex 3 Ycoordinate
    9,                        !- Vertex 3 Zcoordinate
    687038.71,                !- Vertex 4 Xcoordinate
    4928846.715,              !- Vertex 4 Ycoordinate
    12;                       !- Vertex 4 Zcoordinate

BUILDINGSURFACE:DETAILED,
    Block e23ce139c5dc9bcc_whole Storey 3 Wall 0004,    !- Name
    wall,                     !- Surface Type
    EU_wall_Construction,     !- Construction Name
    e23ce139c5dc9bcc_F3_whole,    !- Zone Name
    ,                         !- Space Name
    Adiabatic,                !- Outside Boundary Condition
    ,                         !- Outside Boundary Condition Object
    NoSun,                    !- Sun Exposure
    NoWind,                   !- Wind Exposure
    autocalculate,            !- View Factor to Ground
    autocalculate,            !- Number of Vertices
    687038.71,                !- Vertex 1 Xcoordinate
    4928846.715,              !- Vertex 1 Ycoordinate
    12,                       !- Vertex 1 Zcoordinate
    687038.71,                !- Vertex 2 Xcoordinate
    4928846.715,              !- Vertex 2 Ycoordinate
    9,                        !- Vertex 2 Zcoordinate
    687035.92,                !- Vertex 3 Xcoordinate
    4928850.225,              !- Vertex 3 Ycoordinate
    9,                        !- Vertex 3 Zcoordinate
    687035.92,                !- Vertex 4 Xcoordinate
    4928850.225,              !- Vertex 4 Ycoordinate
    12;                       !- Vertex 4 Zcoordinate

BUILDINGSURFACE:DETAILED,
    Block e23ce139c5dc9bcc_whole Storey 3 Roof 0001,    !- Name
    roof,                     !- Surface Type
    EU_roof_Construction,     !- Construction Name
    e23ce139c5dc9bcc_F3_whole,    !- Zone Name
    ,                         !- Space Name
    outdoors,                 !- Outside Boundary Condition
    ,                         !- Outside Boundary Condition Object
    NoSun,                    !- Sun Exposure
    WindExposed,              !- Wind Exposure
    autocalculate,            !- View Factor to Ground
    autocalculate,            !- Number of Vertices
    687045.82,                !- Vertex 1 Xcoordinate
    4928858.085,              !- Vertex 1 Ycoordinate
    12,                       !- Vertex 1 Zcoordinate
    687048.61,                !- Vertex 2 Xcoordinate
    4928854.57,               !- Vertex 2 Ycoordinate
    12,                       !- Vertex 2 Zcoordinate
    687038.71,                !- Vertex 3 Xcoordinate
    4928846.715,              !- Vertex 3 Ycoordinate
    12,                       !- Vertex 3 Zcoordinate
    687035.92,                !- Vertex 4 Xcoordinate
    4928850.225,              !- Vertex 4 Ycoordinate
    12;                       !- Vertex 4 Zcoordinate

BUILDINGSURFACE:DETAILED,
    Block e23ce139c5dc9bcc_whole Storey 0 Ceiling 0001_1,    !- Name
    ceiling,                  !- Surface Type
    EU_floor_Construction,    !- Construction Name
    e23ce139c5dc9bcc_F0_whole,    !- Zone Name
    ,                         !- Space Name
    Surface,                  !- Outside Boundary Condition
    Block e23ce139c5dc9bcc_whole Storey 1 Floor 0001_1,    !- Outside Boundary Condition Object
    NoSun,                    !- Sun Exposure
    NoWind,                   !- Wind Exposure
    autocalculate,            !- View Factor to Ground
    autocalculate,            !- Number of Vertices
    687045.8199999998,        !- Vertex 1 Xcoordinate
    4928858.085,              !- Vertex 1 Ycoordinate
    3,                        !- Vertex 1 Zcoordinate
    687048.6099999999,        !- Vertex 2 Xcoordinate
    4928854.57,               !- Vertex 2 Ycoordinate
    3,                        !- Vertex 2 Zcoordinate
    687038.71,                !- Vertex 3 Xcoordinate
    4928846.715,              !- Vertex 3 Ycoordinate
    3,                        !- Vertex 3 Zcoordinate
    687035.9199999999,        !- Vertex 4 Xcoordinate
    4928850.225,              !- Vertex 4 Ycoordinate
    3;                        !- Vertex 4 Zcoordinate

BUILDINGSURFACE:DETAILED,
    Block e23ce139c5dc9bcc_whole Storey 1 Floor 0001_1,    !- Name
    floor,                    !- Surface Type
    EU_floor_Construction,    !- Construction Name
    e23ce139c5dc9bcc_F1_whole,    !- Zone Name
    ,                         !- Space Name
    Surface,                  !- Outside Boundary Condition
    Block e23ce139c5dc9bcc_whole Storey 0 Ceiling 0001_1,    !- Outside Boundary Condition Object
    NoSun,                    !- Sun Exposure
    NoWind,                   !- Wind Exposure
    autocalculate,            !- View Factor to Ground
    autocalculate,            !- Number of Vertices
    687048.6099999999,        !- Vertex 1 Xcoordinate
    4928854.57,               !- Vertex 1 Ycoordinate
    3,                        !- Vertex 1 Zcoordinate
    687045.8199999998,        !- Vertex 2 Xcoordinate
    4928858.085,              !- Vertex 2 Ycoordinate
    3,                        !- Vertex 2 Zcoordinate
    687035.9199999999,        !- Vertex 3 Xcoordinate
    4928850.225,              !- Vertex 3 Ycoordinate
    3,                        !- Vertex 3 Zcoordinate
    687038.71,                !- Vertex 4 Xcoordinate
    4928846.715,              !- Vertex 4 Ycoordinate
    3;                        !- Vertex 4 Zcoordinate

BUILDINGSURFACE:DETAILED,
    Block e23ce139c5dc9bcc_whole Storey 1 Ceiling 0001_1,    !- Name
    ceiling,                  !- Surface Type
    EU_floor_Construction,    !- Construction Name
    e23ce139c5dc9bcc_F1_whole,    !- Zone Name
    ,                         !- Space Name
    Surface,                  !- Outside Boundary Condition
    Block e23ce139c5dc9bcc_whole Storey 2 Floor 0001_1,    !- Outside Boundary Condition Object
    NoSun,                    !- Sun Exposure
    NoWind,                   !- Wind Exposure
    autocalculate,            !- View Factor to Ground
    autocalculate,            !- Number of Vertices
    687045.8199999998,        !- Vertex 1 Xcoordinate
    4928858.085,              !- Vertex 1 Ycoordinate
    6,                        !- Vertex 1 Zcoordinate
    687048.6099999999,        !- Vertex 2 Xcoordinate
    4928854.57,               !- Vertex 2 Ycoordinate
    6,                        !- Vertex 2 Zcoordinate
    687038.71,                !- Vertex 3 Xcoordinate
    4928846.715,              !- Vertex 3 Ycoordinate
    6,                        !- Vertex 3 Zcoordinate
    687035.9199999999,        !- Vertex 4 Xcoordinate
    4928850.225,              !- Vertex 4 Ycoordinate
    6;                        !- Vertex 4 Zcoordinate

BUILDINGSURFACE:DETAILED,
    Block e23ce139c5dc9bcc_whole Storey 2 Floor 0001_1,    !- Name
    floor,                    !- Surface Type
    EU_floor_Construction,    !- Construction Name
    e23ce139c5dc9bcc_F2_whole,    !- Zone Name
    ,                         !- Space Name
    Surface,                  !- Outside Boundary Condition
    Block e23ce139c5dc9bcc_whole Storey 1 Ceiling 0001_1,    !- Outside Boundary Condition Object
    NoSun,                    !- Sun Exposure
    NoWind,                   !- Wind Exposure
    autocalculate,            !- View Factor to Ground
    autocalculate,            !- Number of Vertices
    687048.6099999999,        !- Vertex 1 Xcoordinate
    4928854.57,               !- Vertex 1 Ycoordinate
    6,                        !- Vertex 1 Zcoordinate
    687045.8199999998,        !- Vertex 2 Xcoordinate
    4928858.085,              !- Vertex 2 Ycoordinate
    6,                        !- Vertex 2 Zcoordinate
    687035.9199999999,        !- Vertex 3 Xcoordinate
    4928850.225,              !- Vertex 3 Ycoordinate
    6,                        !- Vertex 3 Zcoordinate
    687038.71,                !- Vertex 4 Xcoordinate
    4928846.715,              !- Vertex 4 Ycoordinate
    6;                        !- Vertex 4 Zcoordinate

BUILDINGSURFACE:DETAILED,
    Block e23ce139c5dc9bcc_whole Storey 2 Ceiling 0001_1,    !- Name
    ceiling,                  !- Surface Type
    EU_floor_Construction,    !- Construction Name
    e23ce139c5dc9bcc_F2_whole,    !- Zone Name
    ,                         !- Space Name
    Surface,                  !- Outside Boundary Condition
    Block e23ce139c5dc9bcc_whole Storey 3 Floor 0001_1,    !- Outside Boundary Condition Object
    NoSun,                    !- Sun Exposure
    NoWind,                   !- Wind Exposure
    autocalculate,            !- View Factor to Ground
    autocalculate,            !- Number of Vertices
    687045.8199999998,        !- Vertex 1 Xcoordinate
    4928858.085,              !- Vertex 1 Ycoordinate
    9,                        !- Vertex 1 Zcoordinate
    687048.6099999999,        !- Vertex 2 Xcoordinate
    4928854.57,               !- Vertex 2 Ycoordinate
    9,                        !- Vertex 2 Zcoordinate
    687038.71,                !- Vertex 3 Xcoordinate
    4928846.715,              !- Vertex 3 Ycoordinate
    9,                        !- Vertex 3 Zcoordinate
    687035.9199999999,        !- Vertex 4 Xcoordinate
    4928850.225,              !- Vertex 4 Ycoordinate
    9;                        !- Vertex 4 Zcoordinate

BUILDINGSURFACE:DETAILED,
    Block e23ce139c5dc9bcc_whole Storey 3 Floor 0001_1,    !- Name
    floor,                    !- Surface Type
    EU_floor_Construction,    !- Construction Name
    e23ce139c5dc9bcc_F3_whole,    !- Zone Name
    ,                         !- Space Name
    Surface,                  !- Outside Boundary Condition
    Block e23ce139c5dc9bcc_whole Storey 2 Ceiling 0001_1,    !- Outside Boundary Condition Object
    NoSun,                    !- Sun Exposure
    NoWind,                   !- Wind Exposure
    autocalculate,            !- View Factor to Ground
    autocalculate,            !- Number of Vertices
    687048.6099999999,        !- Vertex 1 Xcoordinate
    4928854.57,               !- Vertex 1 Ycoordinate
    9,                        !- Vertex 1 Zcoordinate
    687045.8199999998,        !- Vertex 2 Xcoordinate
    4928858.085,              !- Vertex 2 Ycoordinate
    9,                        !- Vertex 2 Zcoordinate
    687035.9199999999,        !- Vertex 3 Xcoordinate
    4928850.225,              !- Vertex 3 Ycoordinate
    9,                        !- Vertex 3 Zcoordinate
    687038.71,                !- Vertex 4 Xcoordinate
    4928846.715,              !- Vertex 4 Ycoordinate
    9;                        !- Vertex 4 Zcoordinate

INTERNALMASS,
    e23ce139c5dc9bcc_F0_whole_EU_InternalMass,    !- Name
    EU_InternalMass_Construction,    !- Construction Name
    e23ce139c5dc9bcc_F0_whole,    !- Zone or ZoneList Name
    ,                         !- Space or SpaceList Name
    56.696174998037975;       !- Surface Area

INTERNALMASS,
    e23ce139c5dc9bcc_F1_whole_EU_InternalMass,    !- Name
    EU_InternalMass_Construction,    !- Construction Name
    e23ce139c5dc9bcc_F1_whole,    !- Zone or ZoneList Name
    ,                         !- Space or SpaceList Name
    56.696174998037975;       !- Surface Area

INTERNALMASS,
    e23ce139c5dc9bcc_F2_whole_EU_InternalMass,    !- Name
    EU_InternalMass_Construction,    !- Construction Name
    e23ce139c5dc9bcc_F2_whole,    !- Zone or ZoneList Name
    ,                         !- Space or SpaceList Name
    56.696174998037975;       !- Surface Area

INTERNALMASS,
    e23ce139c5dc9bcc_F3_whole_EU_InternalMass,    !- Name
    EU_InternalMass_Construction,    !- Construction Name
    e23ce139c5dc9bcc_F3_whole,    !- Zone or ZoneList Name
    ,                         !- Space or SpaceList Name
    56.696174998037975;       !- Surface Area

SHADING:SITE:DETAILED,
    shade_30742_1,            !- Name
    ,                         !- Transmittance Schedule Name
    autocalculate,            !- Number of Vertices
    687036.47599849,          !- Vertex 1 Xcoordinate
    4928841.132119192,        !- Vertex 1 Ycoordinate
    15,                       !- Vertex 1 Zcoordinate
    687036.47599849,          !- Vertex 2 Xcoordinate
    4928841.132119192,        !- Vertex 2 Ycoordinate
    0,                        !- Vertex 2 Zcoordinate
    687048.2859984899,        !- Vertex 3 Xcoordinate
    4928825.513119192,        !- Vertex 3 Ycoordinate
    0,                        !- Vertex 3 Zcoordinate
    687048.2859984899,        !- Vertex 4 Xcoordinate
    4928825.513119192,        !- Vertex 4 Ycoordinate
    15;                       !- Vertex 4 Zcoordinate

SHADING:SITE:DETAILED,
    shade_30742_2,            !- Name
    ,                         !- Transmittance Schedule Name
    autocalculate,            !- Number of Vertices
    687048.2859984899,        !- Vertex 1 Xcoordinate
    4928825.513119192,        !- Vertex 1 Ycoordinate
    15,                       !- Vertex 1 Zcoordinate
    687048.2859984899,        !- Vertex 2 Xcoordinate
    4928825.513119192,        !- Vertex 2 Ycoordinate
    0,                        !- Vertex 2 Zcoordinate
    687019.0570657953,        !- Vertex 3 Xcoordinate
    4928803.412527501,        !- Vertex 3 Ycoordinate
    0,                        !- Vertex 3 Zcoordinate
    687019.0570657953,        !- Vertex 4 Xcoordinate
    4928803.412527501,        !- Vertex 4 Ycoordinate
    15;                       !- Vertex 4 Zcoordinate

SHADING:SITE:DETAILED,
    shade_30742_3,            !- Name
    ,                         !- Transmittance Schedule Name
    autocalculate,            !- Number of Vertices
    687019.0570657953,        !- Vertex 1 Xcoordinate
    4928803.412527501,        !- Vertex 1 Ycoordinate
    15,                       !- Vertex 1 Zcoordinate
    687019.0570657953,        !- Vertex 2 Xcoordinate
    4928803.412527501,        !- Vertex 2 Ycoordinate
    0,                        !- Vertex 2 Zcoordinate
    687007.2470657936,        !- Vertex 3 Xcoordinate
    4928819.031527494,        !- Vertex 3 Ycoordinate
    0,                        !- Vertex 3 Zcoordinate
    687007.2470657936,        !- Vertex 4 Xcoordinate
    4928819.031527494,        !- Vertex 4 Ycoordinate
    15;                       !- Vertex 4 Zcoordinate

SHADING:SITE:DETAILED,
    shade_30742_4,            !- Name
    ,                         !- Transmittance Schedule Name
    autocalculate,            !- Number of Vertices
    687007.2470657936,        !- Vertex 1 Xcoordinate
    4928819.031527494,        !- Vertex 1 Ycoordinate
    15,                       !- Vertex 1 Zcoordinate
    687007.2470657936,        !- Vertex 2 Xcoordinate
    4928819.031527494,        !- Vertex 2 Ycoordinate
    0,                        !- Vertex 2 Zcoordinate
    687036.47599849,          !- Vertex 3 Xcoordinate
    4928841.132119192,        !- Vertex 3 Ycoordinate
    0,                        !- Vertex 3 Zcoordinate
    687036.47599849,          !- Vertex 4 Xcoordinate
    4928841.132119192,        !- Vertex 4 Ycoordinate
    15;                       !- Vertex 4 Zcoordinate

SHADING:SITE:DETAILED,
    shade_30665_1,            !- Name
    ,                         !- Transmittance Schedule Name
    autocalculate,            !- Number of Vertices
    687040.5855151573,        !- Vertex 1 Xcoordinate
    4928844.005038612,        !- Vertex 1 Ycoordinate
    15,                       !- Vertex 1 Zcoordinate
    687040.5855151573,        !- Vertex 2 Xcoordinate
    4928844.005038612,        !- Vertex 2 Ycoordinate
    0,                        !- Vertex 2 Zcoordinate
    687007.7159984905,        !- Vertex 3 Xcoordinate
    4928818.4141191915,       !- Vertex 3 Ycoordinate
    0,                        !- Vertex 3 Zcoordinate
    687007.7159984905,        !- Vertex 4 Xcoordinate
    4928818.4141191915,       !- Vertex 4 Ycoordinate
    15;                       !- Vertex 4 Zcoordinate

SHADING:SITE:DETAILED,
    shade_30665_2,            !- Name
    ,                         !- Transmittance Schedule Name
    autocalculate,            !- Number of Vertices
    687007.7159984905,        !- Vertex 1 Xcoordinate
    4928818.4141191915,       !- Vertex 1 Ycoordinate
    15,                       !- Vertex 1 Zcoordinate
    687007.7159984905,        !- Vertex 2 Xcoordinate
    4928818.4141191915,       !- Vertex 2 Ycoordinate
    0,                        !- Vertex 2 Zcoordinate
    687002.5295287091,        !- Vertex 3 Xcoordinate
    4928825.0776979,          !- Vertex 3 Ycoordinate
    0,                        !- Vertex 3 Zcoordinate
    687002.5295287091,        !- Vertex 4 Xcoordinate
    4928825.0776979,          !- Vertex 4 Ycoordinate
    15;                       !- Vertex 4 Zcoordinate

SHADING:SITE:DETAILED,
    shade_30665_3,            !- Name
    ,                         !- Transmittance Schedule Name
    autocalculate,            !- Number of Vertices
    687002.5295287091,        !- Vertex 1 Xcoordinate
    4928825.0776979,          !- Vertex 1 Ycoordinate
    15,                       !- Vertex 1 Zcoordinate
    687002.5295287091,        !- Vertex 2 Xcoordinate
    4928825.0776979,          !- Vertex 2 Ycoordinate
    0,                        !- Vertex 2 Zcoordinate
    687035.3979574094,        !- Vertex 3 Xcoordinate
    4928850.667989991,        !- Vertex 3 Ycoordinate
    0,                        !- Vertex 3 Zcoordinate
    687035.3979574094,        !- Vertex 4 Xcoordinate
    4928850.667989991,        !- Vertex 4 Ycoordinate
    15;                       !- Vertex 4 Zcoordinate

SHADING:SITE:DETAILED,
    shade_30665_4,            !- Name
    ,                         !- Transmittance Schedule Name
    autocalculate,            !- Number of Vertices
    687035.3979574094,        !- Vertex 1 Xcoordinate
    4928850.667989991,        !- Vertex 1 Ycoordinate
    15,                       !- Vertex 1 Zcoordinate
    687035.3979574094,        !- Vertex 2 Xcoordinate
    4928850.667989991,        !- Vertex 2 Ycoordinate
    0,                        !- Vertex 2 Zcoordinate
    687040.5855151573,        !- Vertex 3 Xcoordinate
    4928844.005038612,        !- Vertex 3 Ycoordinate
    0,                        !- Vertex 3 Zcoordinate
    687040.5855151573,        !- Vertex 4 Xcoordinate
    4928844.005038612,        !- Vertex 4 Ycoordinate
    15;                       !- Vertex 4 Zcoordinate

SHADING:SITE:DETAILED,
    shade_30620_1,            !- Name
    ,                         !- Transmittance Schedule Name
    autocalculate,            !- Number of Vertices
    687033.5211202815,        !- Vertex 1 Xcoordinate
    4928848.663647541,        !- Vertex 1 Ycoordinate
    15,                       !- Vertex 1 Zcoordinate
    687033.5211202815,        !- Vertex 2 Xcoordinate
    4928848.663647541,        !- Vertex 2 Ycoordinate
    0,                        !- Vertex 2 Zcoordinate
    687002.5660875811,        !- Vertex 3 Xcoordinate
    4928825.017260235,        !- Vertex 3 Ycoordinate
    0,                        !- Vertex 3 Zcoordinate
    687002.5660875811,        !- Vertex 4 Xcoordinate
    4928825.017260235,        !- Vertex 4 Ycoordinate
    15;                       !- Vertex 4 Zcoordinate

SHADING:SITE:DETAILED,
    shade_30620_2,            !- Name
    ,                         !- Transmittance Schedule Name
    autocalculate,            !- Number of Vertices
    687002.5660875811,        !- Vertex 1 Xcoordinate
    4928825.017260235,        !- Vertex 1 Ycoordinate
    15,                       !- Vertex 1 Zcoordinate
    687002.5660875811,        !- Vertex 2 Xcoordinate
    4928825.017260235,        !- Vertex 2 Ycoordinate
    0,                        !- Vertex 2 Zcoordinate
    686996.4426904895,        !- Vertex 3 Xcoordinate
    4928833.033282081,        !- Vertex 3 Ycoordinate
    0,                        !- Vertex 3 Zcoordinate
    686996.4426904895,        !- Vertex 4 Xcoordinate
    4928833.033282081,        !- Vertex 4 Ycoordinate
    15;                       !- Vertex 4 Zcoordinate

SHADING:SITE:DETAILED,
    shade_30620_3,            !- Name
    ,                         !- Transmittance Schedule Name
    autocalculate,            !- Number of Vertices
    686996.4426904895,        !- Vertex 1 Xcoordinate
    4928833.033282081,        !- Vertex 1 Ycoordinate
    15,                       !- Vertex 1 Zcoordinate
    686996.4426904895,        !- Vertex 2 Xcoordinate
    4928833.033282081,        !- Vertex 2 Ycoordinate
    0,                        !- Vertex 2 Zcoordinate
    687027.3977231899,        !- Vertex 3 Xcoordinate
    4928856.679669386,        !- Vertex 3 Ycoordinate
    0,                        !- Vertex 3 Zcoordinate
    687027.3977231899,        !- Vertex 4 Xcoordinate
    4928856.679669386,        !- Vertex 4 Ycoordinate
    15;                       !- Vertex 4 Zcoordinate

SHADING:SITE:DETAILED,
    shade_30620_4,            !- Name
    ,                         !- Transmittance Schedule Name
    autocalculate,            !- Number of Vertices
    687027.3977231899,        !- Vertex 1 Xcoordinate
    4928856.679669386,        !- Vertex 1 Ycoordinate
    15,                       !- Vertex 1 Zcoordinate
    687027.3977231899,        !- Vertex 2 Xcoordinate
    4928856.679669386,        !- Vertex 2 Ycoordinate
    0,                        !- Vertex 2 Zcoordinate
    687033.5211202815,        !- Vertex 3 Xcoordinate
    4928848.663647541,        !- Vertex 3 Ycoordinate
    0,                        !- Vertex 3 Zcoordinate
    687033.5211202815,        !- Vertex 4 Xcoordinate
    4928848.663647541,        !- Vertex 4 Ycoordinate
    15;                       !- Vertex 4 Zcoordinate

SHADING:SITE:DETAILED,
    shade_30368_1,            !- Name
    ,                         !- Transmittance Schedule Name
    autocalculate,            !- Number of Vertices
    687046.3635171183,        !- Vertex 1 Xcoordinate
    4928865.056801832,        !- Vertex 1 Ycoordinate
    15,                       !- Vertex 1 Zcoordinate
    687046.3635171183,        !- Vertex 2 Xcoordinate
    4928865.056801832,        !- Vertex 2 Ycoordinate
    0,                        !- Vertex 2 Zcoordinate
    686994.7910453257,        !- Vertex 3 Xcoordinate
    4928831.721296795,        !- Vertex 3 Ycoordinate
    0,                        !- Vertex 3 Zcoordinate
    686994.7910453257,        !- Vertex 4 Xcoordinate
    4928831.721296795,        !- Vertex 4 Ycoordinate
    15;                       !- Vertex 4 Zcoordinate

SHADING:SITE:DETAILED,
    shade_30368_2,            !- Name
    ,                         !- Transmittance Schedule Name
    autocalculate,            !- Number of Vertices
    686994.7910453257,        !- Vertex 1 Xcoordinate
    4928831.721296795,        !- Vertex 1 Ycoordinate
    15,                       !- Vertex 1 Zcoordinate
    686994.7910453257,        !- Vertex 2 Xcoordinate
    4928831.721296795,        !- Vertex 2 Ycoordinate
    0,                        !- Vertex 2 Zcoordinate
    686976.8099126671,        !- Vertex 3 Xcoordinate
    4928859.539428117,        !- Vertex 3 Ycoordinate
    0,                        !- Vertex 3 Zcoordinate
    686976.8099126671,        !- Vertex 4 Xcoordinate
    4928859.539428117,        !- Vertex 4 Ycoordinate
    15;                       !- Vertex 4 Zcoordinate

SHADING:SITE:DETAILED,
    shade_30368_3,            !- Name
    ,                         !- Transmittance Schedule Name
    autocalculate,            !- Number of Vertices
    686976.8099126671,        !- Vertex 1 Xcoordinate
    4928859.539428117,        !- Vertex 1 Ycoordinate
    15,                       !- Vertex 1 Zcoordinate
    686976.8099126671,        !- Vertex 2 Xcoordinate
    4928859.539428117,        !- Vertex 2 Ycoordinate
    0,                        !- Vertex 2 Zcoordinate
    687028.3823844598,        !- Vertex 3 Xcoordinate
    4928892.874933155,        !- Vertex 3 Ycoordinate
    0,                        !- Vertex 3 Zcoordinate
    687028.3823844598,        !- Vertex 4 Xcoordinate
    4928892.874933155,        !- Vertex 4 Ycoordinate
    15;                       !- Vertex 4 Zcoordinate

SHADING:SITE:DETAILED,
    shade_30368_4,            !- Name
    ,                         !- Transmittance Schedule Name
    autocalculate,            !- Number of Vertices
    687028.3823844598,        !- Vertex 1 Xcoordinate
    4928892.874933155,        !- Vertex 1 Ycoordinate
    15,                       !- Vertex 1 Zcoordinate
    687028.3823844598,        !- Vertex 2 Xcoordinate
    4928892.874933155,        !- Vertex 2 Ycoordinate
    0,                        !- Vertex 2 Zcoordinate
    687046.3635171183,        !- Vertex 3 Xcoordinate
    4928865.056801832,        !- Vertex 3 Ycoordinate
    0,                        !- Vertex 3 Zcoordinate
    687046.3635171183,        !- Vertex 4 Xcoordinate
    4928865.056801832,        !- Vertex 4 Ycoordinate
    15;                       !- Vertex 4 Zcoordinate

SHADING:SITE:DETAILED,
    shade_30488_1,            !- Name
    ,                         !- Transmittance Schedule Name
    autocalculate,            !- Number of Vertices
    687086.2759984897,        !- Vertex 1 Xcoordinate
    4928873.651119191,        !- Vertex 1 Ycoordinate
    15,                       !- Vertex 1 Zcoordinate
    687086.2759984897,        !- Vertex 2 Xcoordinate
    4928873.651119191,        !- Vertex 2 Ycoordinate
    0,                        !- Vertex 2 Zcoordinate
    687070.97599849,          !- Vertex 3 Xcoordinate
    4928853.711119191,        !- Vertex 3 Ycoordinate
    0,                        !- Vertex 3 Zcoordinate
    687070.97599849,          !- Vertex 4 Xcoordinate
    4928853.711119191,        !- Vertex 4 Ycoordinate
    15;                       !- Vertex 4 Zcoordinate

SHADING:SITE:DETAILED,
    shade_30488_2,            !- Name
    ,                         !- Transmittance Schedule Name
    autocalculate,            !- Number of Vertices
    687070.97599849,          !- Vertex 1 Xcoordinate
    4928853.711119191,        !- Vertex 1 Ycoordinate
    15,                       !- Vertex 1 Zcoordinate
    687070.97599849,          !- Vertex 2 Xcoordinate
    4928853.711119191,        !- Vertex 2 Ycoordinate
    0,                        !- Vertex 2 Zcoordinate
    687066.4897587778,        !- Vertex 3 Xcoordinate
    4928857.153272415,        !- Vertex 3 Ycoordinate
    0,                        !- Vertex 3 Zcoordinate
    687066.4897587778,        !- Vertex 4 Xcoordinate
    4928857.153272415,        !- Vertex 4 Ycoordinate
    15;                       !- Vertex 4 Zcoordinate

SHADING:SITE:DETAILED,
    shade_30488_3,            !- Name
    ,                         !- Transmittance Schedule Name
    autocalculate,            !- Number of Vertices
    687066.4897587778,        !- Vertex 1 Xcoordinate
    4928857.153272415,        !- Vertex 1 Ycoordinate
    15,                       !- Vertex 1 Zcoordinate
    687066.4897587778,        !- Vertex 2 Xcoordinate
    4928857.153272415,        !- Vertex 2 Ycoordinate
    0,                        !- Vertex 2 Zcoordinate
    687081.7897587788,        !- Vertex 3 Xcoordinate
    4928877.09327241,         !- Vertex 3 Ycoordinate
    0,                        !- Vertex 3 Zcoordinate
    687081.7897587788,        !- Vertex 4 Xcoordinate
    4928877.09327241,         !- Vertex 4 Ycoordinate
    15;                       !- Vertex 4 Zcoordinate

SHADING:SITE:DETAILED,
    shade_30488_4,            !- Name
    ,                         !- Transmittance Schedule Name
    autocalculate,            !- Number of Vertices
    687081.7897587788,        !- Vertex 1 Xcoordinate
    4928877.09327241,         !- Vertex 1 Ycoordinate
    15,                       !- Vertex 1 Zcoordinate
    687081.7897587788,        !- Vertex 2 Xcoordinate
    4928877.09327241,         !- Vertex 2 Ycoordinate
    0,                        !- Vertex 2 Zcoordinate
    687086.2759984897,        !- Vertex 3 Xcoordinate
    4928873.651119191,        !- Vertex 3 Ycoordinate
    0,                        !- Vertex 3 Zcoordinate
    687086.2759984897,        !- Vertex 4 Xcoordinate
    4928873.651119191,        !- Vertex 4 Ycoordinate
    15;                       !- Vertex 4 Zcoordinate

SHADING:SITE:DETAILED,
    shade_30304_1,            !- Name
    ,                         !- Transmittance Schedule Name
    autocalculate,            !- Number of Vertices
    687051.1694529514,        !- Vertex 1 Xcoordinate
    4928872.809856979,        !- Vertex 1 Ycoordinate
    15,                       !- Vertex 1 Zcoordinate
    687051.1694529514,        !- Vertex 2 Xcoordinate
    4928872.809856979,        !- Vertex 2 Ycoordinate
    0,                        !- Vertex 2 Zcoordinate
    687065.9190318646,        !- Vertex 3 Xcoordinate
    4928892.222827048,        !- Vertex 3 Ycoordinate
    0,                        !- Vertex 3 Zcoordinate
    687065.9190318646,        !- Vertex 4 Xcoordinate
    4928892.222827048,        !- Vertex 4 Ycoordinate
    15;                       !- Vertex 4 Zcoordinate

SHADING:SITE:DETAILED,
    shade_30304_2,            !- Name
    ,                         !- Transmittance Schedule Name
    autocalculate,            !- Number of Vertices
    687065.9190318646,        !- Vertex 1 Xcoordinate
    4928892.222827048,        !- Vertex 1 Ycoordinate
    15,                       !- Vertex 1 Zcoordinate
    687065.9190318646,        !- Vertex 2 Xcoordinate
    4928892.222827048,        !- Vertex 2 Ycoordinate
    0,                        !- Vertex 2 Zcoordinate
    687083.250828602,         !- Vertex 3 Xcoordinate
    4928879.0544812055,       !- Vertex 3 Ycoordinate
    0,                        !- Vertex 3 Zcoordinate
    687083.250828602,         !- Vertex 4 Xcoordinate
    4928879.0544812055,       !- Vertex 4 Ycoordinate
    15;                       !- Vertex 4 Zcoordinate

SHADING:SITE:DETAILED,
    shade_30304_3,            !- Name
    ,                         !- Transmittance Schedule Name
    autocalculate,            !- Number of Vertices
    687083.250828602,         !- Vertex 1 Xcoordinate
    4928879.0544812055,       !- Vertex 1 Ycoordinate
    15,                       !- Vertex 1 Zcoordinate
    687083.250828602,         !- Vertex 2 Xcoordinate
    4928879.0544812055,       !- Vertex 2 Ycoordinate
    0,                        !- Vertex 2 Zcoordinate
    687068.5012496889,        !- Vertex 3 Xcoordinate
    4928859.641511137,        !- Vertex 3 Ycoordinate
    0,                        !- Vertex 3 Zcoordinate
    687068.5012496889,        !- Vertex 4 Xcoordinate
    4928859.641511137,        !- Vertex 4 Ycoordinate
    15;                       !- Vertex 4 Zcoordinate

SHADING:SITE:DETAILED,
    shade_30304_4,            !- Name
    ,                         !- Transmittance Schedule Name
    autocalculate,            !- Number of Vertices
    687068.5012496889,        !- Vertex 1 Xcoordinate
    4928859.641511137,        !- Vertex 1 Ycoordinate
    15,                       !- Vertex 1 Zcoordinate
    687068.5012496889,        !- Vertex 2 Xcoordinate
    4928859.641511137,        !- Vertex 2 Ycoordinate
    0,                        !- Vertex 2 Zcoordinate
    687051.1694529514,        !- Vertex 3 Xcoordinate
    4928872.809856979,        !- Vertex 3 Ycoordinate
    0,                        !- Vertex 3 Zcoordinate
    687051.1694529514,        !- Vertex 4 Xcoordinate
    4928872.809856979,        !- Vertex 4 Ycoordinate
    15;                       !- Vertex 4 Zcoordinate

OTHEREQUIPMENT,
    EU_Step8_InternalGain_e23ce139c5dc9bcc_F0_whole_f000,    !- Name
    Electricity,              !- Fuel Type
    e23ce139c5dc9bcc_F0_whole,    !- Zone or ZoneList or Space or SpaceList Name
    EU_Step8_GainSchedule_e23ce139c5dc9bcc_F0_whole_f000,    !- Schedule Name
    Watts/Area,               !- Design Level Calculation Method
    ,                         !- Design Level
    1,                        !- Power per Zone Floor Area
    ,                         !- Power per Person
    0,                        !- Fraction Latent
    0,                        !- Fraction Radiant
    0,                        !- Fraction Lost
    0,                        !- Carbon Dioxide Generation Rate
    EU_Step8_InternalGains;    !- EndUse Subcategory

OTHEREQUIPMENT,
    EU_Step8_InternalGain_e23ce139c5dc9bcc_F1_whole_f000,    !- Name
    Electricity,              !- Fuel Type
    e23ce139c5dc9bcc_F1_whole,    !- Zone or ZoneList or Space or SpaceList Name
    EU_Step8_GainSchedule_e23ce139c5dc9bcc_F1_whole_f000,    !- Schedule Name
    Watts/Area,               !- Design Level Calculation Method
    ,                         !- Design Level
    1,                        !- Power per Zone Floor Area
    ,                         !- Power per Person
    0,                        !- Fraction Latent
    0,                        !- Fraction Radiant
    0,                        !- Fraction Lost
    0,                        !- Carbon Dioxide Generation Rate
    EU_Step8_InternalGains;    !- EndUse Subcategory

OTHEREQUIPMENT,
    EU_Step8_InternalGain_e23ce139c5dc9bcc_F2_whole_f000,    !- Name
    Electricity,              !- Fuel Type
    e23ce139c5dc9bcc_F2_whole,    !- Zone or ZoneList or Space or SpaceList Name
    EU_Step8_GainSchedule_e23ce139c5dc9bcc_F2_whole_f000,    !- Schedule Name
    Watts/Area,               !- Design Level Calculation Method
    ,                         !- Design Level
    1,                        !- Power per Zone Floor Area
    ,                         !- Power per Person
    0,                        !- Fraction Latent
    0,                        !- Fraction Radiant
    0,                        !- Fraction Lost
    0,                        !- Carbon Dioxide Generation Rate
    EU_Step8_InternalGains;    !- EndUse Subcategory

OTHEREQUIPMENT,
    EU_Step8_InternalGain_e23ce139c5dc9bcc_F3_whole_f000,    !- Name
    Electricity,              !- Fuel Type
    e23ce139c5dc9bcc_F3_whole,    !- Zone or ZoneList or Space or SpaceList Name
    EU_Step8_GainSchedule_e23ce139c5dc9bcc_F3_whole_f000,    !- Schedule Name
    Watts/Area,               !- Design Level Calculation Method
    ,                         !- Design Level
    1,                        !- Power per Zone Floor Area
    ,                         !- Power per Person
    0,                        !- Fraction Latent
    0,                        !- Fraction Radiant
    0,                        !- Fraction Lost
    0,                        !- Carbon Dioxide Generation Rate
    EU_Step8_InternalGains;    !- EndUse Subcategory

ZONEVENTILATION:DESIGNFLOWRATE,
    EU_ConstantAir_e23ce139c5dc9bcc_F0_whole,    !- Name
    e23ce139c5dc9bcc_F0_whole,    !- Zone or ZoneList or Space or SpaceList Name
    EU_AlwaysOn,              !- Schedule Name
    AirChanges/Hour,          !- Design Flow Rate Calculation Method
    ,                         !- Design Flow Rate
    ,                         !- Flow Rate per Floor Area
    ,                         !- Flow Rate per Person
    0.6878922584914343,       !- Air Changes per Hour
    Natural,                  !- Ventilation Type
    0,                        !- Fan Pressure Rise
    1,                        !- Fan Total Efficiency
    1,                        !- Constant Term Coefficient
    0,                        !- Temperature Term Coefficient
    0,                        !- Velocity Term Coefficient
    0,                        !- Velocity Squared Term Coefficient
    -100,                     !- Minimum Indoor Temperature
    ,                         !- Minimum Indoor Temperature Schedule Name
    100,                      !- Maximum Indoor Temperature
    ,                         !- Maximum Indoor Temperature Schedule Name
    -100,                     !- Delta Temperature
    ,                         !- Delta Temperature Schedule Name
    -100,                     !- Minimum Outdoor Temperature
    ,                         !- Minimum Outdoor Temperature Schedule Name
    100,                      !- Maximum Outdoor Temperature
    ,                         !- Maximum Outdoor Temperature Schedule Name
    40;                       !- Maximum Wind Speed

ZONEVENTILATION:DESIGNFLOWRATE,
    EU_ConstantAir_e23ce139c5dc9bcc_F1_whole,    !- Name
    e23ce139c5dc9bcc_F1_whole,    !- Zone or ZoneList or Space or SpaceList Name
    EU_AlwaysOn,              !- Schedule Name
    AirChanges/Hour,          !- Design Flow Rate Calculation Method
    ,                         !- Design Flow Rate
    ,                         !- Flow Rate per Floor Area
    ,                         !- Flow Rate per Person
    0.6878922584914343,       !- Air Changes per Hour
    Natural,                  !- Ventilation Type
    0,                        !- Fan Pressure Rise
    1,                        !- Fan Total Efficiency
    1,                        !- Constant Term Coefficient
    0,                        !- Temperature Term Coefficient
    0,                        !- Velocity Term Coefficient
    0,                        !- Velocity Squared Term Coefficient
    -100,                     !- Minimum Indoor Temperature
    ,                         !- Minimum Indoor Temperature Schedule Name
    100,                      !- Maximum Indoor Temperature
    ,                         !- Maximum Indoor Temperature Schedule Name
    -100,                     !- Delta Temperature
    ,                         !- Delta Temperature Schedule Name
    -100,                     !- Minimum Outdoor Temperature
    ,                         !- Minimum Outdoor Temperature Schedule Name
    100,                      !- Maximum Outdoor Temperature
    ,                         !- Maximum Outdoor Temperature Schedule Name
    40;                       !- Maximum Wind Speed

ZONEVENTILATION:DESIGNFLOWRATE,
    EU_ConstantAir_e23ce139c5dc9bcc_F2_whole,    !- Name
    e23ce139c5dc9bcc_F2_whole,    !- Zone or ZoneList or Space or SpaceList Name
    EU_AlwaysOn,              !- Schedule Name
    AirChanges/Hour,          !- Design Flow Rate Calculation Method
    ,                         !- Design Flow Rate
    ,                         !- Flow Rate per Floor Area
    ,                         !- Flow Rate per Person
    0.6878922584914343,       !- Air Changes per Hour
    Natural,                  !- Ventilation Type
    0,                        !- Fan Pressure Rise
    1,                        !- Fan Total Efficiency
    1,                        !- Constant Term Coefficient
    0,                        !- Temperature Term Coefficient
    0,                        !- Velocity Term Coefficient
    0,                        !- Velocity Squared Term Coefficient
    -100,                     !- Minimum Indoor Temperature
    ,                         !- Minimum Indoor Temperature Schedule Name
    100,                      !- Maximum Indoor Temperature
    ,                         !- Maximum Indoor Temperature Schedule Name
    -100,                     !- Delta Temperature
    ,                         !- Delta Temperature Schedule Name
    -100,                     !- Minimum Outdoor Temperature
    ,                         !- Minimum Outdoor Temperature Schedule Name
    100,                      !- Maximum Outdoor Temperature
    ,                         !- Maximum Outdoor Temperature Schedule Name
    40;                       !- Maximum Wind Speed

ZONEVENTILATION:DESIGNFLOWRATE,
    EU_ConstantAir_e23ce139c5dc9bcc_F3_whole,    !- Name
    e23ce139c5dc9bcc_F3_whole,    !- Zone or ZoneList or Space or SpaceList Name
    EU_AlwaysOn,              !- Schedule Name
    AirChanges/Hour,          !- Design Flow Rate Calculation Method
    ,                         !- Design Flow Rate
    ,                         !- Flow Rate per Floor Area
    ,                         !- Flow Rate per Person
    0.6878922584914343,       !- Air Changes per Hour
    Natural,                  !- Ventilation Type
    0,                        !- Fan Pressure Rise
    1,                        !- Fan Total Efficiency
    1,                        !- Constant Term Coefficient
    0,                        !- Temperature Term Coefficient
    0,                        !- Velocity Term Coefficient
    0,                        !- Velocity Squared Term Coefficient
    -100,                     !- Minimum Indoor Temperature
    ,                         !- Minimum Indoor Temperature Schedule Name
    100,                      !- Maximum Indoor Temperature
    ,                         !- Maximum Indoor Temperature Schedule Name
    -100,                     !- Delta Temperature
    ,                         !- Delta Temperature Schedule Name
    -100,                     !- Minimum Outdoor Temperature
    ,                         !- Minimum Outdoor Temperature Schedule Name
    100,                      !- Maximum Outdoor Temperature
    ,                         !- Maximum Outdoor Temperature Schedule Name
    40;                       !- Maximum Wind Speed

HVACTEMPLATE:THERMOSTAT,
    EU_HeatOnly_e23ce139c5dc9bcc_F0_whole,    !- Name
    ,                         !- Heating Setpoint Schedule Name
    20,                       !- Constant Heating Setpoint
    ,                         !- Cooling Setpoint Schedule Name
    50;                       !- Constant Cooling Setpoint

HVACTEMPLATE:THERMOSTAT,
    EU_HeatOnly_e23ce139c5dc9bcc_F1_whole,    !- Name
    ,                         !- Heating Setpoint Schedule Name
    20,                       !- Constant Heating Setpoint
    ,                         !- Cooling Setpoint Schedule Name
    50;                       !- Constant Cooling Setpoint

HVACTEMPLATE:THERMOSTAT,
    EU_HeatOnly_e23ce139c5dc9bcc_F2_whole,    !- Name
    ,                         !- Heating Setpoint Schedule Name
    20,                       !- Constant Heating Setpoint
    ,                         !- Cooling Setpoint Schedule Name
    50;                       !- Constant Cooling Setpoint

HVACTEMPLATE:THERMOSTAT,
    EU_HeatOnly_e23ce139c5dc9bcc_F3_whole,    !- Name
    ,                         !- Heating Setpoint Schedule Name
    20,                       !- Constant Heating Setpoint
    ,                         !- Cooling Setpoint Schedule Name
    50;                       !- Constant Cooling Setpoint

HVACTEMPLATE:ZONE:IDEALLOADSAIRSYSTEM,
    e23ce139c5dc9bcc_F0_whole,    !- Zone Name
    EU_HeatOnly_e23ce139c5dc9bcc_F0_whole,    !- Template Thermostat Name
    EU_AlwaysOn,              !- System Availability Schedule Name
    50,                       !- Maximum Heating Supply Air Temperature
    13,                       !- Minimum Cooling Supply Air Temperature
    0.0156,                   !- Maximum Heating Supply Air Humidity Ratio
    0.0077,                   !- Minimum Cooling Supply Air Humidity Ratio
    NoLimit,                  !- Heating Limit
    ,                         !- Maximum Heating Air Flow Rate
    ,                         !- Maximum Sensible Heating Capacity
    NoLimit,                  !- Cooling Limit
    ,                         !- Maximum Cooling Air Flow Rate
    ,                         !- Maximum Total Cooling Capacity
    EU_AlwaysOn,              !- Heating Availability Schedule Name
    EU_CoolingOff,            !- Cooling Availability Schedule Name
    ConstantSensibleHeatRatio,    !- Dehumidification Control Type
    0.7,                      !- Cooling Sensible Heat Ratio
    60,                       !- Dehumidification Setpoint
    None,                     !- Humidification Control Type
    30,                       !- Humidification Setpoint
    None,                     !- Outdoor Air Method
    0.00944,                  !- Outdoor Air Flow Rate per Person
    0.0,                      !- Outdoor Air Flow Rate per Zone Floor Area
    0,                        !- Outdoor Air Flow Rate per Zone
    ,                         !- Design Specification Outdoor Air Object Name
    None,                     !- Demand Controlled Ventilation Type
    NoEconomizer,             !- Outdoor Air Economizer Type
    None,                     !- Heat Recovery Type
    0.70,                     !- Sensible Heat Recovery Effectiveness
    0.65;                     !- Latent Heat Recovery Effectiveness

HVACTEMPLATE:ZONE:IDEALLOADSAIRSYSTEM,
    e23ce139c5dc9bcc_F1_whole,    !- Zone Name
    EU_HeatOnly_e23ce139c5dc9bcc_F1_whole,    !- Template Thermostat Name
    EU_AlwaysOn,              !- System Availability Schedule Name
    50,                       !- Maximum Heating Supply Air Temperature
    13,                       !- Minimum Cooling Supply Air Temperature
    0.0156,                   !- Maximum Heating Supply Air Humidity Ratio
    0.0077,                   !- Minimum Cooling Supply Air Humidity Ratio
    NoLimit,                  !- Heating Limit
    ,                         !- Maximum Heating Air Flow Rate
    ,                         !- Maximum Sensible Heating Capacity
    NoLimit,                  !- Cooling Limit
    ,                         !- Maximum Cooling Air Flow Rate
    ,                         !- Maximum Total Cooling Capacity
    EU_AlwaysOn,              !- Heating Availability Schedule Name
    EU_CoolingOff,            !- Cooling Availability Schedule Name
    ConstantSensibleHeatRatio,    !- Dehumidification Control Type
    0.7,                      !- Cooling Sensible Heat Ratio
    60,                       !- Dehumidification Setpoint
    None,                     !- Humidification Control Type
    30,                       !- Humidification Setpoint
    None,                     !- Outdoor Air Method
    0.00944,                  !- Outdoor Air Flow Rate per Person
    0.0,                      !- Outdoor Air Flow Rate per Zone Floor Area
    0,                        !- Outdoor Air Flow Rate per Zone
    ,                         !- Design Specification Outdoor Air Object Name
    None,                     !- Demand Controlled Ventilation Type
    NoEconomizer,             !- Outdoor Air Economizer Type
    None,                     !- Heat Recovery Type
    0.70,                     !- Sensible Heat Recovery Effectiveness
    0.65;                     !- Latent Heat Recovery Effectiveness

HVACTEMPLATE:ZONE:IDEALLOADSAIRSYSTEM,
    e23ce139c5dc9bcc_F2_whole,    !- Zone Name
    EU_HeatOnly_e23ce139c5dc9bcc_F2_whole,    !- Template Thermostat Name
    EU_AlwaysOn,              !- System Availability Schedule Name
    50,                       !- Maximum Heating Supply Air Temperature
    13,                       !- Minimum Cooling Supply Air Temperature
    0.0156,                   !- Maximum Heating Supply Air Humidity Ratio
    0.0077,                   !- Minimum Cooling Supply Air Humidity Ratio
    NoLimit,                  !- Heating Limit
    ,                         !- Maximum Heating Air Flow Rate
    ,                         !- Maximum Sensible Heating Capacity
    NoLimit,                  !- Cooling Limit
    ,                         !- Maximum Cooling Air Flow Rate
    ,                         !- Maximum Total Cooling Capacity
    EU_AlwaysOn,              !- Heating Availability Schedule Name
    EU_CoolingOff,            !- Cooling Availability Schedule Name
    ConstantSensibleHeatRatio,    !- Dehumidification Control Type
    0.7,                      !- Cooling Sensible Heat Ratio
    60,                       !- Dehumidification Setpoint
    None,                     !- Humidification Control Type
    30,                       !- Humidification Setpoint
    None,                     !- Outdoor Air Method
    0.00944,                  !- Outdoor Air Flow Rate per Person
    0.0,                      !- Outdoor Air Flow Rate per Zone Floor Area
    0,                        !- Outdoor Air Flow Rate per Zone
    ,                         !- Design Specification Outdoor Air Object Name
    None,                     !- Demand Controlled Ventilation Type
    NoEconomizer,             !- Outdoor Air Economizer Type
    None,                     !- Heat Recovery Type
    0.70,                     !- Sensible Heat Recovery Effectiveness
    0.65;                     !- Latent Heat Recovery Effectiveness

HVACTEMPLATE:ZONE:IDEALLOADSAIRSYSTEM,
    e23ce139c5dc9bcc_F3_whole,    !- Zone Name
    EU_HeatOnly_e23ce139c5dc9bcc_F3_whole,    !- Template Thermostat Name
    EU_AlwaysOn,              !- System Availability Schedule Name
    50,                       !- Maximum Heating Supply Air Temperature
    13,                       !- Minimum Cooling Supply Air Temperature
    0.0156,                   !- Maximum Heating Supply Air Humidity Ratio
    0.0077,                   !- Minimum Cooling Supply Air Humidity Ratio
    NoLimit,                  !- Heating Limit
    ,                         !- Maximum Heating Air Flow Rate
    ,                         !- Maximum Sensible Heating Capacity
    NoLimit,                  !- Cooling Limit
    ,                         !- Maximum Cooling Air Flow Rate
    ,                         !- Maximum Total Cooling Capacity
    EU_AlwaysOn,              !- Heating Availability Schedule Name
    EU_CoolingOff,            !- Cooling Availability Schedule Name
    ConstantSensibleHeatRatio,    !- Dehumidification Control Type
    0.7,                      !- Cooling Sensible Heat Ratio
    60,                       !- Dehumidification Setpoint
    None,                     !- Humidification Control Type
    30,                       !- Humidification Setpoint
    None,                     !- Outdoor Air Method
    0.00944,                  !- Outdoor Air Flow Rate per Person
    0.0,                      !- Outdoor Air Flow Rate per Zone Floor Area
    0,                        !- Outdoor Air Flow Rate per Zone
    ,                         !- Design Specification Outdoor Air Object Name
    None,                     !- Demand Controlled Ventilation Type
    NoEconomizer,             !- Outdoor Air Economizer Type
    None,                     !- Heat Recovery Type
    0.70,                     !- Sensible Heat Recovery Effectiveness
    0.65;                     !- Latent Heat Recovery Effectiveness

SIZING:ZONE,
    e23ce139c5dc9bcc_F0_whole,    !- Zone or ZoneList Name
    SupplyAirTemperature,     !- Zone Cooling Design Supply Air Temperature Input Method
    13,                       !- Zone Cooling Design Supply Air Temperature
    ,                         !- Zone Cooling Design Supply Air Temperature Difference
    SupplyAirTemperature,     !- Zone Heating Design Supply Air Temperature Input Method
    50,                       !- Zone Heating Design Supply Air Temperature
    ,                         !- Zone Heating Design Supply Air Temperature Difference
    0.008,                    !- Zone Cooling Design Supply Air Humidity Ratio
    0.008,                    !- Zone Heating Design Supply Air Humidity Ratio
    ,                         !- Design Specification Outdoor Air Object Name
    ,                         !- Zone Heating Sizing Factor
    ,                         !- Zone Cooling Sizing Factor
    DesignDay,                !- Cooling Design Air Flow Method
    0,                        !- Cooling Design Air Flow Rate
    0.000762,                 !- Cooling Minimum Air Flow per Zone Floor Area
    0,                        !- Cooling Minimum Air Flow
    0.2,                      !- Cooling Minimum Air Flow Fraction
    DesignDay,                !- Heating Design Air Flow Method
    0,                        !- Heating Design Air Flow Rate
    0.002032,                 !- Heating Maximum Air Flow per Zone Floor Area
    0.1415762,                !- Heating Maximum Air Flow
    0.3,                      !- Heating Maximum Air Flow Fraction
    ,                         !- Design Specification Zone Air Distribution Object Name
    No,                       !- Account for Dedicated Outdoor Air System
    NeutralSupplyAir,         !- Dedicated Outdoor Air System Control Strategy
    autosize,                 !- Dedicated Outdoor Air Low Setpoint Temperature for Design
    autosize,                 !- Dedicated Outdoor Air High Setpoint Temperature for Design
    Sensible Load Only No Latent Load,    !- Zone Load Sizing Method
    HumidityRatioDifference,    !- Zone Latent Cooling Design Supply Air Humidity Ratio Input Method
    ,                         !- Zone Dehumidification Design Supply Air Humidity Ratio
    0.005,                    !- Zone Cooling Design Supply Air Humidity Ratio Difference
    HumidityRatioDifference,    !- Zone Latent Heating Design Supply Air Humidity Ratio Input Method
    ,                         !- Zone Humidification Design Supply Air Humidity Ratio
    0.005;                    !- Zone Humidification Design Supply Air Humidity Ratio Difference

SIZING:ZONE,
    e23ce139c5dc9bcc_F1_whole,    !- Zone or ZoneList Name
    SupplyAirTemperature,     !- Zone Cooling Design Supply Air Temperature Input Method
    13,                       !- Zone Cooling Design Supply Air Temperature
    ,                         !- Zone Cooling Design Supply Air Temperature Difference
    SupplyAirTemperature,     !- Zone Heating Design Supply Air Temperature Input Method
    50,                       !- Zone Heating Design Supply Air Temperature
    ,                         !- Zone Heating Design Supply Air Temperature Difference
    0.008,                    !- Zone Cooling Design Supply Air Humidity Ratio
    0.008,                    !- Zone Heating Design Supply Air Humidity Ratio
    ,                         !- Design Specification Outdoor Air Object Name
    ,                         !- Zone Heating Sizing Factor
    ,                         !- Zone Cooling Sizing Factor
    DesignDay,                !- Cooling Design Air Flow Method
    0,                        !- Cooling Design Air Flow Rate
    0.000762,                 !- Cooling Minimum Air Flow per Zone Floor Area
    0,                        !- Cooling Minimum Air Flow
    0.2,                      !- Cooling Minimum Air Flow Fraction
    DesignDay,                !- Heating Design Air Flow Method
    0,                        !- Heating Design Air Flow Rate
    0.002032,                 !- Heating Maximum Air Flow per Zone Floor Area
    0.1415762,                !- Heating Maximum Air Flow
    0.3,                      !- Heating Maximum Air Flow Fraction
    ,                         !- Design Specification Zone Air Distribution Object Name
    No,                       !- Account for Dedicated Outdoor Air System
    NeutralSupplyAir,         !- Dedicated Outdoor Air System Control Strategy
    autosize,                 !- Dedicated Outdoor Air Low Setpoint Temperature for Design
    autosize,                 !- Dedicated Outdoor Air High Setpoint Temperature for Design
    Sensible Load Only No Latent Load,    !- Zone Load Sizing Method
    HumidityRatioDifference,    !- Zone Latent Cooling Design Supply Air Humidity Ratio Input Method
    ,                         !- Zone Dehumidification Design Supply Air Humidity Ratio
    0.005,                    !- Zone Cooling Design Supply Air Humidity Ratio Difference
    HumidityRatioDifference,    !- Zone Latent Heating Design Supply Air Humidity Ratio Input Method
    ,                         !- Zone Humidification Design Supply Air Humidity Ratio
    0.005;                    !- Zone Humidification Design Supply Air Humidity Ratio Difference

SIZING:ZONE,
    e23ce139c5dc9bcc_F2_whole,    !- Zone or ZoneList Name
    SupplyAirTemperature,     !- Zone Cooling Design Supply Air Temperature Input Method
    13,                       !- Zone Cooling Design Supply Air Temperature
    ,                         !- Zone Cooling Design Supply Air Temperature Difference
    SupplyAirTemperature,     !- Zone Heating Design Supply Air Temperature Input Method
    50,                       !- Zone Heating Design Supply Air Temperature
    ,                         !- Zone Heating Design Supply Air Temperature Difference
    0.008,                    !- Zone Cooling Design Supply Air Humidity Ratio
    0.008,                    !- Zone Heating Design Supply Air Humidity Ratio
    ,                         !- Design Specification Outdoor Air Object Name
    ,                         !- Zone Heating Sizing Factor
    ,                         !- Zone Cooling Sizing Factor
    DesignDay,                !- Cooling Design Air Flow Method
    0,                        !- Cooling Design Air Flow Rate
    0.000762,                 !- Cooling Minimum Air Flow per Zone Floor Area
    0,                        !- Cooling Minimum Air Flow
    0.2,                      !- Cooling Minimum Air Flow Fraction
    DesignDay,                !- Heating Design Air Flow Method
    0,                        !- Heating Design Air Flow Rate
    0.002032,                 !- Heating Maximum Air Flow per Zone Floor Area
    0.1415762,                !- Heating Maximum Air Flow
    0.3,                      !- Heating Maximum Air Flow Fraction
    ,                         !- Design Specification Zone Air Distribution Object Name
    No,                       !- Account for Dedicated Outdoor Air System
    NeutralSupplyAir,         !- Dedicated Outdoor Air System Control Strategy
    autosize,                 !- Dedicated Outdoor Air Low Setpoint Temperature for Design
    autosize,                 !- Dedicated Outdoor Air High Setpoint Temperature for Design
    Sensible Load Only No Latent Load,    !- Zone Load Sizing Method
    HumidityRatioDifference,    !- Zone Latent Cooling Design Supply Air Humidity Ratio Input Method
    ,                         !- Zone Dehumidification Design Supply Air Humidity Ratio
    0.005,                    !- Zone Cooling Design Supply Air Humidity Ratio Difference
    HumidityRatioDifference,    !- Zone Latent Heating Design Supply Air Humidity Ratio Input Method
    ,                         !- Zone Humidification Design Supply Air Humidity Ratio
    0.005;                    !- Zone Humidification Design Supply Air Humidity Ratio Difference

SIZING:ZONE,
    e23ce139c5dc9bcc_F3_whole,    !- Zone or ZoneList Name
    SupplyAirTemperature,     !- Zone Cooling Design Supply Air Temperature Input Method
    13,                       !- Zone Cooling Design Supply Air Temperature
    ,                         !- Zone Cooling Design Supply Air Temperature Difference
    SupplyAirTemperature,     !- Zone Heating Design Supply Air Temperature Input Method
    50,                       !- Zone Heating Design Supply Air Temperature
    ,                         !- Zone Heating Design Supply Air Temperature Difference
    0.008,                    !- Zone Cooling Design Supply Air Humidity Ratio
    0.008,                    !- Zone Heating Design Supply Air Humidity Ratio
    ,                         !- Design Specification Outdoor Air Object Name
    ,                         !- Zone Heating Sizing Factor
    ,                         !- Zone Cooling Sizing Factor
    DesignDay,                !- Cooling Design Air Flow Method
    0,                        !- Cooling Design Air Flow Rate
    0.000762,                 !- Cooling Minimum Air Flow per Zone Floor Area
    0,                        !- Cooling Minimum Air Flow
    0.2,                      !- Cooling Minimum Air Flow Fraction
    DesignDay,                !- Heating Design Air Flow Method
    0,                        !- Heating Design Air Flow Rate
    0.002032,                 !- Heating Maximum Air Flow per Zone Floor Area
    0.1415762,                !- Heating Maximum Air Flow
    0.3,                      !- Heating Maximum Air Flow Fraction
    ,                         !- Design Specification Zone Air Distribution Object Name
    No,                       !- Account for Dedicated Outdoor Air System
    NeutralSupplyAir,         !- Dedicated Outdoor Air System Control Strategy
    autosize,                 !- Dedicated Outdoor Air Low Setpoint Temperature for Design
    autosize,                 !- Dedicated Outdoor Air High Setpoint Temperature for Design
    Sensible Load Only No Latent Load,    !- Zone Load Sizing Method
    HumidityRatioDifference,    !- Zone Latent Cooling Design Supply Air Humidity Ratio Input Method
    ,                         !- Zone Dehumidification Design Supply Air Humidity Ratio
    0.005,                    !- Zone Cooling Design Supply Air Humidity Ratio Difference
    HumidityRatioDifference,    !- Zone Latent Heating Design Supply Air Humidity Ratio Input Method
    ,                         !- Zone Humidification Design Supply Air Humidity Ratio
    0.005;                    !- Zone Humidification Design Supply Air Humidity Ratio Difference

OUTPUT:VARIABLE,
    *,                        !- Key Value
    Zone Ideal Loads Zone Total Heating Energy,    !- Variable Name
    Hourly;                   !- Reporting Frequency

OUTPUT:SQLITE,
    SimpleAndTabular,         !- Option Type
    UseOutputControlTableStyle;    !- Unit Conversion for Tabular Data