!- Windows Line endings 

Version,
    23.1;                     !- Version Identifier

SimulationControl,
    Yes,                      !- Do Zone Sizing Calculation
    Yes,                      !- Do System Sizing Calculation
    Yes,                      !- Do Plant Sizing Calculation
    No,                       !- Run Simulation for Sizing Periods
    Yes,                      !- Run Simulation for Weather File Run Periods
    No,                       !- Do HVAC Sizing Simulation for Sizing Periods
    1;                        !- Maximum Number of HVAC Sizing Simulation Passes

Building,
    EU S2 Campaign,           !- Name
    0,                        !- North Axis
    City,                     !- Terrain
    ,                         !- Loads Convergence Tolerance Value
    ,                         !- Temperature Convergence Tolerance Value
    FullExterior,             !- Solar Distribution
    ,                         !- Maximum Number of Warmup Days
    ;                         !- Minimum Number of Warmup Days

ShadowCalculation,
    PolygonClipping,          !- Shading Calculation Method
    Periodic,                 !- Shading Calculation Update Frequency Method
    1;                        !- Shading Calculation Update Frequency

HeatBalanceAlgorithm,
    ConductionTransferFunction,    !- Algorithm
    200,                      !- Surface Temperature Upper Limit
    0.1,                      !- Minimum Surface Convection Heat Transfer Coefficient Value
    10000000;                 !- Maximum Surface Convection Heat Transfer Coefficient Value

Timestep,
    12;                       !- Number of Timesteps per Hour

Site:Location,
    Bologna,                  !- Name
    44.5,                     !- Latitude
    11.25,                    !- Longitude
    1,                        !- Time Zone
    37;                       !- Elevation

SizingPeriod:WeatherFileDays,
    AnnualSizingPeriod,       !- Name
    1,                        !- Begin Month
    1,                        !- Begin Day of Month
    12,                       !- End Month
    31,                       !- End Day of Month
    Monday,                   !- Day of Week for Start Day
    No,                       !- Use Weather File Daylight Saving Period
    No;                       !- Use Weather File Rain and Snow Indicators

RunPeriod,
    RunPeriod1,               !- Name
    1,                        !- Begin Month
    1,                        !- Begin Day of Month
    ,                         !- Begin Year
    12,                       !- End Month
    31,                       !- End Day of Month
    ,                         !- End Year
    Sunday,                   !- Day of Week for Start Day
    No,                       !- Use Weather File Holidays and Special Days
    No,                       !- Use Weather File Daylight Saving Period
    No,                       !- Apply Weekend Holiday Rule
    Yes,                      !- Use Weather File Rain Indicators
    Yes;                      !- Use Weather File Snow Indicators

ScheduleTypeLimits,
    Any Number;               !- Name

SCHEDULETYPELIMITS,
    EU_Step8_AnyNumber_Wm2,    !- Name
    ,                         !- Lower Limit Value
    ,                         !- Upper Limit Value
    Continuous,               !- Numeric Type
    Dimensionless;            !- Unit Type

SCHEDULE:CONSTANT,
    EU_AlwaysOn,              !- Name
    ,                         !- Schedule Type Limits Name
    1;                        !- Hourly Value

SCHEDULE:CONSTANT,
    EU_CoolingOff,            !- Name
    ,                         !- Schedule Type Limits Name
    0;                        !- Hourly Value

SCHEDULE:FILE,
    EU_Step8_GainSchedule_635e498716218cea_F0_whole_f000,    !- Name
    EU_Step8_AnyNumber_Wm2,    !- Schedule Type Limits Name
    ../../schedules/635e498716218cea/635e498716218cea_F0_whole_f000_gain.csv,    !- File Name
    1,                        !- Column Number
    0,                        !- Rows to Skip at Top
    8760,                     !- Number of Hours of Data
    Comma,                    !- Column Separator
    No,                       !- Interpolate to Timestep
    60,                       !- Minutes per Item
    Yes;                      !- Adjust Schedule for Daylight Savings

SCHEDULE:FILE,
    EU_Step8_GainSchedule_635e498716218cea_F1_whole_f000,    !- Name
    EU_Step8_AnyNumber_Wm2,    !- Schedule Type Limits Name
    ../../schedules/635e498716218cea/635e498716218cea_F1_whole_f000_gain.csv,    !- File Name
    1,                        !- Column Number
    0,                        !- Rows to Skip at Top
    8760,                     !- Number of Hours of Data
    Comma,                    !- Column Separator
    No,                       !- Interpolate to Timestep
    60,                       !- Minutes per Item
    Yes;                      !- Adjust Schedule for Daylight Savings

SCHEDULE:FILE,
    EU_Step8_GainSchedule_635e498716218cea_F2_whole_f000,    !- Name
    EU_Step8_AnyNumber_Wm2,    !- Schedule Type Limits Name
    ../../schedules/635e498716218cea/635e498716218cea_F2_whole_f000_gain.csv,    !- File Name
    1,                        !- Column Number
    0,                        !- Rows to Skip at Top
    8760,                     !- Number of Hours of Data
    Comma,                    !- Column Separator
    No,                       !- Interpolate to Timestep
    60,                       !- Minutes per Item
    Yes;                      !- Adjust Schedule for Daylight Savings

SCHEDULE:FILE,
    EU_Step8_GainSchedule_635e498716218cea_F3_whole_f000,    !- Name
    EU_Step8_AnyNumber_Wm2,    !- Schedule Type Limits Name
    ../../schedules/635e498716218cea/635e498716218cea_F3_whole_f000_gain.csv,    !- File Name
    1,                        !- Column Number
    0,                        !- Rows to Skip at Top
    8760,                     !- Number of Hours of Data
    Comma,                    !- Column Separator
    No,                       !- Interpolate to Timestep
    60,                       !- Minutes per Item
    Yes;                      !- Adjust Schedule for Daylight Savings

SCHEDULE:FILE,
    EU_Step8_GainSchedule_635e498716218cea_F4_whole_f000,    !- Name
    EU_Step8_AnyNumber_Wm2,    !- Schedule Type Limits Name
    ../../schedules/635e498716218cea/635e498716218cea_F4_whole_f000_gain.csv,    !- File Name
    1,                        !- Column Number
    0,                        !- Rows to Skip at Top
    8760,                     !- Number of Hours of Data
    Comma,                    !- Column Separator
    No,                       !- Interpolate to Timestep
    60,                       !- Minutes per Item
    Yes;                      !- Adjust Schedule for Daylight Savings

SCHEDULE:FILE,
    EU_Step8_GainSchedule_635e498716218cea_F5_whole_f000,    !- Name
    EU_Step8_AnyNumber_Wm2,    !- Schedule Type Limits Name
    ../../schedules/635e498716218cea/635e498716218cea_F5_whole_f000_gain.csv,    !- File Name
    1,                        !- Column Number
    0,                        !- Rows to Skip at Top
    8760,                     !- Number of Hours of Data
    Comma,                    !- Column Separator
    No,                       !- Interpolate to Timestep
    60,                       !- Minutes per Item
    Yes;                      !- Adjust Schedule for Daylight Savings

MATERIAL,
    EU_InternalMass_Material,    !- Name
    MediumRough,              !- Roughness
    0.1,                      !- Thickness
    1,                        !- Conductivity
    1800,                     !- Density
    900,                      !- Specific Heat
    0.9,                      !- Thermal Absorptance
    0.7,                      !- Solar Absorptance
    0.7;                      !- Visible Absorptance

MATERIAL:NOMASS,
    EU_wall_NoMass,           !- Name
    MediumRough,              !- Roughness
    0.9058281353670552,       !- Thermal Resistance
    0.9,                      !- Thermal Absorptance
    0.7,                      !- Solar Absorptance
    0.7;                      !- Visible Absorptance

MATERIAL:NOMASS,
    EU_roof_NoMass,           !- Name
    MediumRough,              !- Roughness
    3.759304e-01,             !- Thermal Resistance
    0.9,                      !- Thermal Absorptance
    0.7,                      !- Solar Absorptance
    0.7;                      !- Visible Absorptance

MATERIAL:NOMASS,
    EU_floor_NoMass,          !- Name
    MediumRough,              !- Roughness
    0.6711395814079611,       !- Thermal Resistance
    0.9,                      !- Thermal Absorptance
    0.7,                      !- Solar Absorptance
    0.7;                      !- Visible Absorptance

CONSTRUCTION,
    EU_wall_Construction,     !- Name
    EU_wall_NoMass;           !- Outside Layer

CONSTRUCTION,
    EU_roof_Construction,     !- Name
    EU_roof_NoMass;           !- Outside Layer

CONSTRUCTION,
    EU_floor_Construction,    !- Name
    EU_floor_NoMass;          !- Outside Layer

CONSTRUCTION,
    EU_InternalMass_Construction,    !- Name
    EU_InternalMass_Material;    !- Outside Layer

GlobalGeometryRules,
    UpperLeftCorner,          !- Starting Vertex Position
    CounterClockWise,         !- Vertex Entry Direction
    World;                    !- Coordinate System

ZONE,
    635e498716218cea_F0_whole,    !- Name
    0,                        !- Direction of Relative North
    0,                        !- X Origin
    0,                        !- Y Origin
    0,                        !- Z Origin
    1,                        !- Type
    1,                        !- Multiplier
    autocalculate,            !- Ceiling Height
    1588.814208984375,        !- Volume
    autocalculate,            !- Floor Area
    ,                         !- Zone Inside Convection Algorithm
    ,                         !- Zone Outside Convection Algorithm
    Yes;                      !- Part of Total Floor Area

ZONE,
    635e498716218cea_F1_whole,    !- Name
    0,                        !- Direction of Relative North
    0,                        !- X Origin
    0,                        !- Y Origin
    0,                        !- Z Origin
    1,                        !- Type
    1,                        !- Multiplier
    autocalculate,            !- Ceiling Height
    1588.814208984375,        !- Volume
    autocalculate,            !- Floor Area
    ,                         !- Zone Inside Convection Algorithm
    ,                         !- Zone Outside Convection Algorithm
    Yes;                      !- Part of Total Floor Area

ZONE,
    635e498716218cea_F2_whole,    !- Name
    0,                        !- Direction of Relative North
    0,                        !- X Origin
    0,                        !- Y Origin
    0,                        !- Z Origin
    1,                        !- Type
    1,                        !- Multiplier
    autocalculate,            !- Ceiling Height
    1588.814208984375,        !- Volume
    autocalculate,            !- Floor Area
    ,                         !- Zone Inside Convection Algorithm
    ,                         !- Zone Outside Convection Algorithm
    Yes;                      !- Part of Total Floor Area

ZONE,
    635e498716218cea_F3_whole,    !- Name
    0,                        !- Direction of Relative North
    0,                        !- X Origin
    0,                        !- Y Origin
    0,                        !- Z Origin
    1,                        !- Type
    1,                        !- Multiplier
    autocalculate,            !- Ceiling Height
    1588.814208984375,        !- Volume
    autocalculate,            !- Floor Area
    ,                         !- Zone Inside Convection Algorithm
    ,                         !- Zone Outside Convection Algorithm
    Yes;                      !- Part of Total Floor Area

ZONE,
    635e498716218cea_F4_whole,    !- Name
    0,                        !- Direction of Relative North
    0,                        !- X Origin
    0,                        !- Y Origin
    0,                        !- Z Origin
    1,                        !- Type
    1,                        !- Multiplier
    autocalculate,            !- Ceiling Height
    1588.814208984375,        !- Volume
    autocalculate,            !- Floor Area
    ,                         !- Zone Inside Convection Algorithm
    ,                         !- Zone Outside Convection Algorithm
    Yes;                      !- Part of Total Floor Area

ZONE,
    635e498716218cea_F5_whole,    !- Name
    0,                        !- Direction of Relative North
    0,                        !- X Origin
    0,                        !- Y Origin
    0,                        !- Z Origin
    1,                        !- Type
    1,                        !- Multiplier
    autocalculate,            !- Ceiling Height
    1588.814208984375,        !- Volume
    autocalculate,            !- Floor Area
    ,                         !- Zone Inside Convection Algorithm
    ,                         !- Zone Outside Convection Algorithm
    Yes;                      !- Part of Total Floor Area

BUILDINGSURFACE:DETAILED,
    Block 635e498716218cea_whole Storey 0 Wall 0001,    !- Name
    wall,                     !- Surface Type
    EU_wall_Construction,     !- Construction Name
    635e498716218cea_F0_whole,    !- Zone Name
    ,                         !- Space Name
    Adiabatic,                !- Outside Boundary Condition
    ,                         !- Outside Boundary Condition Object
    NoSun,                    !- Sun Exposure
    NoWind,                   !- Wind Exposure
    autocalculate,            !- View Factor to Ground
    autocalculate,            !- Number of Vertices
    686256.7819984966,        !- Vertex 1 Xcoordinate
    4928778.018119191,        !- Vertex 1 Ycoordinate
    3,                        !- Vertex 1 Zcoordinate
    686256.7819984966,        !- Vertex 2 Xcoordinate
    4928778.018119191,        !- Vertex 2 Ycoordinate
    0,                        !- Vertex 2 Zcoordinate
    686251.0659984965,        !- Vertex 3 Xcoordinate
    4928778.751119191,        !- Vertex 3 Ycoordinate
    0,                        !- Vertex 3 Zcoordinate
    686251.0659984965,        !- Vertex 4 Xcoordinate
    4928778.751119191,        !- Vertex 4 Ycoordinate
    3;                        !- Vertex 4 Zcoordinate

BUILDINGSURFACE:DETAILED,
    Block 635e498716218cea_whole Storey 0 Wall 0002,    !- Name
    wall,                     !- Surface Type
    EU_wall_Construction,     !- Construction Name
    635e498716218cea_F0_whole,    !- Zone Name
    ,                         !- Space Name
    Adiabatic,                !- Outside Boundary Condition
    ,                         !- Outside Boundary Condition Object
    NoSun,                    !- Sun Exposure
    NoWind,                   !- Wind Exposure
    autocalculate,            !- View Factor to Ground
    autocalculate,            !- Number of Vertices
    686251.0659984965,        !- Vertex 1 Xcoordinate
    4928778.751119191,        !- Vertex 1 Ycoordinate
    3,                        !- Vertex 1 Zcoordinate
    686251.0659984965,        !- Vertex 2 Xcoordinate
    4928778.751119191,        !- Vertex 2 Ycoordinate
    0,                        !- Vertex 2 Zcoordinate
    686251.0659984965,        !- Vertex 3 Xcoordinate
    4928779.915119192,        !- Vertex 3 Ycoordinate
    0,                        !- Vertex 3 Zcoordinate
    686251.0659984965,        !- Vertex 4 Xcoordinate
    4928779.915119192,        !- Vertex 4 Ycoordinate
    3;                        !- Vertex 4 Zcoordinate

BUILDINGSURFACE:DETAILED,
    Block 635e498716218cea_whole Storey 0 Wall 0003,    !- Name
    wall,                     !- Surface Type
    EU_wall_Construction,     !- Construction Name
    635e498716218cea_F0_whole,    !- Zone Name
    ,                         !- Space Name
    Adiabatic,                !- Outside Boundary Condition
    ,                         !- Outside Boundary Condition Object
    NoSun,                    !- Sun Exposure
    NoWind,                   !- Wind Exposure
    autocalculate,            !- View Factor to Ground
    autocalculate,            !- Number of Vertices
    686251.0659984965,        !- Vertex 1 Xcoordinate
    4928779.915119192,        !- Vertex 1 Ycoordinate
    3,                        !- Vertex 1 Zcoordinate
    686251.0659984965,        !- Vertex 2 Xcoordinate
    4928779.915119192,        !- Vertex 2 Ycoordinate
    0,                        !- Vertex 2 Zcoordinate
    686248.6689984965,        !- Vertex 3 Xcoordinate
    4928780.109119192,        !- Vertex 3 Ycoordinate
    0,                        !- Vertex 3 Zcoordinate
    686248.6689984965,        !- Vertex 4 Xcoordinate
    4928780.109119192,        !- Vertex 4 Ycoordinate
    3;                        !- Vertex 4 Zcoordinate

BUILDINGSURFACE:DETAILED,
    Block 635e498716218cea_whole Storey 0 Wall 0004,    !- Name
    wall,                     !- Surface Type
    EU_wall_Construction,     !- Construction Name
    635e498716218cea_F0_whole,    !- Zone Name
    ,                         !- Space Name
    Adiabatic,                !- Outside Boundary Condition
    ,                         !- Outside Boundary Condition Object
    NoSun,                    !- Sun Exposure
    NoWind,                   !- Wind Exposure
    autocalculate,            !- View Factor to Ground
    autocalculate,            !- Number of Vertices
    686248.6689984965,        !- Vertex 1 Xcoordinate
    4928780.109119192,        !- Vertex 1 Ycoordinate
    3,                        !- Vertex 1 Zcoordinate
    686248.6689984965,        !- Vertex 2 Xcoordinate
    4928780.109119192,        !- Vertex 2 Ycoordinate
    0,                        !- Vertex 2 Zcoordinate
    686245.8879984966,        !- Vertex 3 Xcoordinate
    4928780.322119192,        !- Vertex 3 Ycoordinate
    0,                        !- Vertex 3 Zcoordinate
    686245.8879984966,        !- Vertex 4 Xcoordinate
    4928780.322119192,        !- Vertex 4 Ycoordinate
    3;                        !- Vertex 4 Zcoordinate

BUILDINGSURFACE:DETAILED,
    Block 635e498716218cea_whole Storey 0 Wall 0005,    !- Name
    wall,                     !- Surface Type
    EU_wall_Construction,     !- Construction Name
    635e498716218cea_F0_whole,    !- Zone Name
    ,                         !- Space Name
    Adiabatic,                !- Outside Boundary Condition
    ,                         !- Outside Boundary Condition Object
    NoSun,                    !- Sun Exposure
    NoWind,                   !- Wind Exposure
    autocalculate,            !- View Factor to Ground
    autocalculate,            !- Number of Vertices
    686245.8879984966,        !- Vertex 1 Xcoordinate
    4928780.322119192,        !- Vertex 1 Ycoordinate
    3,                        !- Vertex 1 Zcoordinate
    686245.8879984966,        !- Vertex 2 Xcoordinate
    4928780.322119192,        !- Vertex 2 Ycoordinate
    0,                        !- Vertex 2 Zcoordinate
    686245.6789984965,        !- Vertex 3 Xcoordinate
    4928779.1701191915,       !- Vertex 3 Ycoordinate
    0,                        !- Vertex 3 Zcoordinate
    686245.6789984965,        !- Vertex 4 Xcoordinate
    4928779.1701191915,       !- Vertex 4 Ycoordinate
    3;                        !- Vertex 4 Zcoordinate

BUILDINGSURFACE:DETAILED,
    Block 635e498716218cea_whole Storey 0 Wall 0006,    !- Name
    wall,                     !- Surface Type
    EU_wall_Construction,     !- Construction Name
    635e498716218cea_F0_whole,    !- Zone Name
    ,                         !- Space Name
    outdoors,                 !- Outside Boundary Condition
    ,                         !- Outside Boundary Condition Object
    SunExposed,               !- Sun Exposure
    WindExposed,              !- Wind Exposure
    autocalculate,            !- View Factor to Ground
    autocalculate,            !- Number of Vertices
    686245.6789984965,        !- Vertex 1 Xcoordinate
    4928779.1701191915,       !- Vertex 1 Ycoordinate
    3,                        !- Vertex 1 Zcoordinate
    686245.6789984965,        !- Vertex 2 Xcoordinate
    4928779.1701191915,       !- Vertex 2 Ycoordinate
    0,                        !- Vertex 2 Zcoordinate
    686242.7789984965,        !- Vertex 3 Xcoordinate
    4928769.410119192,        !- Vertex 3 Ycoordinate
    0,                        !- Vertex 3 Zcoordinate
    686242.7789984965,        !- Vertex 4 Xcoordinate
    4928769.410119192,        !- Vertex 4 Ycoordinate
    3;                        !- Vertex 4 Zcoordinate

BUILDINGSURFACE:DETAILED,
    Block 635e498716218cea_whole Storey 0 Wall 0007,    !- Name
    wall,                     !- Surface Type
    EU_wall_Construction,     !- Construction Name
    635e498716218cea_F0_whole,    !- Zone Name
    ,                         !- Space Name
    outdoors,                 !- Outside Boundary Condition
    ,                         !- Outside Boundary Condition Object
    SunExposed,               !- Sun Exposure
    WindExposed,              !- Wind Exposure
    autocalculate,            !- View Factor to Ground
    autocalculate,            !- Number of Vertices
    686242.7789984965,        !- Vertex 1 Xcoordinate
    4928769.410119192,        !- Vertex 1 Ycoordinate
    3,                        !- Vertex 1 Zcoordinate
    686242.7789984965,        !- Vertex 2 Xcoordinate
    4928769.410119192,        !- Vertex 2 Ycoordinate
    0,                        !- Vertex 2 Zcoordinate
    686241.0089984965,        !- Vertex 3 Xcoordinate
    4928763.47011919,         !- Vertex 3 Ycoordinate
    0,                        !- Vertex 3 Zcoordinate
    686241.0089984965,        !- Vertex 4 Xcoordinate
    4928763.47011919,         !- Vertex 4 Ycoordinate
    3;                        !- Vertex 4 Zcoordinate

BUILDINGSURFACE:DETAILED,
    Block 635e498716218cea_whole Storey 0 Wall 0008,    !- Name
    wall,                     !- Surface Type
    EU_wall_Construction,     !- Construction Name
    635e498716218cea_F0_whole,    !- Zone Name
    ,                         !- Space Name
    Adiabatic,                !- Outside Boundary Condition
    ,                         !- Outside Boundary Condition Object
    NoSun,                    !- Sun Exposure
    NoWind,                   !- Wind Exposure
    autocalculate,            !- View Factor to Ground
    autocalculate,            !- Number of Vertices
    686241.0089984965,        !- Vertex 1 Xcoordinate
    4928763.47011919,         !- Vertex 1 Ycoordinate
    3,                        !- Vertex 1 Zcoordinate
    686241.0089984965,        !- Vertex 2 Xcoordinate
    4928763.47011919,         !- Vertex 2 Ycoordinate
    0,                        !- Vertex 2 Zcoordinate
    686241.8689984964,        !- Vertex 3 Xcoordinate
    4928763.301119192,        !- Vertex 3 Ycoordinate
    0,                        !- Vertex 3 Zcoordinate
    686241.8689984964,        !- Vertex 4 Xcoordinate
    4928763.301119192,        !- Vertex 4 Ycoordinate
    3;                        !- Vertex 4 Zcoordinate

BUILDINGSURFACE:DETAILED,
    Block 635e498716218cea_whole Storey 0 Wall 0009,    !- Name
    wall,                     !- Surface Type
    EU_wall_Construction,     !- Construction Name
    635e498716218cea_F0_whole,    !- Zone Name
    ,                         !- Space Name
    Adiabatic,                !- Outside Boundary Condition
    ,                         !- Outside Boundary Condition Object
    NoSun,                    !- Sun Exposure
    NoWind,                   !- Wind Exposure
    autocalculate,            !- View Factor to Ground
    autocalculate,            !- Number of Vertices
    686241.8689984964,        !- Vertex 1 Xcoordinate
    4928763.301119192,        !- Vertex 1 Ycoordinate
    3,                        !- Vertex 1 Zcoordinate
    686241.8689984964,        !- Vertex 2 Xcoordinate
    4928763.301119192,        !- Vertex 2 Ycoordinate
    0,                        !- Vertex 2 Zcoordinate
    686241.3549984966,        !- Vertex 3 Xcoordinate
    4928761.199119192,        !- Vertex 3 Ycoordinate
    0,                        !- Vertex 3 Zcoordinate
    686241.3549984966,        !- Vertex 4 Xcoordinate
    4928761.199119192,        !- Vertex 4 Ycoordinate
    3;                        !- Vertex 4 Zcoordinate

BUILDINGSURFACE:DETAILED,
    Block 635e498716218cea_whole Storey 0 Wall 0010,    !- Name
    wall,                     !- Surface Type
    EU_wall_Construction,     !- Construction Name
    635e498716218cea_F0_whole,    !- Zone Name
    ,                         !- Space Name
    Adiabatic,                !- Outside Boundary Condition
    ,                         !- Outside Boundary Condition Object
    NoSun,                    !- Sun Exposure
    NoWind,                   !- Wind Exposure
    autocalculate,            !- View Factor to Ground
    autocalculate,            !- Number of Vertices
    686241.3549984966,        !- Vertex 1 Xcoordinate
    4928761.199119192,        !- Vertex 1 Ycoordinate
    3,                        !- Vertex 1 Zcoordinate
    686241.3549984966,        !- Vertex 2 Xcoordinate
    4928761.199119192,        !- Vertex 2 Ycoordinate
    0,                        !- Vertex 2 Zcoordinate
    686242.1689984964,        !- Vertex 3 Xcoordinate
    4928760.900119191,        !- Vertex 3 Ycoordinate
    0,                        !- Vertex 3 Zcoordinate
    686242.1689984964,        !- Vertex 4 Xcoordinate
    4928760.900119191,        !- Vertex 4 Ycoordinate
    3;                        !- Vertex 4 Zcoordinate

BUILDINGSURFACE:DETAILED,
    Block 635e498716218cea_whole Storey 0 Wall 0011,    !- Name
    wall,                     !- Surface Type
    EU_wall_Construction,     !- Construction Name
    635e498716218cea_F0_whole,    !- Zone Name
    ,                         !- Space Name
    Adiabatic,                !- Outside Boundary Condition
    ,                         !- Outside Boundary Condition Object
    NoSun,                    !- Sun Exposure
    NoWind,                   !- Wind Exposure
    autocalculate,            !- View Factor to Ground
    autocalculate,            !- Number of Vertices
    686242.1689984964,        !- Vertex 1 Xcoordinate
    4928760.900119191,        !- Vertex 1 Ycoordinate
    3,                        !- Vertex 1 Zcoordinate
    686242.1689984964,        !- Vertex 2 Xcoordinate
    4928760.900119191,        !- Vertex 2 Ycoordinate
    0,                        !- Vertex 2 Zcoordinate
    686245.8189984965,        !- Vertex 3 Xcoordinate
    4928759.850119191,        !- Vertex 3 Ycoordinate
    0,                        !- Vertex 3 Zcoordinate
    686245.8189984965,        !- Vertex 4 Xcoordinate
    4928759.850119191,        !- Vertex 4 Ycoordinate
    3;                        !- Vertex 4 Zcoordinate

BUILDINGSURFACE:DETAILED,
    Block 635e498716218cea_whole Storey 0 Wall 0012,    !- Name
    wall,                     !- Surface Type
    EU_wall_Construction,     !- Construction Name
    635e498716218cea_F0_whole,    !- Zone Name
    ,                         !- Space Name
    Adiabatic,                !- Outside Boundary Condition
    ,                         !- Outside Boundary Condition Object
    NoSun,                    !- Sun Exposure
    NoWind,                   !- Wind Exposure
    autocalculate,            !- View Factor to Ground
    autocalculate,            !- Number of Vertices
    686245.8189984965,        !- Vertex 1 Xcoordinate
    4928759.850119191,        !- Vertex 1 Ycoordinate
    3,                        !- Vertex 1 Zcoordinate
    686245.8189984965,        !- Vertex 2 Xcoordinate
    4928759.850119191,        !- Vertex 2 Ycoordinate
    0,                        !- Vertex 2 Zcoordinate
    686244.5289984965,        !- Vertex 3 Xcoordinate
    4928755.070119192,        !- Vertex 3 Ycoordinate
    0,                        !- Vertex 3 Zcoordinate
    686244.5289984965,        !- Vertex 4 Xcoordinate
    4928755.070119192,        !- Vertex 4 Ycoordinate
    3;                        !- Vertex 4 Zcoordinate

BUILDINGSURFACE:DETAILED,
    Block 635e498716218cea_whole Storey 0 Wall 0013,    !- Name
    wall,                     !- Surface Type
    EU_wall_Construction,     !- Construction Name
    635e498716218cea_F0_whole,    !- Zone Name
    ,                         !- Space Name
    Adiabatic,                !- Outside Boundary Condition
    ,                         !- Outside Boundary Condition Object
    NoSun,                    !- Sun Exposure
    NoWind,                   !- Wind Exposure
    autocalculate,            !- View Factor to Ground
    autocalculate,            !- Number of Vertices
    686244.5289984965,        !- Vertex 1 Xcoordinate
    4928755.070119192,        !- Vertex 1 Ycoordinate
    3,                        !- Vertex 1 Zcoordinate
    686244.5289984965,        !- Vertex 2 Xcoordinate
    4928755.070119192,        !- Vertex 2 Ycoordinate
    0,                        !- Vertex 2 Zcoordinate
    686239.7069984967,        !- Vertex 3 Xcoordinate
    4928738.92011919,         !- Vertex 3 Ycoordinate
    0,                        !- Vertex 3 Zcoordinate
    686239.7069984967,        !- Vertex 4 Xcoordinate
    4928738.92011919,         !- Vertex 4 Ycoordinate
    3;                        !- Vertex 4 Zcoordinate

BUILDINGSURFACE:DETAILED,
    Block 635e498716218cea_whole Storey 0 Wall 0014,    !- Name
    wall,                     !- Surface Type
    EU_wall_Construction,     !- Construction Name
    635e498716218cea_F0_whole,    !- Zone Name
    ,                         !- Space Name
    outdoors,                 !- Outside Boundary Condition
    ,                         !- Outside Boundary Condition Object
    SunExposed,               !- Sun Exposure
    WindExposed,              !- Wind Exposure
    autocalculate,            !- View Factor to Ground
    autocalculate,            !- Number of Vertices
    686239.7069984967,        !- Vertex 1 Xcoordinate
    4928738.92011919,         !- Vertex 1 Ycoordinate
    3,                        !- Vertex 1 Zcoordinate
    686239.7069984967,        !- Vertex 2 Xcoordinate
    4928738.92011919,         !- Vertex 2 Ycoordinate
    0,                        !- Vertex 2 Zcoordinate
    686251.9989984964,        !- Vertex 3 Xcoordinate
    4928735.021119189,        !- Vertex 3 Ycoordinate
    0,                        !- Vertex 3 Zcoordinate
    686251.9989984964,        !- Vertex 4 Xcoordinate
    4928735.021119189,        !- Vertex 4 Ycoordinate
    3;                        !- Vertex 4 Zcoordinate

BUILDINGSURFACE:DETAILED,
    Block 635e498716218cea_whole Storey 0 Wall 0015,    !- Name
    wall,                     !- Surface Type
    EU_wall_Construction,     !- Construction Name
    635e498716218cea_F0_whole,    !- Zone Name
    ,                         !- Space Name
    Adiabatic,                !- Outside Boundary Condition
    ,                         !- Outside Boundary Condition Object
    NoSun,                    !- Sun Exposure
    NoWind,                   !- Wind Exposure
    autocalculate,            !- View Factor to Ground
    autocalculate,            !- Number of Vertices
    686251.9989984964,        !- Vertex 1 Xcoordinate
    4928735.021119189,        !- Vertex 1 Ycoordinate
    3,                        !- Vertex 1 Zcoordinate
    686251.9989984964,        !- Vertex 2 Xcoordinate
    4928735.021119189,        !- Vertex 2 Ycoordinate
    0,                        !- Vertex 2 Zcoordinate
    686255.1289984966,        !- Vertex 3 Xcoordinate
    4928746.900119191,        !- Vertex 3 Ycoordinate
    0,                        !- Vertex 3 Zcoordinate
    686255.1289984966,        !- Vertex 4 Xcoordinate
    4928746.900119191,        !- Vertex 4 Ycoordinate
    3;                        !- Vertex 4 Zcoordinate

BUILDINGSURFACE:DETAILED,
    Block 635e498716218cea_whole Storey 0 Wall 0016,    !- Name
    wall,                     !- Surface Type
    EU_wall_Construction,     !- Construction Name
    635e498716218cea_F0_whole,    !- Zone Name
    ,                         !- Space Name
    Adiabatic,                !- Outside Boundary Condition
    ,                         !- Outside Boundary Condition Object
    NoSun,                    !- Sun Exposure
    NoWind,                   !- Wind Exposure
    autocalculate,            !- View Factor to Ground
    autocalculate,            !- Number of Vertices
    686255.1289984966,        !- Vertex 1 Xcoordinate
    4928746.900119191,        !- Vertex 1 Ycoordinate
    3,                        !- Vertex 1 Zcoordinate
    686255.1289984966,        !- Vertex 2 Xcoordinate
    4928746.900119191,        !- Vertex 2 Ycoordinate
    0,                        !- Vertex 2 Zcoordinate
    686259.1089984967,        !- Vertex 3 Xcoordinate
    4928762.06011919,         !- Vertex 3 Ycoordinate
    0,                        !- Vertex 3 Zcoordinate
    686259.1089984967,        !- Vertex 4 Xcoordinate
    4928762.06011919,         !- Vertex 4 Ycoordinate
    3;                        !- Vertex 4 Zcoordinate

BUILDINGSURFACE:DETAILED,
    Block 635e498716218cea_whole Storey 0 Wall 0017,    !- Name
    wall,                     !- Surface Type
    EU_wall_Construction,     !- Construction Name
    635e498716218cea_F0_whole,    !- Zone Name
    ,                         !- Space Name
    Adiabatic,                !- Outside Boundary Condition
    ,                         !- Outside Boundary Condition Object
    NoSun,                    !- Sun Exposure
    NoWind,                   !- Wind Exposure
    autocalculate,            !- View Factor to Ground
    autocalculate,            !- Number of Vertices
    686259.1089984967,        !- Vertex 1 Xcoordinate
    4928762.06011919,         !- Vertex 1 Ycoordinate
    3,                        !- Vertex 1 Zcoordinate
    686259.1089984967,        !- Vertex 2 Xcoordinate
    4928762.06011919,         !- Vertex 2 Ycoordinate
    0,                        !- Vertex 2 Zcoordinate
    686260.4189984964,        !- Vertex 3 Xcoordinate
    4928766.480119192,        !- Vertex 3 Ycoordinate
    0,                        !- Vertex 3 Zcoordinate
    686260.4189984964,        !- Vertex 4 Xcoordinate
    4928766.480119192,        !- Vertex 4 Ycoordinate
    3;                        !- Vertex 4 Zcoordinate

BUILDINGSURFACE:DETAILED,
    Block 635e498716218cea_whole Storey 0 Wall 0018,    !- Name
    wall,                     !- Surface Type
    EU_wall_Construction,     !- Construction Name
    635e498716218cea_F0_whole,    !- Zone Name
    ,                         !- Space Name
    Adiabatic,                !- Outside Boundary Condition
    ,                         !- Outside Boundary Condition Object
    NoSun,                    !- Sun Exposure
    NoWind,                   !- Wind Exposure
    autocalculate,            !- View Factor to Ground
    autocalculate,            !- Number of Vertices
    686260.4189984964,        !- Vertex 1 Xcoordinate
    4928766.480119192,        !- Vertex 1 Ycoordinate
    3,                        !- Vertex 1 Zcoordinate
    686260.4189984964,        !- Vertex 2 Xcoordinate
    4928766.480119192,        !- Vertex 2 Ycoordinate
    0,                        !- Vertex 2 Zcoordinate
    686260.8289984964,        !- Vertex 3 Xcoordinate
    4928768.230119191,        !- Vertex 3 Ycoordinate
    0,                        !- Vertex 3 Zcoordinate
    686260.8289984964,        !- Vertex 4 Xcoordinate
    4928768.230119191,        !- Vertex 4 Ycoordinate
    3;                        !- Vertex 4 Zcoordinate

BUILDINGSURFACE:DETAILED,
    Block 635e498716218cea_whole Storey 0 Wall 0019,    !- Name
    wall,                     !- Surface Type
    EU_wall_Construction,     !- Construction Name
    635e498716218cea_F0_whole,    !- Zone Name
    ,                         !- Space Name
    Adiabatic,                !- Outside Boundary Condition
    ,                         !- Outside Boundary Condition Object
    NoSun,                    !- Sun Exposure
    NoWind,                   !- Wind Exposure
    autocalculate,            !- View Factor to Ground
    autocalculate,            !- Number of Vertices
    686260.8289984964,        !- Vertex 1 Xcoordinate
    4928768.230119191,        !- Vertex 1 Ycoordinate
    3,                        !- Vertex 1 Zcoordinate
    686260.8289984964,        !- Vertex 2 Xcoordinate
    4928768.230119191,        !- Vertex 2 Ycoordinate
    0,                        !- Vertex 2 Zcoordinate
    686261.2779984965,        !- Vertex 3 Xcoordinate
    4928769.821119191,        !- Vertex 3 Ycoordinate
    0,                        !- Vertex 3 Zcoordinate
    686261.2779984965,        !- Vertex 4 Xcoordinate
    4928769.821119191,        !- Vertex 4 Ycoordinate
    3;                        !- Vertex 4 Zcoordinate

BUILDINGSURFACE:DETAILED,
    Block 635e498716218cea_whole Storey 0 Wall 0020,    !- Name
    wall,                     !- Surface Type
    EU_wall_Construction,     !- Construction Name
    635e498716218cea_F0_whole,    !- Zone Name
    ,                         !- Space Name
    Adiabatic,                !- Outside Boundary Condition
    ,                         !- Outside Boundary Condition Object
    NoSun,                    !- Sun Exposure
    NoWind,                   !- Wind Exposure
    autocalculate,            !- View Factor to Ground
    autocalculate,            !- Number of Vertices
    686261.2779984965,        !- Vertex 1 Xcoordinate
    4928769.821119191,        !- Vertex 1 Ycoordinate
    3,                        !- Vertex 1 Zcoordinate
    686261.2779984965,        !- Vertex 2 Xcoordinate
    4928769.821119191,        !- Vertex 2 Ycoordinate
    0,                        !- Vertex 2 Zcoordinate
    686259.6759984964,        !- Vertex 3 Xcoordinate
    4928770.31611919,         !- Vertex 3 Ycoordinate
    0,                        !- Vertex 3 Zcoordinate
    686259.6759984964,        !- Vertex 4 Xcoordinate
    4928770.31611919,         !- Vertex 4 Ycoordinate
    3;                        !- Vertex 4 Zcoordinate

BUILDINGSURFACE:DETAILED,
    Block 635e498716218cea_whole Storey 0 Wall 0021,    !- Name
    wall,                     !- Surface Type
    EU_wall_Construction,     !- Construction Name
    635e498716218cea_F0_whole,    !- Zone Name
    ,                         !- Space Name
    Adiabatic,                !- Outside Boundary Condition
    ,                         !- Outside Boundary Condition Object
    NoSun,                    !- Sun Exposure
    NoWind,                   !- Wind Exposure
    autocalculate,            !- View Factor to Ground
    autocalculate,            !- Number of Vertices
    686259.6759984964,        !- Vertex 1 Xcoordinate
    4928770.31611919,         !- Vertex 1 Ycoordinate
    3,                        !- Vertex 1 Zcoordinate
    686259.6759984964,        !- Vertex 2 Xcoordinate
    4928770.31611919,         !- Vertex 2 Ycoordinate
    0,                        !- Vertex 2 Zcoordinate
    686259.2359984965,        !- Vertex 3 Xcoordinate
    4928768.65011919,         !- Vertex 3 Ycoordinate
    0,                        !- Vertex 3 Zcoordinate
    686259.2359984965,        !- Vertex 4 Xcoordinate
    4928768.65011919,         !- Vertex 4 Ycoordinate
    3;                        !- Vertex 4 Zcoordinate

BUILDINGSURFACE:DETAILED,
    Block 635e498716218cea_whole Storey 0 Wall 0022,    !- Name
    wall,                     !- Surface Type
    EU_wall_Construction,     !- Construction Name
    635e498716218cea_F0_whole,    !- Zone Name
    ,                         !- Space Name
    Adiabatic,                !- Outside Boundary Condition
    ,                         !- Outside Boundary Condition Object
    NoSun,                    !- Sun Exposure
    NoWind,                   !- Wind Exposure
    autocalculate,            !- View Factor to Ground
    autocalculate,            !- Number of Vertices
    686259.2359984965,        !- Vertex 1 Xcoordinate
    4928768.65011919,         !- Vertex 1 Ycoordinate
    3,                        !- Vertex 1 Zcoordinate
    686259.2359984965,        !- Vertex 2 Xcoordinate
    4928768.65011919,         !- Vertex 2 Ycoordinate
    0,                        !- Vertex 2 Zcoordinate
    686254.5689984965,        !- Vertex 3 Xcoordinate
    4928769.880119192,        !- Vertex 3 Ycoordinate
    0,                        !- Vertex 3 Zcoordinate
    686254.5689984965,        !- Vertex 4 Xcoordinate
    4928769.880119192,        !- Vertex 4 Ycoordinate
    3;                        !- Vertex 4 Zcoordinate

BUILDINGSURFACE:DETAILED,
    Block 635e498716218cea_whole Storey 0 Wall 0023,    !- Name
    wall,                     !- Surface Type
    EU_wall_Construction,     !- Construction Name
    635e498716218cea_F0_whole,    !- Zone Name
    ,                         !- Space Name
    outdoors,                 !- Outside Boundary Condition
    ,                         !- Outside Boundary Condition Object
    SunExposed,               !- Sun Exposure
    WindExposed,              !- Wind Exposure
    autocalculate,            !- View Factor to Ground
    autocalculate,            !- Number of Vertices
    686254.5689984965,        !- Vertex 1 Xcoordinate
    4928769.880119192,        !- Vertex 1 Ycoordinate
    3,                        !- Vertex 1 Zcoordinate
    686254.5689984965,        !- Vertex 2 Xcoordinate
    4928769.880119192,        !- Vertex 2 Ycoordinate
    0,                        !- Vertex 2 Zcoordinate
    686253.4889984966,        !- Vertex 3 Xcoordinate
    4928765.930119191,        !- Vertex 3 Ycoordinate
    0,                        !- Vertex 3 Zcoordinate
    686253.4889984966,        !- Vertex 4 Xcoordinate
    4928765.930119191,        !- Vertex 4 Ycoordinate
    3;                        !- Vertex 4 Zcoordinate

BUILDINGSURFACE:DETAILED,
    Block 635e498716218cea_whole Storey 0 Wall 0024,    !- Name
    wall,                     !- Surface Type
    EU_wall_Construction,     !- Construction Name
    635e498716218cea_F0_whole,    !- Zone Name
    ,                         !- Space Name
    outdoors,                 !- Outside Boundary Condition
    ,                         !- Outside Boundary Condition Object
    SunExposed,               !- Sun Exposure
    WindExposed,              !- Wind Exposure
    autocalculate,            !- View Factor to Ground
    autocalculate,            !- Number of Vertices
    686253.4889984966,        !- Vertex 1 Xcoordinate
    4928765.930119191,        !- Vertex 1 Ycoordinate
    3,                        !- Vertex 1 Zcoordinate
    686253.4889984966,        !- Vertex 2 Xcoordinate
    4928765.930119191,        !- Vertex 2 Ycoordinate
    0,                        !- Vertex 2 Zcoordinate
    686245.8589984964,        !- Vertex 3 Xcoordinate
    4928767.950119193,        !- Vertex 3 Ycoordinate
    0,                        !- Vertex 3 Zcoordinate
    686245.8589984964,        !- Vertex 4 Xcoordinate
    4928767.950119193,        !- Vertex 4 Ycoordinate
    3;                        !- Vertex 4 Zcoordinate

BUILDINGSURFACE:DETAILED,
    Block 635e498716218cea_whole Storey 0 Wall 0025,    !- Name
    wall,                     !- Surface Type
    EU_wall_Construction,     !- Construction Name
    635e498716218cea_F0_whole,    !- Zone Name
    ,                         !- Space Name
    outdoors,                 !- Outside Boundary Condition
    ,                         !- Outside Boundary Condition Object
    SunExposed,               !- Sun Exposure
    WindExposed,              !- Wind Exposure
    autocalculate,            !- View Factor to Ground
    autocalculate,            !- Number of Vertices
    686245.8589984964,        !- Vertex 1 Xcoordinate
    4928767.950119193,        !- Vertex 1 Ycoordinate
    3,                        !- Vertex 1 Zcoordinate
    686245.8589984964,        !- Vertex 2 Xcoordinate
    4928767.950119193,        !- Vertex 2 Ycoordinate
    0,                        !- Vertex 2 Zcoordinate
    686246.0389984964,        !- Vertex 3 Xcoordinate
    4928768.670119191,        !- Vertex 3 Ycoordinate
    0,                        !- Vertex 3 Zcoordinate
    686246.0389984964,        !- Vertex 4 Xcoordinate
    4928768.670119191,        !- Vertex 4 Ycoordinate
    3;                        !- Vertex 4 Zcoordinate

BUILDINGSURFACE:DETAILED,
    Block 635e498716218cea_whole Storey 0 Wall 0026,    !- Name
    wall,                     !- Surface Type
    EU_wall_Construction,     !- Construction Name
    635e498716218cea_F0_whole,    !- Zone Name
    ,                         !- Space Name
    outdoors,                 !- Outside Boundary Condition
    ,                         !- Outside Boundary Condition Object
    SunExposed,               !- Sun Exposure
    WindExposed,              !- Wind Exposure
    autocalculate,            !- View Factor to Ground
    autocalculate,            !- Number of Vertices
    686246.0389984964,        !- Vertex 1 Xcoordinate
    4928768.670119191,        !- Vertex 1 Ycoordinate
    3,                        !- Vertex 1 Zcoordinate
    686246.0389984964,        !- Vertex 2 Xcoordinate
    4928768.670119191,        !- Vertex 2 Ycoordinate
    0,                        !- Vertex 2 Zcoordinate
    686247.4389984965,        !- Vertex 3 Xcoordinate
    4928774.230119192,        !- Vertex 3 Ycoordinate
    0,                        !- Vertex 3 Zcoordinate
    686247.4389984965,        !- Vertex 4 Xcoordinate
    4928774.230119192,        !- Vertex 4 Ycoordinate
    3;                        !- Vertex 4 Zcoordinate

BUILDINGSURFACE:DETAILED,
    Block 635e498716218cea_whole Storey 0 Wall 0027,    !- Name
    wall,                     !- Surface Type
    EU_wall_Construction,     !- Construction Name
    635e498716218cea_F0_whole,    !- Zone Name
    ,                         !- Space Name
    outdoors,                 !- Outside Boundary Condition
    ,                         !- Outside Boundary Condition Object
    SunExposed,               !- Sun Exposure
    WindExposed,              !- Wind Exposure
    autocalculate,            !- View Factor to Ground
    autocalculate,            !- Number of Vertices
    686247.4389984965,        !- Vertex 1 Xcoordinate
    4928774.230119192,        !- Vertex 1 Ycoordinate
    3,                        !- Vertex 1 Zcoordinate
    686247.4389984965,        !- Vertex 2 Xcoordinate
    4928774.230119192,        !- Vertex 2 Ycoordinate
    0,                        !- Vertex 2 Zcoordinate
    686255.1889984966,        !- Vertex 3 Xcoordinate
    4928772.130119191,        !- Vertex 3 Ycoordinate
    0,                        !- Vertex 3 Zcoordinate
    686255.1889984966,        !- Vertex 4 Xcoordinate
    4928772.130119191,        !- Vertex 4 Ycoordinate
    3;                        !- Vertex 4 Zcoordinate

BUILDINGSURFACE:DETAILED,
    Block 635e498716218cea_whole Storey 0 Wall 0028,    !- Name
    wall,                     !- Surface Type
    EU_wall_Construction,     !- Construction Name
    635e498716218cea_F0_whole,    !- Zone Name
    ,                         !- Space Name
    Adiabatic,                !- Outside Boundary Condition
    ,                         !- Outside Boundary Condition Object
    NoSun,                    !- Sun Exposure
    NoWind,                   !- Wind Exposure
    autocalculate,            !- View Factor to Ground
    autocalculate,            !- Number of Vertices
    686255.1889984966,        !- Vertex 1 Xcoordinate
    4928772.130119191,        !- Vertex 1 Ycoordinate
    3,                        !- Vertex 1 Zcoordinate
    686255.1889984966,        !- Vertex 2 Xcoordinate
    4928772.130119191,        !- Vertex 2 Ycoordinate
    0,                        !- Vertex 2 Zcoordinate
    686256.7819984966,        !- Vertex 3 Xcoordinate
    4928778.018119191,        !- Vertex 3 Ycoordinate
    0,                        !- Vertex 3 Zcoordinate
    686256.7819984966,        !- Vertex 4 Xcoordinate
    4928778.018119191,        !- Vertex 4 Ycoordinate
    3;                        !- Vertex 4 Zcoordinate

BUILDINGSURFACE:DETAILED,
    Block 635e498716218cea_whole Storey 0 Floor 0001,    !- Name
    floor,                    !- Surface Type
    EU_floor_Construction,    !- Construction Name
    635e498716218cea_F0_whole,    !- Zone Name
    ,                         !- Space Name
    ground,                   !- Outside Boundary Condition
    ,                         !- Outside Boundary Condition Object
    NoSun,                    !- Sun Exposure
    NoWind,                   !- Wind Exposure
    autocalculate,            !- View Factor to Ground
    autocalculate,            !- Number of Vertices
    686256.7819984966,        !- Vertex 1 Xcoordinate
    4928778.018119191,        !- Vertex 1 Ycoordinate
    0,                        !- Vertex 1 Zcoordinate
    686255.1889984966,        !- Vertex 2 Xcoordinate
    4928772.130119191,        !- Vertex 2 Ycoordinate
    0,                        !- Vertex 2 Zcoordinate
    686247.4389984965,        !- Vertex 3 Xcoordinate
    4928774.230119192,        !- Vertex 3 Ycoordinate
    0,                        !- Vertex 3 Zcoordinate
    686246.0389984964,        !- Vertex 4 Xcoordinate
    4928768.670119191,        !- Vertex 4 Ycoordinate
    0,                        !- Vertex 4 Zcoordinate
    686245.8589984964,        !- Vertex 5 Xcoordinate
    4928767.950119193,        !- Vertex 5 Ycoordinate
    0,                        !- Vertex 5 Zcoordinate
    686253.4889984966,        !- Vertex 6 Xcoordinate
    4928765.930119191,        !- Vertex 6 Ycoordinate
    0,                        !- Vertex 6 Zcoordinate
    686254.5689984965,        !- Vertex 7 Xcoordinate
    4928769.880119192,        !- Vertex 7 Ycoordinate
    0,                        !- Vertex 7 Zcoordinate
    686259.2359984965,        !- Vertex 8 Xcoordinate
    4928768.65011919,         !- Vertex 8 Ycoordinate
    0,                        !- Vertex 8 Zcoordinate
    686259.6759984964,        !- Vertex 9 Xcoordinate
    4928770.31611919,         !- Vertex 9 Ycoordinate
    0,                        !- Vertex 9 Zcoordinate
    686261.2779984965,        !- Vertex 10 Xcoordinate
    4928769.821119191,        !- Vertex 10 Ycoordinate
    0,                        !- Vertex 10 Zcoordinate
    686260.8289984964,        !- Vertex 11 Xcoordinate
    4928768.230119191,        !- Vertex 11 Ycoordinate
    0,                        !- Vertex 11 Zcoordinate
    686260.4189984964,        !- Vertex 12 Xcoordinate
    4928766.480119192,        !- Vertex 12 Ycoordinate
    0,                        !- Vertex 12 Zcoordinate
    686259.1089984967,        !- Vertex 13 Xcoordinate
    4928762.06011919,         !- Vertex 13 Ycoordinate
    0,                        !- Vertex 13 Zcoordinate
    686255.1289984966,        !- Vertex 14 Xcoordinate
    4928746.900119191,        !- Vertex 14 Ycoordinate
    0,                        !- Vertex 14 Zcoordinate
    686251.9989984964,        !- Vertex 15 Xcoordinate
    4928735.021119189,        !- Vertex 15 Ycoordinate
    0,                        !- Vertex 15 Zcoordinate
    686239.7069984967,        !- Vertex 16 Xcoordinate
    4928738.92011919,         !- Vertex 16 Ycoordinate
    0,                        !- Vertex 16 Zcoordinate
    686244.5289984965,        !- Vertex 17 Xcoordinate
    4928755.070119192,        !- Vertex 17 Ycoordinate
    0,                        !- Vertex 17 Zcoordinate
    686245.8189984965,        !- Vertex 18 Xcoordinate
    4928759.850119191,        !- Vertex 18 Ycoordinate
    0,                        !- Vertex 18 Zcoordinate
    686242.1689984964,        !- Vertex 19 Xcoordinate
    4928760.900119191,        !- Vertex 19 Ycoordinate
    0,                        !- Vertex 19 Zcoordinate
    686241.3549984966,        !- Vertex 20 Xcoordinate
    4928761.199119192,        !- Vertex 20 Ycoordinate
    0,                        !- Vertex 20 Zcoordinate
    686241.8689984964,        !- Vertex 21 Xcoordinate
    4928763.301119192,        !- Vertex 21 Ycoordinate
    0,                        !- Vertex 21 Zcoordinate
    686241.0089984965,        !- Vertex 22 Xcoordinate
    4928763.47011919,         !- Vertex 22 Ycoordinate
    0,                        !- Vertex 22 Zcoordinate
    686242.7789984965,        !- Vertex 23 Xcoordinate
    4928769.410119192,        !- Vertex 23 Ycoordinate
    0,                        !- Vertex 23 Zcoordinate
    686245.6789984965,        !- Vertex 24 Xcoordinate
    4928779.1701191915,       !- Vertex 24 Ycoordinate
    0,                        !- Vertex 24 Zcoordinate
    686245.8879984966,        !- Vertex 25 Xcoordinate
    4928780.322119192,        !- Vertex 25 Ycoordinate
    0,                        !- Vertex 25 Zcoordinate
    686248.6689984965,        !- Vertex 26 Xcoordinate
    4928780.109119192,        !- Vertex 26 Ycoordinate
    0,                        !- Vertex 26 Zcoordinate
    686251.0659984965,        !- Vertex 27 Xcoordinate
    4928779.915119192,        !- Vertex 27 Ycoordinate
    0,                        !- Vertex 27 Zcoordinate
    686251.0659984965,        !- Vertex 28 Xcoordinate
    4928778.751119191,        !- Vertex 28 Ycoordinate
    0;                        !- Vertex 28 Zcoordinate

BUILDINGSURFACE:DETAILED,
    Block 635e498716218cea_whole Storey 1 Wall 0001,    !- Name
    wall,                     !- Surface Type
    EU_wall_Construction,     !- Construction Name
    635e498716218cea_F1_whole,    !- Zone Name
    ,                         !- Space Name
    Adiabatic,                !- Outside Boundary Condition
    ,                         !- Outside Boundary Condition Object
    NoSun,                    !- Sun Exposure
    NoWind,                   !- Wind Exposure
    autocalculate,            !- View Factor to Ground
    autocalculate,            !- Number of Vertices
    686256.7819984966,        !- Vertex 1 Xcoordinate
    4928778.018119191,        !- Vertex 1 Ycoordinate
    6,                        !- Vertex 1 Zcoordinate
    686256.7819984966,        !- Vertex 2 Xcoordinate
    4928778.018119191,        !- Vertex 2 Ycoordinate
    3,                        !- Vertex 2 Zcoordinate
    686251.0659984965,        !- Vertex 3 Xcoordinate
    4928778.751119191,        !- Vertex 3 Ycoordinate
    3,                        !- Vertex 3 Zcoordinate
    686251.0659984965,        !- Vertex 4 Xcoordinate
    4928778.751119191,        !- Vertex 4 Ycoordinate
    6;                        !- Vertex 4 Zcoordinate

BUILDINGSURFACE:DETAILED,
    Block 635e498716218cea_whole Storey 1 Wall 0002,    !- Name
    wall,                     !- Surface Type
    EU_wall_Construction,     !- Construction Name
    635e498716218cea_F1_whole,    !- Zone Name
    ,                         !- Space Name
    Adiabatic,                !- Outside Boundary Condition
    ,                         !- Outside Boundary Condition Object
    NoSun,                    !- Sun Exposure
    NoWind,                   !- Wind Exposure
    autocalculate,            !- View Factor to Ground
    autocalculate,            !- Number of Vertices
    686251.0659984965,        !- Vertex 1 Xcoordinate
    4928778.751119191,        !- Vertex 1 Ycoordinate
    6,                        !- Vertex 1 Zcoordinate
    686251.0659984965,        !- Vertex 2 Xcoordinate
    4928778.751119191,        !- Vertex 2 Ycoordinate
    3,                        !- Vertex 2 Zcoordinate
    686251.0659984965,        !- Vertex 3 Xcoordinate
    4928779.915119192,        !- Vertex 3 Ycoordinate
    3,                        !- Vertex 3 Zcoordinate
    686251.0659984965,        !- Vertex 4 Xcoordinate
    4928779.915119192,        !- Vertex 4 Ycoordinate
    6;                        !- Vertex 4 Zcoordinate

BUILDINGSURFACE:DETAILED,
    Block 635e498716218cea_whole Storey 1 Wall 0003,    !- Name
    wall,                     !- Surface Type
    EU_wall_Construction,     !- Construction Name
    635e498716218cea_F1_whole,    !- Zone Name
    ,                         !- Space Name
    Adiabatic,                !- Outside Boundary Condition
    ,                         !- Outside Boundary Condition Object
    NoSun,                    !- Sun Exposure
    NoWind,                   !- Wind Exposure
    autocalculate,            !- View Factor to Ground
    autocalculate,            !- Number of Vertices
    686251.0659984965,        !- Vertex 1 Xcoordinate
    4928779.915119192,        !- Vertex 1 Ycoordinate
    6,                        !- Vertex 1 Zcoordinate
    686251.0659984965,        !- Vertex 2 Xcoordinate
    4928779.915119192,        !- Vertex 2 Ycoordinate
    3,                        !- Vertex 2 Zcoordinate
    686248.6689984965,        !- Vertex 3 Xcoordinate
    4928780.109119192,        !- Vertex 3 Ycoordinate
    3,                        !- Vertex 3 Zcoordinate
    686248.6689984965,        !- Vertex 4 Xcoordinate
    4928780.109119192,        !- Vertex 4 Ycoordinate
    6;                        !- Vertex 4 Zcoordinate

BUILDINGSURFACE:DETAILED,
    Block 635e498716218cea_whole Storey 1 Wall 0004,    !- Name
    wall,                     !- Surface Type
    EU_wall_Construction,     !- Construction Name
    635e498716218cea_F1_whole,    !- Zone Name
    ,                         !- Space Name
    Adiabatic,                !- Outside Boundary Condition
    ,                         !- Outside Boundary Condition Object
    NoSun,                    !- Sun Exposure
    NoWind,                   !- Wind Exposure
    autocalculate,            !- View Factor to Ground
    autocalculate,            !- Number of Vertices
    686248.6689984965,        !- Vertex 1 Xcoordinate
    4928780.109119192,        !- Vertex 1 Ycoordinate
    6,                        !- Vertex 1 Zcoordinate
    686248.6689984965,        !- Vertex 2 Xcoordinate
    4928780.109119192,        !- Vertex 2 Ycoordinate
    3,                        !- Vertex 2 Zcoordinate
    686245.8879984966,        !- Vertex 3 Xcoordinate
    4928780.322119192,        !- Vertex 3 Ycoordinate
    3,                        !- Vertex 3 Zcoordinate
    686245.8879984966,        !- Vertex 4 Xcoordinate
    4928780.322119192,        !- Vertex 4 Ycoordinate
    6;                        !- Vertex 4 Zcoordinate

BUILDINGSURFACE:DETAILED,
    Block 635e498716218cea_whole Storey 1 Wall 0005,    !- Name
    wall,                     !- Surface Type
    EU_wall_Construction,     !- Construction Name
    635e498716218cea_F1_whole,    !- Zone Name
    ,                         !- Space Name
    Adiabatic,                !- Outside Boundary Condition
    ,                         !- Outside Boundary Condition Object
    NoSun,                    !- Sun Exposure
    NoWind,                   !- Wind Exposure
    autocalculate,            !- View Factor to Ground
    autocalculate,            !- Number of Vertices
    686245.8879984966,        !- Vertex 1 Xcoordinate
    4928780.322119192,        !- Vertex 1 Ycoordinate
    6,                        !- Vertex 1 Zcoordinate
    686245.8879984966,        !- Vertex 2 Xcoordinate
    4928780.322119192,        !- Vertex 2 Ycoordinate
    3,                        !- Vertex 2 Zcoordinate
    686245.6789984965,        !- Vertex 3 Xcoordinate
    4928779.1701191915,       !- Vertex 3 Ycoordinate
    3,                        !- Vertex 3 Zcoordinate
    686245.6789984965,        !- Vertex 4 Xcoordinate
    4928779.1701191915,       !- Vertex 4 Ycoordinate
    6;                        !- Vertex 4 Zcoordinate

BUILDINGSURFACE:DETAILED,
    Block 635e498716218cea_whole Storey 1 Wall 0006,    !- Name
    wall,                     !- Surface Type
    EU_wall_Construction,     !- Construction Name
    635e498716218cea_F1_whole,    !- Zone Name
    ,                         !- Space Name
    outdoors,                 !- Outside Boundary Condition
    ,                         !- Outside Boundary Condition Object
    SunExposed,               !- Sun Exposure
    WindExposed,              !- Wind Exposure
    autocalculate,            !- View Factor to Ground
    autocalculate,            !- Number of Vertices
    686245.6789984965,        !- Vertex 1 Xcoordinate
    4928779.1701191915,       !- Vertex 1 Ycoordinate
    6,                        !- Vertex 1 Zcoordinate
    686245.6789984965,        !- Vertex 2 Xcoordinate
    4928779.1701191915,       !- Vertex 2 Ycoordinate
    3,                        !- Vertex 2 Zcoordinate
    686242.7789984965,        !- Vertex 3 Xcoordinate
    4928769.410119192,        !- Vertex 3 Ycoordinate
    3,                        !- Vertex 3 Zcoordinate
    686242.7789984965,        !- Vertex 4 Xcoordinate
    4928769.410119192,        !- Vertex 4 Ycoordinate
    6;                        !- Vertex 4 Zcoordinate

BUILDINGSURFACE:DETAILED,
    Block 635e498716218cea_whole Storey 1 Wall 0007,    !- Name
    wall,                     !- Surface Type
    EU_wall_Construction,     !- Construction Name
    635e498716218cea_F1_whole,    !- Zone Name
    ,                         !- Space Name
    outdoors,                 !- Outside Boundary Condition
    ,                         !- Outside Boundary Condition Object
    SunExposed,               !- Sun Exposure
    WindExposed,              !- Wind Exposure
    autocalculate,            !- View Factor to Ground
    autocalculate,            !- Number of Vertices
    686242.7789984965,        !- Vertex 1 Xcoordinate
    4928769.410119192,        !- Vertex 1 Ycoordinate
    6,                        !- Vertex 1 Zcoordinate
    686242.7789984965,        !- Vertex 2 Xcoordinate
    4928769.410119192,        !- Vertex 2 Ycoordinate
    3,                        !- Vertex 2 Zcoordinate
    686241.0089984965,        !- Vertex 3 Xcoordinate
    4928763.47011919,         !- Vertex 3 Ycoordinate
    3,                        !- Vertex 3 Zcoordinate
    686241.0089984965,        !- Vertex 4 Xcoordinate
    4928763.47011919,         !- Vertex 4 Ycoordinate
    6;                        !- Vertex 4 Zcoordinate

BUILDINGSURFACE:DETAILED,
    Block 635e498716218cea_whole Storey 1 Wall 0008,    !- Name
    wall,                     !- Surface Type
    EU_wall_Construction,     !- Construction Name
    635e498716218cea_F1_whole,    !- Zone Name
    ,                         !- Space Name
    Adiabatic,                !- Outside Boundary Condition
    ,                         !- Outside Boundary Condition Object
    NoSun,                    !- Sun Exposure
    NoWind,                   !- Wind Exposure
    autocalculate,            !- View Factor to Ground
    autocalculate,            !- Number of Vertices
    686241.0089984965,        !- Vertex 1 Xcoordinate
    4928763.47011919,         !- Vertex 1 Ycoordinate
    6,                        !- Vertex 1 Zcoordinate
    686241.0089984965,        !- Vertex 2 Xcoordinate
    4928763.47011919,         !- Vertex 2 Ycoordinate
    3,                        !- Vertex 2 Zcoordinate
    686241.8689984964,        !- Vertex 3 Xcoordinate
    4928763.301119192,        !- Vertex 3 Ycoordinate
    3,                        !- Vertex 3 Zcoordinate
    686241.8689984964,        !- Vertex 4 Xcoordinate
    4928763.301119192,        !- Vertex 4 Ycoordinate
    6;                        !- Vertex 4 Zcoordinate

BUILDINGSURFACE:DETAILED,
    Block 635e498716218cea_whole Storey 1 Wall 0009,    !- Name
    wall,                     !- Surface Type
    EU_wall_Construction,     !- Construction Name
    635e498716218cea_F1_whole,    !- Zone Name
    ,                         !- Space Name
    Adiabatic,                !- Outside Boundary Condition
    ,                         !- Outside Boundary Condition Object
    NoSun,                    !- Sun Exposure
    NoWind,                   !- Wind Exposure
    autocalculate,            !- View Factor to Ground
    autocalculate,            !- Number of Vertices
    686241.8689984964,        !- Vertex 1 Xcoordinate
    4928763.301119192,        !- Vertex 1 Ycoordinate
    6,                        !- Vertex 1 Zcoordinate
    686241.8689984964,        !- Vertex 2 Xcoordinate
    4928763.301119192,        !- Vertex 2 Ycoordinate
    3,                        !- Vertex 2 Zcoordinate
    686241.3549984966,        !- Vertex 3 Xcoordinate
    4928761.199119192,        !- Vertex 3 Ycoordinate
    3,                        !- Vertex 3 Zcoordinate
    686241.3549984966,        !- Vertex 4 Xcoordinate
    4928761.199119192,        !- Vertex 4 Ycoordinate
    6;                        !- Vertex 4 Zcoordinate

BUILDINGSURFACE:DETAILED,
    Block 635e498716218cea_whole Storey 1 Wall 0010,    !- Name
    wall,                     !- Surface Type
    EU_wall_Construction,     !- Construction Name
    635e498716218cea_F1_whole,    !- Zone Name
    ,                         !- Space Name
    Adiabatic,                !- Outside Boundary Condition
    ,                         !- Outside Boundary Condition Object
    NoSun,                    !- Sun Exposure
    NoWind,                   !- Wind Exposure
    autocalculate,            !- View Factor to Ground
    autocalculate,            !- Number of Vertices
    686241.3549984966,        !- Vertex 1 Xcoordinate
    4928761.199119192,        !- Vertex 1 Ycoordinate
    6,                        !- Vertex 1 Zcoordinate
    686241.3549984966,        !- Vertex 2 Xcoordinate
    4928761.199119192,        !- Vertex 2 Ycoordinate
    3,                        !- Vertex 2 Zcoordinate
    686242.1689984964,        !- Vertex 3 Xcoordinate
    4928760.900119191,        !- Vertex 3 Ycoordinate
    3,                        !- Vertex 3 Zcoordinate
    686242.1689984964,        !- Vertex 4 Xcoordinate
    4928760.900119191,        !- Vertex 4 Ycoordinate
    6;                        !- Vertex 4 Zcoordinate

BUILDINGSURFACE:DETAILED,
    Block 635e498716218cea_whole Storey 1 Wall 0011,    !- Name
    wall,                     !- Surface Type
    EU_wall_Construction,     !- Construction Name
    635e498716218cea_F1_whole,    !- Zone Name
    ,                         !- Space Name
    Adiabatic,                !- Outside Boundary Condition
    ,                         !- Outside Boundary Condition Object
    NoSun,                    !- Sun Exposure
    NoWind,                   !- Wind Exposure
    autocalculate,            !- View Factor to Ground
    autocalculate,            !- Number of Vertices
    686242.1689984964,        !- Vertex 1 Xcoordinate
    4928760.900119191,        !- Vertex 1 Ycoordinate
    6,                        !- Vertex 1 Zcoordinate
    686242.1689984964,        !- Vertex 2 Xcoordinate
    4928760.900119191,        !- Vertex 2 Ycoordinate
    3,                        !- Vertex 2 Zcoordinate
    686245.8189984965,        !- Vertex 3 Xcoordinate
    4928759.850119191,        !- Vertex 3 Ycoordinate
    3,                        !- Vertex 3 Zcoordinate
    686245.8189984965,        !- Vertex 4 Xcoordinate
    4928759.850119191,        !- Vertex 4 Ycoordinate
    6;                        !- Vertex 4 Zcoordinate

BUILDINGSURFACE:DETAILED,
    Block 635e498716218cea_whole Storey 1 Wall 0012,    !- Name
    wall,                     !- Surface Type
    EU_wall_Construction,     !- Construction Name
    635e498716218cea_F1_whole,    !- Zone Name
    ,                         !- Space Name
    Adiabatic,                !- Outside Boundary Condition
    ,                         !- Outside Boundary Condition Object
    NoSun,                    !- Sun Exposure
    NoWind,                   !- Wind Exposure
    autocalculate,            !- View Factor to Ground
    autocalculate,            !- Number of Vertices
    686245.8189984965,        !- Vertex 1 Xcoordinate
    4928759.850119191,        !- Vertex 1 Ycoordinate
    6,                        !- Vertex 1 Zcoordinate
    686245.8189984965,        !- Vertex 2 Xcoordinate
    4928759.850119191,        !- Vertex 2 Ycoordinate
    3,                        !- Vertex 2 Zcoordinate
    686244.5289984965,        !- Vertex 3 Xcoordinate
    4928755.070119192,        !- Vertex 3 Ycoordinate
    3,                        !- Vertex 3 Zcoordinate
    686244.5289984965,        !- Vertex 4 Xcoordinate
    4928755.070119192,        !- Vertex 4 Ycoordinate
    6;                        !- Vertex 4 Zcoordinate

BUILDINGSURFACE:DETAILED,
    Block 635e498716218cea_whole Storey 1 Wall 0013,    !- Name
    wall,                     !- Surface Type
    EU_wall_Construction,     !- Construction Name
    635e498716218cea_F1_whole,    !- Zone Name
    ,                         !- Space Name
    Adiabatic,                !- Outside Boundary Condition
    ,                         !- Outside Boundary Condition Object
    NoSun,                    !- Sun Exposure
    NoWind,                   !- Wind Exposure
    autocalculate,            !- View Factor to Ground
    autocalculate,            !- Number of Vertices
    686244.5289984965,        !- Vertex 1 Xcoordinate
    4928755.070119192,        !- Vertex 1 Ycoordinate
    6,                        !- Vertex 1 Zcoordinate
    686244.5289984965,        !- Vertex 2 Xcoordinate
    4928755.070119192,        !- Vertex 2 Ycoordinate
    3,                        !- Vertex 2 Zcoordinate
    686239.7069984967,        !- Vertex 3 Xcoordinate
    4928738.92011919,         !- Vertex 3 Ycoordinate
    3,                        !- Vertex 3 Zcoordinate
    686239.7069984967,        !- Vertex 4 Xcoordinate
    4928738.92011919,         !- Vertex 4 Ycoordinate
    6;                        !- Vertex 4 Zcoordinate

BUILDINGSURFACE:DETAILED,
    Block 635e498716218cea_whole Storey 1 Wall 0014,    !- Name
    wall,                     !- Surface Type
    EU_wall_Construction,     !- Construction Name
    635e498716218cea_F1_whole,    !- Zone Name
    ,                         !- Space Name
    outdoors,                 !- Outside Boundary Condition
    ,                         !- Outside Boundary Condition Object
    SunExposed,               !- Sun Exposure
    WindExposed,              !- Wind Exposure
    autocalculate,            !- View Factor to Ground
    autocalculate,            !- Number of Vertices
    686239.7069984967,        !- Vertex 1 Xcoordinate
    4928738.92011919,         !- Vertex 1 Ycoordinate
    6,                        !- Vertex 1 Zcoordinate
    686239.7069984967,        !- Vertex 2 Xcoordinate
    4928738.92011919,         !- Vertex 2 Ycoordinate
    3,                        !- Vertex 2 Zcoordinate
    686251.9989984964,        !- Vertex 3 Xcoordinate
    4928735.021119189,        !- Vertex 3 Ycoordinate
    3,                        !- Vertex 3 Zcoordinate
    686251.9989984964,        !- Vertex 4 Xcoordinate
    4928735.021119189,        !- Vertex 4 Ycoordinate
    6;                        !- Vertex 4 Zcoordinate

BUILDINGSURFACE:DETAILED,
    Block 635e498716218cea_whole Storey 1 Wall 0015,    !- Name
    wall,                     !- Surface Type
    EU_wall_Construction,     !- Construction Name
    635e498716218cea_F1_whole,    !- Zone Name
    ,                         !- Space Name
    Adiabatic,                !- Outside Boundary Condition
    ,                         !- Outside Boundary Condition Object
    NoSun,                    !- Sun Exposure
    NoWind,                   !- Wind Exposure
    autocalculate,            !- View Factor to Ground
    autocalculate,            !- Number of Vertices
    686251.9989984964,        !- Vertex 1 Xcoordinate
    4928735.021119189,        !- Vertex 1 Ycoordinate
    6,                        !- Vertex 1 Zcoordinate
    686251.9989984964,        !- Vertex 2 Xcoordinate
    4928735.021119189,        !- Vertex 2 Ycoordinate
    3,                        !- Vertex 2 Zcoordinate
    686255.1289984966,        !- Vertex 3 Xcoordinate
    4928746.900119191,        !- Vertex 3 Ycoordinate
    3,                        !- Vertex 3 Zcoordinate
    686255.1289984966,        !- Vertex 4 Xcoordinate
    4928746.900119191,        !- Vertex 4 Ycoordinate
    6;                        !- Vertex 4 Zcoordinate

BUILDINGSURFACE:DETAILED,
    Block 635e498716218cea_whole Storey 1 Wall 0016,    !- Name
    wall,                     !- Surface Type
    EU_wall_Construction,     !- Construction Name
    635e498716218cea_F1_whole,    !- Zone Name
    ,                         !- Space Name
    Adiabatic,                !- Outside Boundary Condition
    ,                         !- Outside Boundary Condition Object
    NoSun,                    !- Sun Exposure
    NoWind,                   !- Wind Exposure
    autocalculate,            !- View Factor to Ground
    autocalculate,            !- Number of Vertices
    686255.1289984966,        !- Vertex 1 Xcoordinate
    4928746.900119191,        !- Vertex 1 Ycoordinate
    6,                        !- Vertex 1 Zcoordinate
    686255.1289984966,        !- Vertex 2 Xcoordinate
    4928746.900119191,        !- Vertex 2 Ycoordinate
    3,                        !- Vertex 2 Zcoordinate
    686259.1089984967,        !- Vertex 3 Xcoordinate
    4928762.06011919,         !- Vertex 3 Ycoordinate
    3,                        !- Vertex 3 Zcoordinate
    686259.1089984967,        !- Vertex 4 Xcoordinate
    4928762.06011919,         !- Vertex 4 Ycoordinate
    6;                        !- Vertex 4 Zcoordinate

BUILDINGSURFACE:DETAILED,
    Block 635e498716218cea_whole Storey 1 Wall 0017,    !- Name
    wall,                     !- Surface Type
    EU_wall_Construction,     !- Construction Name
    635e498716218cea_F1_whole,    !- Zone Name
    ,                         !- Space Name
    Adiabatic,                !- Outside Boundary Condition
    ,                         !- Outside Boundary Condition Object
    NoSun,                    !- Sun Exposure
    NoWind,                   !- Wind Exposure
    autocalculate,            !- View Factor to Ground
    autocalculate,            !- Number of Vertices
    686259.1089984967,        !- Vertex 1 Xcoordinate
    4928762.06011919,         !- Vertex 1 Ycoordinate
    6,                        !- Vertex 1 Zcoordinate
    686259.1089984967,        !- Vertex 2 Xcoordinate
    4928762.06011919,         !- Vertex 2 Ycoordinate
    3,                        !- Vertex 2 Zcoordinate
    686260.4189984964,        !- Vertex 3 Xcoordinate
    4928766.480119192,        !- Vertex 3 Ycoordinate
    3,                        !- Vertex 3 Zcoordinate
    686260.4189984964,        !- Vertex 4 Xcoordinate
    4928766.480119192,        !- Vertex 4 Ycoordinate
    6;                        !- Vertex 4 Zcoordinate

BUILDINGSURFACE:DETAILED,
    Block 635e498716218cea_whole Storey 1 Wall 0018,    !- Name
    wall,                     !- Surface Type
    EU_wall_Construction,     !- Construction Name
    635e498716218cea_F1_whole,    !- Zone Name
    ,                         !- Space Name
    Adiabatic,                !- Outside Boundary Condition
    ,                         !- Outside Boundary Condition Object
    NoSun,                    !- Sun Exposure
    NoWind,                   !- Wind Exposure
    autocalculate,            !- View Factor to Ground
    autocalculate,            !- Number of Vertices
    686260.4189984964,        !- Vertex 1 Xcoordinate
    4928766.480119192,        !- Vertex 1 Ycoordinate
    6,                        !- Vertex 1 Zcoordinate
    686260.4189984964,        !- Vertex 2 Xcoordinate
    4928766.480119192,        !- Vertex 2 Ycoordinate
    3,                        !- Vertex 2 Zcoordinate
    686260.8289984964,        !- Vertex 3 Xcoordinate
    4928768.230119191,        !- Vertex 3 Ycoordinate
    3,                        !- Vertex 3 Zcoordinate
    686260.8289984964,        !- Vertex 4 Xcoordinate
    4928768.230119191,        !- Vertex 4 Ycoordinate
    6;                        !- Vertex 4 Zcoordinate

BUILDINGSURFACE:DETAILED,
    Block 635e498716218cea_whole Storey 1 Wall 0019,    !- Name
    wall,                     !- Surface Type
    EU_wall_Construction,     !- Construction Name
    635e498716218cea_F1_whole,    !- Zone Name
    ,                         !- Space Name
    Adiabatic,                !- Outside Boundary Condition
    ,                         !- Outside Boundary Condition Object
    NoSun,                    !- Sun Exposure
    NoWind,                   !- Wind Exposure
    autocalculate,            !- View Factor to Ground
    autocalculate,            !- Number of Vertices
    686260.8289984964,        !- Vertex 1 Xcoordinate
    4928768.230119191,        !- Vertex 1 Ycoordinate
    6,                        !- Vertex 1 Zcoordinate
    686260.8289984964,        !- Vertex 2 Xcoordinate
    4928768.230119191,        !- Vertex 2 Ycoordinate
    3,                        !- Vertex 2 Zcoordinate
    686261.2779984965,        !- Vertex 3 Xcoordinate
    4928769.821119191,        !- Vertex 3 Ycoordinate
    3,                        !- Vertex 3 Zcoordinate
    686261.2779984965,        !- Vertex 4 Xcoordinate
    4928769.821119191,        !- Vertex 4 Ycoordinate
    6;                        !- Vertex 4 Zcoordinate

BUILDINGSURFACE:DETAILED,
    Block 635e498716218cea_whole Storey 1 Wall 0020,    !- Name
    wall,                     !- Surface Type
    EU_wall_Construction,     !- Construction Name
    635e498716218cea_F1_whole,    !- Zone Name
    ,                         !- Space Name
    Adiabatic,                !- Outside Boundary Condition
    ,                         !- Outside Boundary Condition Object
    NoSun,                    !- Sun Exposure
    NoWind,                   !- Wind Exposure
    autocalculate,            !- View Factor to Ground
    autocalculate,            !- Number of Vertices
    686261.2779984965,        !- Vertex 1 Xcoordinate
    4928769.821119191,        !- Vertex 1 Ycoordinate
    6,                        !- Vertex 1 Zcoordinate
    686261.2779984965,        !- Vertex 2 Xcoordinate
    4928769.821119191,        !- Vertex 2 Ycoordinate
    3,                        !- Vertex 2 Zcoordinate
    686259.6759984964,        !- Vertex 3 Xcoordinate
    4928770.31611919,         !- Vertex 3 Ycoordinate
    3,                        !- Vertex 3 Zcoordinate
    686259.6759984964,        !- Vertex 4 Xcoordinate
    4928770.31611919,         !- Vertex 4 Ycoordinate
    6;                        !- Vertex 4 Zcoordinate

BUILDINGSURFACE:DETAILED,
    Block 635e498716218cea_whole Storey 1 Wall 0021,    !- Name
    wall,                     !- Surface Type
    EU_wall_Construction,     !- Construction Name
    635e498716218cea_F1_whole,    !- Zone Name
    ,                         !- Space Name
    Adiabatic,                !- Outside Boundary Condition
    ,                         !- Outside Boundary Condition Object
    NoSun,                    !- Sun Exposure
    NoWind,                   !- Wind Exposure
    autocalculate,            !- View Factor to Ground
    autocalculate,            !- Number of Vertices
    686259.6759984964,        !- Vertex 1 Xcoordinate
    4928770.31611919,         !- Vertex 1 Ycoordinate
    6,                        !- Vertex 1 Zcoordinate
    686259.6759984964,        !- Vertex 2 Xcoordinate
    4928770.31611919,         !- Vertex 2 Ycoordinate
    3,                        !- Vertex 2 Zcoordinate
    686259.2359984965,        !- Vertex 3 Xcoordinate
    4928768.65011919,         !- Vertex 3 Ycoordinate
    3,                        !- Vertex 3 Zcoordinate
    686259.2359984965,        !- Vertex 4 Xcoordinate
    4928768.65011919,         !- Vertex 4 Ycoordinate
    6;                        !- Vertex 4 Zcoordinate

BUILDINGSURFACE:DETAILED,
    Block 635e498716218cea_whole Storey 1 Wall 0022,    !- Name
    wall,                     !- Surface Type
    EU_wall_Construction,     !- Construction Name
    635e498716218cea_F1_whole,    !- Zone Name
    ,                         !- Space Name
    Adiabatic,                !- Outside Boundary Condition
    ,                         !- Outside Boundary Condition Object
    NoSun,                    !- Sun Exposure
    NoWind,                   !- Wind Exposure
    autocalculate,            !- View Factor to Ground
    autocalculate,            !- Number of Vertices
    686259.2359984965,        !- Vertex 1 Xcoordinate
    4928768.65011919,         !- Vertex 1 Ycoordinate
    6,                        !- Vertex 1 Zcoordinate
    686259.2359984965,        !- Vertex 2 Xcoordinate
    4928768.65011919,         !- Vertex 2 Ycoordinate
    3,                        !- Vertex 2 Zcoordinate
    686254.5689984965,        !- Vertex 3 Xcoordinate
    4928769.880119192,        !- Vertex 3 Ycoordinate
    3,                        !- Vertex 3 Zcoordinate
    686254.5689984965,        !- Vertex 4 Xcoordinate
    4928769.880119192,        !- Vertex 4 Ycoordinate
    6;                        !- Vertex 4 Zcoordinate

BUILDINGSURFACE:DETAILED,
    Block 635e498716218cea_whole Storey 1 Wall 0023,    !- Name
    wall,                     !- Surface Type
    EU_wall_Construction,     !- Construction Name
    635e498716218cea_F1_whole,    !- Zone Name
    ,                         !- Space Name
    outdoors,                 !- Outside Boundary Condition
    ,                         !- Outside Boundary Condition Object
    SunExposed,               !- Sun Exposure
    WindExposed,              !- Wind Exposure
    autocalculate,            !- View Factor to Ground
    autocalculate,            !- Number of Vertices
    686254.5689984965,        !- Vertex 1 Xcoordinate
    4928769.880119192,        !- Vertex 1 Ycoordinate
    6,                        !- Vertex 1 Zcoordinate
    686254.5689984965,        !- Vertex 2 Xcoordinate
    4928769.880119192,        !- Vertex 2 Ycoordinate
    3,                        !- Vertex 2 Zcoordinate
    686253.4889984966,        !- Vertex 3 Xcoordinate
    4928765.930119191,        !- Vertex 3 Ycoordinate
    3,                        !- Vertex 3 Zcoordinate
    686253.4889984966,        !- Vertex 4 Xcoordinate
    4928765.930119191,        !- Vertex 4 Ycoordinate
    6;                        !- Vertex 4 Zcoordinate

BUILDINGSURFACE:DETAILED,
    Block 635e498716218cea_whole Storey 1 Wall 0024,    !- Name
    wall,                     !- Surface Type
    EU_wall_Construction,     !- Construction Name
    635e498716218cea_F1_whole,    !- Zone Name
    ,                         !- Space Name
    outdoors,                 !- Outside Boundary Condition
    ,                         !- Outside Boundary Condition Object
    SunExposed,               !- Sun Exposure
    WindExposed,              !- Wind Exposure
    autocalculate,            !- View Factor to Ground
    autocalculate,            !- Number of Vertices
    686253.4889984966,        !- Vertex 1 Xcoordinate
    4928765.930119191,        !- Vertex 1 Ycoordinate
    6,                        !- Vertex 1 Zcoordinate
    686253.4889984966,        !- Vertex 2 Xcoordinate
    4928765.930119191,        !- Vertex 2 Ycoordinate
    3,                        !- Vertex 2 Zcoordinate
    686245.8589984964,        !- Vertex 3 Xcoordinate
    4928767.950119193,        !- Vertex 3 Ycoordinate
    3,                        !- Vertex 3 Zcoordinate
    686245.8589984964,        !- Vertex 4 Xcoordinate
    4928767.950119193,        !- Vertex 4 Ycoordinate
    6;                        !- Vertex 4 Zcoordinate

BUILDINGSURFACE:DETAILED,
    Block 635e498716218cea_whole Storey 1 Wall 0025,    !- Name
    wall,                     !- Surface Type
    EU_wall_Construction,     !- Construction Name
    635e498716218cea_F1_whole,    !- Zone Name
    ,                         !- Space Name
    outdoors,                 !- Outside Boundary Condition
    ,                         !- Outside Boundary Condition Object
    SunExposed,               !- Sun Exposure
    WindExposed,              !- Wind Exposure
    autocalculate,            !- View Factor to Ground
    autocalculate,            !- Number of Vertices
    686245.8589984964,        !- Vertex 1 Xcoordinate
    4928767.950119193,        !- Vertex 1 Ycoordinate
    6,                        !- Vertex 1 Zcoordinate
    686245.8589984964,        !- Vertex 2 Xcoordinate
    4928767.950119193,        !- Vertex 2 Ycoordinate
    3,                        !- Vertex 2 Zcoordinate
    686246.0389984964,        !- Vertex 3 Xcoordinate
    4928768.670119191,        !- Vertex 3 Ycoordinate
    3,                        !- Vertex 3 Zcoordinate
    686246.0389984964,        !- Vertex 4 Xcoordinate
    4928768.670119191,        !- Vertex 4 Ycoordinate
    6;                        !- Vertex 4 Zcoordinate

BUILDINGSURFACE:DETAILED,
    Block 635e498716218cea_whole Storey 1 Wall 0026,    !- Name
    wall,                     !- Surface Type
    EU_wall_Construction,     !- Construction Name
    635e498716218cea_F1_whole,    !- Zone Name
    ,                         !- Space Name
    outdoors,                 !- Outside Boundary Condition
    ,                         !- Outside Boundary Condition Object
    SunExposed,               !- Sun Exposure
    WindExposed,              !- Wind Exposure
    autocalculate,            !- View Factor to Ground
    autocalculate,            !- Number of Vertices
    686246.0389984964,        !- Vertex 1 Xcoordinate
    4928768.670119191,        !- Vertex 1 Ycoordinate
    6,                        !- Vertex 1 Zcoordinate
    686246.0389984964,        !- Vertex 2 Xcoordinate
    4928768.670119191,        !- Vertex 2 Ycoordinate
    3,                        !- Vertex 2 Zcoordinate
    686247.4389984965,        !- Vertex 3 Xcoordinate
    4928774.230119192,        !- Vertex 3 Ycoordinate
    3,                        !- Vertex 3 Zcoordinate
    686247.4389984965,        !- Vertex 4 Xcoordinate
    4928774.230119192,        !- Vertex 4 Ycoordinate
    6;                        !- Vertex 4 Zcoordinate

BUILDINGSURFACE:DETAILED,
    Block 635e498716218cea_whole Storey 1 Wall 0027,    !- Name
    wall,                     !- Surface Type
    EU_wall_Construction,     !- Construction Name
    635e498716218cea_F1_whole,    !- Zone Name
    ,                         !- Space Name
    outdoors,                 !- Outside Boundary Condition
    ,                         !- Outside Boundary Condition Object
    SunExposed,               !- Sun Exposure
    WindExposed,              !- Wind Exposure
    autocalculate,            !- View Factor to Ground
    autocalculate,            !- Number of Vertices
    686247.4389984965,        !- Vertex 1 Xcoordinate
    4928774.230119192,        !- Vertex 1 Ycoordinate
    6,                        !- Vertex 1 Zcoordinate
    686247.4389984965,        !- Vertex 2 Xcoordinate
    4928774.230119192,        !- Vertex 2 Ycoordinate
    3,                        !- Vertex 2 Zcoordinate
    686255.1889984966,        !- Vertex 3 Xcoordinate
    4928772.130119191,        !- Vertex 3 Ycoordinate
    3,                        !- Vertex 3 Zcoordinate
    686255.1889984966,        !- Vertex 4 Xcoordinate
    4928772.130119191,        !- Vertex 4 Ycoordinate
    6;                        !- Vertex 4 Zcoordinate

BUILDINGSURFACE:DETAILED,
    Block 635e498716218cea_whole Storey 1 Wall 0028,    !- Name
    wall,                     !- Surface Type
    EU_wall_Construction,     !- Construction Name
    635e498716218cea_F1_whole,    !- Zone Name
    ,                         !- Space Name
    Adiabatic,                !- Outside Boundary Condition
    ,                         !- Outside Boundary Condition Object
    NoSun,                    !- Sun Exposure
    NoWind,                   !- Wind Exposure
    autocalculate,            !- View Factor to Ground
    autocalculate,            !- Number of Vertices
    686255.1889984966,        !- Vertex 1 Xcoordinate
    4928772.130119191,        !- Vertex 1 Ycoordinate
    6,                        !- Vertex 1 Zcoordinate
    686255.1889984966,        !- Vertex 2 Xcoordinate
    4928772.130119191,        !- Vertex 2 Ycoordinate
    3,                        !- Vertex 2 Zcoordinate
    686256.7819984966,        !- Vertex 3 Xcoordinate
    4928778.018119191,        !- Vertex 3 Ycoordinate
    3,                        !- Vertex 3 Zcoordinate
    686256.7819984966,        !- Vertex 4 Xcoordinate
    4928778.018119191,        !- Vertex 4 Ycoordinate
    6;                        !- Vertex 4 Zcoordinate

BUILDINGSURFACE:DETAILED,
    Block 635e498716218cea_whole Storey 2 Wall 0001,    !- Name
    wall,                     !- Surface Type
    EU_wall_Construction,     !- Construction Name
    635e498716218cea_F2_whole,    !- Zone Name
    ,                         !- Space Name
    Adiabatic,                !- Outside Boundary Condition
    ,                         !- Outside Boundary Condition Object
    NoSun,                    !- Sun Exposure
    NoWind,                   !- Wind Exposure
    autocalculate,            !- View Factor to Ground
    autocalculate,            !- Number of Vertices
    686256.7819984966,        !- Vertex 1 Xcoordinate
    4928778.018119191,        !- Vertex 1 Ycoordinate
    9,                        !- Vertex 1 Zcoordinate
    686256.7819984966,        !- Vertex 2 Xcoordinate
    4928778.018119191,        !- Vertex 2 Ycoordinate
    6,                        !- Vertex 2 Zcoordinate
    686251.0659984965,        !- Vertex 3 Xcoordinate
    4928778.751119191,        !- Vertex 3 Ycoordinate
    6,                        !- Vertex 3 Zcoordinate
    686251.0659984965,        !- Vertex 4 Xcoordinate
    4928778.751119191,        !- Vertex 4 Ycoordinate
    9;                        !- Vertex 4 Zcoordinate

BUILDINGSURFACE:DETAILED,
    Block 635e498716218cea_whole Storey 2 Wall 0002,    !- Name
    wall,                     !- Surface Type
    EU_wall_Construction,     !- Construction Name
    635e498716218cea_F2_whole,    !- Zone Name
    ,                         !- Space Name
    Adiabatic,                !- Outside Boundary Condition
    ,                         !- Outside Boundary Condition Object
    NoSun,                    !- Sun Exposure
    NoWind,                   !- Wind Exposure
    autocalculate,            !- View Factor to Ground
    autocalculate,            !- Number of Vertices
    686251.0659984965,        !- Vertex 1 Xcoordinate
    4928778.751119191,        !- Vertex 1 Ycoordinate
    9,                        !- Vertex 1 Zcoordinate
    686251.0659984965,        !- Vertex 2 Xcoordinate
    4928778.751119191,        !- Vertex 2 Ycoordinate
    6,                        !- Vertex 2 Zcoordinate
    686251.0659984965,        !- Vertex 3 Xcoordinate
    4928779.915119192,        !- Vertex 3 Ycoordinate
    6,                        !- Vertex 3 Zcoordinate
    686251.0659984965,        !- Vertex 4 Xcoordinate
    4928779.915119192,        !- Vertex 4 Ycoordinate
    9;                        !- Vertex 4 Zcoordinate

BUILDINGSURFACE:DETAILED,
    Block 635e498716218cea_whole Storey 2 Wall 0003,    !- Name
    wall,                     !- Surface Type
    EU_wall_Construction,     !- Construction Name
    635e498716218cea_F2_whole,    !- Zone Name
    ,                         !- Space Name
    Adiabatic,                !- Outside Boundary Condition
    ,                         !- Outside Boundary Condition Object
    NoSun,                    !- Sun Exposure
    NoWind,                   !- Wind Exposure
    autocalculate,            !- View Factor to Ground
    autocalculate,            !- Number of Vertices
    686251.0659984965,        !- Vertex 1 Xcoordinate
    4928779.915119192,        !- Vertex 1 Ycoordinate
    9,                        !- Vertex 1 Zcoordinate
    686251.0659984965,        !- Vertex 2 Xcoordinate
    4928779.915119192,        !- Vertex 2 Ycoordinate
    6,                        !- Vertex 2 Zcoordinate
    686248.6689984965,        !- Vertex 3 Xcoordinate
    4928780.109119192,        !- Vertex 3 Ycoordinate
    6,                        !- Vertex 3 Zcoordinate
    686248.6689984965,        !- Vertex 4 Xcoordinate
    4928780.109119192,        !- Vertex 4 Ycoordinate
    9;                        !- Vertex 4 Zcoordinate

BUILDINGSURFACE:DETAILED,
    Block 635e498716218cea_whole Storey 2 Wall 0004,    !- Name
    wall,                     !- Surface Type
    EU_wall_Construction,     !- Construction Name
    635e498716218cea_F2_whole,    !- Zone Name
    ,                         !- Space Name
    Adiabatic,                !- Outside Boundary Condition
    ,                         !- Outside Boundary Condition Object
    NoSun,                    !- Sun Exposure
    NoWind,                   !- Wind Exposure
    autocalculate,            !- View Factor to Ground
    autocalculate,            !- Number of Vertices
    686248.6689984965,        !- Vertex 1 Xcoordinate
    4928780.109119192,        !- Vertex 1 Ycoordinate
    9,                        !- Vertex 1 Zcoordinate
    686248.6689984965,        !- Vertex 2 Xcoordinate
    4928780.109119192,        !- Vertex 2 Ycoordinate
    6,                        !- Vertex 2 Zcoordinate
    686245.8879984966,        !- Vertex 3 Xcoordinate
    4928780.322119192,        !- Vertex 3 Ycoordinate
    6,                        !- Vertex 3 Zcoordinate
    686245.8879984966,        !- Vertex 4 Xcoordinate
    4928780.322119192,        !- Vertex 4 Ycoordinate
    9;                        !- Vertex 4 Zcoordinate

BUILDINGSURFACE:DETAILED,
    Block 635e498716218cea_whole Storey 2 Wall 0005,    !- Name
    wall,                     !- Surface Type
    EU_wall_Construction,     !- Construction Name
    635e498716218cea_F2_whole,    !- Zone Name
    ,                         !- Space Name
    Adiabatic,                !- Outside Boundary Condition
    ,                         !- Outside Boundary Condition Object
    NoSun,                    !- Sun Exposure
    NoWind,                   !- Wind Exposure
    autocalculate,            !- View Factor to Ground
    autocalculate,            !- Number of Vertices
    686245.8879984966,        !- Vertex 1 Xcoordinate
    4928780.322119192,        !- Vertex 1 Ycoordinate
    9,                        !- Vertex 1 Zcoordinate
    686245.8879984966,        !- Vertex 2 Xcoordinate
    4928780.322119192,        !- Vertex 2 Ycoordinate
    6,                        !- Vertex 2 Zcoordinate
    686245.6789984965,        !- Vertex 3 Xcoordinate
    4928779.1701191915,       !- Vertex 3 Ycoordinate
    6,                        !- Vertex 3 Zcoordinate
    686245.6789984965,        !- Vertex 4 Xcoordinate
    4928779.1701191915,       !- Vertex 4 Ycoordinate
    9;                        !- Vertex 4 Zcoordinate

BUILDINGSURFACE:DETAILED,
    Block 635e498716218cea_whole Storey 2 Wall 0006,    !- Name
    wall,                     !- Surface Type
    EU_wall_Construction,     !- Construction Name
    635e498716218cea_F2_whole,    !- Zone Name
    ,                         !- Space Name
    outdoors,                 !- Outside Boundary Condition
    ,                         !- Outside Boundary Condition Object
    SunExposed,               !- Sun Exposure
    WindExposed,              !- Wind Exposure
    autocalculate,            !- View Factor to Ground
    autocalculate,            !- Number of Vertices
    686245.6789984965,        !- Vertex 1 Xcoordinate
    4928779.1701191915,       !- Vertex 1 Ycoordinate
    9,                        !- Vertex 1 Zcoordinate
    686245.6789984965,        !- Vertex 2 Xcoordinate
    4928779.1701191915,       !- Vertex 2 Ycoordinate
    6,                        !- Vertex 2 Zcoordinate
    686242.7789984965,        !- Vertex 3 Xcoordinate
    4928769.410119192,        !- Vertex 3 Ycoordinate
    6,                        !- Vertex 3 Zcoordinate
    686242.7789984965,        !- Vertex 4 Xcoordinate
    4928769.410119192,        !- Vertex 4 Ycoordinate
    9;                        !- Vertex 4 Zcoordinate

BUILDINGSURFACE:DETAILED,
    Block 635e498716218cea_whole Storey 2 Wall 0007,    !- Name
    wall,                     !- Surface Type
    EU_wall_Construction,     !- Construction Name
    635e498716218cea_F2_whole,    !- Zone Name
    ,                         !- Space Name
    outdoors,                 !- Outside Boundary Condition
    ,                         !- Outside Boundary Condition Object
    SunExposed,               !- Sun Exposure
    WindExposed,              !- Wind Exposure
    autocalculate,            !- View Factor to Ground
    autocalculate,            !- Number of Vertices
    686242.7789984965,        !- Vertex 1 Xcoordinate
    4928769.410119192,        !- Vertex 1 Ycoordinate
    9,                        !- Vertex 1 Zcoordinate
    686242.7789984965,        !- Vertex 2 Xcoordinate
    4928769.410119192,        !- Vertex 2 Ycoordinate
    6,                        !- Vertex 2 Zcoordinate
    686241.0089984965,        !- Vertex 3 Xcoordinate
    4928763.47011919,         !- Vertex 3 Ycoordinate
    6,                        !- Vertex 3 Zcoordinate
    686241.0089984965,        !- Vertex 4 Xcoordinate
    4928763.47011919,         !- Vertex 4 Ycoordinate
    9;                        !- Vertex 4 Zcoordinate

BUILDINGSURFACE:DETAILED,
    Block 635e498716218cea_whole Storey 2 Wall 0008,    !- Name
    wall,                     !- Surface Type
    EU_wall_Construction,     !- Construction Name
    635e498716218cea_F2_whole,    !- Zone Name
    ,                         !- Space Name
    Adiabatic,                !- Outside Boundary Condition
    ,                         !- Outside Boundary Condition Object
    NoSun,                    !- Sun Exposure
    NoWind,                   !- Wind Exposure
    autocalculate,            !- View Factor to Ground
    autocalculate,            !- Number of Vertices
    686241.0089984965,        !- Vertex 1 Xcoordinate
    4928763.47011919,         !- Vertex 1 Ycoordinate
    9,                        !- Vertex 1 Zcoordinate
    686241.0089984965,        !- Vertex 2 Xcoordinate
    4928763.47011919,         !- Vertex 2 Ycoordinate
    6,                        !- Vertex 2 Zcoordinate
    686241.8689984964,        !- Vertex 3 Xcoordinate
    4928763.301119192,        !- Vertex 3 Ycoordinate
    6,                        !- Vertex 3 Zcoordinate
    686241.8689984964,        !- Vertex 4 Xcoordinate
    4928763.301119192,        !- Vertex 4 Ycoordinate
    9;                        !- Vertex 4 Zcoordinate

BUILDINGSURFACE:DETAILED,
    Block 635e498716218cea_whole Storey 2 Wall 0009,    !- Name
    wall,                     !- Surface Type
    EU_wall_Construction,     !- Construction Name
    635e498716218cea_F2_whole,    !- Zone Name
    ,                         !- Space Name
    Adiabatic,                !- Outside Boundary Condition
    ,                         !- Outside Boundary Condition Object
    NoSun,                    !- Sun Exposure
    NoWind,                   !- Wind Exposure
    autocalculate,            !- View Factor to Ground
    autocalculate,            !- Number of Vertices
    686241.8689984964,        !- Vertex 1 Xcoordinate
    4928763.301119192,        !- Vertex 1 Ycoordinate
    9,                        !- Vertex 1 Zcoordinate
    686241.8689984964,        !- Vertex 2 Xcoordinate
    4928763.301119192,        !- Vertex 2 Ycoordinate
    6,                        !- Vertex 2 Zcoordinate
    686241.3549984966,        !- Vertex 3 Xcoordinate
    4928761.199119192,        !- Vertex 3 Ycoordinate
    6,                        !- Vertex 3 Zcoordinate
    686241.3549984966,        !- Vertex 4 Xcoordinate
    4928761.199119192,        !- Vertex 4 Ycoordinate
    9;                        !- Vertex 4 Zcoordinate

BUILDINGSURFACE:DETAILED,
    Block 635e498716218cea_whole Storey 2 Wall 0010,    !- Name
    wall,                     !- Surface Type
    EU_wall_Construction,     !- Construction Name
    635e498716218cea_F2_whole,    !- Zone Name
    ,                         !- Space Name
    Adiabatic,                !- Outside Boundary Condition
    ,                         !- Outside Boundary Condition Object
    NoSun,                    !- Sun Exposure
    NoWind,                   !- Wind Exposure
    autocalculate,            !- View Factor to Ground
    autocalculate,            !- Number of Vertices
    686241.3549984966,        !- Vertex 1 Xcoordinate
    4928761.199119192,        !- Vertex 1 Ycoordinate
    9,                        !- Vertex 1 Zcoordinate
    686241.3549984966,        !- Vertex 2 Xcoordinate
    4928761.199119192,        !- Vertex 2 Ycoordinate
    6,                        !- Vertex 2 Zcoordinate
    686242.1689984964,        !- Vertex 3 Xcoordinate
    4928760.900119191,        !- Vertex 3 Ycoordinate
    6,                        !- Vertex 3 Zcoordinate
    686242.1689984964,        !- Vertex 4 Xcoordinate
    4928760.900119191,        !- Vertex 4 Ycoordinate
    9;                        !- Vertex 4 Zcoordinate

BUILDINGSURFACE:DETAILED,
    Block 635e498716218cea_whole Storey 2 Wall 0011,    !- Name
    wall,                     !- Surface Type
    EU_wall_Construction,     !- Construction Name
    635e498716218cea_F2_whole,    !- Zone Name
    ,                         !- Space Name
    Adiabatic,                !- Outside Boundary Condition
    ,                         !- Outside Boundary Condition Object
    NoSun,                    !- Sun Exposure
    NoWind,                   !- Wind Exposure
    autocalculate,            !- View Factor to Ground
    autocalculate,            !- Number of Vertices
    686242.1689984964,        !- Vertex 1 Xcoordinate
    4928760.900119191,        !- Vertex 1 Ycoordinate
    9,                        !- Vertex 1 Zcoordinate
    686242.1689984964,        !- Vertex 2 Xcoordinate
    4928760.900119191,        !- Vertex 2 Ycoordinate
    6,                        !- Vertex 2 Zcoordinate
    686245.8189984965,        !- Vertex 3 Xcoordinate
    4928759.850119191,        !- Vertex 3 Ycoordinate
    6,                        !- Vertex 3 Zcoordinate
    686245.8189984965,        !- Vertex 4 Xcoordinate
    4928759.850119191,        !- Vertex 4 Ycoordinate
    9;                        !- Vertex 4 Zcoordinate

BUILDINGSURFACE:DETAILED,
    Block 635e498716218cea_whole Storey 2 Wall 0012,    !- Name
    wall,                     !- Surface Type
    EU_wall_Construction,     !- Construction Name
    635e498716218cea_F2_whole,    !- Zone Name
    ,                         !- Space Name
    Adiabatic,                !- Outside Boundary Condition
    ,                         !- Outside Boundary Condition Object
    NoSun,                    !- Sun Exposure
    NoWind,                   !- Wind Exposure
    autocalculate,            !- View Factor to Ground
    autocalculate,            !- Number of Vertices
    686245.8189984965,        !- Vertex 1 Xcoordinate
    4928759.850119191,        !- Vertex 1 Ycoordinate
    9,                        !- Vertex 1 Zcoordinate
    686245.8189984965,        !- Vertex 2 Xcoordinate
    4928759.850119191,        !- Vertex 2 Ycoordinate
    6,                        !- Vertex 2 Zcoordinate
    686244.5289984965,        !- Vertex 3 Xcoordinate
    4928755.070119192,        !- Vertex 3 Ycoordinate
    6,                        !- Vertex 3 Zcoordinate
    686244.5289984965,        !- Vertex 4 Xcoordinate
    4928755.070119192,        !- Vertex 4 Ycoordinate
    9;                        !- Vertex 4 Zcoordinate

BUILDINGSURFACE:DETAILED,
    Block 635e498716218cea_whole Storey 2 Wall 0013,    !- Name
    wall,                     !- Surface Type
    EU_wall_Construction,     !- Construction Name
    635e498716218cea_F2_whole,    !- Zone Name
    ,                         !- Space Name
    Adiabatic,                !- Outside Boundary Condition
    ,                         !- Outside Boundary Condition Object
    NoSun,                    !- Sun Exposure
    NoWind,                   !- Wind Exposure
    autocalculate,            !- View Factor to Ground
    autocalculate,            !- Number of Vertices
    686244.5289984965,        !- Vertex 1 Xcoordinate
    4928755.070119192,        !- Vertex 1 Ycoordinate
    9,                        !- Vertex 1 Zcoordinate
    686244.5289984965,        !- Vertex 2 Xcoordinate
    4928755.070119192,        !- Vertex 2 Ycoordinate
    6,                        !- Vertex 2 Zcoordinate
    686239.7069984967,        !- Vertex 3 Xcoordinate
    4928738.92011919,         !- Vertex 3 Ycoordinate
    6,                        !- Vertex 3 Zcoordinate
    686239.7069984967,        !- Vertex 4 Xcoordinate
    4928738.92011919,         !- Vertex 4 Ycoordinate
    9;                        !- Vertex 4 Zcoordinate

BUILDINGSURFACE:DETAILED,
    Block 635e498716218cea_whole Storey 2 Wall 0014,    !- Name
    wall,                     !- Surface Type
    EU_wall_Construction,     !- Construction Name
    635e498716218cea_F2_whole,    !- Zone Name
    ,                         !- Space Name
    outdoors,                 !- Outside Boundary Condition
    ,                         !- Outside Boundary Condition Object
    SunExposed,               !- Sun Exposure
    WindExposed,              !- Wind Exposure
    autocalculate,            !- View Factor to Ground
    autocalculate,            !- Number of Vertices
    686239.7069984967,        !- Vertex 1 Xcoordinate
    4928738.92011919,         !- Vertex 1 Ycoordinate
    9,                        !- Vertex 1 Zcoordinate
    686239.7069984967,        !- Vertex 2 Xcoordinate
    4928738.92011919,         !- Vertex 2 Ycoordinate
    6,                        !- Vertex 2 Zcoordinate
    686251.9989984964,        !- Vertex 3 Xcoordinate
    4928735.021119189,        !- Vertex 3 Ycoordinate
    6,                        !- Vertex 3 Zcoordinate
    686251.9989984964,        !- Vertex 4 Xcoordinate
    4928735.021119189,        !- Vertex 4 Ycoordinate
    9;                        !- Vertex 4 Zcoordinate

BUILDINGSURFACE:DETAILED,
    Block 635e498716218cea_whole Storey 2 Wall 0015,    !- Name
    wall,                     !- Surface Type
    EU_wall_Construction,     !- Construction Name
    635e498716218cea_F2_whole,    !- Zone Name
    ,                         !- Space Name
    Adiabatic,                !- Outside Boundary Condition
    ,                         !- Outside Boundary Condition Object
    NoSun,                    !- Sun Exposure
    NoWind,                   !- Wind Exposure
    autocalculate,            !- View Factor to Ground
    autocalculate,            !- Number of Vertices
    686251.9989984964,        !- Vertex 1 Xcoordinate
    4928735.021119189,        !- Vertex 1 Ycoordinate
    9,                        !- Vertex 1 Zcoordinate
    686251.9989984964,        !- Vertex 2 Xcoordinate
    4928735.021119189,        !- Vertex 2 Ycoordinate
    6,                        !- Vertex 2 Zcoordinate
    686255.1289984966,        !- Vertex 3 Xcoordinate
    4928746.900119191,        !- Vertex 3 Ycoordinate
    6,                        !- Vertex 3 Zcoordinate
    686255.1289984966,        !- Vertex 4 Xcoordinate
    4928746.900119191,        !- Vertex 4 Ycoordinate
    9;                        !- Vertex 4 Zcoordinate

BUILDINGSURFACE:DETAILED,
    Block 635e498716218cea_whole Storey 2 Wall 0016,    !- Name
    wall,                     !- Surface Type
    EU_wall_Construction,     !- Construction Name
    635e498716218cea_F2_whole,    !- Zone Name
    ,                         !- Space Name
    Adiabatic,                !- Outside Boundary Condition
    ,                         !- Outside Boundary Condition Object
    NoSun,                    !- Sun Exposure
    NoWind,                   !- Wind Exposure
    autocalculate,            !- View Factor to Ground
    autocalculate,            !- Number of Vertices
    686255.1289984966,        !- Vertex 1 Xcoordinate
    4928746.900119191,        !- Vertex 1 Ycoordinate
    9,                        !- Vertex 1 Zcoordinate
    686255.1289984966,        !- Vertex 2 Xcoordinate
    4928746.900119191,        !- Vertex 2 Ycoordinate
    6,                        !- Vertex 2 Zcoordinate
    686259.1089984967,        !- Vertex 3 Xcoordinate
    4928762.06011919,         !- Vertex 3 Ycoordinate
    6,                        !- Vertex 3 Zcoordinate
    686259.1089984967,        !- Vertex 4 Xcoordinate
    4928762.06011919,         !- Vertex 4 Ycoordinate
    9;                        !- Vertex 4 Zcoordinate

BUILDINGSURFACE:DETAILED,
    Block 635e498716218cea_whole Storey 2 Wall 0017,    !- Name
    wall,                     !- Surface Type
    EU_wall_Construction,     !- Construction Name
    635e498716218cea_F2_whole,    !- Zone Name
    ,                         !- Space Name
    Adiabatic,                !- Outside Boundary Condition
    ,                         !- Outside Boundary Condition Object
    NoSun,                    !- Sun Exposure
    NoWind,                   !- Wind Exposure
    autocalculate,            !- View Factor to Ground
    autocalculate,            !- Number of Vertices
    686259.1089984967,        !- Vertex 1 Xcoordinate
    4928762.06011919,         !- Vertex 1 Ycoordinate
    9,                        !- Vertex 1 Zcoordinate
    686259.1089984967,        !- Vertex 2 Xcoordinate
    4928762.06011919,         !- Vertex 2 Ycoordinate
    6,                        !- Vertex 2 Zcoordinate
    686260.4189984964,        !- Vertex 3 Xcoordinate
    4928766.480119192,        !- Vertex 3 Ycoordinate
    6,                        !- Vertex 3 Zcoordinate
    686260.4189984964,        !- Vertex 4 Xcoordinate
    4928766.480119192,        !- Vertex 4 Ycoordinate
    9;                        !- Vertex 4 Zcoordinate

BUILDINGSURFACE:DETAILED,
    Block 635e498716218cea_whole Storey 2 Wall 0018,    !- Name
    wall,                     !- Surface Type
    EU_wall_Construction,     !- Construction Name
    635e498716218cea_F2_whole,    !- Zone Name
    ,                         !- Space Name
    Adiabatic,                !- Outside Boundary Condition
    ,                         !- Outside Boundary Condition Object
    NoSun,                    !- Sun Exposure
    NoWind,                   !- Wind Exposure
    autocalculate,            !- View Factor to Ground
    autocalculate,            !- Number of Vertices
    686260.4189984964,        !- Vertex 1 Xcoordinate
    4928766.480119192,        !- Vertex 1 Ycoordinate
    9,                        !- Vertex 1 Zcoordinate
    686260.4189984964,        !- Vertex 2 Xcoordinate
    4928766.480119192,        !- Vertex 2 Ycoordinate
    6,                        !- Vertex 2 Zcoordinate
    686260.8289984964,        !- Vertex 3 Xcoordinate
    4928768.230119191,        !- Vertex 3 Ycoordinate
    6,                        !- Vertex 3 Zcoordinate
    686260.8289984964,        !- Vertex 4 Xcoordinate
    4928768.230119191,        !- Vertex 4 Ycoordinate
    9;                        !- Vertex 4 Zcoordinate

BUILDINGSURFACE:DETAILED,
    Block 635e498716218cea_whole Storey 2 Wall 0019,    !- Name
    wall,                     !- Surface Type
    EU_wall_Construction,     !- Construction Name
    635e498716218cea_F2_whole,    !- Zone Name
    ,                         !- Space Name
    Adiabatic,                !- Outside Boundary Condition
    ,                         !- Outside Boundary Condition Object
    NoSun,                    !- Sun Exposure
    NoWind,                   !- Wind Exposure
    autocalculate,            !- View Factor to Ground
    autocalculate,            !- Number of Vertices
    686260.8289984964,        !- Vertex 1 Xcoordinate
    4928768.230119191,        !- Vertex 1 Ycoordinate
    9,                        !- Vertex 1 Zcoordinate
    686260.8289984964,        !- Vertex 2 Xcoordinate
    4928768.230119191,        !- Vertex 2 Ycoordinate
    6,                        !- Vertex 2 Zcoordinate
    686261.2779984965,        !- Vertex 3 Xcoordinate
    4928769.821119191,        !- Vertex 3 Ycoordinate
    6,                        !- Vertex 3 Zcoordinate
    686261.2779984965,        !- Vertex 4 Xcoordinate
    4928769.821119191,        !- Vertex 4 Ycoordinate
    9;                        !- Vertex 4 Zcoordinate

BUILDINGSURFACE:DETAILED,
    Block 635e498716218cea_whole Storey 2 Wall 0020,    !- Name
    wall,                     !- Surface Type
    EU_wall_Construction,     !- Construction Name
    635e498716218cea_F2_whole,    !- Zone Name
    ,                         !- Space Name
    Adiabatic,                !- Outside Boundary Condition
    ,                         !- Outside Boundary Condition Object
    NoSun,                    !- Sun Exposure
    NoWind,                   !- Wind Exposure
    autocalculate,            !- View Factor to Ground
    autocalculate,            !- Number of Vertices
    686261.2779984965,        !- Vertex 1 Xcoordinate
    4928769.821119191,        !- Vertex 1 Ycoordinate
    9,                        !- Vertex 1 Zcoordinate
    686261.2779984965,        !- Vertex 2 Xcoordinate
    4928769.821119191,        !- Vertex 2 Ycoordinate
    6,                        !- Vertex 2 Zcoordinate
    686259.6759984964,        !- Vertex 3 Xcoordinate
    4928770.31611919,         !- Vertex 3 Ycoordinate
    6,                        !- Vertex 3 Zcoordinate
    686259.6759984964,        !- Vertex 4 Xcoordinate
    4928770.31611919,         !- Vertex 4 Ycoordinate
    9;                        !- Vertex 4 Zcoordinate

BUILDINGSURFACE:DETAILED,
    Block 635e498716218cea_whole Storey 2 Wall 0021,    !- Name
    wall,                     !- Surface Type
    EU_wall_Construction,     !- Construction Name
    635e498716218cea_F2_whole,    !- Zone Name
    ,                         !- Space Name
    Adiabatic,                !- Outside Boundary Condition
    ,                         !- Outside Boundary Condition Object
    NoSun,                    !- Sun Exposure
    NoWind,                   !- Wind Exposure
    autocalculate,            !- View Factor to Ground
    autocalculate,            !- Number of Vertices
    686259.6759984964,        !- Vertex 1 Xcoordinate
    4928770.31611919,         !- Vertex 1 Ycoordinate
    9,                        !- Vertex 1 Zcoordinate
    686259.6759984964,        !- Vertex 2 Xcoordinate
    4928770.31611919,         !- Vertex 2 Ycoordinate
    6,                        !- Vertex 2 Zcoordinate
    686259.2359984965,        !- Vertex 3 Xcoordinate
    4928768.65011919,         !- Vertex 3 Ycoordinate
    6,                        !- Vertex 3 Zcoordinate
    686259.2359984965,        !- Vertex 4 Xcoordinate
    4928768.65011919,         !- Vertex 4 Ycoordinate
    9;                        !- Vertex 4 Zcoordinate

BUILDINGSURFACE:DETAILED,
    Block 635e498716218cea_whole Storey 2 Wall 0022,    !- Name
    wall,                     !- Surface Type
    EU_wall_Construction,     !- Construction Name
    635e498716218cea_F2_whole,    !- Zone Name
    ,                         !- Space Name
    Adiabatic,                !- Outside Boundary Condition
    ,                         !- Outside Boundary Condition Object
    NoSun,                    !- Sun Exposure
    NoWind,                   !- Wind Exposure
    autocalculate,            !- View Factor to Ground
    autocalculate,            !- Number of Vertices
    686259.2359984965,        !- Vertex 1 Xcoordinate
    4928768.65011919,         !- Vertex 1 Ycoordinate
    9,                        !- Vertex 1 Zcoordinate
    686259.2359984965,        !- Vertex 2 Xcoordinate
    4928768.65011919,         !- Vertex 2 Ycoordinate
    6,                        !- Vertex 2 Zcoordinate
    686254.5689984965,        !- Vertex 3 Xcoordinate
    4928769.880119192,        !- Vertex 3 Ycoordinate
    6,                        !- Vertex 3 Zcoordinate
    686254.5689984965,        !- Vertex 4 Xcoordinate
    4928769.880119192,        !- Vertex 4 Ycoordinate
    9;                        !- Vertex 4 Zcoordinate

BUILDINGSURFACE:DETAILED,
    Block 635e498716218cea_whole Storey 2 Wall 0023,    !- Name
    wall,                     !- Surface Type
    EU_wall_Construction,     !- Construction Name
    635e498716218cea_F2_whole,    !- Zone Name
    ,                         !- Space Name
    outdoors,                 !- Outside Boundary Condition
    ,                         !- Outside Boundary Condition Object
    SunExposed,               !- Sun Exposure
    WindExposed,              !- Wind Exposure
    autocalculate,            !- View Factor to Ground
    autocalculate,            !- Number of Vertices
    686254.5689984965,        !- Vertex 1 Xcoordinate
    4928769.880119192,        !- Vertex 1 Ycoordinate
    9,                        !- Vertex 1 Zcoordinate
    686254.5689984965,        !- Vertex 2 Xcoordinate
    4928769.880119192,        !- Vertex 2 Ycoordinate
    6,                        !- Vertex 2 Zcoordinate
    686253.4889984966,        !- Vertex 3 Xcoordinate
    4928765.930119191,        !- Vertex 3 Ycoordinate
    6,                        !- Vertex 3 Zcoordinate
    686253.4889984966,        !- Vertex 4 Xcoordinate
    4928765.930119191,        !- Vertex 4 Ycoordinate
    9;                        !- Vertex 4 Zcoordinate

BUILDINGSURFACE:DETAILED,
    Block 635e498716218cea_whole Storey 2 Wall 0024,    !- Name
    wall,                     !- Surface Type
    EU_wall_Construction,     !- Construction Name
    635e498716218cea_F2_whole,    !- Zone Name
    ,                         !- Space Name
    outdoors,                 !- Outside Boundary Condition
    ,                         !- Outside Boundary Condition Object
    SunExposed,               !- Sun Exposure
    WindExposed,              !- Wind Exposure
    autocalculate,            !- View Factor to Ground
    autocalculate,            !- Number of Vertices
    686253.4889984966,        !- Vertex 1 Xcoordinate
    4928765.930119191,        !- Vertex 1 Ycoordinate
    9,                        !- Vertex 1 Zcoordinate
    686253.4889984966,        !- Vertex 2 Xcoordinate
    4928765.930119191,        !- Vertex 2 Ycoordinate
    6,                        !- Vertex 2 Zcoordinate
    686245.8589984964,        !- Vertex 3 Xcoordinate
    4928767.950119193,        !- Vertex 3 Ycoordinate
    6,                        !- Vertex 3 Zcoordinate
    686245.8589984964,        !- Vertex 4 Xcoordinate
    4928767.950119193,        !- Vertex 4 Ycoordinate
    9;                        !- Vertex 4 Zcoordinate

BUILDINGSURFACE:DETAILED,
    Block 635e498716218cea_whole Storey 2 Wall 0025,    !- Name
    wall,                     !- Surface Type
    EU_wall_Construction,     !- Construction Name
    635e498716218cea_F2_whole,    !- Zone Name
    ,                         !- Space Name
    outdoors,                 !- Outside Boundary Condition
    ,                         !- Outside Boundary Condition Object
    SunExposed,               !- Sun Exposure
    WindExposed,              !- Wind Exposure
    autocalculate,            !- View Factor to Ground
    autocalculate,            !- Number of Vertices
    686245.8589984964,        !- Vertex 1 Xcoordinate
    4928767.950119193,        !- Vertex 1 Ycoordinate
    9,                        !- Vertex 1 Zcoordinate
    686245.8589984964,        !- Vertex 2 Xcoordinate
    4928767.950119193,        !- Vertex 2 Ycoordinate
    6,                        !- Vertex 2 Zcoordinate
    686246.0389984964,        !- Vertex 3 Xcoordinate
    4928768.670119191,        !- Vertex 3 Ycoordinate
    6,                        !- Vertex 3 Zcoordinate
    686246.0389984964,        !- Vertex 4 Xcoordinate
    4928768.670119191,        !- Vertex 4 Ycoordinate
    9;                        !- Vertex 4 Zcoordinate

BUILDINGSURFACE:DETAILED,
    Block 635e498716218cea_whole Storey 2 Wall 0026,    !- Name
    wall,                     !- Surface Type
    EU_wall_Construction,     !- Construction Name
    635e498716218cea_F2_whole,    !- Zone Name
    ,                         !- Space Name
    outdoors,                 !- Outside Boundary Condition
    ,                         !- Outside Boundary Condition Object
    SunExposed,               !- Sun Exposure
    WindExposed,              !- Wind Exposure
    autocalculate,            !- View Factor to Ground
    autocalculate,            !- Number of Vertices
    686246.0389984964,        !- Vertex 1 Xcoordinate
    4928768.670119191,        !- Vertex 1 Ycoordinate
    9,                        !- Vertex 1 Zcoordinate
    686246.0389984964,        !- Vertex 2 Xcoordinate
    4928768.670119191,        !- Vertex 2 Ycoordinate
    6,                        !- Vertex 2 Zcoordinate
    686247.4389984965,        !- Vertex 3 Xcoordinate
    4928774.230119192,        !- Vertex 3 Ycoordinate
    6,                        !- Vertex 3 Zcoordinate
    686247.4389984965,        !- Vertex 4 Xcoordinate
    4928774.230119192,        !- Vertex 4 Ycoordinate
    9;                        !- Vertex 4 Zcoordinate

BUILDINGSURFACE:DETAILED,
    Block 635e498716218cea_whole Storey 2 Wall 0027,    !- Name
    wall,                     !- Surface Type
    EU_wall_Construction,     !- Construction Name
    635e498716218cea_F2_whole,    !- Zone Name
    ,                         !- Space Name
    outdoors,                 !- Outside Boundary Condition
    ,                         !- Outside Boundary Condition Object
    SunExposed,               !- Sun Exposure
    WindExposed,              !- Wind Exposure
    autocalculate,            !- View Factor to Ground
    autocalculate,            !- Number of Vertices
    686247.4389984965,        !- Vertex 1 Xcoordinate
    4928774.230119192,        !- Vertex 1 Ycoordinate
    9,                        !- Vertex 1 Zcoordinate
    686247.4389984965,        !- Vertex 2 Xcoordinate
    4928774.230119192,        !- Vertex 2 Ycoordinate
    6,                        !- Vertex 2 Zcoordinate
    686255.1889984966,        !- Vertex 3 Xcoordinate
    4928772.130119191,        !- Vertex 3 Ycoordinate
    6,                        !- Vertex 3 Zcoordinate
    686255.1889984966,        !- Vertex 4 Xcoordinate
    4928772.130119191,        !- Vertex 4 Ycoordinate
    9;                        !- Vertex 4 Zcoordinate

BUILDINGSURFACE:DETAILED,
    Block 635e498716218cea_whole Storey 2 Wall 0028,    !- Name
    wall,                     !- Surface Type
    EU_wall_Construction,     !- Construction Name
    635e498716218cea_F2_whole,    !- Zone Name
    ,                         !- Space Name
    Adiabatic,                !- Outside Boundary Condition
    ,                         !- Outside Boundary Condition Object
    NoSun,                    !- Sun Exposure
    NoWind,                   !- Wind Exposure
    autocalculate,            !- View Factor to Ground
    autocalculate,            !- Number of Vertices
    686255.1889984966,        !- Vertex 1 Xcoordinate
    4928772.130119191,        !- Vertex 1 Ycoordinate
    9,                        !- Vertex 1 Zcoordinate
    686255.1889984966,        !- Vertex 2 Xcoordinate
    4928772.130119191,        !- Vertex 2 Ycoordinate
    6,                        !- Vertex 2 Zcoordinate
    686256.7819984966,        !- Vertex 3 Xcoordinate
    4928778.018119191,        !- Vertex 3 Ycoordinate
    6,                        !- Vertex 3 Zcoordinate
    686256.7819984966,        !- Vertex 4 Xcoordinate
    4928778.018119191,        !- Vertex 4 Ycoordinate
    9;                        !- Vertex 4 Zcoordinate

BUILDINGSURFACE:DETAILED,
    Block 635e498716218cea_whole Storey 3 Wall 0001,    !- Name
    wall,                     !- Surface Type
    EU_wall_Construction,     !- Construction Name
    635e498716218cea_F3_whole,    !- Zone Name
    ,                         !- Space Name
    Adiabatic,                !- Outside Boundary Condition
    ,                         !- Outside Boundary Condition Object
    NoSun,                    !- Sun Exposure
    NoWind,                   !- Wind Exposure
    autocalculate,            !- View Factor to Ground
    autocalculate,            !- Number of Vertices
    686256.7819984966,        !- Vertex 1 Xcoordinate
    4928778.018119191,        !- Vertex 1 Ycoordinate
    12,                       !- Vertex 1 Zcoordinate
    686256.7819984966,        !- Vertex 2 Xcoordinate
    4928778.018119191,        !- Vertex 2 Ycoordinate
    9,                        !- Vertex 2 Zcoordinate
    686251.0659984965,        !- Vertex 3 Xcoordinate
    4928778.751119191,        !- Vertex 3 Ycoordinate
    9,                        !- Vertex 3 Zcoordinate
    686251.0659984965,        !- Vertex 4 Xcoordinate
    4928778.751119191,        !- Vertex 4 Ycoordinate
    12;                       !- Vertex 4 Zcoordinate

BUILDINGSURFACE:DETAILED,
    Block 635e498716218cea_whole Storey 3 Wall 0002,    !- Name
    wall,                     !- Surface Type
    EU_wall_Construction,     !- Construction Name
    635e498716218cea_F3_whole,    !- Zone Name
    ,                         !- Space Name
    Adiabatic,                !- Outside Boundary Condition
    ,                         !- Outside Boundary Condition Object
    NoSun,                    !- Sun Exposure
    NoWind,                   !- Wind Exposure
    autocalculate,            !- View Factor to Ground
    autocalculate,            !- Number of Vertices
    686251.0659984965,        !- Vertex 1 Xcoordinate
    4928778.751119191,        !- Vertex 1 Ycoordinate
    12,                       !- Vertex 1 Zcoordinate
    686251.0659984965,        !- Vertex 2 Xcoordinate
    4928778.751119191,        !- Vertex 2 Ycoordinate
    9,                        !- Vertex 2 Zcoordinate
    686251.0659984965,        !- Vertex 3 Xcoordinate
    4928779.915119192,        !- Vertex 3 Ycoordinate
    9,                        !- Vertex 3 Zcoordinate
    686251.0659984965,        !- Vertex 4 Xcoordinate
    4928779.915119192,        !- Vertex 4 Ycoordinate
    12;                       !- Vertex 4 Zcoordinate

BUILDINGSURFACE:DETAILED,
    Block 635e498716218cea_whole Storey 3 Wall 0003,    !- Name
    wall,                     !- Surface Type
    EU_wall_Construction,     !- Construction Name
    635e498716218cea_F3_whole,    !- Zone Name
    ,                         !- Space Name
    Adiabatic,                !- Outside Boundary Condition
    ,                         !- Outside Boundary Condition Object
    NoSun,                    !- Sun Exposure
    NoWind,                   !- Wind Exposure
    autocalculate,            !- View Factor to Ground
    autocalculate,            !- Number of Vertices
    686251.0659984965,        !- Vertex 1 Xcoordinate
    4928779.915119192,        !- Vertex 1 Ycoordinate
    12,                       !- Vertex 1 Zcoordinate
    686251.0659984965,        !- Vertex 2 Xcoordinate
    4928779.915119192,        !- Vertex 2 Ycoordinate
    9,                        !- Vertex 2 Zcoordinate
    686248.6689984965,        !- Vertex 3 Xcoordinate
    4928780.109119192,        !- Vertex 3 Ycoordinate
    9,                        !- Vertex 3 Zcoordinate
    686248.6689984965,        !- Vertex 4 Xcoordinate
    4928780.109119192,        !- Vertex 4 Ycoordinate
    12;                       !- Vertex 4 Zcoordinate

BUILDINGSURFACE:DETAILED,
    Block 635e498716218cea_whole Storey 3 Wall 0004,    !- Name
    wall,                     !- Surface Type
    EU_wall_Construction,     !- Construction Name
    635e498716218cea_F3_whole,    !- Zone Name
    ,                         !- Space Name
    Adiabatic,                !- Outside Boundary Condition
    ,                         !- Outside Boundary Condition Object
    NoSun,                    !- Sun Exposure
    NoWind,                   !- Wind Exposure
    autocalculate,            !- View Factor to Ground
    autocalculate,            !- Number of Vertices
    686248.6689984965,        !- Vertex 1 Xcoordinate
    4928780.109119192,        !- Vertex 1 Ycoordinate
    12,                       !- Vertex 1 Zcoordinate
    686248.6689984965,        !- Vertex 2 Xcoordinate
    4928780.109119192,        !- Vertex 2 Ycoordinate
    9,                        !- Vertex 2 Zcoordinate
    686245.8879984966,        !- Vertex 3 Xcoordinate
    4928780.322119192,        !- Vertex 3 Ycoordinate
    9,                        !- Vertex 3 Zcoordinate
    686245.8879984966,        !- Vertex 4 Xcoordinate
    4928780.322119192,        !- Vertex 4 Ycoordinate
    12;                       !- Vertex 4 Zcoordinate

BUILDINGSURFACE:DETAILED,
    Block 635e498716218cea_whole Storey 3 Wall 0005,    !- Name
    wall,                     !- Surface Type
    EU_wall_Construction,     !- Construction Name
    635e498716218cea_F3_whole,    !- Zone Name
    ,                         !- Space Name
    Adiabatic,                !- Outside Boundary Condition
    ,                         !- Outside Boundary Condition Object
    NoSun,                    !- Sun Exposure
    NoWind,                   !- Wind Exposure
    autocalculate,            !- View Factor to Ground
    autocalculate,            !- Number of Vertices
    686245.8879984966,        !- Vertex 1 Xcoordinate
    4928780.322119192,        !- Vertex 1 Ycoordinate
    12,                       !- Vertex 1 Zcoordinate
    686245.8879984966,        !- Vertex 2 Xcoordinate
    4928780.322119192,        !- Vertex 2 Ycoordinate
    9,                        !- Vertex 2 Zcoordinate
    686245.6789984965,        !- Vertex 3 Xcoordinate
    4928779.1701191915,       !- Vertex 3 Ycoordinate
    9,                        !- Vertex 3 Zcoordinate
    686245.6789984965,        !- Vertex 4 Xcoordinate
    4928779.1701191915,       !- Vertex 4 Ycoordinate
    12;                       !- Vertex 4 Zcoordinate

BUILDINGSURFACE:DETAILED,
    Block 635e498716218cea_whole Storey 3 Wall 0006,    !- Name
    wall,                     !- Surface Type
    EU_wall_Construction,     !- Construction Name
    635e498716218cea_F3_whole,    !- Zone Name
    ,                         !- Space Name
    outdoors,                 !- Outside Boundary Condition
    ,                         !- Outside Boundary Condition Object
    SunExposed,               !- Sun Exposure
    WindExposed,              !- Wind Exposure
    autocalculate,            !- View Factor to Ground
    autocalculate,            !- Number of Vertices
    686245.6789984965,        !- Vertex 1 Xcoordinate
    4928779.1701191915,       !- Vertex 1 Ycoordinate
    12,                       !- Vertex 1 Zcoordinate
    686245.6789984965,        !- Vertex 2 Xcoordinate
    4928779.1701191915,       !- Vertex 2 Ycoordinate
    9,                        !- Vertex 2 Zcoordinate
    686242.7789984965,        !- Vertex 3 Xcoordinate
    4928769.410119192,        !- Vertex 3 Ycoordinate
    9,                        !- Vertex 3 Zcoordinate
    686242.7789984965,        !- Vertex 4 Xcoordinate
    4928769.410119192,        !- Vertex 4 Ycoordinate
    12;                       !- Vertex 4 Zcoordinate

BUILDINGSURFACE:DETAILED,
    Block 635e498716218cea_whole Storey 3 Wall 0007,    !- Name
    wall,                     !- Surface Type
    EU_wall_Construction,     !- Construction Name
    635e498716218cea_F3_whole,    !- Zone Name
    ,                         !- Space Name
    outdoors,                 !- Outside Boundary Condition
    ,                         !- Outside Boundary Condition Object
    SunExposed,               !- Sun Exposure
    WindExposed,              !- Wind Exposure
    autocalculate,            !- View Factor to Ground
    autocalculate,            !- Number of Vertices
    686242.7789984965,        !- Vertex 1 Xcoordinate
    4928769.410119192,        !- Vertex 1 Ycoordinate
    12,                       !- Vertex 1 Zcoordinate
    686242.7789984965,        !- Vertex 2 Xcoordinate
    4928769.410119192,        !- Vertex 2 Ycoordinate
    9,                        !- Vertex 2 Zcoordinate
    686241.0089984965,        !- Vertex 3 Xcoordinate
    4928763.47011919,         !- Vertex 3 Ycoordinate
    9,                        !- Vertex 3 Zcoordinate
    686241.0089984965,        !- Vertex 4 Xcoordinate
    4928763.47011919,         !- Vertex 4 Ycoordinate
    12;                       !- Vertex 4 Zcoordinate

BUILDINGSURFACE:DETAILED,
    Block 635e498716218cea_whole Storey 3 Wall 0008,    !- Name
    wall,                     !- Surface Type
    EU_wall_Construction,     !- Construction Name
    635e498716218cea_F3_whole,    !- Zone Name
    ,                         !- Space Name
    Adiabatic,                !- Outside Boundary Condition
    ,                         !- Outside Boundary Condition Object
    NoSun,                    !- Sun Exposure
    NoWind,                   !- Wind Exposure
    autocalculate,            !- View Factor to Ground
    autocalculate,            !- Number of Vertices
    686241.0089984965,        !- Vertex 1 Xcoordinate
    4928763.47011919,         !- Vertex 1 Ycoordinate
    12,                       !- Vertex 1 Zcoordinate
    686241.0089984965,        !- Vertex 2 Xcoordinate
    4928763.47011919,         !- Vertex 2 Ycoordinate
    9,                        !- Vertex 2 Zcoordinate
    686241.8689984964,        !- Vertex 3 Xcoordinate
    4928763.301119192,        !- Vertex 3 Ycoordinate
    9,                        !- Vertex 3 Zcoordinate
    686241.8689984964,        !- Vertex 4 Xcoordinate
    4928763.301119192,        !- Vertex 4 Ycoordinate
    12;                       !- Vertex 4 Zcoordinate

BUILDINGSURFACE:DETAILED,
    Block 635e498716218cea_whole Storey 3 Wall 0009,    !- Name
    wall,                     !- Surface Type
    EU_wall_Construction,     !- Construction Name
    635e498716218cea_F3_whole,    !- Zone Name
    ,                         !- Space Name
    Adiabatic,                !- Outside Boundary Condition
    ,                         !- Outside Boundary Condition Object
    NoSun,                    !- Sun Exposure
    NoWind,                   !- Wind Exposure
    autocalculate,            !- View Factor to Ground
    autocalculate,            !- Number of Vertices
    686241.8689984964,        !- Vertex 1 Xcoordinate
    4928763.301119192,        !- Vertex 1 Ycoordinate
    12,                       !- Vertex 1 Zcoordinate
    686241.8689984964,        !- Vertex 2 Xcoordinate
    4928763.301119192,        !- Vertex 2 Ycoordinate
    9,                        !- Vertex 2 Zcoordinate
    686241.3549984966,        !- Vertex 3 Xcoordinate
    4928761.199119192,        !- Vertex 3 Ycoordinate
    9,                        !- Vertex 3 Zcoordinate
    686241.3549984966,        !- Vertex 4 Xcoordinate
    4928761.199119192,        !- Vertex 4 Ycoordinate
    12;                       !- Vertex 4 Zcoordinate

BUILDINGSURFACE:DETAILED,
    Block 635e498716218cea_whole Storey 3 Wall 0010,    !- Name
    wall,                     !- Surface Type
    EU_wall_Construction,     !- Construction Name
    635e498716218cea_F3_whole,    !- Zone Name
    ,                         !- Space Name
    Adiabatic,                !- Outside Boundary Condition
    ,                         !- Outside Boundary Condition Object
    NoSun,                    !- Sun Exposure
    NoWind,                   !- Wind Exposure
    autocalculate,            !- View Factor to Ground
    autocalculate,            !- Number of Vertices
    686241.3549984966,        !- Vertex 1 Xcoordinate
    4928761.199119192,        !- Vertex 1 Ycoordinate
    12,                       !- Vertex 1 Zcoordinate
    686241.3549984966,        !- Vertex 2 Xcoordinate
    4928761.199119192,        !- Vertex 2 Ycoordinate
    9,                        !- Vertex 2 Zcoordinate
    686242.1689984964,        !- Vertex 3 Xcoordinate
    4928760.900119191,        !- Vertex 3 Ycoordinate
    9,                        !- Vertex 3 Zcoordinate
    686242.1689984964,        !- Vertex 4 Xcoordinate
    4928760.900119191,        !- Vertex 4 Ycoordinate
    12;                       !- Vertex 4 Zcoordinate

BUILDINGSURFACE:DETAILED,
    Block 635e498716218cea_whole Storey 3 Wall 0011,    !- Name
    wall,                     !- Surface Type
    EU_wall_Construction,     !- Construction Name
    635e498716218cea_F3_whole,    !- Zone Name
    ,                         !- Space Name
    Adiabatic,                !- Outside Boundary Condition
    ,                         !- Outside Boundary Condition Object
    NoSun,                    !- Sun Exposure
    NoWind,                   !- Wind Exposure
    autocalculate,            !- View Factor to Ground
    autocalculate,            !- Number of Vertices
    686242.1689984964,        !- Vertex 1 Xcoordinate
    4928760.900119191,        !- Vertex 1 Ycoordinate
    12,                       !- Vertex 1 Zcoordinate
    686242.1689984964,        !- Vertex 2 Xcoordinate
    4928760.900119191,        !- Vertex 2 Ycoordinate
    9,                        !- Vertex 2 Zcoordinate
    686245.8189984965,        !- Vertex 3 Xcoordinate
    4928759.850119191,        !- Vertex 3 Ycoordinate
    9,                        !- Vertex 3 Zcoordinate
    686245.8189984965,        !- Vertex 4 Xcoordinate
    4928759.850119191,        !- Vertex 4 Ycoordinate
    12;                       !- Vertex 4 Zcoordinate

BUILDINGSURFACE:DETAILED,
    Block 635e498716218cea_whole Storey 3 Wall 0012,    !- Name
    wall,                     !- Surface Type
    EU_wall_Construction,     !- Construction Name
    635e498716218cea_F3_whole,    !- Zone Name
    ,                         !- Space Name
    Adiabatic,                !- Outside Boundary Condition
    ,                         !- Outside Boundary Condition Object
    NoSun,                    !- Sun Exposure
    NoWind,                   !- Wind Exposure
    autocalculate,            !- View Factor to Ground
    autocalculate,            !- Number of Vertices
    686245.8189984965,        !- Vertex 1 Xcoordinate
    4928759.850119191,        !- Vertex 1 Ycoordinate
    12,                       !- Vertex 1 Zcoordinate
    686245.8189984965,        !- Vertex 2 Xcoordinate
    4928759.850119191,        !- Vertex 2 Ycoordinate
    9,                        !- Vertex 2 Zcoordinate
    686244.5289984965,        !- Vertex 3 Xcoordinate
    4928755.070119192,        !- Vertex 3 Ycoordinate
    9,                        !- Vertex 3 Zcoordinate
    686244.5289984965,        !- Vertex 4 Xcoordinate
    4928755.070119192,        !- Vertex 4 Ycoordinate
    12;                       !- Vertex 4 Zcoordinate

BUILDINGSURFACE:DETAILED,
    Block 635e498716218cea_whole Storey 3 Wall 0013,    !- Name
    wall,                     !- Surface Type
    EU_wall_Construction,     !- Construction Name
    635e498716218cea_F3_whole,    !- Zone Name
    ,                         !- Space Name
    Adiabatic,                !- Outside Boundary Condition
    ,                         !- Outside Boundary Condition Object
    NoSun,                    !- Sun Exposure
    NoWind,                   !- Wind Exposure
    autocalculate,            !- View Factor to Ground
    autocalculate,            !- Number of Vertices
    686244.5289984965,        !- Vertex 1 Xcoordinate
    4928755.070119192,        !- Vertex 1 Ycoordinate
    12,                       !- Vertex 1 Zcoordinate
    686244.5289984965,        !- Vertex 2 Xcoordinate
    4928755.070119192,        !- Vertex 2 Ycoordinate
    9,                        !- Vertex 2 Zcoordinate
    686239.7069984967,        !- Vertex 3 Xcoordinate
    4928738.92011919,         !- Vertex 3 Ycoordinate
    9,                        !- Vertex 3 Zcoordinate
    686239.7069984967,        !- Vertex 4 Xcoordinate
    4928738.92011919,         !- Vertex 4 Ycoordinate
    12;                       !- Vertex 4 Zcoordinate

BUILDINGSURFACE:DETAILED,
    Block 635e498716218cea_whole Storey 3 Wall 0014,    !- Name
    wall,                     !- Surface Type
    EU_wall_Construction,     !- Construction Name
    635e498716218cea_F3_whole,    !- Zone Name
    ,                         !- Space Name
    outdoors,                 !- Outside Boundary Condition
    ,                         !- Outside Boundary Condition Object
    SunExposed,               !- Sun Exposure
    WindExposed,              !- Wind Exposure
    autocalculate,            !- View Factor to Ground
    autocalculate,            !- Number of Vertices
    686239.7069984967,        !- Vertex 1 Xcoordinate
    4928738.92011919,         !- Vertex 1 Ycoordinate
    12,                       !- Vertex 1 Zcoordinate
    686239.7069984967,        !- Vertex 2 Xcoordinate
    4928738.92011919,         !- Vertex 2 Ycoordinate
    9,                        !- Vertex 2 Zcoordinate
    686251.9989984964,        !- Vertex 3 Xcoordinate
    4928735.021119189,        !- Vertex 3 Ycoordinate
    9,                        !- Vertex 3 Zcoordinate
    686251.9989984964,        !- Vertex 4 Xcoordinate
    4928735.021119189,        !- Vertex 4 Ycoordinate
    12;                       !- Vertex 4 Zcoordinate

BUILDINGSURFACE:DETAILED,
    Block 635e498716218cea_whole Storey 3 Wall 0015,    !- Name
    wall,                     !- Surface Type
    EU_wall_Construction,     !- Construction Name
    635e498716218cea_F3_whole,    !- Zone Name
    ,                         !- Space Name
    Adiabatic,                !- Outside Boundary Condition
    ,                         !- Outside Boundary Condition Object
    NoSun,                    !- Sun Exposure
    NoWind,                   !- Wind Exposure
    autocalculate,            !- View Factor to Ground
    autocalculate,            !- Number of Vertices
    686251.9989984964,        !- Vertex 1 Xcoordinate
    4928735.021119189,        !- Vertex 1 Ycoordinate
    12,                       !- Vertex 1 Zcoordinate
    686251.9989984964,        !- Vertex 2 Xcoordinate
    4928735.021119189,        !- Vertex 2 Ycoordinate
    9,                        !- Vertex 2 Zcoordinate
    686255.1289984966,        !- Vertex 3 Xcoordinate
    4928746.900119191,        !- Vertex 3 Ycoordinate
    9,                        !- Vertex 3 Zcoordinate
    686255.1289984966,        !- Vertex 4 Xcoordinate
    4928746.900119191,        !- Vertex 4 Ycoordinate
    12;                       !- Vertex 4 Zcoordinate

BUILDINGSURFACE:DETAILED,
    Block 635e498716218cea_whole Storey 3 Wall 0016,    !- Name
    wall,                     !- Surface Type
    EU_wall_Construction,     !- Construction Name
    635e498716218cea_F3_whole,    !- Zone Name
    ,                         !- Space Name
    Adiabatic,                !- Outside Boundary Condition
    ,                         !- Outside Boundary Condition Object
    NoSun,                    !- Sun Exposure
    NoWind,                   !- Wind Exposure
    autocalculate,            !- View Factor to Ground
    autocalculate,            !- Number of Vertices
    686255.1289984966,        !- Vertex 1 Xcoordinate
    4928746.900119191,        !- Vertex 1 Ycoordinate
    12,                       !- Vertex 1 Zcoordinate
    686255.1289984966,        !- Vertex 2 Xcoordinate
    4928746.900119191,        !- Vertex 2 Ycoordinate
    9,                        !- Vertex 2 Zcoordinate
    686259.1089984967,        !- Vertex 3 Xcoordinate
    4928762.06011919,         !- Vertex 3 Ycoordinate
    9,                        !- Vertex 3 Zcoordinate
    686259.1089984967,        !- Vertex 4 Xcoordinate
    4928762.06011919,         !- Vertex 4 Ycoordinate
    12;                       !- Vertex 4 Zcoordinate

BUILDINGSURFACE:DETAILED,
    Block 635e498716218cea_whole Storey 3 Wall 0017,    !- Name
    wall,                     !- Surface Type
    EU_wall_Construction,     !- Construction Name
    635e498716218cea_F3_whole,    !- Zone Name
    ,                         !- Space Name
    Adiabatic,                !- Outside Boundary Condition
    ,                         !- Outside Boundary Condition Object
    NoSun,                    !- Sun Exposure
    NoWind,                   !- Wind Exposure
    autocalculate,            !- View Factor to Ground
    autocalculate,            !- Number of Vertices
    686259.1089984967,        !- Vertex 1 Xcoordinate
    4928762.06011919,         !- Vertex 1 Ycoordinate
    12,                       !- Vertex 1 Zcoordinate
    686259.1089984967,        !- Vertex 2 Xcoordinate
    4928762.06011919,         !- Vertex 2 Ycoordinate
    9,                        !- Vertex 2 Zcoordinate
    686260.4189984964,        !- Vertex 3 Xcoordinate
    4928766.480119192,        !- Vertex 3 Ycoordinate
    9,                        !- Vertex 3 Zcoordinate
    686260.4189984964,        !- Vertex 4 Xcoordinate
    4928766.480119192,        !- Vertex 4 Ycoordinate
    12;                       !- Vertex 4 Zcoordinate

BUILDINGSURFACE:DETAILED,
    Block 635e498716218cea_whole Storey 3 Wall 0018,    !- Name
    wall,                     !- Surface Type
    EU_wall_Construction,     !- Construction Name
    635e498716218cea_F3_whole,    !- Zone Name
    ,                         !- Space Name
    Adiabatic,                !- Outside Boundary Condition
    ,                         !- Outside Boundary Condition Object
    NoSun,                    !- Sun Exposure
    NoWind,                   !- Wind Exposure
    autocalculate,            !- View Factor to Ground
    autocalculate,            !- Number of Vertices
    686260.4189984964,        !- Vertex 1 Xcoordinate
    4928766.480119192,        !- Vertex 1 Ycoordinate
    12,                       !- Vertex 1 Zcoordinate
    686260.4189984964,        !- Vertex 2 Xcoordinate
    4928766.480119192,        !- Vertex 2 Ycoordinate
    9,                        !- Vertex 2 Zcoordinate
    686260.8289984964,        !- Vertex 3 Xcoordinate
    4928768.230119191,        !- Vertex 3 Ycoordinate
    9,                        !- Vertex 3 Zcoordinate
    686260.8289984964,        !- Vertex 4 Xcoordinate
    4928768.230119191,        !- Vertex 4 Ycoordinate
    12;                       !- Vertex 4 Zcoordinate

BUILDINGSURFACE:DETAILED,
    Block 635e498716218cea_whole Storey 3 Wall 0019,    !- Name
    wall,                     !- Surface Type
    EU_wall_Construction,     !- Construction Name
    635e498716218cea_F3_whole,    !- Zone Name
    ,                         !- Space Name
    Adiabatic,                !- Outside Boundary Condition
    ,                         !- Outside Boundary Condition Object
    NoSun,                    !- Sun Exposure
    NoWind,                   !- Wind Exposure
    autocalculate,            !- View Factor to Ground
    autocalculate,            !- Number of Vertices
    686260.8289984964,        !- Vertex 1 Xcoordinate
    4928768.230119191,        !- Vertex 1 Ycoordinate
    12,                       !- Vertex 1 Zcoordinate
    686260.8289984964,        !- Vertex 2 Xcoordinate
    4928768.230119191,        !- Vertex 2 Ycoordinate
    9,                        !- Vertex 2 Zcoordinate
    686261.2779984965,        !- Vertex 3 Xcoordinate
    4928769.821119191,        !- Vertex 3 Ycoordinate
    9,                        !- Vertex 3 Zcoordinate
    686261.2779984965,        !- Vertex 4 Xcoordinate
    4928769.821119191,        !- Vertex 4 Ycoordinate
    12;                       !- Vertex 4 Zcoordinate

BUILDINGSURFACE:DETAILED,
    Block 635e498716218cea_whole Storey 3 Wall 0020,    !- Name
    wall,                     !- Surface Type
    EU_wall_Construction,     !- Construction Name
    635e498716218cea_F3_whole,    !- Zone Name
    ,                         !- Space Name
    Adiabatic,                !- Outside Boundary Condition
    ,                         !- Outside Boundary Condition Object
    NoSun,                    !- Sun Exposure
    NoWind,                   !- Wind Exposure
    autocalculate,            !- View Factor to Ground
    autocalculate,            !- Number of Vertices
    686261.2779984965,        !- Vertex 1 Xcoordinate
    4928769.821119191,        !- Vertex 1 Ycoordinate
    12,                       !- Vertex 1 Zcoordinate
    686261.2779984965,        !- Vertex 2 Xcoordinate
    4928769.821119191,        !- Vertex 2 Ycoordinate
    9,                        !- Vertex 2 Zcoordinate
    686259.6759984964,        !- Vertex 3 Xcoordinate
    4928770.31611919,         !- Vertex 3 Ycoordinate
    9,                        !- Vertex 3 Zcoordinate
    686259.6759984964,        !- Vertex 4 Xcoordinate
    4928770.31611919,         !- Vertex 4 Ycoordinate
    12;                       !- Vertex 4 Zcoordinate

BUILDINGSURFACE:DETAILED,
    Block 635e498716218cea_whole Storey 3 Wall 0021,    !- Name
    wall,                     !- Surface Type
    EU_wall_Construction,     !- Construction Name
    635e498716218cea_F3_whole,    !- Zone Name
    ,                         !- Space Name
    Adiabatic,                !- Outside Boundary Condition
    ,                         !- Outside Boundary Condition Object
    NoSun,                    !- Sun Exposure
    NoWind,                   !- Wind Exposure
    autocalculate,            !- View Factor to Ground
    autocalculate,            !- Number of Vertices
    686259.6759984964,        !- Vertex 1 Xcoordinate
    4928770.31611919,         !- Vertex 1 Ycoordinate
    12,                       !- Vertex 1 Zcoordinate
    686259.6759984964,        !- Vertex 2 Xcoordinate
    4928770.31611919,         !- Vertex 2 Ycoordinate
    9,                        !- Vertex 2 Zcoordinate
    686259.2359984965,        !- Vertex 3 Xcoordinate
    4928768.65011919,         !- Vertex 3 Ycoordinate
    9,                        !- Vertex 3 Zcoordinate
    686259.2359984965,        !- Vertex 4 Xcoordinate
    4928768.65011919,         !- Vertex 4 Ycoordinate
    12;                       !- Vertex 4 Zcoordinate

BUILDINGSURFACE:DETAILED,
    Block 635e498716218cea_whole Storey 3 Wall 0022,    !- Name
    wall,                     !- Surface Type
    EU_wall_Construction,     !- Construction Name
    635e498716218cea_F3_whole,    !- Zone Name
    ,                         !- Space Name
    Adiabatic,                !- Outside Boundary Condition
    ,                         !- Outside Boundary Condition Object
    NoSun,                    !- Sun Exposure
    NoWind,                   !- Wind Exposure
    autocalculate,            !- View Factor to Ground
    autocalculate,            !- Number of Vertices
    686259.2359984965,        !- Vertex 1 Xcoordinate
    4928768.65011919,         !- Vertex 1 Ycoordinate
    12,                       !- Vertex 1 Zcoordinate
    686259.2359984965,        !- Vertex 2 Xcoordinate
    4928768.65011919,         !- Vertex 2 Ycoordinate
    9,                        !- Vertex 2 Zcoordinate
    686254.5689984965,        !- Vertex 3 Xcoordinate
    4928769.880119192,        !- Vertex 3 Ycoordinate
    9,                        !- Vertex 3 Zcoordinate
    686254.5689984965,        !- Vertex 4 Xcoordinate
    4928769.880119192,        !- Vertex 4 Ycoordinate
    12;                       !- Vertex 4 Zcoordinate

BUILDINGSURFACE:DETAILED,
    Block 635e498716218cea_whole Storey 3 Wall 0023,    !- Name
    wall,                     !- Surface Type
    EU_wall_Construction,     !- Construction Name
    635e498716218cea_F3_whole,    !- Zone Name
    ,                         !- Space Name
    outdoors,                 !- Outside Boundary Condition
    ,                         !- Outside Boundary Condition Object
    SunExposed,               !- Sun Exposure
    WindExposed,              !- Wind Exposure
    autocalculate,            !- View Factor to Ground
    autocalculate,            !- Number of Vertices
    686254.5689984965,        !- Vertex 1 Xcoordinate
    4928769.880119192,        !- Vertex 1 Ycoordinate
    12,                       !- Vertex 1 Zcoordinate
    686254.5689984965,        !- Vertex 2 Xcoordinate
    4928769.880119192,        !- Vertex 2 Ycoordinate
    9,                        !- Vertex 2 Zcoordinate
    686253.4889984966,        !- Vertex 3 Xcoordinate
    4928765.930119191,        !- Vertex 3 Ycoordinate
    9,                        !- Vertex 3 Zcoordinate
    686253.4889984966,        !- Vertex 4 Xcoordinate
    4928765.930119191,        !- Vertex 4 Ycoordinate
    12;                       !- Vertex 4 Zcoordinate

BUILDINGSURFACE:DETAILED,
    Block 635e498716218cea_whole Storey 3 Wall 0024,    !- Name
    wall,                     !- Surface Type
    EU_wall_Construction,     !- Construction Name
    635e498716218cea_F3_whole,    !- Zone Name
    ,                         !- Space Name
    outdoors,                 !- Outside Boundary Condition
    ,                         !- Outside Boundary Condition Object
    SunExposed,               !- Sun Exposure
    WindExposed,              !- Wind Exposure
    autocalculate,            !- View Factor to Ground
    autocalculate,            !- Number of Vertices
    686253.4889984966,        !- Vertex 1 Xcoordinate
    4928765.930119191,        !- Vertex 1 Ycoordinate
    12,                       !- Vertex 1 Zcoordinate
    686253.4889984966,        !- Vertex 2 Xcoordinate
    4928765.930119191,        !- Vertex 2 Ycoordinate
    9,                        !- Vertex 2 Zcoordinate
    686245.8589984964,        !- Vertex 3 Xcoordinate
    4928767.950119193,        !- Vertex 3 Ycoordinate
    9,                        !- Vertex 3 Zcoordinate
    686245.8589984964,        !- Vertex 4 Xcoordinate
    4928767.950119193,        !- Vertex 4 Ycoordinate
    12;                       !- Vertex 4 Zcoordinate

BUILDINGSURFACE:DETAILED,
    Block 635e498716218cea_whole Storey 3 Wall 0025,    !- Name
    wall,                     !- Surface Type
    EU_wall_Construction,     !- Construction Name
    635e498716218cea_F3_whole,    !- Zone Name
    ,                         !- Space Name
    outdoors,                 !- Outside Boundary Condition
    ,                         !- Outside Boundary Condition Object
    SunExposed,               !- Sun Exposure
    WindExposed,              !- Wind Exposure
    autocalculate,            !- View Factor to Ground
    autocalculate,            !- Number of Vertices
    686245.8589984964,        !- Vertex 1 Xcoordinate
    4928767.950119193,        !- Vertex 1 Ycoordinate
    12,                       !- Vertex 1 Zcoordinate
    686245.8589984964,        !- Vertex 2 Xcoordinate
    4928767.950119193,        !- Vertex 2 Ycoordinate
    9,                        !- Vertex 2 Zcoordinate
    686246.0389984964,        !- Vertex 3 Xcoordinate
    4928768.670119191,        !- Vertex 3 Ycoordinate
    9,                        !- Vertex 3 Zcoordinate
    686246.0389984964,        !- Vertex 4 Xcoordinate
    4928768.670119191,        !- Vertex 4 Ycoordinate
    12;                       !- Vertex 4 Zcoordinate

BUILDINGSURFACE:DETAILED,
    Block 635e498716218cea_whole Storey 3 Wall 0026,    !- Name
    wall,                     !- Surface Type
    EU_wall_Construction,     !- Construction Name
    635e498716218cea_F3_whole,    !- Zone Name
    ,                         !- Space Name
    outdoors,                 !- Outside Boundary Condition
    ,                         !- Outside Boundary Condition Object
    SunExposed,               !- Sun Exposure
    WindExposed,              !- Wind Exposure
    autocalculate,            !- View Factor to Ground
    autocalculate,            !- Number of Vertices
    686246.0389984964,        !- Vertex 1 Xcoordinate
    4928768.670119191,        !- Vertex 1 Ycoordinate
    12,                       !- Vertex 1 Zcoordinate
    686246.0389984964,        !- Vertex 2 Xcoordinate
    4928768.670119191,        !- Vertex 2 Ycoordinate
    9,                        !- Vertex 2 Zcoordinate
    686247.4389984965,        !- Vertex 3 Xcoordinate
    4928774.230119192,        !- Vertex 3 Ycoordinate
    9,                        !- Vertex 3 Zcoordinate
    686247.4389984965,        !- Vertex 4 Xcoordinate
    4928774.230119192,        !- Vertex 4 Ycoordinate
    12;                       !- Vertex 4 Zcoordinate

BUILDINGSURFACE:DETAILED,
    Block 635e498716218cea_whole Storey 3 Wall 0027,    !- Name
    wall,                     !- Surface Type
    EU_wall_Construction,     !- Construction Name
    635e498716218cea_F3_whole,    !- Zone Name
    ,                         !- Space Name
    outdoors,                 !- Outside Boundary Condition
    ,                         !- Outside Boundary Condition Object
    SunExposed,               !- Sun Exposure
    WindExposed,              !- Wind Exposure
    autocalculate,            !- View Factor to Ground
    autocalculate,            !- Number of Vertices
    686247.4389984965,        !- Vertex 1 Xcoordinate
    4928774.230119192,        !- Vertex 1 Ycoordinate
    12,                       !- Vertex 1 Zcoordinate
    686247.4389984965,        !- Vertex 2 Xcoordinate
    4928774.230119192,        !- Vertex 2 Ycoordinate
    9,                        !- Vertex 2 Zcoordinate
    686255.1889984966,        !- Vertex 3 Xcoordinate
    4928772.130119191,        !- Vertex 3 Ycoordinate
    9,                        !- Vertex 3 Zcoordinate
    686255.1889984966,        !- Vertex 4 Xcoordinate
    4928772.130119191,        !- Vertex 4 Ycoordinate
    12;                       !- Vertex 4 Zcoordinate

BUILDINGSURFACE:DETAILED,
    Block 635e498716218cea_whole Storey 3 Wall 0028,    !- Name
    wall,                     !- Surface Type
    EU_wall_Construction,     !- Construction Name
    635e498716218cea_F3_whole,    !- Zone Name
    ,                         !- Space Name
    Adiabatic,                !- Outside Boundary Condition
    ,                         !- Outside Boundary Condition Object
    NoSun,                    !- Sun Exposure
    NoWind,                   !- Wind Exposure
    autocalculate,            !- View Factor to Ground
    autocalculate,            !- Number of Vertices
    686255.1889984966,        !- Vertex 1 Xcoordinate
    4928772.130119191,        !- Vertex 1 Ycoordinate
    12,                       !- Vertex 1 Zcoordinate
    686255.1889984966,        !- Vertex 2 Xcoordinate
    4928772.130119191,        !- Vertex 2 Ycoordinate
    9,                        !- Vertex 2 Zcoordinate
    686256.7819984966,        !- Vertex 3 Xcoordinate
    4928778.018119191,        !- Vertex 3 Ycoordinate
    9,                        !- Vertex 3 Zcoordinate
    686256.7819984966,        !- Vertex 4 Xcoordinate
    4928778.018119191,        !- Vertex 4 Ycoordinate
    12;                       !- Vertex 4 Zcoordinate

BUILDINGSURFACE:DETAILED,
    Block 635e498716218cea_whole Storey 4 Wall 0001,    !- Name
    wall,                     !- Surface Type
    EU_wall_Construction,     !- Construction Name
    635e498716218cea_F4_whole,    !- Zone Name
    ,                         !- Space Name
    Adiabatic,                !- Outside Boundary Condition
    ,                         !- Outside Boundary Condition Object
    NoSun,                    !- Sun Exposure
    NoWind,                   !- Wind Exposure
    autocalculate,            !- View Factor to Ground
    autocalculate,            !- Number of Vertices
    686256.7819984966,        !- Vertex 1 Xcoordinate
    4928778.018119191,        !- Vertex 1 Ycoordinate
    15,                       !- Vertex 1 Zcoordinate
    686256.7819984966,        !- Vertex 2 Xcoordinate
    4928778.018119191,        !- Vertex 2 Ycoordinate
    12,                       !- Vertex 2 Zcoordinate
    686251.0659984965,        !- Vertex 3 Xcoordinate
    4928778.751119191,        !- Vertex 3 Ycoordinate
    12,                       !- Vertex 3 Zcoordinate
    686251.0659984965,        !- Vertex 4 Xcoordinate
    4928778.751119191,        !- Vertex 4 Ycoordinate
    15;                       !- Vertex 4 Zcoordinate

BUILDINGSURFACE:DETAILED,
    Block 635e498716218cea_whole Storey 4 Wall 0002,    !- Name
    wall,                     !- Surface Type
    EU_wall_Construction,     !- Construction Name
    635e498716218cea_F4_whole,    !- Zone Name
    ,                         !- Space Name
    Adiabatic,                !- Outside Boundary Condition
    ,                         !- Outside Boundary Condition Object
    NoSun,                    !- Sun Exposure
    NoWind,                   !- Wind Exposure
    autocalculate,            !- View Factor to Ground
    autocalculate,            !- Number of Vertices
    686251.0659984965,        !- Vertex 1 Xcoordinate
    4928778.751119191,        !- Vertex 1 Ycoordinate
    15,                       !- Vertex 1 Zcoordinate
    686251.0659984965,        !- Vertex 2 Xcoordinate
    4928778.751119191,        !- Vertex 2 Ycoordinate
    12,                       !- Vertex 2 Zcoordinate
    686251.0659984965,        !- Vertex 3 Xcoordinate
    4928779.915119192,        !- Vertex 3 Ycoordinate
    12,                       !- Vertex 3 Zcoordinate
    686251.0659984965,        !- Vertex 4 Xcoordinate
    4928779.915119192,        !- Vertex 4 Ycoordinate
    15;                       !- Vertex 4 Zcoordinate

BUILDINGSURFACE:DETAILED,
    Block 635e498716218cea_whole Storey 4 Wall 0003,    !- Name
    wall,                     !- Surface Type
    EU_wall_Construction,     !- Construction Name
    635e498716218cea_F4_whole,    !- Zone Name
    ,                         !- Space Name
    Adiabatic,                !- Outside Boundary Condition
    ,                         !- Outside Boundary Condition Object
    NoSun,                    !- Sun Exposure
    NoWind,                   !- Wind Exposure
    autocalculate,            !- View Factor to Ground
    autocalculate,            !- Number of Vertices
    686251.0659984965,        !- Vertex 1 Xcoordinate
    4928779.915119192,        !- Vertex 1 Ycoordinate
    15,                       !- Vertex 1 Zcoordinate
    686251.0659984965,        !- Vertex 2 Xcoordinate
    4928779.915119192,        !- Vertex 2 Ycoordinate
    12,                       !- Vertex 2 Zcoordinate
    686248.6689984965,        !- Vertex 3 Xcoordinate
    4928780.109119192,        !- Vertex 3 Ycoordinate
    12,                       !- Vertex 3 Zcoordinate
    686248.6689984965,        !- Vertex 4 Xcoordinate
    4928780.109119192,        !- Vertex 4 Ycoordinate
    15;                       !- Vertex 4 Zcoordinate

BUILDINGSURFACE:DETAILED,
    Block 635e498716218cea_whole Storey 4 Wall 0004,    !- Name
    wall,                     !- Surface Type
    EU_wall_Construction,     !- Construction Name
    635e498716218cea_F4_whole,    !- Zone Name
    ,                         !- Space Name
    Adiabatic,                !- Outside Boundary Condition
    ,                         !- Outside Boundary Condition Object
    NoSun,                    !- Sun Exposure
    NoWind,                   !- Wind Exposure
    autocalculate,            !- View Factor to Ground
    autocalculate,            !- Number of Vertices
    686248.6689984965,        !- Vertex 1 Xcoordinate
    4928780.109119192,        !- Vertex 1 Ycoordinate
    15,                       !- Vertex 1 Zcoordinate
    686248.6689984965,        !- Vertex 2 Xcoordinate
    4928780.109119192,        !- Vertex 2 Ycoordinate
    12,                       !- Vertex 2 Zcoordinate
    686245.8879984966,        !- Vertex 3 Xcoordinate
    4928780.322119192,        !- Vertex 3 Ycoordinate
    12,                       !- Vertex 3 Zcoordinate
    686245.8879984966,        !- Vertex 4 Xcoordinate
    4928780.322119192,        !- Vertex 4 Ycoordinate
    15;                       !- Vertex 4 Zcoordinate

BUILDINGSURFACE:DETAILED,
    Block 635e498716218cea_whole Storey 4 Wall 0005,    !- Name
    wall,                     !- Surface Type
    EU_wall_Construction,     !- Construction Name
    635e498716218cea_F4_whole,    !- Zone Name
    ,                         !- Space Name
    Adiabatic,                !- Outside Boundary Condition
    ,                         !- Outside Boundary Condition Object
    NoSun,                    !- Sun Exposure
    NoWind,                   !- Wind Exposure
    autocalculate,            !- View Factor to Ground
    autocalculate,            !- Number of Vertices
    686245.8879984966,        !- Vertex 1 Xcoordinate
    4928780.322119192,        !- Vertex 1 Ycoordinate
    15,                       !- Vertex 1 Zcoordinate
    686245.8879984966,        !- Vertex 2 Xcoordinate
    4928780.322119192,        !- Vertex 2 Ycoordinate
    12,                       !- Vertex 2 Zcoordinate
    686245.6789984965,        !- Vertex 3 Xcoordinate
    4928779.1701191915,       !- Vertex 3 Ycoordinate
    12,                       !- Vertex 3 Zcoordinate
    686245.6789984965,        !- Vertex 4 Xcoordinate
    4928779.1701191915,       !- Vertex 4 Ycoordinate
    15;                       !- Vertex 4 Zcoordinate

BUILDINGSURFACE:DETAILED,
    Block 635e498716218cea_whole Storey 4 Wall 0006,    !- Name
    wall,                     !- Surface Type
    EU_wall_Construction,     !- Construction Name
    635e498716218cea_F4_whole,    !- Zone Name
    ,                         !- Space Name
    outdoors,                 !- Outside Boundary Condition
    ,                         !- Outside Boundary Condition Object
    SunExposed,               !- Sun Exposure
    WindExposed,              !- Wind Exposure
    autocalculate,            !- View Factor to Ground
    autocalculate,            !- Number of Vertices
    686245.6789984965,        !- Vertex 1 Xcoordinate
    4928779.1701191915,       !- Vertex 1 Ycoordinate
    15,                       !- Vertex 1 Zcoordinate
    686245.6789984965,        !- Vertex 2 Xcoordinate
    4928779.1701191915,       !- Vertex 2 Ycoordinate
    12,                       !- Vertex 2 Zcoordinate
    686242.7789984965,        !- Vertex 3 Xcoordinate
    4928769.410119192,        !- Vertex 3 Ycoordinate
    12,                       !- Vertex 3 Zcoordinate
    686242.7789984965,        !- Vertex 4 Xcoordinate
    4928769.410119192,        !- Vertex 4 Ycoordinate
    15;                       !- Vertex 4 Zcoordinate

BUILDINGSURFACE:DETAILED,
    Block 635e498716218cea_whole Storey 4 Wall 0007,    !- Name
    wall,                     !- Surface Type
    EU_wall_Construction,     !- Construction Name
    635e498716218cea_F4_whole,    !- Zone Name
    ,                         !- Space Name
    outdoors,                 !- Outside Boundary Condition
    ,                         !- Outside Boundary Condition Object
    SunExposed,               !- Sun Exposure
    WindExposed,              !- Wind Exposure
    autocalculate,            !- View Factor to Ground
    autocalculate,            !- Number of Vertices
    686242.7789984965,        !- Vertex 1 Xcoordinate
    4928769.410119192,        !- Vertex 1 Ycoordinate
    15,                       !- Vertex 1 Zcoordinate
    686242.7789984965,        !- Vertex 2 Xcoordinate
    4928769.410119192,        !- Vertex 2 Ycoordinate
    12,                       !- Vertex 2 Zcoordinate
    686241.0089984965,        !- Vertex 3 Xcoordinate
    4928763.47011919,         !- Vertex 3 Ycoordinate
    12,                       !- Vertex 3 Zcoordinate
    686241.0089984965,        !- Vertex 4 Xcoordinate
    4928763.47011919,         !- Vertex 4 Ycoordinate
    15;                       !- Vertex 4 Zcoordinate

BUILDINGSURFACE:DETAILED,
    Block 635e498716218cea_whole Storey 4 Wall 0008,    !- Name
    wall,                     !- Surface Type
    EU_wall_Construction,     !- Construction Name
    635e498716218cea_F4_whole,    !- Zone Name
    ,                         !- Space Name
    Adiabatic,                !- Outside Boundary Condition
    ,                         !- Outside Boundary Condition Object
    NoSun,                    !- Sun Exposure
    NoWind,                   !- Wind Exposure
    autocalculate,            !- View Factor to Ground
    autocalculate,            !- Number of Vertices
    686241.0089984965,        !- Vertex 1 Xcoordinate
    4928763.47011919,         !- Vertex 1 Ycoordinate
    15,                       !- Vertex 1 Zcoordinate
    686241.0089984965,        !- Vertex 2 Xcoordinate
    4928763.47011919,         !- Vertex 2 Ycoordinate
    12,                       !- Vertex 2 Zcoordinate
    686241.8689984964,        !- Vertex 3 Xcoordinate
    4928763.301119192,        !- Vertex 3 Ycoordinate
    12,                       !- Vertex 3 Zcoordinate
    686241.8689984964,        !- Vertex 4 Xcoordinate
    4928763.301119192,        !- Vertex 4 Ycoordinate
    15;                       !- Vertex 4 Zcoordinate

BUILDINGSURFACE:DETAILED,
    Block 635e498716218cea_whole Storey 4 Wall 0009,    !- Name
    wall,                     !- Surface Type
    EU_wall_Construction,     !- Construction Name
    635e498716218cea_F4_whole,    !- Zone Name
    ,                         !- Space Name
    Adiabatic,                !- Outside Boundary Condition
    ,                         !- Outside Boundary Condition Object
    NoSun,                    !- Sun Exposure
    NoWind,                   !- Wind Exposure
    autocalculate,            !- View Factor to Ground
    autocalculate,            !- Number of Vertices
    686241.8689984964,        !- Vertex 1 Xcoordinate
    4928763.301119192,        !- Vertex 1 Ycoordinate
    15,                       !- Vertex 1 Zcoordinate
    686241.8689984964,        !- Vertex 2 Xcoordinate
    4928763.301119192,        !- Vertex 2 Ycoordinate
    12,                       !- Vertex 2 Zcoordinate
    686241.3549984966,        !- Vertex 3 Xcoordinate
    4928761.199119192,        !- Vertex 3 Ycoordinate
    12,                       !- Vertex 3 Zcoordinate
    686241.3549984966,        !- Vertex 4 Xcoordinate
    4928761.199119192,        !- Vertex 4 Ycoordinate
    15;                       !- Vertex 4 Zcoordinate

BUILDINGSURFACE:DETAILED,
    Block 635e498716218cea_whole Storey 4 Wall 0010,    !- Name
    wall,                     !- Surface Type
    EU_wall_Construction,     !- Construction Name
    635e498716218cea_F4_whole,    !- Zone Name
    ,                         !- Space Name
    Adiabatic,                !- Outside Boundary Condition
    ,                         !- Outside Boundary Condition Object
    NoSun,                    !- Sun Exposure
    NoWind,                   !- Wind Exposure
    autocalculate,            !- View Factor to Ground
    autocalculate,            !- Number of Vertices
    686241.3549984966,        !- Vertex 1 Xcoordinate
    4928761.199119192,        !- Vertex 1 Ycoordinate
    15,                       !- Vertex 1 Zcoordinate
    686241.3549984966,        !- Vertex 2 Xcoordinate
    4928761.199119192,        !- Vertex 2 Ycoordinate
    12,                       !- Vertex 2 Zcoordinate
    686242.1689984964,        !- Vertex 3 Xcoordinate
    4928760.900119191,        !- Vertex 3 Ycoordinate
    12,                       !- Vertex 3 Zcoordinate
    686242.1689984964,        !- Vertex 4 Xcoordinate
    4928760.900119191,        !- Vertex 4 Ycoordinate
    15;                       !- Vertex 4 Zcoordinate

BUILDINGSURFACE:DETAILED,
    Block 635e498716218cea_whole Storey 4 Wall 0011,    !- Name
    wall,                     !- Surface Type
    EU_wall_Construction,     !- Construction Name
    635e498716218cea_F4_whole,    !- Zone Name
    ,                         !- Space Name
    Adiabatic,                !- Outside Boundary Condition
    ,                         !- Outside Boundary Condition Object
    NoSun,                    !- Sun Exposure
    NoWind,                   !- Wind Exposure
    autocalculate,            !- View Factor to Ground
    autocalculate,            !- Number of Vertices
    686242.1689984964,        !- Vertex 1 Xcoordinate
    4928760.900119191,        !- Vertex 1 Ycoordinate
    15,                       !- Vertex 1 Zcoordinate
    686242.1689984964,        !- Vertex 2 Xcoordinate
    4928760.900119191,        !- Vertex 2 Ycoordinate
    12,                       !- Vertex 2 Zcoordinate
    686245.8189984965,        !- Vertex 3 Xcoordinate
    4928759.850119191,        !- Vertex 3 Ycoordinate
    12,                       !- Vertex 3 Zcoordinate
    686245.8189984965,        !- Vertex 4 Xcoordinate
    4928759.850119191,        !- Vertex 4 Ycoordinate
    15;                       !- Vertex 4 Zcoordinate

BUILDINGSURFACE:DETAILED,
    Block 635e498716218cea_whole Storey 4 Wall 0012,    !- Name
    wall,                     !- Surface Type
    EU_wall_Construction,     !- Construction Name
    635e498716218cea_F4_whole,    !- Zone Name
    ,                         !- Space Name
    Adiabatic,                !- Outside Boundary Condition
    ,                         !- Outside Boundary Condition Object
    NoSun,                    !- Sun Exposure
    NoWind,                   !- Wind Exposure
    autocalculate,            !- View Factor to Ground
    autocalculate,            !- Number of Vertices
    686245.8189984965,        !- Vertex 1 Xcoordinate
    4928759.850119191,        !- Vertex 1 Ycoordinate
    15,                       !- Vertex 1 Zcoordinate
    686245.8189984965,        !- Vertex 2 Xcoordinate
    4928759.850119191,        !- Vertex 2 Ycoordinate
    12,                       !- Vertex 2 Zcoordinate
    686244.5289984965,        !- Vertex 3 Xcoordinate
    4928755.070119192,        !- Vertex 3 Ycoordinate
    12,                       !- Vertex 3 Zcoordinate
    686244.5289984965,        !- Vertex 4 Xcoordinate
    4928755.070119192,        !- Vertex 4 Ycoordinate
    15;                       !- Vertex 4 Zcoordinate

BUILDINGSURFACE:DETAILED,
    Block 635e498716218cea_whole Storey 4 Wall 0013,    !- Name
    wall,                     !- Surface Type
    EU_wall_Construction,     !- Construction Name
    635e498716218cea_F4_whole,    !- Zone Name
    ,                         !- Space Name
    Adiabatic,                !- Outside Boundary Condition
    ,                         !- Outside Boundary Condition Object
    NoSun,                    !- Sun Exposure
    NoWind,                   !- Wind Exposure
    autocalculate,            !- View Factor to Ground
    autocalculate,            !- Number of Vertices
    686244.5289984965,        !- Vertex 1 Xcoordinate
    4928755.070119192,        !- Vertex 1 Ycoordinate
    15,                       !- Vertex 1 Zcoordinate
    686244.5289984965,        !- Vertex 2 Xcoordinate
    4928755.070119192,        !- Vertex 2 Ycoordinate
    12,                       !- Vertex 2 Zcoordinate
    686239.7069984967,        !- Vertex 3 Xcoordinate
    4928738.92011919,         !- Vertex 3 Ycoordinate
    12,                       !- Vertex 3 Zcoordinate
    686239.7069984967,        !- Vertex 4 Xcoordinate
    4928738.92011919,         !- Vertex 4 Ycoordinate
    15;                       !- Vertex 4 Zcoordinate

BUILDINGSURFACE:DETAILED,
    Block 635e498716218cea_whole Storey 4 Wall 0014,    !- Name
    wall,                     !- Surface Type
    EU_wall_Construction,     !- Construction Name
    635e498716218cea_F4_whole,    !- Zone Name
    ,                         !- Space Name
    outdoors,                 !- Outside Boundary Condition
    ,                         !- Outside Boundary Condition Object
    SunExposed,               !- Sun Exposure
    WindExposed,              !- Wind Exposure
    autocalculate,            !- View Factor to Ground
    autocalculate,            !- Number of Vertices
    686239.7069984967,        !- Vertex 1 Xcoordinate
    4928738.92011919,         !- Vertex 1 Ycoordinate
    15,                       !- Vertex 1 Zcoordinate
    686239.7069984967,        !- Vertex 2 Xcoordinate
    4928738.92011919,         !- Vertex 2 Ycoordinate
    12,                       !- Vertex 2 Zcoordinate
    686251.9989984964,        !- Vertex 3 Xcoordinate
    4928735.021119189,        !- Vertex 3 Ycoordinate
    12,                       !- Vertex 3 Zcoordinate
    686251.9989984964,        !- Vertex 4 Xcoordinate
    4928735.021119189,        !- Vertex 4 Ycoordinate
    15;                       !- Vertex 4 Zcoordinate

BUILDINGSURFACE:DETAILED,
    Block 635e498716218cea_whole Storey 4 Wall 0015,    !- Name
    wall,                     !- Surface Type
    EU_wall_Construction,     !- Construction Name
    635e498716218cea_F4_whole,    !- Zone Name
    ,                         !- Space Name
    Adiabatic,                !- Outside Boundary Condition
    ,                         !- Outside Boundary Condition Object
    NoSun,                    !- Sun Exposure
    NoWind,                   !- Wind Exposure
    autocalculate,            !- View Factor to Ground
    autocalculate,            !- Number of Vertices
    686251.9989984964,        !- Vertex 1 Xcoordinate
    4928735.021119189,        !- Vertex 1 Ycoordinate
    15,                       !- Vertex 1 Zcoordinate
    686251.9989984964,        !- Vertex 2 Xcoordinate
    4928735.021119189,        !- Vertex 2 Ycoordinate
    12,                       !- Vertex 2 Zcoordinate
    686255.1289984966,        !- Vertex 3 Xcoordinate
    4928746.900119191,        !- Vertex 3 Ycoordinate
    12,                       !- Vertex 3 Zcoordinate
    686255.1289984966,        !- Vertex 4 Xcoordinate
    4928746.900119191,        !- Vertex 4 Ycoordinate
    15;                       !- Vertex 4 Zcoordinate

BUILDINGSURFACE:DETAILED,
    Block 635e498716218cea_whole Storey 4 Wall 0016,    !- Name
    wall,                     !- Surface Type
    EU_wall_Construction,     !- Construction Name
    635e498716218cea_F4_whole,    !- Zone Name
    ,                         !- Space Name
    Adiabatic,                !- Outside Boundary Condition
    ,                         !- Outside Boundary Condition Object
    NoSun,                    !- Sun Exposure
    NoWind,                   !- Wind Exposure
    autocalculate,            !- View Factor to Ground
    autocalculate,            !- Number of Vertices
    686255.1289984966,        !- Vertex 1 Xcoordinate
    4928746.900119191,        !- Vertex 1 Ycoordinate
    15,                       !- Vertex 1 Zcoordinate
    686255.1289984966,        !- Vertex 2 Xcoordinate
    4928746.900119191,        !- Vertex 2 Ycoordinate
    12,                       !- Vertex 2 Zcoordinate
    686259.1089984967,        !- Vertex 3 Xcoordinate
    4928762.06011919,         !- Vertex 3 Ycoordinate
    12,                       !- Vertex 3 Zcoordinate
    686259.1089984967,        !- Vertex 4 Xcoordinate
    4928762.06011919,         !- Vertex 4 Ycoordinate
    15;                       !- Vertex 4 Zcoordinate

BUILDINGSURFACE:DETAILED,
    Block 635e498716218cea_whole Storey 4 Wall 0017,    !- Name
    wall,                     !- Surface Type
    EU_wall_Construction,     !- Construction Name
    635e498716218cea_F4_whole,    !- Zone Name
    ,                         !- Space Name
    Adiabatic,                !- Outside Boundary Condition
    ,                         !- Outside Boundary Condition Object
    NoSun,                    !- Sun Exposure
    NoWind,                   !- Wind Exposure
    autocalculate,            !- View Factor to Ground
    autocalculate,            !- Number of Vertices
    686259.1089984967,        !- Vertex 1 Xcoordinate
    4928762.06011919,         !- Vertex 1 Ycoordinate
    15,                       !- Vertex 1 Zcoordinate
    686259.1089984967,        !- Vertex 2 Xcoordinate
    4928762.06011919,         !- Vertex 2 Ycoordinate
    12,                       !- Vertex 2 Zcoordinate
    686260.4189984964,        !- Vertex 3 Xcoordinate
    4928766.480119192,        !- Vertex 3 Ycoordinate
    12,                       !- Vertex 3 Zcoordinate
    686260.4189984964,        !- Vertex 4 Xcoordinate
    4928766.480119192,        !- Vertex 4 Ycoordinate
    15;                       !- Vertex 4 Zcoordinate

BUILDINGSURFACE:DETAILED,
    Block 635e498716218cea_whole Storey 4 Wall 0018,    !- Name
    wall,                     !- Surface Type
    EU_wall_Construction,     !- Construction Name
    635e498716218cea_F4_whole,    !- Zone Name
    ,                         !- Space Name
    Adiabatic,                !- Outside Boundary Condition
    ,                         !- Outside Boundary Condition Object
    NoSun,                    !- Sun Exposure
    NoWind,                   !- Wind Exposure
    autocalculate,            !- View Factor to Ground
    autocalculate,            !- Number of Vertices
    686260.4189984964,        !- Vertex 1 Xcoordinate
    4928766.480119192,        !- Vertex 1 Ycoordinate
    15,                       !- Vertex 1 Zcoordinate
    686260.4189984964,        !- Vertex 2 Xcoordinate
    4928766.480119192,        !- Vertex 2 Ycoordinate
    12,                       !- Vertex 2 Zcoordinate
    686260.8289984964,        !- Vertex 3 Xcoordinate
    4928768.230119191,        !- Vertex 3 Ycoordinate
    12,                       !- Vertex 3 Zcoordinate
    686260.8289984964,        !- Vertex 4 Xcoordinate
    4928768.230119191,        !- Vertex 4 Ycoordinate
    15;                       !- Vertex 4 Zcoordinate

BUILDINGSURFACE:DETAILED,
    Block 635e498716218cea_whole Storey 4 Wall 0019,    !- Name
    wall,                     !- Surface Type
    EU_wall_Construction,     !- Construction Name
    635e498716218cea_F4_whole,    !- Zone Name
    ,                         !- Space Name
    Adiabatic,                !- Outside Boundary Condition
    ,                         !- Outside Boundary Condition Object
    NoSun,                    !- Sun Exposure
    NoWind,                   !- Wind Exposure
    autocalculate,            !- View Factor to Ground
    autocalculate,            !- Number of Vertices
    686260.8289984964,        !- Vertex 1 Xcoordinate
    4928768.230119191,        !- Vertex 1 Ycoordinate
    15,                       !- Vertex 1 Zcoordinate
    686260.8289984964,        !- Vertex 2 Xcoordinate
    4928768.230119191,        !- Vertex 2 Ycoordinate
    12,                       !- Vertex 2 Zcoordinate
    686261.2779984965,        !- Vertex 3 Xcoordinate
    4928769.821119191,        !- Vertex 3 Ycoordinate
    12,                       !- Vertex 3 Zcoordinate
    686261.2779984965,        !- Vertex 4 Xcoordinate
    4928769.821119191,        !- Vertex 4 Ycoordinate
    15;                       !- Vertex 4 Zcoordinate

BUILDINGSURFACE:DETAILED,
    Block 635e498716218cea_whole Storey 4 Wall 0020,    !- Name
    wall,                     !- Surface Type
    EU_wall_Construction,     !- Construction Name
    635e498716218cea_F4_whole,    !- Zone Name
    ,                         !- Space Name
    Adiabatic,                !- Outside Boundary Condition
    ,                         !- Outside Boundary Condition Object
    NoSun,                    !- Sun Exposure
    NoWind,                   !- Wind Exposure
    autocalculate,            !- View Factor to Ground
    autocalculate,            !- Number of Vertices
    686261.2779984965,        !- Vertex 1 Xcoordinate
    4928769.821119191,        !- Vertex 1 Ycoordinate
    15,                       !- Vertex 1 Zcoordinate
    686261.2779984965,        !- Vertex 2 Xcoordinate
    4928769.821119191,        !- Vertex 2 Ycoordinate
    12,                       !- Vertex 2 Zcoordinate
    686259.6759984964,        !- Vertex 3 Xcoordinate
    4928770.31611919,         !- Vertex 3 Ycoordinate
    12,                       !- Vertex 3 Zcoordinate
    686259.6759984964,        !- Vertex 4 Xcoordinate
    4928770.31611919,         !- Vertex 4 Ycoordinate
    15;                       !- Vertex 4 Zcoordinate

BUILDINGSURFACE:DETAILED,
    Block 635e498716218cea_whole Storey 4 Wall 0021,    !- Name
    wall,                     !- Surface Type
    EU_wall_Construction,     !- Construction Name
    635e498716218cea_F4_whole,    !- Zone Name
    ,                         !- Space Name
    Adiabatic,                !- Outside Boundary Condition
    ,                         !- Outside Boundary Condition Object
    NoSun,                    !- Sun Exposure
    NoWind,                   !- Wind Exposure
    autocalculate,            !- View Factor to Ground
    autocalculate,            !- Number of Vertices
    686259.6759984964,        !- Vertex 1 Xcoordinate
    4928770.31611919,         !- Vertex 1 Ycoordinate
    15,                       !- Vertex 1 Zcoordinate
    686259.6759984964,        !- Vertex 2 Xcoordinate
    4928770.31611919,         !- Vertex 2 Ycoordinate
    12,                       !- Vertex 2 Zcoordinate
    686259.2359984965,        !- Vertex 3 Xcoordinate
    4928768.65011919,         !- Vertex 3 Ycoordinate
    12,                       !- Vertex 3 Zcoordinate
    686259.2359984965,        !- Vertex 4 Xcoordinate
    4928768.65011919,         !- Vertex 4 Ycoordinate
    15;                       !- Vertex 4 Zcoordinate

BUILDINGSURFACE:DETAILED,
    Block 635e498716218cea_whole Storey 4 Wall 0022,    !- Name
    wall,                     !- Surface Type
    EU_wall_Construction,     !- Construction Name
    635e498716218cea_F4_whole,    !- Zone Name
    ,                         !- Space Name
    Adiabatic,                !- Outside Boundary Condition
    ,                         !- Outside Boundary Condition Object
    NoSun,                    !- Sun Exposure
    NoWind,                   !- Wind Exposure
    autocalculate,            !- View Factor to Ground
    autocalculate,            !- Number of Vertices
    686259.2359984965,        !- Vertex 1 Xcoordinate
    4928768.65011919,         !- Vertex 1 Ycoordinate
    15,                       !- Vertex 1 Zcoordinate
    686259.2359984965,        !- Vertex 2 Xcoordinate
    4928768.65011919,         !- Vertex 2 Ycoordinate
    12,                       !- Vertex 2 Zcoordinate
    686254.5689984965,        !- Vertex 3 Xcoordinate
    4928769.880119192,        !- Vertex 3 Ycoordinate
    12,                       !- Vertex 3 Zcoordinate
    686254.5689984965,        !- Vertex 4 Xcoordinate
    4928769.880119192,        !- Vertex 4 Ycoordinate
    15;                       !- Vertex 4 Zcoordinate

BUILDINGSURFACE:DETAILED,
    Block 635e498716218cea_whole Storey 4 Wall 0023,    !- Name
    wall,                     !- Surface Type
    EU_wall_Construction,     !- Construction Name
    635e498716218cea_F4_whole,    !- Zone Name
    ,                         !- Space Name
    outdoors,                 !- Outside Boundary Condition
    ,                         !- Outside Boundary Condition Object
    SunExposed,               !- Sun Exposure
    WindExposed,              !- Wind Exposure
    autocalculate,            !- View Factor to Ground
    autocalculate,            !- Number of Vertices
    686254.5689984965,        !- Vertex 1 Xcoordinate
    4928769.880119192,        !- Vertex 1 Ycoordinate
    15,                       !- Vertex 1 Zcoordinate
    686254.5689984965,        !- Vertex 2 Xcoordinate
    4928769.880119192,        !- Vertex 2 Ycoordinate
    12,                       !- Vertex 2 Zcoordinate
    686253.4889984966,        !- Vertex 3 Xcoordinate
    4928765.930119191,        !- Vertex 3 Ycoordinate
    12,                       !- Vertex 3 Zcoordinate
    686253.4889984966,        !- Vertex 4 Xcoordinate
    4928765.930119191,        !- Vertex 4 Ycoordinate
    15;                       !- Vertex 4 Zcoordinate

BUILDINGSURFACE:DETAILED,
    Block 635e498716218cea_whole Storey 4 Wall 0024,    !- Name
    wall,                     !- Surface Type
    EU_wall_Construction,     !- Construction Name
    635e498716218cea_F4_whole,    !- Zone Name
    ,                         !- Space Name
    outdoors,                 !- Outside Boundary Condition
    ,                         !- Outside Boundary Condition Object
    SunExposed,               !- Sun Exposure
    WindExposed,              !- Wind Exposure
    autocalculate,            !- View Factor to Ground
    autocalculate,            !- Number of Vertices
    686253.4889984966,        !- Vertex 1 Xcoordinate
    4928765.930119191,        !- Vertex 1 Ycoordinate
    15,                       !- Vertex 1 Zcoordinate
    686253.4889984966,        !- Vertex 2 Xcoordinate
    4928765.930119191,        !- Vertex 2 Ycoordinate
    12,                       !- Vertex 2 Zcoordinate
    686245.8589984964,        !- Vertex 3 Xcoordinate
    4928767.950119193,        !- Vertex 3 Ycoordinate
    12,                       !- Vertex 3 Zcoordinate
    686245.8589984964,        !- Vertex 4 Xcoordinate
    4928767.950119193,        !- Vertex 4 Ycoordinate
    15;                       !- Vertex 4 Zcoordinate

BUILDINGSURFACE:DETAILED,
    Block 635e498716218cea_whole Storey 4 Wall 0025,    !- Name
    wall,                     !- Surface Type
    EU_wall_Construction,     !- Construction Name
    635e498716218cea_F4_whole,    !- Zone Name
    ,                         !- Space Name
    outdoors,                 !- Outside Boundary Condition
    ,                         !- Outside Boundary Condition Object
    SunExposed,               !- Sun Exposure
    WindExposed,              !- Wind Exposure
    autocalculate,            !- View Factor to Ground
    autocalculate,            !- Number of Vertices
    686245.8589984964,        !- Vertex 1 Xcoordinate
    4928767.950119193,        !- Vertex 1 Ycoordinate
    15,                       !- Vertex 1 Zcoordinate
    686245.8589984964,        !- Vertex 2 Xcoordinate
    4928767.950119193,        !- Vertex 2 Ycoordinate
    12,                       !- Vertex 2 Zcoordinate
    686246.0389984964,        !- Vertex 3 Xcoordinate
    4928768.670119191,        !- Vertex 3 Ycoordinate
    12,                       !- Vertex 3 Zcoordinate
    686246.0389984964,        !- Vertex 4 Xcoordinate
    4928768.670119191,        !- Vertex 4 Ycoordinate
    15;                       !- Vertex 4 Zcoordinate

BUILDINGSURFACE:DETAILED,
    Block 635e498716218cea_whole Storey 4 Wall 0026,    !- Name
    wall,                     !- Surface Type
    EU_wall_Construction,     !- Construction Name
    635e498716218cea_F4_whole,    !- Zone Name
    ,                         !- Space Name
    outdoors,                 !- Outside Boundary Condition
    ,                         !- Outside Boundary Condition Object
    SunExposed,               !- Sun Exposure
    WindExposed,              !- Wind Exposure
    autocalculate,            !- View Factor to Ground
    autocalculate,            !- Number of Vertices
    686246.0389984964,        !- Vertex 1 Xcoordinate
    4928768.670119191,        !- Vertex 1 Ycoordinate
    15,                       !- Vertex 1 Zcoordinate
    686246.0389984964,        !- Vertex 2 Xcoordinate
    4928768.670119191,        !- Vertex 2 Ycoordinate
    12,                       !- Vertex 2 Zcoordinate
    686247.4389984965,        !- Vertex 3 Xcoordinate
    4928774.230119192,        !- Vertex 3 Ycoordinate
    12,                       !- Vertex 3 Zcoordinate
    686247.4389984965,        !- Vertex 4 Xcoordinate
    4928774.230119192,        !- Vertex 4 Ycoordinate
    15;                       !- Vertex 4 Zcoordinate

BUILDINGSURFACE:DETAILED,
    Block 635e498716218cea_whole Storey 4 Wall 0027,    !- Name
    wall,                     !- Surface Type
    EU_wall_Construction,     !- Construction Name
    635e498716218cea_F4_whole,    !- Zone Name
    ,                         !- Space Name
    outdoors,                 !- Outside Boundary Condition
    ,                         !- Outside Boundary Condition Object
    SunExposed,               !- Sun Exposure
    WindExposed,              !- Wind Exposure
    autocalculate,            !- View Factor to Ground
    autocalculate,            !- Number of Vertices
    686247.4389984965,        !- Vertex 1 Xcoordinate
    4928774.230119192,        !- Vertex 1 Ycoordinate
    15,                       !- Vertex 1 Zcoordinate
    686247.4389984965,        !- Vertex 2 Xcoordinate
    4928774.230119192,        !- Vertex 2 Ycoordinate
    12,                       !- Vertex 2 Zcoordinate
    686255.1889984966,        !- Vertex 3 Xcoordinate
    4928772.130119191,        !- Vertex 3 Ycoordinate
    12,                       !- Vertex 3 Zcoordinate
    686255.1889984966,        !- Vertex 4 Xcoordinate
    4928772.130119191,        !- Vertex 4 Ycoordinate
    15;                       !- Vertex 4 Zcoordinate

BUILDINGSURFACE:DETAILED,
    Block 635e498716218cea_whole Storey 4 Wall 0028,    !- Name
    wall,                     !- Surface Type
    EU_wall_Construction,     !- Construction Name
    635e498716218cea_F4_whole,    !- Zone Name
    ,                         !- Space Name
    Adiabatic,                !- Outside Boundary Condition
    ,                         !- Outside Boundary Condition Object
    NoSun,                    !- Sun Exposure
    NoWind,                   !- Wind Exposure
    autocalculate,            !- View Factor to Ground
    autocalculate,            !- Number of Vertices
    686255.1889984966,        !- Vertex 1 Xcoordinate
    4928772.130119191,        !- Vertex 1 Ycoordinate
    15,                       !- Vertex 1 Zcoordinate
    686255.1889984966,        !- Vertex 2 Xcoordinate
    4928772.130119191,        !- Vertex 2 Ycoordinate
    12,                       !- Vertex 2 Zcoordinate
    686256.7819984966,        !- Vertex 3 Xcoordinate
    4928778.018119191,        !- Vertex 3 Ycoordinate
    12,                       !- Vertex 3 Zcoordinate
    686256.7819984966,        !- Vertex 4 Xcoordinate
    4928778.018119191,        !- Vertex 4 Ycoordinate
    15;                       !- Vertex 4 Zcoordinate

BUILDINGSURFACE:DETAILED,
    Block 635e498716218cea_whole Storey 5 Wall 0001,    !- Name
    wall,                     !- Surface Type
    EU_wall_Construction,     !- Construction Name
    635e498716218cea_F5_whole,    !- Zone Name
    ,                         !- Space Name
    Adiabatic,                !- Outside Boundary Condition
    ,                         !- Outside Boundary Condition Object
    NoSun,                    !- Sun Exposure
    NoWind,                   !- Wind Exposure
    autocalculate,            !- View Factor to Ground
    autocalculate,            !- Number of Vertices
    686256.7819984966,        !- Vertex 1 Xcoordinate
    4928778.018119191,        !- Vertex 1 Ycoordinate
    18,                       !- Vertex 1 Zcoordinate
    686256.7819984966,        !- Vertex 2 Xcoordinate
    4928778.018119191,        !- Vertex 2 Ycoordinate
    15,                       !- Vertex 2 Zcoordinate
    686251.0659984965,        !- Vertex 3 Xcoordinate
    4928778.751119191,        !- Vertex 3 Ycoordinate
    15,                       !- Vertex 3 Zcoordinate
    686251.0659984965,        !- Vertex 4 Xcoordinate
    4928778.751119191,        !- Vertex 4 Ycoordinate
    18;                       !- Vertex 4 Zcoordinate

BUILDINGSURFACE:DETAILED,
    Block 635e498716218cea_whole Storey 5 Wall 0002,    !- Name
    wall,                     !- Surface Type
    EU_wall_Construction,     !- Construction Name
    635e498716218cea_F5_whole,    !- Zone Name
    ,                         !- Space Name
    Adiabatic,                !- Outside Boundary Condition
    ,                         !- Outside Boundary Condition Object
    NoSun,                    !- Sun Exposure
    NoWind,                   !- Wind Exposure
    autocalculate,            !- View Factor to Ground
    autocalculate,            !- Number of Vertices
    686251.0659984965,        !- Vertex 1 Xcoordinate
    4928778.751119191,        !- Vertex 1 Ycoordinate
    18,                       !- Vertex 1 Zcoordinate
    686251.0659984965,        !- Vertex 2 Xcoordinate
    4928778.751119191,        !- Vertex 2 Ycoordinate
    15,                       !- Vertex 2 Zcoordinate
    686251.0659984965,        !- Vertex 3 Xcoordinate
    4928779.915119192,        !- Vertex 3 Ycoordinate
    15,                       !- Vertex 3 Zcoordinate
    686251.0659984965,        !- Vertex 4 Xcoordinate
    4928779.915119192,        !- Vertex 4 Ycoordinate
    18;                       !- Vertex 4 Zcoordinate

BUILDINGSURFACE:DETAILED,
    Block 635e498716218cea_whole Storey 5 Wall 0003,    !- Name
    wall,                     !- Surface Type
    EU_wall_Construction,     !- Construction Name
    635e498716218cea_F5_whole,    !- Zone Name
    ,                         !- Space Name
    Adiabatic,                !- Outside Boundary Condition
    ,                         !- Outside Boundary Condition Object
    NoSun,                    !- Sun Exposure
    NoWind,                   !- Wind Exposure
    autocalculate,            !- View Factor to Ground
    autocalculate,            !- Number of Vertices
    686251.0659984965,        !- Vertex 1 Xcoordinate
    4928779.915119192,        !- Vertex 1 Ycoordinate
    18,                       !- Vertex 1 Zcoordinate
    686251.0659984965,        !- Vertex 2 Xcoordinate
    4928779.915119192,        !- Vertex 2 Ycoordinate
    15,                       !- Vertex 2 Zcoordinate
    686248.6689984965,        !- Vertex 3 Xcoordinate
    4928780.109119192,        !- Vertex 3 Ycoordinate
    15,                       !- Vertex 3 Zcoordinate
    686248.6689984965,        !- Vertex 4 Xcoordinate
    4928780.109119192,        !- Vertex 4 Ycoordinate
    18;                       !- Vertex 4 Zcoordinate

BUILDINGSURFACE:DETAILED,
    Block 635e498716218cea_whole Storey 5 Wall 0004,    !- Name
    wall,                     !- Surface Type
    EU_wall_Construction,     !- Construction Name
    635e498716218cea_F5_whole,    !- Zone Name
    ,                         !- Space Name
    Adiabatic,                !- Outside Boundary Condition
    ,                         !- Outside Boundary Condition Object
    NoSun,                    !- Sun Exposure
    NoWind,                   !- Wind Exposure
    autocalculate,            !- View Factor to Ground
    autocalculate,            !- Number of Vertices
    686248.6689984965,        !- Vertex 1 Xcoordinate
    4928780.109119192,        !- Vertex 1 Ycoordinate
    18,                       !- Vertex 1 Zcoordinate
    686248.6689984965,        !- Vertex 2 Xcoordinate
    4928780.109119192,        !- Vertex 2 Ycoordinate
    15,                       !- Vertex 2 Zcoordinate
    686245.8879984966,        !- Vertex 3 Xcoordinate
    4928780.322119192,        !- Vertex 3 Ycoordinate
    15,                       !- Vertex 3 Zcoordinate
    686245.8879984966,        !- Vertex 4 Xcoordinate
    4928780.322119192,        !- Vertex 4 Ycoordinate
    18;                       !- Vertex 4 Zcoordinate

BUILDINGSURFACE:DETAILED,
    Block 635e498716218cea_whole Storey 5 Wall 0005,    !- Name
    wall,                     !- Surface Type
    EU_wall_Construction,     !- Construction Name
    635e498716218cea_F5_whole,    !- Zone Name
    ,                         !- Space Name
    Adiabatic,                !- Outside Boundary Condition
    ,                         !- Outside Boundary Condition Object
    NoSun,                    !- Sun Exposure
    NoWind,                   !- Wind Exposure
    autocalculate,            !- View Factor to Ground
    autocalculate,            !- Number of Vertices
    686245.8879984966,        !- Vertex 1 Xcoordinate
    4928780.322119192,        !- Vertex 1 Ycoordinate
    18,                       !- Vertex 1 Zcoordinate
    686245.8879984966,        !- Vertex 2 Xcoordinate
    4928780.322119192,        !- Vertex 2 Ycoordinate
    15,                       !- Vertex 2 Zcoordinate
    686245.6789984965,        !- Vertex 3 Xcoordinate
    4928779.1701191915,       !- Vertex 3 Ycoordinate
    15,                       !- Vertex 3 Zcoordinate
    686245.6789984965,        !- Vertex 4 Xcoordinate
    4928779.1701191915,       !- Vertex 4 Ycoordinate
    18;                       !- Vertex 4 Zcoordinate

BUILDINGSURFACE:DETAILED,
    Block 635e498716218cea_whole Storey 5 Wall 0006,    !- Name
    wall,                     !- Surface Type
    EU_wall_Construction,     !- Construction Name
    635e498716218cea_F5_whole,    !- Zone Name
    ,                         !- Space Name
    outdoors,                 !- Outside Boundary Condition
    ,                         !- Outside Boundary Condition Object
    SunExposed,               !- Sun Exposure
    WindExposed,              !- Wind Exposure
    autocalculate,            !- View Factor to Ground
    autocalculate,            !- Number of Vertices
    686245.6789984965,        !- Vertex 1 Xcoordinate
    4928779.1701191915,       !- Vertex 1 Ycoordinate
    18,                       !- Vertex 1 Zcoordinate
    686245.6789984965,        !- Vertex 2 Xcoordinate
    4928779.1701191915,       !- Vertex 2 Ycoordinate
    15,                       !- Vertex 2 Zcoordinate
    686242.7789984965,        !- Vertex 3 Xcoordinate
    4928769.410119192,        !- Vertex 3 Ycoordinate
    15,                       !- Vertex 3 Zcoordinate
    686242.7789984965,        !- Vertex 4 Xcoordinate
    4928769.410119192,        !- Vertex 4 Ycoordinate
    18;                       !- Vertex 4 Zcoordinate

BUILDINGSURFACE:DETAILED,
    Block 635e498716218cea_whole Storey 5 Wall 0007,    !- Name
    wall,                     !- Surface Type
    EU_wall_Construction,     !- Construction Name
    635e498716218cea_F5_whole,    !- Zone Name
    ,                         !- Space Name
    outdoors,                 !- Outside Boundary Condition
    ,                         !- Outside Boundary Condition Object
    SunExposed,               !- Sun Exposure
    WindExposed,              !- Wind Exposure
    autocalculate,            !- View Factor to Ground
    autocalculate,            !- Number of Vertices
    686242.7789984965,        !- Vertex 1 Xcoordinate
    4928769.410119192,        !- Vertex 1 Ycoordinate
    18,                       !- Vertex 1 Zcoordinate
    686242.7789984965,        !- Vertex 2 Xcoordinate
    4928769.410119192,        !- Vertex 2 Ycoordinate
    15,                       !- Vertex 2 Zcoordinate
    686241.0089984965,        !- Vertex 3 Xcoordinate
    4928763.47011919,         !- Vertex 3 Ycoordinate
    15,                       !- Vertex 3 Zcoordinate
    686241.0089984965,        !- Vertex 4 Xcoordinate
    4928763.47011919,         !- Vertex 4 Ycoordinate
    18;                       !- Vertex 4 Zcoordinate

BUILDINGSURFACE:DETAILED,
    Block 635e498716218cea_whole Storey 5 Wall 0008,    !- Name
    wall,                     !- Surface Type
    EU_wall_Construction,     !- Construction Name
    635e498716218cea_F5_whole,    !- Zone Name
    ,                         !- Space Name
    Adiabatic,                !- Outside Boundary Condition
    ,                         !- Outside Boundary Condition Object
    NoSun,                    !- Sun Exposure
    NoWind,                   !- Wind Exposure
    autocalculate,            !- View Factor to Ground
    autocalculate,            !- Number of Vertices
    686241.0089984965,        !- Vertex 1 Xcoordinate
    4928763.47011919,         !- Vertex 1 Ycoordinate
    18,                       !- Vertex 1 Zcoordinate
    686241.0089984965,        !- Vertex 2 Xcoordinate
    4928763.47011919,         !- Vertex 2 Ycoordinate
    15,                       !- Vertex 2 Zcoordinate
    686241.8689984964,        !- Vertex 3 Xcoordinate
    4928763.301119192,        !- Vertex 3 Ycoordinate
    15,                       !- Vertex 3 Zcoordinate
    686241.8689984964,        !- Vertex 4 Xcoordinate
    4928763.301119192,        !- Vertex 4 Ycoordinate
    18;                       !- Vertex 4 Zcoordinate

BUILDINGSURFACE:DETAILED,
    Block 635e498716218cea_whole Storey 5 Wall 0009,    !- Name
    wall,                     !- Surface Type
    EU_wall_Construction,     !- Construction Name
    635e498716218cea_F5_whole,    !- Zone Name
    ,                         !- Space Name
    Adiabatic,                !- Outside Boundary Condition
    ,                         !- Outside Boundary Condition Object
    NoSun,                    !- Sun Exposure
    NoWind,                   !- Wind Exposure
    autocalculate,            !- View Factor to Ground
    autocalculate,            !- Number of Vertices
    686241.8689984964,        !- Vertex 1 Xcoordinate
    4928763.301119192,        !- Vertex 1 Ycoordinate
    18,                       !- Vertex 1 Zcoordinate
    686241.8689984964,        !- Vertex 2 Xcoordinate
    4928763.301119192,        !- Vertex 2 Ycoordinate
    15,                       !- Vertex 2 Zcoordinate
    686241.3549984966,        !- Vertex 3 Xcoordinate
    4928761.199119192,        !- Vertex 3 Ycoordinate
    15,                       !- Vertex 3 Zcoordinate
    686241.3549984966,        !- Vertex 4 Xcoordinate
    4928761.199119192,        !- Vertex 4 Ycoordinate
    18;                       !- Vertex 4 Zcoordinate

BUILDINGSURFACE:DETAILED,
    Block 635e498716218cea_whole Storey 5 Wall 0010,    !- Name
    wall,                     !- Surface Type
    EU_wall_Construction,     !- Construction Name
    635e498716218cea_F5_whole,    !- Zone Name
    ,                         !- Space Name
    Adiabatic,                !- Outside Boundary Condition
    ,                         !- Outside Boundary Condition Object
    NoSun,                    !- Sun Exposure
    NoWind,                   !- Wind Exposure
    autocalculate,            !- View Factor to Ground
    autocalculate,            !- Number of Vertices
    686241.3549984966,        !- Vertex 1 Xcoordinate
    4928761.199119192,        !- Vertex 1 Ycoordinate
    18,                       !- Vertex 1 Zcoordinate
    686241.3549984966,        !- Vertex 2 Xcoordinate
    4928761.199119192,        !- Vertex 2 Ycoordinate
    15,                       !- Vertex 2 Zcoordinate
    686242.1689984964,        !- Vertex 3 Xcoordinate
    4928760.900119191,        !- Vertex 3 Ycoordinate
    15,                       !- Vertex 3 Zcoordinate
    686242.1689984964,        !- Vertex 4 Xcoordinate
    4928760.900119191,        !- Vertex 4 Ycoordinate
    18;                       !- Vertex 4 Zcoordinate

BUILDINGSURFACE:DETAILED,
    Block 635e498716218cea_whole Storey 5 Wall 0011,    !- Name
    wall,                     !- Surface Type
    EU_wall_Construction,     !- Construction Name
    635e498716218cea_F5_whole,    !- Zone Name
    ,                         !- Space Name
    Adiabatic,                !- Outside Boundary Condition
    ,                         !- Outside Boundary Condition Object
    NoSun,                    !- Sun Exposure
    NoWind,                   !- Wind Exposure
    autocalculate,            !- View Factor to Ground
    autocalculate,            !- Number of Vertices
    686242.1689984964,        !- Vertex 1 Xcoordinate
    4928760.900119191,        !- Vertex 1 Ycoordinate
    18,                       !- Vertex 1 Zcoordinate
    686242.1689984964,        !- Vertex 2 Xcoordinate
    4928760.900119191,        !- Vertex 2 Ycoordinate
    15,                       !- Vertex 2 Zcoordinate
    686245.8189984965,        !- Vertex 3 Xcoordinate
    4928759.850119191,        !- Vertex 3 Ycoordinate
    15,                       !- Vertex 3 Zcoordinate
    686245.8189984965,        !- Vertex 4 Xcoordinate
    4928759.850119191,        !- Vertex 4 Ycoordinate
    18;                       !- Vertex 4 Zcoordinate

BUILDINGSURFACE:DETAILED,
    Block 635e498716218cea_whole Storey 5 Wall 0012,    !- Name
    wall,                     !- Surface Type
    EU_wall_Construction,     !- Construction Name
    635e498716218cea_F5_whole,    !- Zone Name
    ,                         !- Space Name
    Adiabatic,                !- Outside Boundary Condition
    ,                         !- Outside Boundary Condition Object
    NoSun,                    !- Sun Exposure
    NoWind,                   !- Wind Exposure
    autocalculate,            !- View Factor to Ground
    autocalculate,            !- Number of Vertices
    686245.8189984965,        !- Vertex 1 Xcoordinate
    4928759.850119191,        !- Vertex 1 Ycoordinate
    18,                       !- Vertex 1 Zcoordinate
    686245.8189984965,        !- Vertex 2 Xcoordinate
    4928759.850119191,        !- Vertex 2 Ycoordinate
    15,                       !- Vertex 2 Zcoordinate
    686244.5289984965,        !- Vertex 3 Xcoordinate
    4928755.070119192,        !- Vertex 3 Ycoordinate
    15,                       !- Vertex 3 Zcoordinate
    686244.5289984965,        !- Vertex 4 Xcoordinate
    4928755.070119192,        !- Vertex 4 Ycoordinate
    18;                       !- Vertex 4 Zcoordinate

BUILDINGSURFACE:DETAILED,
    Block 635e498716218cea_whole Storey 5 Wall 0013,    !- Name
    wall,                     !- Surface Type
    EU_wall_Construction,     !- Construction Name
    635e498716218cea_F5_whole,    !- Zone Name
    ,                         !- Space Name
    Adiabatic,                !- Outside Boundary Condition
    ,                         !- Outside Boundary Condition Object
    NoSun,                    !- Sun Exposure
    NoWind,                   !- Wind Exposure
    autocalculate,            !- View Factor to Ground
    autocalculate,            !- Number of Vertices
    686244.5289984965,        !- Vertex 1 Xcoordinate
    4928755.070119192,        !- Vertex 1 Ycoordinate
    18,                       !- Vertex 1 Zcoordinate
    686244.5289984965,        !- Vertex 2 Xcoordinate
    4928755.070119192,        !- Vertex 2 Ycoordinate
    15,                       !- Vertex 2 Zcoordinate
    686239.7069984967,        !- Vertex 3 Xcoordinate
    4928738.92011919,         !- Vertex 3 Ycoordinate
    15,                       !- Vertex 3 Zcoordinate
    686239.7069984967,        !- Vertex 4 Xcoordinate
    4928738.92011919,         !- Vertex 4 Ycoordinate
    18;                       !- Vertex 4 Zcoordinate

BUILDINGSURFACE:DETAILED,
    Block 635e498716218cea_whole Storey 5 Wall 0014,    !- Name
    wall,                     !- Surface Type
    EU_wall_Construction,     !- Construction Name
    635e498716218cea_F5_whole,    !- Zone Name
    ,                         !- Space Name
    outdoors,                 !- Outside Boundary Condition
    ,                         !- Outside Boundary Condition Object
    SunExposed,               !- Sun Exposure
    WindExposed,              !- Wind Exposure
    autocalculate,            !- View Factor to Ground
    autocalculate,            !- Number of Vertices
    686239.7069984967,        !- Vertex 1 Xcoordinate
    4928738.92011919,         !- Vertex 1 Ycoordinate
    18,                       !- Vertex 1 Zcoordinate
    686239.7069984967,        !- Vertex 2 Xcoordinate
    4928738.92011919,         !- Vertex 2 Ycoordinate
    15,                       !- Vertex 2 Zcoordinate
    686251.9989984964,        !- Vertex 3 Xcoordinate
    4928735.021119189,        !- Vertex 3 Ycoordinate
    15,                       !- Vertex 3 Zcoordinate
    686251.9989984964,        !- Vertex 4 Xcoordinate
    4928735.021119189,        !- Vertex 4 Ycoordinate
    18;                       !- Vertex 4 Zcoordinate

BUILDINGSURFACE:DETAILED,
    Block 635e498716218cea_whole Storey 5 Wall 0015,    !- Name
    wall,                     !- Surface Type
    EU_wall_Construction,     !- Construction Name
    635e498716218cea_F5_whole,    !- Zone Name
    ,                         !- Space Name
    Adiabatic,                !- Outside Boundary Condition
    ,                         !- Outside Boundary Condition Object
    NoSun,                    !- Sun Exposure
    NoWind,                   !- Wind Exposure
    autocalculate,            !- View Factor to Ground
    autocalculate,            !- Number of Vertices
    686251.9989984964,        !- Vertex 1 Xcoordinate
    4928735.021119189,        !- Vertex 1 Ycoordinate
    18,                       !- Vertex 1 Zcoordinate
    686251.9989984964,        !- Vertex 2 Xcoordinate
    4928735.021119189,        !- Vertex 2 Ycoordinate
    15,                       !- Vertex 2 Zcoordinate
    686255.1289984966,        !- Vertex 3 Xcoordinate
    4928746.900119191,        !- Vertex 3 Ycoordinate
    15,                       !- Vertex 3 Zcoordinate
    686255.1289984966,        !- Vertex 4 Xcoordinate
    4928746.900119191,        !- Vertex 4 Ycoordinate
    18;                       !- Vertex 4 Zcoordinate

BUILDINGSURFACE:DETAILED,
    Block 635e498716218cea_whole Storey 5 Wall 0016,    !- Name
    wall,                     !- Surface Type
    EU_wall_Construction,     !- Construction Name
    635e498716218cea_F5_whole,    !- Zone Name
    ,                         !- Space Name
    Adiabatic,                !- Outside Boundary Condition
    ,                         !- Outside Boundary Condition Object
    NoSun,                    !- Sun Exposure
    NoWind,                   !- Wind Exposure
    autocalculate,            !- View Factor to Ground
    autocalculate,            !- Number of Vertices
    686255.1289984966,        !- Vertex 1 Xcoordinate
    4928746.900119191,        !- Vertex 1 Ycoordinate
    18,                       !- Vertex 1 Zcoordinate
    686255.1289984966,        !- Vertex 2 Xcoordinate
    4928746.900119191,        !- Vertex 2 Ycoordinate
    15,                       !- Vertex 2 Zcoordinate
    686259.1089984967,        !- Vertex 3 Xcoordinate
    4928762.06011919,         !- Vertex 3 Ycoordinate
    15,                       !- Vertex 3 Zcoordinate
    686259.1089984967,        !- Vertex 4 Xcoordinate
    4928762.06011919,         !- Vertex 4 Ycoordinate
    18;                       !- Vertex 4 Zcoordinate

BUILDINGSURFACE:DETAILED,
    Block 635e498716218cea_whole Storey 5 Wall 0017,    !- Name
    wall,                     !- Surface Type
    EU_wall_Construction,     !- Construction Name
    635e498716218cea_F5_whole,    !- Zone Name
    ,                         !- Space Name
    Adiabatic,                !- Outside Boundary Condition
    ,                         !- Outside Boundary Condition Object
    NoSun,                    !- Sun Exposure
    NoWind,                   !- Wind Exposure
    autocalculate,            !- View Factor to Ground
    autocalculate,            !- Number of Vertices
    686259.1089984967,        !- Vertex 1 Xcoordinate
    4928762.06011919,         !- Vertex 1 Ycoordinate
    18,                       !- Vertex 1 Zcoordinate
    686259.1089984967,        !- Vertex 2 Xcoordinate
    4928762.06011919,         !- Vertex 2 Ycoordinate
    15,                       !- Vertex 2 Zcoordinate
    686260.4189984964,        !- Vertex 3 Xcoordinate
    4928766.480119192,        !- Vertex 3 Ycoordinate
    15,                       !- Vertex 3 Zcoordinate
    686260.4189984964,        !- Vertex 4 Xcoordinate
    4928766.480119192,        !- Vertex 4 Ycoordinate
    18;                       !- Vertex 4 Zcoordinate

BUILDINGSURFACE:DETAILED,
    Block 635e498716218cea_whole Storey 5 Wall 0018,    !- Name
    wall,                     !- Surface Type
    EU_wall_Construction,     !- Construction Name
    635e498716218cea_F5_whole,    !- Zone Name
    ,                         !- Space Name
    Adiabatic,                !- Outside Boundary Condition
    ,                         !- Outside Boundary Condition Object
    NoSun,                    !- Sun Exposure
    NoWind,                   !- Wind Exposure
    autocalculate,            !- View Factor to Ground
    autocalculate,            !- Number of Vertices
    686260.4189984964,        !- Vertex 1 Xcoordinate
    4928766.480119192,        !- Vertex 1 Ycoordinate
    18,                       !- Vertex 1 Zcoordinate
    686260.4189984964,        !- Vertex 2 Xcoordinate
    4928766.480119192,        !- Vertex 2 Ycoordinate
    15,                       !- Vertex 2 Zcoordinate
    686260.8289984964,        !- Vertex 3 Xcoordinate
    4928768.230119191,        !- Vertex 3 Ycoordinate
    15,                       !- Vertex 3 Zcoordinate
    686260.8289984964,        !- Vertex 4 Xcoordinate
    4928768.230119191,        !- Vertex 4 Ycoordinate
    18;                       !- Vertex 4 Zcoordinate

BUILDINGSURFACE:DETAILED,
    Block 635e498716218cea_whole Storey 5 Wall 0019,    !- Name
    wall,                     !- Surface Type
    EU_wall_Construction,     !- Construction Name
    635e498716218cea_F5_whole,    !- Zone Name
    ,                         !- Space Name
    Adiabatic,                !- Outside Boundary Condition
    ,                         !- Outside Boundary Condition Object
    NoSun,                    !- Sun Exposure
    NoWind,                   !- Wind Exposure
    autocalculate,            !- View Factor to Ground
    autocalculate,            !- Number of Vertices
    686260.8289984964,        !- Vertex 1 Xcoordinate
    4928768.230119191,        !- Vertex 1 Ycoordinate
    18,                       !- Vertex 1 Zcoordinate
    686260.8289984964,        !- Vertex 2 Xcoordinate
    4928768.230119191,        !- Vertex 2 Ycoordinate
    15,                       !- Vertex 2 Zcoordinate
    686261.2779984965,        !- Vertex 3 Xcoordinate
    4928769.821119191,        !- Vertex 3 Ycoordinate
    15,                       !- Vertex 3 Zcoordinate
    686261.2779984965,        !- Vertex 4 Xcoordinate
    4928769.821119191,        !- Vertex 4 Ycoordinate
    18;                       !- Vertex 4 Zcoordinate

BUILDINGSURFACE:DETAILED,
    Block 635e498716218cea_whole Storey 5 Wall 0020,    !- Name
    wall,                     !- Surface Type
    EU_wall_Construction,     !- Construction Name
    635e498716218cea_F5_whole,    !- Zone Name
    ,                         !- Space Name
    Adiabatic,                !- Outside Boundary Condition
    ,                         !- Outside Boundary Condition Object
    NoSun,                    !- Sun Exposure
    NoWind,                   !- Wind Exposure
    autocalculate,            !- View Factor to Ground
    autocalculate,            !- Number of Vertices
    686261.2779984965,        !- Vertex 1 Xcoordinate
    4928769.821119191,        !- Vertex 1 Ycoordinate
    18,                       !- Vertex 1 Zcoordinate
    686261.2779984965,        !- Vertex 2 Xcoordinate
    4928769.821119191,        !- Vertex 2 Ycoordinate
    15,                       !- Vertex 2 Zcoordinate
    686259.6759984964,        !- Vertex 3 Xcoordinate
    4928770.31611919,         !- Vertex 3 Ycoordinate
    15,                       !- Vertex 3 Zcoordinate
    686259.6759984964,        !- Vertex 4 Xcoordinate
    4928770.31611919,         !- Vertex 4 Ycoordinate
    18;                       !- Vertex 4 Zcoordinate

BUILDINGSURFACE:DETAILED,
    Block 635e498716218cea_whole Storey 5 Wall 0021,    !- Name
    wall,                     !- Surface Type
    EU_wall_Construction,     !- Construction Name
    635e498716218cea_F5_whole,    !- Zone Name
    ,                         !- Space Name
    Adiabatic,                !- Outside Boundary Condition
    ,                         !- Outside Boundary Condition Object
    NoSun,                    !- Sun Exposure
    NoWind,                   !- Wind Exposure
    autocalculate,            !- View Factor to Ground
    autocalculate,            !- Number of Vertices
    686259.6759984964,        !- Vertex 1 Xcoordinate
    4928770.31611919,         !- Vertex 1 Ycoordinate
    18,                       !- Vertex 1 Zcoordinate
    686259.6759984964,        !- Vertex 2 Xcoordinate
    4928770.31611919,         !- Vertex 2 Ycoordinate
    15,                       !- Vertex 2 Zcoordinate
    686259.2359984965,        !- Vertex 3 Xcoordinate
    4928768.65011919,         !- Vertex 3 Ycoordinate
    15,                       !- Vertex 3 Zcoordinate
    686259.2359984965,        !- Vertex 4 Xcoordinate
    4928768.65011919,         !- Vertex 4 Ycoordinate
    18;                       !- Vertex 4 Zcoordinate

BUILDINGSURFACE:DETAILED,
    Block 635e498716218cea_whole Storey 5 Wall 0022,    !- Name
    wall,                     !- Surface Type
    EU_wall_Construction,     !- Construction Name
    635e498716218cea_F5_whole,    !- Zone Name
    ,                         !- Space Name
    Adiabatic,                !- Outside Boundary Condition
    ,                         !- Outside Boundary Condition Object
    NoSun,                    !- Sun Exposure
    NoWind,                   !- Wind Exposure
    autocalculate,            !- View Factor to Ground
    autocalculate,            !- Number of Vertices
    686259.2359984965,        !- Vertex 1 Xcoordinate
    4928768.65011919,         !- Vertex 1 Ycoordinate
    18,                       !- Vertex 1 Zcoordinate
    686259.2359984965,        !- Vertex 2 Xcoordinate
    4928768.65011919,         !- Vertex 2 Ycoordinate
    15,                       !- Vertex 2 Zcoordinate
    686254.5689984965,        !- Vertex 3 Xcoordinate
    4928769.880119192,        !- Vertex 3 Ycoordinate
    15,                       !- Vertex 3 Zcoordinate
    686254.5689984965,        !- Vertex 4 Xcoordinate
    4928769.880119192,        !- Vertex 4 Ycoordinate
    18;                       !- Vertex 4 Zcoordinate

BUILDINGSURFACE:DETAILED,
    Block 635e498716218cea_whole Storey 5 Wall 0023,    !- Name
    wall,                     !- Surface Type
    EU_wall_Construction,     !- Construction Name
    635e498716218cea_F5_whole,    !- Zone Name
    ,                         !- Space Name
    outdoors,                 !- Outside Boundary Condition
    ,                         !- Outside Boundary Condition Object
    SunExposed,               !- Sun Exposure
    WindExposed,              !- Wind Exposure
    autocalculate,            !- View Factor to Ground
    autocalculate,            !- Number of Vertices
    686254.5689984965,        !- Vertex 1 Xcoordinate
    4928769.880119192,        !- Vertex 1 Ycoordinate
    18,                       !- Vertex 1 Zcoordinate
    686254.5689984965,        !- Vertex 2 Xcoordinate
    4928769.880119192,        !- Vertex 2 Ycoordinate
    15,                       !- Vertex 2 Zcoordinate
    686253.4889984966,        !- Vertex 3 Xcoordinate
    4928765.930119191,        !- Vertex 3 Ycoordinate
    15,                       !- Vertex 3 Zcoordinate
    686253.4889984966,        !- Vertex 4 Xcoordinate
    4928765.930119191,        !- Vertex 4 Ycoordinate
    18;                       !- Vertex 4 Zcoordinate

BUILDINGSURFACE:DETAILED,
    Block 635e498716218cea_whole Storey 5 Wall 0024,    !- Name
    wall,                     !- Surface Type
    EU_wall_Construction,     !- Construction Name
    635e498716218cea_F5_whole,    !- Zone Name
    ,                         !- Space Name
    outdoors,                 !- Outside Boundary Condition
    ,                         !- Outside Boundary Condition Object
    SunExposed,               !- Sun Exposure
    WindExposed,              !- Wind Exposure
    autocalculate,            !- View Factor to Ground
    autocalculate,            !- Number of Vertices
    686253.4889984966,        !- Vertex 1 Xcoordinate
    4928765.930119191,        !- Vertex 1 Ycoordinate
    18,                       !- Vertex 1 Zcoordinate
    686253.4889984966,        !- Vertex 2 Xcoordinate
    4928765.930119191,        !- Vertex 2 Ycoordinate
    15,                       !- Vertex 2 Zcoordinate
    686245.8589984964,        !- Vertex 3 Xcoordinate
    4928767.950119193,        !- Vertex 3 Ycoordinate
    15,                       !- Vertex 3 Zcoordinate
    686245.8589984964,        !- Vertex 4 Xcoordinate
    4928767.950119193,        !- Vertex 4 Ycoordinate
    18;                       !- Vertex 4 Zcoordinate

BUILDINGSURFACE:DETAILED,
    Block 635e498716218cea_whole Storey 5 Wall 0025,    !- Name
    wall,                     !- Surface Type
    EU_wall_Construction,     !- Construction Name
    635e498716218cea_F5_whole,    !- Zone Name
    ,                         !- Space Name
    outdoors,                 !- Outside Boundary Condition
    ,                         !- Outside Boundary Condition Object
    SunExposed,               !- Sun Exposure
    WindExposed,              !- Wind Exposure
    autocalculate,            !- View Factor to Ground
    autocalculate,            !- Number of Vertices
    686245.8589984964,        !- Vertex 1 Xcoordinate
    4928767.950119193,        !- Vertex 1 Ycoordinate
    18,                       !- Vertex 1 Zcoordinate
    686245.8589984964,        !- Vertex 2 Xcoordinate
    4928767.950119193,        !- Vertex 2 Ycoordinate
    15,                       !- Vertex 2 Zcoordinate
    686246.0389984964,        !- Vertex 3 Xcoordinate
    4928768.670119191,        !- Vertex 3 Ycoordinate
    15,                       !- Vertex 3 Zcoordinate
    686246.0389984964,        !- Vertex 4 Xcoordinate
    4928768.670119191,        !- Vertex 4 Ycoordinate
    18;                       !- Vertex 4 Zcoordinate

BUILDINGSURFACE:DETAILED,
    Block 635e498716218cea_whole Storey 5 Wall 0026,    !- Name
    wall,                     !- Surface Type
    EU_wall_Construction,     !- Construction Name
    635e498716218cea_F5_whole,    !- Zone Name
    ,                         !- Space Name
    outdoors,                 !- Outside Boundary Condition
    ,                         !- Outside Boundary Condition Object
    SunExposed,               !- Sun Exposure
    WindExposed,              !- Wind Exposure
    autocalculate,            !- View Factor to Ground
    autocalculate,            !- Number of Vertices
    686246.0389984964,        !- Vertex 1 Xcoordinate
    4928768.670119191,        !- Vertex 1 Ycoordinate
    18,                       !- Vertex 1 Zcoordinate
    686246.0389984964,        !- Vertex 2 Xcoordinate
    4928768.670119191,        !- Vertex 2 Ycoordinate
    15,                       !- Vertex 2 Zcoordinate
    686247.4389984965,        !- Vertex 3 Xcoordinate
    4928774.230119192,        !- Vertex 3 Ycoordinate
    15,                       !- Vertex 3 Zcoordinate
    686247.4389984965,        !- Vertex 4 Xcoordinate
    4928774.230119192,        !- Vertex 4 Ycoordinate
    18;                       !- Vertex 4 Zcoordinate

BUILDINGSURFACE:DETAILED,
    Block 635e498716218cea_whole Storey 5 Wall 0027,    !- Name
    wall,                     !- Surface Type
    EU_wall_Construction,     !- Construction Name
    635e498716218cea_F5_whole,    !- Zone Name
    ,                         !- Space Name
    outdoors,                 !- Outside Boundary Condition
    ,                         !- Outside Boundary Condition Object
    SunExposed,               !- Sun Exposure
    WindExposed,              !- Wind Exposure
    autocalculate,            !- View Factor to Ground
    autocalculate,            !- Number of Vertices
    686247.4389984965,        !- Vertex 1 Xcoordinate
    4928774.230119192,        !- Vertex 1 Ycoordinate
    18,                       !- Vertex 1 Zcoordinate
    686247.4389984965,        !- Vertex 2 Xcoordinate
    4928774.230119192,        !- Vertex 2 Ycoordinate
    15,                       !- Vertex 2 Zcoordinate
    686255.1889984966,        !- Vertex 3 Xcoordinate
    4928772.130119191,        !- Vertex 3 Ycoordinate
    15,                       !- Vertex 3 Zcoordinate
    686255.1889984966,        !- Vertex 4 Xcoordinate
    4928772.130119191,        !- Vertex 4 Ycoordinate
    18;                       !- Vertex 4 Zcoordinate

BUILDINGSURFACE:DETAILED,
    Block 635e498716218cea_whole Storey 5 Wall 0028,    !- Name
    wall,                     !- Surface Type
    EU_wall_Construction,     !- Construction Name
    635e498716218cea_F5_whole,    !- Zone Name
    ,                         !- Space Name
    Adiabatic,                !- Outside Boundary Condition
    ,                         !- Outside Boundary Condition Object
    NoSun,                    !- Sun Exposure
    NoWind,                   !- Wind Exposure
    autocalculate,            !- View Factor to Ground
    autocalculate,            !- Number of Vertices
    686255.1889984966,        !- Vertex 1 Xcoordinate
    4928772.130119191,        !- Vertex 1 Ycoordinate
    18,                       !- Vertex 1 Zcoordinate
    686255.1889984966,        !- Vertex 2 Xcoordinate
    4928772.130119191,        !- Vertex 2 Ycoordinate
    15,                       !- Vertex 2 Zcoordinate
    686256.7819984966,        !- Vertex 3 Xcoordinate
    4928778.018119191,        !- Vertex 3 Ycoordinate
    15,                       !- Vertex 3 Zcoordinate
    686256.7819984966,        !- Vertex 4 Xcoordinate
    4928778.018119191,        !- Vertex 4 Ycoordinate
    18;                       !- Vertex 4 Zcoordinate

BUILDINGSURFACE:DETAILED,
    Block 635e498716218cea_whole Storey 5 Roof 0001,    !- Name
    roof,                     !- Surface Type
    EU_roof_Construction,     !- Construction Name
    635e498716218cea_F5_whole,    !- Zone Name
    ,                         !- Space Name
    outdoors,                 !- Outside Boundary Condition
    ,                         !- Outside Boundary Condition Object
    SunExposed,               !- Sun Exposure
    WindExposed,              !- Wind Exposure
    autocalculate,            !- View Factor to Ground
    autocalculate,            !- Number of Vertices
    686251.9989984964,        !- Vertex 1 Xcoordinate
    4928735.021119189,        !- Vertex 1 Ycoordinate
    18,                       !- Vertex 1 Zcoordinate
    686255.1289984966,        !- Vertex 2 Xcoordinate
    4928746.900119191,        !- Vertex 2 Ycoordinate
    18,                       !- Vertex 2 Zcoordinate
    686259.1089984967,        !- Vertex 3 Xcoordinate
    4928762.06011919,         !- Vertex 3 Ycoordinate
    18,                       !- Vertex 3 Zcoordinate
    686260.4189984964,        !- Vertex 4 Xcoordinate
    4928766.480119192,        !- Vertex 4 Ycoordinate
    18,                       !- Vertex 4 Zcoordinate
    686260.8289984964,        !- Vertex 5 Xcoordinate
    4928768.230119191,        !- Vertex 5 Ycoordinate
    18,                       !- Vertex 5 Zcoordinate
    686261.2779984965,        !- Vertex 6 Xcoordinate
    4928769.821119191,        !- Vertex 6 Ycoordinate
    18,                       !- Vertex 6 Zcoordinate
    686259.6759984964,        !- Vertex 7 Xcoordinate
    4928770.31611919,         !- Vertex 7 Ycoordinate
    18,                       !- Vertex 7 Zcoordinate
    686259.2359984965,        !- Vertex 8 Xcoordinate
    4928768.65011919,         !- Vertex 8 Ycoordinate
    18,                       !- Vertex 8 Zcoordinate
    686254.5689984965,        !- Vertex 9 Xcoordinate
    4928769.880119192,        !- Vertex 9 Ycoordinate
    18,                       !- Vertex 9 Zcoordinate
    686253.4889984966,        !- Vertex 10 Xcoordinate
    4928765.930119191,        !- Vertex 10 Ycoordinate
    18,                       !- Vertex 10 Zcoordinate
    686245.8589984964,        !- Vertex 11 Xcoordinate
    4928767.950119193,        !- Vertex 11 Ycoordinate
    18,                       !- Vertex 11 Zcoordinate
    686246.0389984964,        !- Vertex 12 Xcoordinate
    4928768.670119191,        !- Vertex 12 Ycoordinate
    18,                       !- Vertex 12 Zcoordinate
    686247.4389984965,        !- Vertex 13 Xcoordinate
    4928774.230119192,        !- Vertex 13 Ycoordinate
    18,                       !- Vertex 13 Zcoordinate
    686255.1889984966,        !- Vertex 14 Xcoordinate
    4928772.130119191,        !- Vertex 14 Ycoordinate
    18,                       !- Vertex 14 Zcoordinate
    686256.7819984966,        !- Vertex 15 Xcoordinate
    4928778.018119191,        !- Vertex 15 Ycoordinate
    18,                       !- Vertex 15 Zcoordinate
    686251.0659984965,        !- Vertex 16 Xcoordinate
    4928778.751119191,        !- Vertex 16 Ycoordinate
    18,                       !- Vertex 16 Zcoordinate
    686251.0659984965,        !- Vertex 17 Xcoordinate
    4928779.915119192,        !- Vertex 17 Ycoordinate
    18,                       !- Vertex 17 Zcoordinate
    686248.6689984965,        !- Vertex 18 Xcoordinate
    4928780.109119192,        !- Vertex 18 Ycoordinate
    18,                       !- Vertex 18 Zcoordinate
    686245.8879984966,        !- Vertex 19 Xcoordinate
    4928780.322119192,        !- Vertex 19 Ycoordinate
    18,                       !- Vertex 19 Zcoordinate
    686245.6789984965,        !- Vertex 20 Xcoordinate
    4928779.1701191915,       !- Vertex 20 Ycoordinate
    18,                       !- Vertex 20 Zcoordinate
    686242.7789984965,        !- Vertex 21 Xcoordinate
    4928769.410119192,        !- Vertex 21 Ycoordinate
    18,                       !- Vertex 21 Zcoordinate
    686241.0089984965,        !- Vertex 22 Xcoordinate
    4928763.47011919,         !- Vertex 22 Ycoordinate
    18,                       !- Vertex 22 Zcoordinate
    686241.8689984964,        !- Vertex 23 Xcoordinate
    4928763.301119192,        !- Vertex 23 Ycoordinate
    18,                       !- Vertex 23 Zcoordinate
    686241.3549984966,        !- Vertex 24 Xcoordinate
    4928761.199119192,        !- Vertex 24 Ycoordinate
    18,                       !- Vertex 24 Zcoordinate
    686242.1689984964,        !- Vertex 25 Xcoordinate
    4928760.900119191,        !- Vertex 25 Ycoordinate
    18,                       !- Vertex 25 Zcoordinate
    686245.8189984965,        !- Vertex 26 Xcoordinate
    4928759.850119191,        !- Vertex 26 Ycoordinate
    18,                       !- Vertex 26 Zcoordinate
    686244.5289984965,        !- Vertex 27 Xcoordinate
    4928755.070119192,        !- Vertex 27 Ycoordinate
    18,                       !- Vertex 27 Zcoordinate
    686239.7069984967,        !- Vertex 28 Xcoordinate
    4928738.92011919,         !- Vertex 28 Ycoordinate
    18;                       !- Vertex 28 Zcoordinate

BUILDINGSURFACE:DETAILED,
    Block 635e498716218cea_whole Storey 0 Ceiling 0001_1,    !- Name
    ceiling,                  !- Surface Type
    EU_floor_Construction,    !- Construction Name
    635e498716218cea_F0_whole,    !- Zone Name
    ,                         !- Space Name
    Surface,                  !- Outside Boundary Condition
    Block 635e498716218cea_whole Storey 1 Floor 0001_1,    !- Outside Boundary Condition Object
    NoSun,                    !- Sun Exposure
    NoWind,                   !- Wind Exposure
    autocalculate,            !- View Factor to Ground
    autocalculate,            !- Number of Vertices
    686251.9989984962,        !- Vertex 1 Xcoordinate
    4928735.021119189,        !- Vertex 1 Ycoordinate
    3,                        !- Vertex 1 Zcoordinate
    686255.1289984966,        !- Vertex 2 Xcoordinate
    4928746.900119191,        !- Vertex 2 Ycoordinate
    3,                        !- Vertex 2 Zcoordinate
    686259.1089984966,        !- Vertex 3 Xcoordinate
    4928762.06011919,         !- Vertex 3 Ycoordinate
    3,                        !- Vertex 3 Zcoordinate
    686260.4189984961,        !- Vertex 4 Xcoordinate
    4928766.480119192,        !- Vertex 4 Ycoordinate
    3,                        !- Vertex 4 Zcoordinate
    686260.8289984963,        !- Vertex 5 Xcoordinate
    4928768.230119191,        !- Vertex 5 Ycoordinate
    3,                        !- Vertex 5 Zcoordinate
    686261.2779984963,        !- Vertex 6 Xcoordinate
    4928769.821119191,        !- Vertex 6 Ycoordinate
    3,                        !- Vertex 6 Zcoordinate
    686259.6759984964,        !- Vertex 7 Xcoordinate
    4928770.31611919,         !- Vertex 7 Ycoordinate
    3,                        !- Vertex 7 Zcoordinate
    686259.2359984964,        !- Vertex 8 Xcoordinate
    4928768.65011919,         !- Vertex 8 Ycoordinate
    3,                        !- Vertex 8 Zcoordinate
    686254.5689984965,        !- Vertex 9 Xcoordinate
    4928769.880119192,        !- Vertex 9 Ycoordinate
    3,                        !- Vertex 9 Zcoordinate
    686253.4889984964,        !- Vertex 10 Xcoordinate
    4928765.930119191,        !- Vertex 10 Ycoordinate
    3,                        !- Vertex 10 Zcoordinate
    686245.8589984961,        !- Vertex 11 Xcoordinate
    4928767.950119193,        !- Vertex 11 Ycoordinate
    3,                        !- Vertex 11 Zcoordinate
    686246.0389984963,        !- Vertex 12 Xcoordinate
    4928768.670119191,        !- Vertex 12 Ycoordinate
    3,                        !- Vertex 12 Zcoordinate
    686247.4389984962,        !- Vertex 13 Xcoordinate
    4928774.230119192,        !- Vertex 13 Ycoordinate
    3,                        !- Vertex 13 Zcoordinate
    686255.1889984966,        !- Vertex 14 Xcoordinate
    4928772.130119191,        !- Vertex 14 Ycoordinate
    3,                        !- Vertex 14 Zcoordinate
    686256.7819984965,        !- Vertex 15 Xcoordinate
    4928778.018119191,        !- Vertex 15 Ycoordinate
    3,                        !- Vertex 15 Zcoordinate
    686251.0659984965,        !- Vertex 16 Xcoordinate
    4928778.751119191,        !- Vertex 16 Ycoordinate
    3,                        !- Vertex 16 Zcoordinate
    686251.0659984965,        !- Vertex 17 Xcoordinate
    4928779.915119192,        !- Vertex 17 Ycoordinate
    3,                        !- Vertex 17 Zcoordinate
    686248.6689984961,        !- Vertex 18 Xcoordinate
    4928780.109119192,        !- Vertex 18 Ycoordinate
    3,                        !- Vertex 18 Zcoordinate
    686245.8879984966,        !- Vertex 19 Xcoordinate
    4928780.322119192,        !- Vertex 19 Ycoordinate
    3,                        !- Vertex 19 Zcoordinate
    686245.6789984964,        !- Vertex 20 Xcoordinate
    4928779.1701191915,       !- Vertex 20 Ycoordinate
    3,                        !- Vertex 20 Zcoordinate
    686242.7789984965,        !- Vertex 21 Xcoordinate
    4928769.410119192,        !- Vertex 21 Ycoordinate
    3,                        !- Vertex 21 Zcoordinate
    686241.0089984965,        !- Vertex 22 Xcoordinate
    4928763.47011919,         !- Vertex 22 Ycoordinate
    3,                        !- Vertex 22 Zcoordinate
    686241.8689984963,        !- Vertex 23 Xcoordinate
    4928763.301119192,        !- Vertex 23 Ycoordinate
    3,                        !- Vertex 23 Zcoordinate
    686241.3549984964,        !- Vertex 24 Xcoordinate
    4928761.199119192,        !- Vertex 24 Ycoordinate
    3,                        !- Vertex 24 Zcoordinate
    686242.1689984961,        !- Vertex 25 Xcoordinate
    4928760.900119191,        !- Vertex 25 Ycoordinate
    3,                        !- Vertex 25 Zcoordinate
    686245.8189984965,        !- Vertex 26 Xcoordinate
    4928759.850119191,        !- Vertex 26 Ycoordinate
    3,                        !- Vertex 26 Zcoordinate
    686244.5289984965,        !- Vertex 27 Xcoordinate
    4928755.070119192,        !- Vertex 27 Ycoordinate
    3,                        !- Vertex 27 Zcoordinate
    686239.7069984963,        !- Vertex 28 Xcoordinate
    4928738.92011919,         !- Vertex 28 Ycoordinate
    3;                        !- Vertex 28 Zcoordinate

BUILDINGSURFACE:DETAILED,
    Block 635e498716218cea_whole Storey 1 Floor 0001_1,    !- Name
    floor,                    !- Surface Type
    EU_floor_Construction,    !- Construction Name
    635e498716218cea_F1_whole,    !- Zone Name
    ,                         !- Space Name
    Surface,                  !- Outside Boundary Condition
    Block 635e498716218cea_whole Storey 0 Ceiling 0001_1,    !- Outside Boundary Condition Object
    NoSun,                    !- Sun Exposure
    NoWind,                   !- Wind Exposure
    autocalculate,            !- View Factor to Ground
    autocalculate,            !- Number of Vertices
    686256.7819984965,        !- Vertex 1 Xcoordinate
    4928778.018119191,        !- Vertex 1 Ycoordinate
    3,                        !- Vertex 1 Zcoordinate
    686255.1889984966,        !- Vertex 2 Xcoordinate
    4928772.130119191,        !- Vertex 2 Ycoordinate
    3,                        !- Vertex 2 Zcoordinate
    686247.4389984962,        !- Vertex 3 Xcoordinate
    4928774.230119192,        !- Vertex 3 Ycoordinate
    3,                        !- Vertex 3 Zcoordinate
    686246.0389984963,        !- Vertex 4 Xcoordinate
    4928768.670119191,        !- Vertex 4 Ycoordinate
    3,                        !- Vertex 4 Zcoordinate
    686245.8589984961,        !- Vertex 5 Xcoordinate
    4928767.950119193,        !- Vertex 5 Ycoordinate
    3,                        !- Vertex 5 Zcoordinate
    686253.4889984964,        !- Vertex 6 Xcoordinate
    4928765.930119191,        !- Vertex 6 Ycoordinate
    3,                        !- Vertex 6 Zcoordinate
    686254.5689984965,        !- Vertex 7 Xcoordinate
    4928769.880119192,        !- Vertex 7 Ycoordinate
    3,                        !- Vertex 7 Zcoordinate
    686259.2359984964,        !- Vertex 8 Xcoordinate
    4928768.65011919,         !- Vertex 8 Ycoordinate
    3,                        !- Vertex 8 Zcoordinate
    686259.6759984964,        !- Vertex 9 Xcoordinate
    4928770.31611919,         !- Vertex 9 Ycoordinate
    3,                        !- Vertex 9 Zcoordinate
    686261.2779984963,        !- Vertex 10 Xcoordinate
    4928769.821119191,        !- Vertex 10 Ycoordinate
    3,                        !- Vertex 10 Zcoordinate
    686260.8289984963,        !- Vertex 11 Xcoordinate
    4928768.230119191,        !- Vertex 11 Ycoordinate
    3,                        !- Vertex 11 Zcoordinate
    686260.4189984961,        !- Vertex 12 Xcoordinate
    4928766.480119192,        !- Vertex 12 Ycoordinate
    3,                        !- Vertex 12 Zcoordinate
    686259.1089984966,        !- Vertex 13 Xcoordinate
    4928762.06011919,         !- Vertex 13 Ycoordinate
    3,                        !- Vertex 13 Zcoordinate
    686255.1289984966,        !- Vertex 14 Xcoordinate
    4928746.900119191,        !- Vertex 14 Ycoordinate
    3,                        !- Vertex 14 Zcoordinate
    686251.9989984962,        !- Vertex 15 Xcoordinate
    4928735.021119189,        !- Vertex 15 Ycoordinate
    3,                        !- Vertex 15 Zcoordinate
    686239.7069984963,        !- Vertex 16 Xcoordinate
    4928738.92011919,         !- Vertex 16 Ycoordinate
    3,                        !- Vertex 16 Zcoordinate
    686244.5289984965,        !- Vertex 17 Xcoordinate
    4928755.070119192,        !- Vertex 17 Ycoordinate
    3,                        !- Vertex 17 Zcoordinate
    686245.8189984965,        !- Vertex 18 Xcoordinate
    4928759.850119191,        !- Vertex 18 Ycoordinate
    3,                        !- Vertex 18 Zcoordinate
    686242.1689984961,        !- Vertex 19 Xcoordinate
    4928760.900119191,        !- Vertex 19 Ycoordinate
    3,                        !- Vertex 19 Zcoordinate
    686241.3549984964,        !- Vertex 20 Xcoordinate
    4928761.199119192,        !- Vertex 20 Ycoordinate
    3,                        !- Vertex 20 Zcoordinate
    686241.8689984963,        !- Vertex 21 Xcoordinate
    4928763.301119192,        !- Vertex 21 Ycoordinate
    3,                        !- Vertex 21 Zcoordinate
    686241.0089984965,        !- Vertex 22 Xcoordinate
    4928763.47011919,         !- Vertex 22 Ycoordinate
    3,                        !- Vertex 22 Zcoordinate
    686242.7789984965,        !- Vertex 23 Xcoordinate
    4928769.410119192,        !- Vertex 23 Ycoordinate
    3,                        !- Vertex 23 Zcoordinate
    686245.6789984964,        !- Vertex 24 Xcoordinate
    4928779.1701191915,       !- Vertex 24 Ycoordinate
    3,                        !- Vertex 24 Zcoordinate
    686245.8879984966,        !- Vertex 25 Xcoordinate
    4928780.322119192,        !- Vertex 25 Ycoordinate
    3,                        !- Vertex 25 Zcoordinate
    686248.6689984961,        !- Vertex 26 Xcoordinate
    4928780.109119192,        !- Vertex 26 Ycoordinate
    3,                        !- Vertex 26 Zcoordinate
    686251.0659984965,        !- Vertex 27 Xcoordinate
    4928779.915119192,        !- Vertex 27 Ycoordinate
    3,                        !- Vertex 27 Zcoordinate
    686251.0659984965,        !- Vertex 28 Xcoordinate
    4928778.751119191,        !- Vertex 28 Ycoordinate
    3;                        !- Vertex 28 Zcoordinate

BUILDINGSURFACE:DETAILED,
    Block 635e498716218cea_whole Storey 1 Ceiling 0001_1,    !- Name
    ceiling,                  !- Surface Type
    EU_floor_Construction,    !- Construction Name
    635e498716218cea_F1_whole,    !- Zone Name
    ,                         !- Space Name
    Surface,                  !- Outside Boundary Condition
    Block 635e498716218cea_whole Storey 2 Floor 0001_1,    !- Outside Boundary Condition Object
    NoSun,                    !- Sun Exposure
    NoWind,                   !- Wind Exposure
    autocalculate,            !- View Factor to Ground
    autocalculate,            !- Number of Vertices
    686251.9989984962,        !- Vertex 1 Xcoordinate
    4928735.021119189,        !- Vertex 1 Ycoordinate
    6,                        !- Vertex 1 Zcoordinate
    686255.1289984966,        !- Vertex 2 Xcoordinate
    4928746.900119191,        !- Vertex 2 Ycoordinate
    6,                        !- Vertex 2 Zcoordinate
    686259.1089984966,        !- Vertex 3 Xcoordinate
    4928762.06011919,         !- Vertex 3 Ycoordinate
    6,                        !- Vertex 3 Zcoordinate
    686260.4189984961,        !- Vertex 4 Xcoordinate
    4928766.480119192,        !- Vertex 4 Ycoordinate
    6,                        !- Vertex 4 Zcoordinate
    686260.8289984963,        !- Vertex 5 Xcoordinate
    4928768.230119191,        !- Vertex 5 Ycoordinate
    6,                        !- Vertex 5 Zcoordinate
    686261.2779984963,        !- Vertex 6 Xcoordinate
    4928769.821119191,        !- Vertex 6 Ycoordinate
    6,                        !- Vertex 6 Zcoordinate
    686259.6759984964,        !- Vertex 7 Xcoordinate
    4928770.31611919,         !- Vertex 7 Ycoordinate
    6,                        !- Vertex 7 Zcoordinate
    686259.2359984964,        !- Vertex 8 Xcoordinate
    4928768.65011919,         !- Vertex 8 Ycoordinate
    6,                        !- Vertex 8 Zcoordinate
    686254.5689984965,        !- Vertex 9 Xcoordinate
    4928769.880119192,        !- Vertex 9 Ycoordinate
    6,                        !- Vertex 9 Zcoordinate
    686253.4889984964,        !- Vertex 10 Xcoordinate
    4928765.930119191,        !- Vertex 10 Ycoordinate
    6,                        !- Vertex 10 Zcoordinate
    686245.8589984961,        !- Vertex 11 Xcoordinate
    4928767.950119193,        !- Vertex 11 Ycoordinate
    6,                        !- Vertex 11 Zcoordinate
    686246.0389984963,        !- Vertex 12 Xcoordinate
    4928768.670119191,        !- Vertex 12 Ycoordinate
    6,                        !- Vertex 12 Zcoordinate
    686247.4389984962,        !- Vertex 13 Xcoordinate
    4928774.230119192,        !- Vertex 13 Ycoordinate
    6,                        !- Vertex 13 Zcoordinate
    686255.1889984966,        !- Vertex 14 Xcoordinate
    4928772.130119191,        !- Vertex 14 Ycoordinate
    6,                        !- Vertex 14 Zcoordinate
    686256.7819984965,        !- Vertex 15 Xcoordinate
    4928778.018119191,        !- Vertex 15 Ycoordinate
    6,                        !- Vertex 15 Zcoordinate
    686251.0659984965,        !- Vertex 16 Xcoordinate
    4928778.751119191,        !- Vertex 16 Ycoordinate
    6,                        !- Vertex 16 Zcoordinate
    686251.0659984965,        !- Vertex 17 Xcoordinate
    4928779.915119192,        !- Vertex 17 Ycoordinate
    6,                        !- Vertex 17 Zcoordinate
    686248.6689984961,        !- Vertex 18 Xcoordinate
    4928780.109119192,        !- Vertex 18 Ycoordinate
    6,                        !- Vertex 18 Zcoordinate
    686245.8879984966,        !- Vertex 19 Xcoordinate
    4928780.322119192,        !- Vertex 19 Ycoordinate
    6,                        !- Vertex 19 Zcoordinate
    686245.6789984964,        !- Vertex 20 Xcoordinate
    4928779.1701191915,       !- Vertex 20 Ycoordinate
    6,                        !- Vertex 20 Zcoordinate
    686242.7789984965,        !- Vertex 21 Xcoordinate
    4928769.410119192,        !- Vertex 21 Ycoordinate
    6,                        !- Vertex 21 Zcoordinate
    686241.0089984965,        !- Vertex 22 Xcoordinate
    4928763.47011919,         !- Vertex 22 Ycoordinate
    6,                        !- Vertex 22 Zcoordinate
    686241.8689984963,        !- Vertex 23 Xcoordinate
    4928763.301119192,        !- Vertex 23 Ycoordinate
    6,                        !- Vertex 23 Zcoordinate
    686241.3549984964,        !- Vertex 24 Xcoordinate
    4928761.199119192,        !- Vertex 24 Ycoordinate
    6,                        !- Vertex 24 Zcoordinate
    686242.1689984961,        !- Vertex 25 Xcoordinate
    4928760.900119191,        !- Vertex 25 Ycoordinate
    6,                        !- Vertex 25 Zcoordinate
    686245.8189984965,        !- Vertex 26 Xcoordinate
    4928759.850119191,        !- Vertex 26 Ycoordinate
    6,                        !- Vertex 26 Zcoordinate
    686244.5289984965,        !- Vertex 27 Xcoordinate
    4928755.070119192,        !- Vertex 27 Ycoordinate
    6,                        !- Vertex 27 Zcoordinate
    686239.7069984963,        !- Vertex 28 Xcoordinate
    4928738.92011919,         !- Vertex 28 Ycoordinate
    6;                        !- Vertex 28 Zcoordinate

BUILDINGSURFACE:DETAILED,
    Block 635e498716218cea_whole Storey 2 Floor 0001_1,    !- Name
    floor,                    !- Surface Type
    EU_floor_Construction,    !- Construction Name
    635e498716218cea_F2_whole,    !- Zone Name
    ,                         !- Space Name
    Surface,                  !- Outside Boundary Condition
    Block 635e498716218cea_whole Storey 1 Ceiling 0001_1,    !- Outside Boundary Condition Object
    NoSun,                    !- Sun Exposure
    NoWind,                   !- Wind Exposure
    autocalculate,            !- View Factor to Ground
    autocalculate,            !- Number of Vertices
    686256.7819984965,        !- Vertex 1 Xcoordinate
    4928778.018119191,        !- Vertex 1 Ycoordinate
    6,                        !- Vertex 1 Zcoordinate
    686255.1889984966,        !- Vertex 2 Xcoordinate
    4928772.130119191,        !- Vertex 2 Ycoordinate
    6,                        !- Vertex 2 Zcoordinate
    686247.4389984962,        !- Vertex 3 Xcoordinate
    4928774.230119192,        !- Vertex 3 Ycoordinate
    6,                        !- Vertex 3 Zcoordinate
    686246.0389984963,        !- Vertex 4 Xcoordinate
    4928768.670119191,        !- Vertex 4 Ycoordinate
    6,                        !- Vertex 4 Zcoordinate
    686245.8589984961,        !- Vertex 5 Xcoordinate
    4928767.950119193,        !- Vertex 5 Ycoordinate
    6,                        !- Vertex 5 Zcoordinate
    686253.4889984964,        !- Vertex 6 Xcoordinate
    4928765.930119191,        !- Vertex 6 Ycoordinate
    6,                        !- Vertex 6 Zcoordinate
    686254.5689984965,        !- Vertex 7 Xcoordinate
    4928769.880119192,        !- Vertex 7 Ycoordinate
    6,                        !- Vertex 7 Zcoordinate
    686259.2359984964,        !- Vertex 8 Xcoordinate
    4928768.65011919,         !- Vertex 8 Ycoordinate
    6,                        !- Vertex 8 Zcoordinate
    686259.6759984964,        !- Vertex 9 Xcoordinate
    4928770.31611919,         !- Vertex 9 Ycoordinate
    6,                        !- Vertex 9 Zcoordinate
    686261.2779984963,        !- Vertex 10 Xcoordinate
    4928769.821119191,        !- Vertex 10 Ycoordinate
    6,                        !- Vertex 10 Zcoordinate
    686260.8289984963,        !- Vertex 11 Xcoordinate
    4928768.230119191,        !- Vertex 11 Ycoordinate
    6,                        !- Vertex 11 Zcoordinate
    686260.4189984961,        !- Vertex 12 Xcoordinate
    4928766.480119192,        !- Vertex 12 Ycoordinate
    6,                        !- Vertex 12 Zcoordinate
    686259.1089984966,        !- Vertex 13 Xcoordinate
    4928762.06011919,         !- Vertex 13 Ycoordinate
    6,                        !- Vertex 13 Zcoordinate
    686255.1289984966,        !- Vertex 14 Xcoordinate
    4928746.900119191,        !- Vertex 14 Ycoordinate
    6,                        !- Vertex 14 Zcoordinate
    686251.9989984962,        !- Vertex 15 Xcoordinate
    4928735.021119189,        !- Vertex 15 Ycoordinate
    6,                        !- Vertex 15 Zcoordinate
    686239.7069984963,        !- Vertex 16 Xcoordinate
    4928738.92011919,         !- Vertex 16 Ycoordinate
    6,                        !- Vertex 16 Zcoordinate
    686244.5289984965,        !- Vertex 17 Xcoordinate
    4928755.070119192,        !- Vertex 17 Ycoordinate
    6,                        !- Vertex 17 Zcoordinate
    686245.8189984965,        !- Vertex 18 Xcoordinate
    4928759.850119191,        !- Vertex 18 Ycoordinate
    6,                        !- Vertex 18 Zcoordinate
    686242.1689984961,        !- Vertex 19 Xcoordinate
    4928760.900119191,        !- Vertex 19 Ycoordinate
    6,                        !- Vertex 19 Zcoordinate
    686241.3549984964,        !- Vertex 20 Xcoordinate
    4928761.199119192,        !- Vertex 20 Ycoordinate
    6,                        !- Vertex 20 Zcoordinate
    686241.8689984963,        !- Vertex 21 Xcoordinate
    4928763.301119192,        !- Vertex 21 Ycoordinate
    6,                        !- Vertex 21 Zcoordinate
    686241.0089984965,        !- Vertex 22 Xcoordinate
    4928763.47011919,         !- Vertex 22 Ycoordinate
    6,                        !- Vertex 22 Zcoordinate
    686242.7789984965,        !- Vertex 23 Xcoordinate
    4928769.410119192,        !- Vertex 23 Ycoordinate
    6,                        !- Vertex 23 Zcoordinate
    686245.6789984964,        !- Vertex 24 Xcoordinate
    4928779.1701191915,       !- Vertex 24 Ycoordinate
    6,                        !- Vertex 24 Zcoordinate
    686245.8879984966,        !- Vertex 25 Xcoordinate
    4928780.322119192,        !- Vertex 25 Ycoordinate
    6,                        !- Vertex 25 Zcoordinate
    686248.6689984961,        !- Vertex 26 Xcoordinate
    4928780.109119192,        !- Vertex 26 Ycoordinate
    6,                        !- Vertex 26 Zcoordinate
    686251.0659984965,        !- Vertex 27 Xcoordinate
    4928779.915119192,        !- Vertex 27 Ycoordinate
    6,                        !- Vertex 27 Zcoordinate
    686251.0659984965,        !- Vertex 28 Xcoordinate
    4928778.751119191,        !- Vertex 28 Ycoordinate
    6;                        !- Vertex 28 Zcoordinate

BUILDINGSURFACE:DETAILED,
    Block 635e498716218cea_whole Storey 2 Ceiling 0001_1,    !- Name
    ceiling,                  !- Surface Type
    EU_floor_Construction,    !- Construction Name
    635e498716218cea_F2_whole,    !- Zone Name
    ,                         !- Space Name
    Surface,                  !- Outside Boundary Condition
    Block 635e498716218cea_whole Storey 3 Floor 0001_1,    !- Outside Boundary Condition Object
    NoSun,                    !- Sun Exposure
    NoWind,                   !- Wind Exposure
    autocalculate,            !- View Factor to Ground
    autocalculate,            !- Number of Vertices
    686251.9989984962,        !- Vertex 1 Xcoordinate
    4928735.021119189,        !- Vertex 1 Ycoordinate
    9,                        !- Vertex 1 Zcoordinate
    686255.1289984966,        !- Vertex 2 Xcoordinate
    4928746.900119191,        !- Vertex 2 Ycoordinate
    9,                        !- Vertex 2 Zcoordinate
    686259.1089984966,        !- Vertex 3 Xcoordinate
    4928762.06011919,         !- Vertex 3 Ycoordinate
    9,                        !- Vertex 3 Zcoordinate
    686260.4189984961,        !- Vertex 4 Xcoordinate
    4928766.480119192,        !- Vertex 4 Ycoordinate
    9,                        !- Vertex 4 Zcoordinate
    686260.8289984963,        !- Vertex 5 Xcoordinate
    4928768.230119191,        !- Vertex 5 Ycoordinate
    9,                        !- Vertex 5 Zcoordinate
    686261.2779984963,        !- Vertex 6 Xcoordinate
    4928769.821119191,        !- Vertex 6 Ycoordinate
    9,                        !- Vertex 6 Zcoordinate
    686259.6759984964,        !- Vertex 7 Xcoordinate
    4928770.31611919,         !- Vertex 7 Ycoordinate
    9,                        !- Vertex 7 Zcoordinate
    686259.2359984964,        !- Vertex 8 Xcoordinate
    4928768.65011919,         !- Vertex 8 Ycoordinate
    9,                        !- Vertex 8 Zcoordinate
    686254.5689984965,        !- Vertex 9 Xcoordinate
    4928769.880119192,        !- Vertex 9 Ycoordinate
    9,                        !- Vertex 9 Zcoordinate
    686253.4889984964,        !- Vertex 10 Xcoordinate
    4928765.930119191,        !- Vertex 10 Ycoordinate
    9,                        !- Vertex 10 Zcoordinate
    686245.8589984961,        !- Vertex 11 Xcoordinate
    4928767.950119193,        !- Vertex 11 Ycoordinate
    9,                        !- Vertex 11 Zcoordinate
    686246.0389984963,        !- Vertex 12 Xcoordinate
    4928768.670119191,        !- Vertex 12 Ycoordinate
    9,                        !- Vertex 12 Zcoordinate
    686247.4389984962,        !- Vertex 13 Xcoordinate
    4928774.230119192,        !- Vertex 13 Ycoordinate
    9,                        !- Vertex 13 Zcoordinate
    686255.1889984966,        !- Vertex 14 Xcoordinate
    4928772.130119191,        !- Vertex 14 Ycoordinate
    9,                        !- Vertex 14 Zcoordinate
    686256.7819984965,        !- Vertex 15 Xcoordinate
    4928778.018119191,        !- Vertex 15 Ycoordinate
    9,                        !- Vertex 15 Zcoordinate
    686251.0659984965,        !- Vertex 16 Xcoordinate
    4928778.751119191,        !- Vertex 16 Ycoordinate
    9,                        !- Vertex 16 Zcoordinate
    686251.0659984965,        !- Vertex 17 Xcoordinate
    4928779.915119192,        !- Vertex 17 Ycoordinate
    9,                        !- Vertex 17 Zcoordinate
    686248.6689984961,        !- Vertex 18 Xcoordinate
    4928780.109119192,        !- Vertex 18 Ycoordinate
    9,                        !- Vertex 18 Zcoordinate
    686245.8879984966,        !- Vertex 19 Xcoordinate
    4928780.322119192,        !- Vertex 19 Ycoordinate
    9,                        !- Vertex 19 Zcoordinate
    686245.6789984964,        !- Vertex 20 Xcoordinate
    4928779.1701191915,       !- Vertex 20 Ycoordinate
    9,                        !- Vertex 20 Zcoordinate
    686242.7789984965,        !- Vertex 21 Xcoordinate
    4928769.410119192,        !- Vertex 21 Ycoordinate
    9,                        !- Vertex 21 Zcoordinate
    686241.0089984965,        !- Vertex 22 Xcoordinate
    4928763.47011919,         !- Vertex 22 Ycoordinate
    9,                        !- Vertex 22 Zcoordinate
    686241.8689984963,        !- Vertex 23 Xcoordinate
    4928763.301119192,        !- Vertex 23 Ycoordinate
    9,                        !- Vertex 23 Zcoordinate
    686241.3549984964,        !- Vertex 24 Xcoordinate
    4928761.199119192,        !- Vertex 24 Ycoordinate
    9,                        !- Vertex 24 Zcoordinate
    686242.1689984961,        !- Vertex 25 Xcoordinate
    4928760.900119191,        !- Vertex 25 Ycoordinate
    9,                        !- Vertex 25 Zcoordinate
    686245.8189984965,        !- Vertex 26 Xcoordinate
    4928759.850119191,        !- Vertex 26 Ycoordinate
    9,                        !- Vertex 26 Zcoordinate
    686244.5289984965,        !- Vertex 27 Xcoordinate
    4928755.070119192,        !- Vertex 27 Ycoordinate
    9,                        !- Vertex 27 Zcoordinate
    686239.7069984963,        !- Vertex 28 Xcoordinate
    4928738.92011919,         !- Vertex 28 Ycoordinate
    9;                        !- Vertex 28 Zcoordinate

BUILDINGSURFACE:DETAILED,
    Block 635e498716218cea_whole Storey 3 Floor 0001_1,    !- Name
    floor,                    !- Surface Type
    EU_floor_Construction,    !- Construction Name
    635e498716218cea_F3_whole,    !- Zone Name
    ,                         !- Space Name
    Surface,                  !- Outside Boundary Condition
    Block 635e498716218cea_whole Storey 2 Ceiling 0001_1,    !- Outside Boundary Condition Object
    NoSun,                    !- Sun Exposure
    NoWind,                   !- Wind Exposure
    autocalculate,            !- View Factor to Ground
    autocalculate,            !- Number of Vertices
    686256.7819984965,        !- Vertex 1 Xcoordinate
    4928778.018119191,        !- Vertex 1 Ycoordinate
    9,                        !- Vertex 1 Zcoordinate
    686255.1889984966,        !- Vertex 2 Xcoordinate
    4928772.130119191,        !- Vertex 2 Ycoordinate
    9,                        !- Vertex 2 Zcoordinate
    686247.4389984962,        !- Vertex 3 Xcoordinate
    4928774.230119192,        !- Vertex 3 Ycoordinate
    9,                        !- Vertex 3 Zcoordinate
    686246.0389984963,        !- Vertex 4 Xcoordinate
    4928768.670119191,        !- Vertex 4 Ycoordinate
    9,                        !- Vertex 4 Zcoordinate
    686245.8589984961,        !- Vertex 5 Xcoordinate
    4928767.950119193,        !- Vertex 5 Ycoordinate
    9,                        !- Vertex 5 Zcoordinate
    686253.4889984964,        !- Vertex 6 Xcoordinate
    4928765.930119191,        !- Vertex 6 Ycoordinate
    9,                        !- Vertex 6 Zcoordinate
    686254.5689984965,        !- Vertex 7 Xcoordinate
    4928769.880119192,        !- Vertex 7 Ycoordinate
    9,                        !- Vertex 7 Zcoordinate
    686259.2359984964,        !- Vertex 8 Xcoordinate
    4928768.65011919,         !- Vertex 8 Ycoordinate
    9,                        !- Vertex 8 Zcoordinate
    686259.6759984964,        !- Vertex 9 Xcoordinate
    4928770.31611919,         !- Vertex 9 Ycoordinate
    9,                        !- Vertex 9 Zcoordinate
    686261.2779984963,        !- Vertex 10 Xcoordinate
    4928769.821119191,        !- Vertex 10 Ycoordinate
    9,                        !- Vertex 10 Zcoordinate
    686260.8289984963,        !- Vertex 11 Xcoordinate
    4928768.230119191,        !- Vertex 11 Ycoordinate
    9,                        !- Vertex 11 Zcoordinate
    686260.4189984961,        !- Vertex 12 Xcoordinate
    4928766.480119192,        !- Vertex 12 Ycoordinate
    9,                        !- Vertex 12 Zcoordinate
    686259.1089984966,        !- Vertex 13 Xcoordinate
    4928762.06011919,         !- Vertex 13 Ycoordinate
    9,                        !- Vertex 13 Zcoordinate
    686255.1289984966,        !- Vertex 14 Xcoordinate
    4928746.900119191,        !- Vertex 14 Ycoordinate
    9,                        !- Vertex 14 Zcoordinate
    686251.9989984962,        !- Vertex 15 Xcoordinate
    4928735.021119189,        !- Vertex 15 Ycoordinate
    9,                        !- Vertex 15 Zcoordinate
    686239.7069984963,        !- Vertex 16 Xcoordinate
    4928738.92011919,         !- Vertex 16 Ycoordinate
    9,                        !- Vertex 16 Zcoordinate
    686244.5289984965,        !- Vertex 17 Xcoordinate
    4928755.070119192,        !- Vertex 17 Ycoordinate
    9,                        !- Vertex 17 Zcoordinate
    686245.8189984965,        !- Vertex 18 Xcoordinate
    4928759.850119191,        !- Vertex 18 Ycoordinate
    9,                        !- Vertex 18 Zcoordinate
    686242.1689984961,        !- Vertex 19 Xcoordinate
    4928760.900119191,        !- Vertex 19 Ycoordinate
    9,                        !- Vertex 19 Zcoordinate
    686241.3549984964,        !- Vertex 20 Xcoordinate
    4928761.199119192,        !- Vertex 20 Ycoordinate
    9,                        !- Vertex 20 Zcoordinate
    686241.8689984963,        !- Vertex 21 Xcoordinate
    4928763.301119192,        !- Vertex 21 Ycoordinate
    9,                        !- Vertex 21 Zcoordinate
    686241.0089984965,        !- Vertex 22 Xcoordinate
    4928763.47011919,         !- Vertex 22 Ycoordinate
    9,                        !- Vertex 22 Zcoordinate
    686242.7789984965,        !- Vertex 23 Xcoordinate
    4928769.410119192,        !- Vertex 23 Ycoordinate
    9,                        !- Vertex 23 Zcoordinate
    686245.6789984964,        !- Vertex 24 Xcoordinate
    4928779.1701191915,       !- Vertex 24 Ycoordinate
    9,                        !- Vertex 24 Zcoordinate
    686245.8879984966,        !- Vertex 25 Xcoordinate
    4928780.322119192,        !- Vertex 25 Ycoordinate
    9,                        !- Vertex 25 Zcoordinate
    686248.6689984961,        !- Vertex 26 Xcoordinate
    4928780.109119192,        !- Vertex 26 Ycoordinate
    9,                        !- Vertex 26 Zcoordinate
    686251.0659984965,        !- Vertex 27 Xcoordinate
    4928779.915119192,        !- Vertex 27 Ycoordinate
    9,                        !- Vertex 27 Zcoordinate
    686251.0659984965,        !- Vertex 28 Xcoordinate
    4928778.751119191,        !- Vertex 28 Ycoordinate
    9;                        !- Vertex 28 Zcoordinate

BUILDINGSURFACE:DETAILED,
    Block 635e498716218cea_whole Storey 3 Ceiling 0001_1,    !- Name
    ceiling,                  !- Surface Type
    EU_floor_Construction,    !- Construction Name
    635e498716218cea_F3_whole,    !- Zone Name
    ,                         !- Space Name
    Surface,                  !- Outside Boundary Condition
    Block 635e498716218cea_whole Storey 4 Floor 0001_1,    !- Outside Boundary Condition Object
    NoSun,                    !- Sun Exposure
    NoWind,                   !- Wind Exposure
    autocalculate,            !- View Factor to Ground
    autocalculate,            !- Number of Vertices
    686251.9989984962,        !- Vertex 1 Xcoordinate
    4928735.021119189,        !- Vertex 1 Ycoordinate
    12,                       !- Vertex 1 Zcoordinate
    686255.1289984966,        !- Vertex 2 Xcoordinate
    4928746.900119191,        !- Vertex 2 Ycoordinate
    12,                       !- Vertex 2 Zcoordinate
    686259.1089984966,        !- Vertex 3 Xcoordinate
    4928762.06011919,         !- Vertex 3 Ycoordinate
    12,                       !- Vertex 3 Zcoordinate
    686260.4189984961,        !- Vertex 4 Xcoordinate
    4928766.480119192,        !- Vertex 4 Ycoordinate
    12,                       !- Vertex 4 Zcoordinate
    686260.8289984963,        !- Vertex 5 Xcoordinate
    4928768.230119191,        !- Vertex 5 Ycoordinate
    12,                       !- Vertex 5 Zcoordinate
    686261.2779984963,        !- Vertex 6 Xcoordinate
    4928769.821119191,        !- Vertex 6 Ycoordinate
    12,                       !- Vertex 6 Zcoordinate
    686259.6759984964,        !- Vertex 7 Xcoordinate
    4928770.31611919,         !- Vertex 7 Ycoordinate
    12,                       !- Vertex 7 Zcoordinate
    686259.2359984964,        !- Vertex 8 Xcoordinate
    4928768.65011919,         !- Vertex 8 Ycoordinate
    12,                       !- Vertex 8 Zcoordinate
    686254.5689984965,        !- Vertex 9 Xcoordinate
    4928769.880119192,        !- Vertex 9 Ycoordinate
    12,                       !- Vertex 9 Zcoordinate
    686253.4889984964,        !- Vertex 10 Xcoordinate
    4928765.930119191,        !- Vertex 10 Ycoordinate
    12,                       !- Vertex 10 Zcoordinate
    686245.8589984961,        !- Vertex 11 Xcoordinate
    4928767.950119193,        !- Vertex 11 Ycoordinate
    12,                       !- Vertex 11 Zcoordinate
    686246.0389984963,        !- Vertex 12 Xcoordinate
    4928768.670119191,        !- Vertex 12 Ycoordinate
    12,                       !- Vertex 12 Zcoordinate
    686247.4389984962,        !- Vertex 13 Xcoordinate
    4928774.230119192,        !- Vertex 13 Ycoordinate
    12,                       !- Vertex 13 Zcoordinate
    686255.1889984966,        !- Vertex 14 Xcoordinate
    4928772.130119191,        !- Vertex 14 Ycoordinate
    12,                       !- Vertex 14 Zcoordinate
    686256.7819984965,        !- Vertex 15 Xcoordinate
    4928778.018119191,        !- Vertex 15 Ycoordinate
    12,                       !- Vertex 15 Zcoordinate
    686251.0659984965,        !- Vertex 16 Xcoordinate
    4928778.751119191,        !- Vertex 16 Ycoordinate
    12,                       !- Vertex 16 Zcoordinate
    686251.0659984965,        !- Vertex 17 Xcoordinate
    4928779.915119192,        !- Vertex 17 Ycoordinate
    12,                       !- Vertex 17 Zcoordinate
    686248.6689984961,        !- Vertex 18 Xcoordinate
    4928780.109119192,        !- Vertex 18 Ycoordinate
    12,                       !- Vertex 18 Zcoordinate
    686245.8879984966,        !- Vertex 19 Xcoordinate
    4928780.322119192,        !- Vertex 19 Ycoordinate
    12,                       !- Vertex 19 Zcoordinate
    686245.6789984964,        !- Vertex 20 Xcoordinate
    4928779.1701191915,       !- Vertex 20 Ycoordinate
    12,                       !- Vertex 20 Zcoordinate
    686242.7789984965,        !- Vertex 21 Xcoordinate
    4928769.410119192,        !- Vertex 21 Ycoordinate
    12,                       !- Vertex 21 Zcoordinate
    686241.0089984965,        !- Vertex 22 Xcoordinate
    4928763.47011919,         !- Vertex 22 Ycoordinate
    12,                       !- Vertex 22 Zcoordinate
    686241.8689984963,        !- Vertex 23 Xcoordinate
    4928763.301119192,        !- Vertex 23 Ycoordinate
    12,                       !- Vertex 23 Zcoordinate
    686241.3549984964,        !- Vertex 24 Xcoordinate
    4928761.199119192,        !- Vertex 24 Ycoordinate
    12,                       !- Vertex 24 Zcoordinate
    686242.1689984961,        !- Vertex 25 Xcoordinate
    4928760.900119191,        !- Vertex 25 Ycoordinate
    12,                       !- Vertex 25 Zcoordinate
    686245.8189984965,        !- Vertex 26 Xcoordinate
    4928759.850119191,        !- Vertex 26 Ycoordinate
    12,                       !- Vertex 26 Zcoordinate
    686244.5289984965,        !- Vertex 27 Xcoordinate
    4928755.070119192,        !- Vertex 27 Ycoordinate
    12,                       !- Vertex 27 Zcoordinate
    686239.7069984963,        !- Vertex 28 Xcoordinate
    4928738.92011919,         !- Vertex 28 Ycoordinate
    12;                       !- Vertex 28 Zcoordinate

BUILDINGSURFACE:DETAILED,
    Block 635e498716218cea_whole Storey 4 Floor 0001_1,    !- Name
    floor,                    !- Surface Type
    EU_floor_Construction,    !- Construction Name
    635e498716218cea_F4_whole,    !- Zone Name
    ,                         !- Space Name
    Surface,                  !- Outside Boundary Condition
    Block 635e498716218cea_whole Storey 3 Ceiling 0001_1,    !- Outside Boundary Condition Object
    NoSun,                    !- Sun Exposure
    NoWind,                   !- Wind Exposure
    autocalculate,            !- View Factor to Ground
    autocalculate,            !- Number of Vertices
    686256.7819984965,        !- Vertex 1 Xcoordinate
    4928778.018119191,        !- Vertex 1 Ycoordinate
    12,                       !- Vertex 1 Zcoordinate
    686255.1889984966,        !- Vertex 2 Xcoordinate
    4928772.130119191,        !- Vertex 2 Ycoordinate
    12,                       !- Vertex 2 Zcoordinate
    686247.4389984962,        !- Vertex 3 Xcoordinate
    4928774.230119192,        !- Vertex 3 Ycoordinate
    12,                       !- Vertex 3 Zcoordinate
    686246.0389984963,        !- Vertex 4 Xcoordinate
    4928768.670119191,        !- Vertex 4 Ycoordinate
    12,                       !- Vertex 4 Zcoordinate
    686245.8589984961,        !- Vertex 5 Xcoordinate
    4928767.950119193,        !- Vertex 5 Ycoordinate
    12,                       !- Vertex 5 Zcoordinate
    686253.4889984964,        !- Vertex 6 Xcoordinate
    4928765.930119191,        !- Vertex 6 Ycoordinate
    12,                       !- Vertex 6 Zcoordinate
    686254.5689984965,        !- Vertex 7 Xcoordinate
    4928769.880119192,        !- Vertex 7 Ycoordinate
    12,                       !- Vertex 7 Zcoordinate
    686259.2359984964,        !- Vertex 8 Xcoordinate
    4928768.65011919,         !- Vertex 8 Ycoordinate
    12,                       !- Vertex 8 Zcoordinate
    686259.6759984964,        !- Vertex 9 Xcoordinate
    4928770.31611919,         !- Vertex 9 Ycoordinate
    12,                       !- Vertex 9 Zcoordinate
    686261.2779984963,        !- Vertex 10 Xcoordinate
    4928769.821119191,        !- Vertex 10 Ycoordinate
    12,                       !- Vertex 10 Zcoordinate
    686260.8289984963,        !- Vertex 11 Xcoordinate
    4928768.230119191,        !- Vertex 11 Ycoordinate
    12,                       !- Vertex 11 Zcoordinate
    686260.4189984961,        !- Vertex 12 Xcoordinate
    4928766.480119192,        !- Vertex 12 Ycoordinate
    12,                       !- Vertex 12 Zcoordinate
    686259.1089984966,        !- Vertex 13 Xcoordinate
    4928762.06011919,         !- Vertex 13 Ycoordinate
    12,                       !- Vertex 13 Zcoordinate
    686255.1289984966,        !- Vertex 14 Xcoordinate
    4928746.900119191,        !- Vertex 14 Ycoordinate
    12,                       !- Vertex 14 Zcoordinate
    686251.9989984962,        !- Vertex 15 Xcoordinate
    4928735.021119189,        !- Vertex 15 Ycoordinate
    12,                       !- Vertex 15 Zcoordinate
    686239.7069984963,        !- Vertex 16 Xcoordinate
    4928738.92011919,         !- Vertex 16 Ycoordinate
    12,                       !- Vertex 16 Zcoordinate
    686244.5289984965,        !- Vertex 17 Xcoordinate
    4928755.070119192,        !- Vertex 17 Ycoordinate
    12,                       !- Vertex 17 Zcoordinate
    686245.8189984965,        !- Vertex 18 Xcoordinate
    4928759.850119191,        !- Vertex 18 Ycoordinate
    12,                       !- Vertex 18 Zcoordinate
    686242.1689984961,        !- Vertex 19 Xcoordinate
    4928760.900119191,        !- Vertex 19 Ycoordinate
    12,                       !- Vertex 19 Zcoordinate
    686241.3549984964,        !- Vertex 20 Xcoordinate
    4928761.199119192,        !- Vertex 20 Ycoordinate
    12,                       !- Vertex 20 Zcoordinate
    686241.8689984963,        !- Vertex 21 Xcoordinate
    4928763.301119192,        !- Vertex 21 Ycoordinate
    12,                       !- Vertex 21 Zcoordinate
    686241.0089984965,        !- Vertex 22 Xcoordinate
    4928763.47011919,         !- Vertex 22 Ycoordinate
    12,                       !- Vertex 22 Zcoordinate
    686242.7789984965,        !- Vertex 23 Xcoordinate
    4928769.410119192,        !- Vertex 23 Ycoordinate
    12,                       !- Vertex 23 Zcoordinate
    686245.6789984964,        !- Vertex 24 Xcoordinate
    4928779.1701191915,       !- Vertex 24 Ycoordinate
    12,                       !- Vertex 24 Zcoordinate
    686245.8879984966,        !- Vertex 25 Xcoordinate
    4928780.322119192,        !- Vertex 25 Ycoordinate
    12,                       !- Vertex 25 Zcoordinate
    686248.6689984961,        !- Vertex 26 Xcoordinate
    4928780.109119192,        !- Vertex 26 Ycoordinate
    12,                       !- Vertex 26 Zcoordinate
    686251.0659984965,        !- Vertex 27 Xcoordinate
    4928779.915119192,        !- Vertex 27 Ycoordinate
    12,                       !- Vertex 27 Zcoordinate
    686251.0659984965,        !- Vertex 28 Xcoordinate
    4928778.751119191,        !- Vertex 28 Ycoordinate
    12;                       !- Vertex 28 Zcoordinate

BUILDINGSURFACE:DETAILED,
    Block 635e498716218cea_whole Storey 4 Ceiling 0001_1,    !- Name
    ceiling,                  !- Surface Type
    EU_floor_Construction,    !- Construction Name
    635e498716218cea_F4_whole,    !- Zone Name
    ,                         !- Space Name
    Surface,                  !- Outside Boundary Condition
    Block 635e498716218cea_whole Storey 5 Floor 0001_1,    !- Outside Boundary Condition Object
    NoSun,                    !- Sun Exposure
    NoWind,                   !- Wind Exposure
    autocalculate,            !- View Factor to Ground
    autocalculate,            !- Number of Vertices
    686251.9989984962,        !- Vertex 1 Xcoordinate
    4928735.021119189,        !- Vertex 1 Ycoordinate
    15,                       !- Vertex 1 Zcoordinate
    686255.1289984966,        !- Vertex 2 Xcoordinate
    4928746.900119191,        !- Vertex 2 Ycoordinate
    15,                       !- Vertex 2 Zcoordinate
    686259.1089984966,        !- Vertex 3 Xcoordinate
    4928762.06011919,         !- Vertex 3 Ycoordinate
    15,                       !- Vertex 3 Zcoordinate
    686260.4189984961,        !- Vertex 4 Xcoordinate
    4928766.480119192,        !- Vertex 4 Ycoordinate
    15,                       !- Vertex 4 Zcoordinate
    686260.8289984963,        !- Vertex 5 Xcoordinate
    4928768.230119191,        !- Vertex 5 Ycoordinate
    15,                       !- Vertex 5 Zcoordinate
    686261.2779984963,        !- Vertex 6 Xcoordinate
    4928769.821119191,        !- Vertex 6 Ycoordinate
    15,                       !- Vertex 6 Zcoordinate
    686259.6759984964,        !- Vertex 7 Xcoordinate
    4928770.31611919,         !- Vertex 7 Ycoordinate
    15,                       !- Vertex 7 Zcoordinate
    686259.2359984964,        !- Vertex 8 Xcoordinate
    4928768.65011919,         !- Vertex 8 Ycoordinate
    15,                       !- Vertex 8 Zcoordinate
    686254.5689984965,        !- Vertex 9 Xcoordinate
    4928769.880119192,        !- Vertex 9 Ycoordinate
    15,                       !- Vertex 9 Zcoordinate
    686253.4889984964,        !- Vertex 10 Xcoordinate
    4928765.930119191,        !- Vertex 10 Ycoordinate
    15,                       !- Vertex 10 Zcoordinate
    686245.8589984961,        !- Vertex 11 Xcoordinate
    4928767.950119193,        !- Vertex 11 Ycoordinate
    15,                       !- Vertex 11 Zcoordinate
    686246.0389984963,        !- Vertex 12 Xcoordinate
    4928768.670119191,        !- Vertex 12 Ycoordinate
    15,                       !- Vertex 12 Zcoordinate
    686247.4389984962,        !- Vertex 13 Xcoordinate
    4928774.230119192,        !- Vertex 13 Ycoordinate
    15,                       !- Vertex 13 Zcoordinate
    686255.1889984966,        !- Vertex 14 Xcoordinate
    4928772.130119191,        !- Vertex 14 Ycoordinate
    15,                       !- Vertex 14 Zcoordinate
    686256.7819984965,        !- Vertex 15 Xcoordinate
    4928778.018119191,        !- Vertex 15 Ycoordinate
    15,                       !- Vertex 15 Zcoordinate
    686251.0659984965,        !- Vertex 16 Xcoordinate
    4928778.751119191,        !- Vertex 16 Ycoordinate
    15,                       !- Vertex 16 Zcoordinate
    686251.0659984965,        !- Vertex 17 Xcoordinate
    4928779.915119192,        !- Vertex 17 Ycoordinate
    15,                       !- Vertex 17 Zcoordinate
    686248.6689984961,        !- Vertex 18 Xcoordinate
    4928780.109119192,        !- Vertex 18 Ycoordinate
    15,                       !- Vertex 18 Zcoordinate
    686245.8879984966,        !- Vertex 19 Xcoordinate
    4928780.322119192,        !- Vertex 19 Ycoordinate
    15,                       !- Vertex 19 Zcoordinate
    686245.6789984964,        !- Vertex 20 Xcoordinate
    4928779.1701191915,       !- Vertex 20 Ycoordinate
    15,                       !- Vertex 20 Zcoordinate
    686242.7789984965,        !- Vertex 21 Xcoordinate
    4928769.410119192,        !- Vertex 21 Ycoordinate
    15,                       !- Vertex 21 Zcoordinate
    686241.0089984965,        !- Vertex 22 Xcoordinate
    4928763.47011919,         !- Vertex 22 Ycoordinate
    15,                       !- Vertex 22 Zcoordinate
    686241.8689984963,        !- Vertex 23 Xcoordinate
    4928763.301119192,        !- Vertex 23 Ycoordinate
    15,                       !- Vertex 23 Zcoordinate
    686241.3549984964,        !- Vertex 24 Xcoordinate
    4928761.199119192,        !- Vertex 24 Ycoordinate
    15,                       !- Vertex 24 Zcoordinate
    686242.1689984961,        !- Vertex 25 Xcoordinate
    4928760.900119191,        !- Vertex 25 Ycoordinate
    15,                       !- Vertex 25 Zcoordinate
    686245.8189984965,        !- Vertex 26 Xcoordinate
    4928759.850119191,        !- Vertex 26 Ycoordinate
    15,                       !- Vertex 26 Zcoordinate
    686244.5289984965,        !- Vertex 27 Xcoordinate
    4928755.070119192,        !- Vertex 27 Ycoordinate
    15,                       !- Vertex 27 Zcoordinate
    686239.7069984963,        !- Vertex 28 Xcoordinate
    4928738.92011919,         !- Vertex 28 Ycoordinate
    15;                       !- Vertex 28 Zcoordinate

BUILDINGSURFACE:DETAILED,
    Block 635e498716218cea_whole Storey 5 Floor 0001_1,    !- Name
    floor,                    !- Surface Type
    EU_floor_Construction,    !- Construction Name
    635e498716218cea_F5_whole,    !- Zone Name
    ,                         !- Space Name
    Surface,                  !- Outside Boundary Condition
    Block 635e498716218cea_whole Storey 4 Ceiling 0001_1,    !- Outside Boundary Condition Object
    NoSun,                    !- Sun Exposure
    NoWind,                   !- Wind Exposure
    autocalculate,            !- View Factor to Ground
    autocalculate,            !- Number of Vertices
    686256.7819984965,        !- Vertex 1 Xcoordinate
    4928778.018119191,        !- Vertex 1 Ycoordinate
    15,                       !- Vertex 1 Zcoordinate
    686255.1889984966,        !- Vertex 2 Xcoordinate
    4928772.130119191,        !- Vertex 2 Ycoordinate
    15,                       !- Vertex 2 Zcoordinate
    686247.4389984962,        !- Vertex 3 Xcoordinate
    4928774.230119192,        !- Vertex 3 Ycoordinate
    15,                       !- Vertex 3 Zcoordinate
    686246.0389984963,        !- Vertex 4 Xcoordinate
    4928768.670119191,        !- Vertex 4 Ycoordinate
    15,                       !- Vertex 4 Zcoordinate
    686245.8589984961,        !- Vertex 5 Xcoordinate
    4928767.950119193,        !- Vertex 5 Ycoordinate
    15,                       !- Vertex 5 Zcoordinate
    686253.4889984964,        !- Vertex 6 Xcoordinate
    4928765.930119191,        !- Vertex 6 Ycoordinate
    15,                       !- Vertex 6 Zcoordinate
    686254.5689984965,        !- Vertex 7 Xcoordinate
    4928769.880119192,        !- Vertex 7 Ycoordinate
    15,                       !- Vertex 7 Zcoordinate
    686259.2359984964,        !- Vertex 8 Xcoordinate
    4928768.65011919,         !- Vertex 8 Ycoordinate
    15,                       !- Vertex 8 Zcoordinate
    686259.6759984964,        !- Vertex 9 Xcoordinate
    4928770.31611919,         !- Vertex 9 Ycoordinate
    15,                       !- Vertex 9 Zcoordinate
    686261.2779984963,        !- Vertex 10 Xcoordinate
    4928769.821119191,        !- Vertex 10 Ycoordinate
    15,                       !- Vertex 10 Zcoordinate
    686260.8289984963,        !- Vertex 11 Xcoordinate
    4928768.230119191,        !- Vertex 11 Ycoordinate
    15,                       !- Vertex 11 Zcoordinate
    686260.4189984961,        !- Vertex 12 Xcoordinate
    4928766.480119192,        !- Vertex 12 Ycoordinate
    15,                       !- Vertex 12 Zcoordinate
    686259.1089984966,        !- Vertex 13 Xcoordinate
    4928762.06011919,         !- Vertex 13 Ycoordinate
    15,                       !- Vertex 13 Zcoordinate
    686255.1289984966,        !- Vertex 14 Xcoordinate
    4928746.900119191,        !- Vertex 14 Ycoordinate
    15,                       !- Vertex 14 Zcoordinate
    686251.9989984962,        !- Vertex 15 Xcoordinate
    4928735.021119189,        !- Vertex 15 Ycoordinate
    15,                       !- Vertex 15 Zcoordinate
    686239.7069984963,        !- Vertex 16 Xcoordinate
    4928738.92011919,         !- Vertex 16 Ycoordinate
    15,                       !- Vertex 16 Zcoordinate
    686244.5289984965,        !- Vertex 17 Xcoordinate
    4928755.070119192,        !- Vertex 17 Ycoordinate
    15,                       !- Vertex 17 Zcoordinate
    686245.8189984965,        !- Vertex 18 Xcoordinate
    4928759.850119191,        !- Vertex 18 Ycoordinate
    15,                       !- Vertex 18 Zcoordinate
    686242.1689984961,        !- Vertex 19 Xcoordinate
    4928760.900119191,        !- Vertex 19 Ycoordinate
    15,                       !- Vertex 19 Zcoordinate
    686241.3549984964,        !- Vertex 20 Xcoordinate
    4928761.199119192,        !- Vertex 20 Ycoordinate
    15,                       !- Vertex 20 Zcoordinate
    686241.8689984963,        !- Vertex 21 Xcoordinate
    4928763.301119192,        !- Vertex 21 Ycoordinate
    15,                       !- Vertex 21 Zcoordinate
    686241.0089984965,        !- Vertex 22 Xcoordinate
    4928763.47011919,         !- Vertex 22 Ycoordinate
    15,                       !- Vertex 22 Zcoordinate
    686242.7789984965,        !- Vertex 23 Xcoordinate
    4928769.410119192,        !- Vertex 23 Ycoordinate
    15,                       !- Vertex 23 Zcoordinate
    686245.6789984964,        !- Vertex 24 Xcoordinate
    4928779.1701191915,       !- Vertex 24 Ycoordinate
    15,                       !- Vertex 24 Zcoordinate
    686245.8879984966,        !- Vertex 25 Xcoordinate
    4928780.322119192,        !- Vertex 25 Ycoordinate
    15,                       !- Vertex 25 Zcoordinate
    686248.6689984961,        !- Vertex 26 Xcoordinate
    4928780.109119192,        !- Vertex 26 Ycoordinate
    15,                       !- Vertex 26 Zcoordinate
    686251.0659984965,        !- Vertex 27 Xcoordinate
    4928779.915119192,        !- Vertex 27 Ycoordinate
    15,                       !- Vertex 27 Zcoordinate
    686251.0659984965,        !- Vertex 28 Xcoordinate
    4928778.751119191,        !- Vertex 28 Ycoordinate
    15;                       !- Vertex 28 Zcoordinate

INTERNALMASS,
    635e498716218cea_F0_whole_EU_InternalMass,    !- Name
    EU_InternalMass_Construction,    !- Construction Name
    635e498716218cea_F0_whole,    !- Zone or ZoneList Name
    ,                         !- Space or SpaceList Name
    501.58438453296463;       !- Surface Area

INTERNALMASS,
    635e498716218cea_F1_whole_EU_InternalMass,    !- Name
    EU_InternalMass_Construction,    !- Construction Name
    635e498716218cea_F1_whole,    !- Zone or ZoneList Name
    ,                         !- Space or SpaceList Name
    501.58438453296463;       !- Surface Area

INTERNALMASS,
    635e498716218cea_F2_whole_EU_InternalMass,    !- Name
    EU_InternalMass_Construction,    !- Construction Name
    635e498716218cea_F2_whole,    !- Zone or ZoneList Name
    ,                         !- Space or SpaceList Name
    501.58438453296463;       !- Surface Area

INTERNALMASS,
    635e498716218cea_F3_whole_EU_InternalMass,    !- Name
    EU_InternalMass_Construction,    !- Construction Name
    635e498716218cea_F3_whole,    !- Zone or ZoneList Name
    ,                         !- Space or SpaceList Name
    501.58438453296463;       !- Surface Area

INTERNALMASS,
    635e498716218cea_F4_whole_EU_InternalMass,    !- Name
    EU_InternalMass_Construction,    !- Construction Name
    635e498716218cea_F4_whole,    !- Zone or ZoneList Name
    ,                         !- Space or SpaceList Name
    501.58438453296463;       !- Surface Area

INTERNALMASS,
    635e498716218cea_F5_whole_EU_InternalMass,    !- Name
    EU_InternalMass_Construction,    !- Construction Name
    635e498716218cea_F5_whole,    !- Zone or ZoneList Name
    ,                         !- Space or SpaceList Name
    501.58438453296463;       !- Surface Area

SHADING:SITE:DETAILED,
    shade_95592_1,            !- Name
    ,                         !- Transmittance Schedule Name
    autocalculate,            !- Number of Vertices
    686258.3649984965,        !- Vertex 1 Xcoordinate
    4928689.434119191,        !- Vertex 1 Ycoordinate
    15,                       !- Vertex 1 Zcoordinate
    686258.3649984965,        !- Vertex 2 Xcoordinate
    4928689.434119191,        !- Vertex 2 Ycoordinate
    0,                        !- Vertex 2 Zcoordinate
    686266.8069766269,        !- Vertex 3 Xcoordinate
    4928722.1602594135,       !- Vertex 3 Ycoordinate
    0,                        !- Vertex 3 Zcoordinate
    686266.8069766269,        !- Vertex 4 Xcoordinate
    4928722.1602594135,       !- Vertex 4 Ycoordinate
    15;                       !- Vertex 4 Zcoordinate

SHADING:SITE:DETAILED,
    shade_95592_2,            !- Name
    ,                         !- Transmittance Schedule Name
    autocalculate,            !- Number of Vertices
    686266.8069766269,        !- Vertex 1 Xcoordinate
    4928722.1602594135,       !- Vertex 1 Ycoordinate
    15,                       !- Vertex 1 Zcoordinate
    686266.8069766269,        !- Vertex 2 Xcoordinate
    4928722.1602594135,       !- Vertex 2 Ycoordinate
    0,                        !- Vertex 2 Zcoordinate
    686281.6565672667,        !- Vertex 3 Xcoordinate
    4928718.329566254,        !- Vertex 3 Ycoordinate
    0,                        !- Vertex 3 Zcoordinate
    686281.6565672667,        !- Vertex 4 Xcoordinate
    4928718.329566254,        !- Vertex 4 Ycoordinate
    15;                       !- Vertex 4 Zcoordinate

SHADING:SITE:DETAILED,
    shade_95592_3,            !- Name
    ,                         !- Transmittance Schedule Name
    autocalculate,            !- Number of Vertices
    686281.6565672667,        !- Vertex 1 Xcoordinate
    4928718.329566254,        !- Vertex 1 Ycoordinate
    15,                       !- Vertex 1 Zcoordinate
    686281.6565672667,        !- Vertex 2 Xcoordinate
    4928718.329566254,        !- Vertex 2 Ycoordinate
    0,                        !- Vertex 2 Zcoordinate
    686273.2143141881,        !- Vertex 3 Xcoordinate
    4928685.603373576,        !- Vertex 3 Ycoordinate
    0,                        !- Vertex 3 Zcoordinate
    686273.2143141881,        !- Vertex 4 Xcoordinate
    4928685.603373576,        !- Vertex 4 Ycoordinate
    15;                       !- Vertex 4 Zcoordinate

SHADING:SITE:DETAILED,
    shade_95592_4,            !- Name
    ,                         !- Transmittance Schedule Name
    autocalculate,            !- Number of Vertices
    686273.2143141881,        !- Vertex 1 Xcoordinate
    4928685.603373576,        !- Vertex 1 Ycoordinate
    15,                       !- Vertex 1 Zcoordinate
    686273.2143141881,        !- Vertex 2 Xcoordinate
    4928685.603373576,        !- Vertex 2 Ycoordinate
    0,                        !- Vertex 2 Zcoordinate
    686258.3649984965,        !- Vertex 3 Xcoordinate
    4928689.434119191,        !- Vertex 3 Ycoordinate
    0,                        !- Vertex 3 Zcoordinate
    686258.3649984965,        !- Vertex 4 Xcoordinate
    4928689.434119191,        !- Vertex 4 Ycoordinate
    15;                       !- Vertex 4 Zcoordinate

SHADING:SITE:DETAILED,
    shade_31585_1,            !- Name
    ,                         !- Transmittance Schedule Name
    autocalculate,            !- Number of Vertices
    686237.0007058785,        !- Vertex 1 Xcoordinate
    4928689.777604085,        !- Vertex 1 Ycoordinate
    15,                       !- Vertex 1 Zcoordinate
    686237.0007058785,        !- Vertex 2 Xcoordinate
    4928689.777604085,        !- Vertex 2 Ycoordinate
    0,                        !- Vertex 2 Zcoordinate
    686249.1384590724,        !- Vertex 3 Xcoordinate
    4928727.9941870095,       !- Vertex 3 Ycoordinate
    0,                        !- Vertex 3 Zcoordinate
    686249.1384590724,        !- Vertex 4 Xcoordinate
    4928727.9941870095,       !- Vertex 4 Ycoordinate
    15;                       !- Vertex 4 Zcoordinate

SHADING:SITE:DETAILED,
    shade_31585_2,            !- Name
    ,                         !- Transmittance Schedule Name
    autocalculate,            !- Number of Vertices
    686249.1384590724,        !- Vertex 1 Xcoordinate
    4928727.9941870095,       !- Vertex 1 Ycoordinate
    15,                       !- Vertex 1 Zcoordinate
    686249.1384590724,        !- Vertex 2 Xcoordinate
    4928727.9941870095,       !- Vertex 2 Ycoordinate
    0,                        !- Vertex 2 Zcoordinate
    686263.7889401847,        !- Vertex 3 Xcoordinate
    4928723.341130397,        !- Vertex 3 Ycoordinate
    0,                        !- Vertex 3 Zcoordinate
    686263.7889401847,        !- Vertex 4 Xcoordinate
    4928723.341130397,        !- Vertex 4 Ycoordinate
    15;                       !- Vertex 4 Zcoordinate

SHADING:SITE:DETAILED,
    shade_31585_3,            !- Name
    ,                         !- Transmittance Schedule Name
    autocalculate,            !- Number of Vertices
    686263.7889401847,        !- Vertex 1 Xcoordinate
    4928723.341130397,        !- Vertex 1 Ycoordinate
    15,                       !- Vertex 1 Zcoordinate
    686263.7889401847,        !- Vertex 2 Xcoordinate
    4928723.341130397,        !- Vertex 2 Ycoordinate
    0,                        !- Vertex 2 Zcoordinate
    686251.6511869907,        !- Vertex 3 Xcoordinate
    4928685.124547473,        !- Vertex 3 Ycoordinate
    0,                        !- Vertex 3 Zcoordinate
    686251.6511869907,        !- Vertex 4 Xcoordinate
    4928685.124547473,        !- Vertex 4 Ycoordinate
    15;                       !- Vertex 4 Zcoordinate

SHADING:SITE:DETAILED,
    shade_31585_4,            !- Name
    ,                         !- Transmittance Schedule Name
    autocalculate,            !- Number of Vertices
    686251.6511869907,        !- Vertex 1 Xcoordinate
    4928685.124547473,        !- Vertex 1 Ycoordinate
    15,                       !- Vertex 1 Zcoordinate
    686251.6511869907,        !- Vertex 2 Xcoordinate
    4928685.124547473,        !- Vertex 2 Ycoordinate
    0,                        !- Vertex 2 Zcoordinate
    686237.0007058785,        !- Vertex 3 Xcoordinate
    4928689.777604085,        !- Vertex 3 Ycoordinate
    0,                        !- Vertex 3 Zcoordinate
    686237.0007058785,        !- Vertex 4 Xcoordinate
    4928689.777604085,        !- Vertex 4 Ycoordinate
    15;                       !- Vertex 4 Zcoordinate

SHADING:SITE:DETAILED,
    shade_31547_1,            !- Name
    ,                         !- Transmittance Schedule Name
    autocalculate,            !- Number of Vertices
    686223.7970515972,        !- Vertex 1 Xcoordinate
    4928699.772852222,        !- Vertex 1 Ycoordinate
    15,                       !- Vertex 1 Zcoordinate
    686223.7970515972,        !- Vertex 2 Xcoordinate
    4928699.772852222,        !- Vertex 2 Ycoordinate
    0,                        !- Vertex 2 Zcoordinate
    686234.3789984966,        !- Vertex 3 Xcoordinate
    4928732.831119192,        !- Vertex 3 Ycoordinate
    0,                        !- Vertex 3 Zcoordinate
    686234.3789984966,        !- Vertex 4 Xcoordinate
    4928732.831119192,        !- Vertex 4 Ycoordinate
    15;                       !- Vertex 4 Zcoordinate

SHADING:SITE:DETAILED,
    shade_31547_2,            !- Name
    ,                         !- Transmittance Schedule Name
    autocalculate,            !- Number of Vertices
    686234.3789984966,        !- Vertex 1 Xcoordinate
    4928732.831119192,        !- Vertex 1 Ycoordinate
    15,                       !- Vertex 1 Zcoordinate
    686234.3789984966,        !- Vertex 2 Xcoordinate
    4928732.831119192,        !- Vertex 2 Ycoordinate
    0,                        !- Vertex 2 Zcoordinate
    686251.0287826282,        !- Vertex 3 Xcoordinate
    4928727.501540321,        !- Vertex 3 Ycoordinate
    0,                        !- Vertex 3 Zcoordinate
    686251.0287826282,        !- Vertex 4 Xcoordinate
    4928727.501540321,        !- Vertex 4 Ycoordinate
    15;                       !- Vertex 4 Zcoordinate

SHADING:SITE:DETAILED,
    shade_31547_3,            !- Name
    ,                         !- Transmittance Schedule Name
    autocalculate,            !- Number of Vertices
    686251.0287826282,        !- Vertex 1 Xcoordinate
    4928727.501540321,        !- Vertex 1 Ycoordinate
    15,                       !- Vertex 1 Zcoordinate
    686251.0287826282,        !- Vertex 2 Xcoordinate
    4928727.501540321,        !- Vertex 2 Ycoordinate
    0,                        !- Vertex 2 Zcoordinate
    686240.4467248354,        !- Vertex 3 Xcoordinate
    4928694.44324305,         !- Vertex 3 Ycoordinate
    0,                        !- Vertex 3 Zcoordinate
    686240.4467248354,        !- Vertex 4 Xcoordinate
    4928694.44324305,         !- Vertex 4 Ycoordinate
    15;                       !- Vertex 4 Zcoordinate

SHADING:SITE:DETAILED,
    shade_31547_4,            !- Name
    ,                         !- Transmittance Schedule Name
    autocalculate,            !- Number of Vertices
    686240.4467248354,        !- Vertex 1 Xcoordinate
    4928694.44324305,         !- Vertex 1 Ycoordinate
    15,                       !- Vertex 1 Zcoordinate
    686240.4467248354,        !- Vertex 2 Xcoordinate
    4928694.44324305,         !- Vertex 2 Ycoordinate
    0,                        !- Vertex 2 Zcoordinate
    686223.7970515972,        !- Vertex 3 Xcoordinate
    4928699.772852222,        !- Vertex 3 Ycoordinate
    0,                        !- Vertex 3 Zcoordinate
    686223.7970515972,        !- Vertex 4 Xcoordinate
    4928699.772852222,        !- Vertex 4 Ycoordinate
    15;                       !- Vertex 4 Zcoordinate

SHADING:SITE:DETAILED,
    shade_31529_1,            !- Name
    ,                         !- Transmittance Schedule Name
    autocalculate,            !- Number of Vertices
    686219.7683146708,        !- Vertex 1 Xcoordinate
    4928706.044686174,        !- Vertex 1 Ycoordinate
    15,                       !- Vertex 1 Zcoordinate
    686219.7683146708,        !- Vertex 2 Xcoordinate
    4928706.044686174,        !- Vertex 2 Ycoordinate
    0,                        !- Vertex 2 Zcoordinate
    686227.9610168927,        !- Vertex 3 Xcoordinate
    4928734.667939563,        !- Vertex 3 Ycoordinate
    0,                        !- Vertex 3 Zcoordinate
    686227.9610168927,        !- Vertex 4 Xcoordinate
    4928734.667939563,        !- Vertex 4 Ycoordinate
    15;                       !- Vertex 4 Zcoordinate

SHADING:SITE:DETAILED,
    shade_31529_2,            !- Name
    ,                         !- Transmittance Schedule Name
    autocalculate,            !- Number of Vertices
    686227.9610168927,        !- Vertex 1 Xcoordinate
    4928734.667939563,        !- Vertex 1 Ycoordinate
    15,                       !- Vertex 1 Zcoordinate
    686227.9610168927,        !- Vertex 2 Xcoordinate
    4928734.667939563,        !- Vertex 2 Ycoordinate
    0,                        !- Vertex 2 Zcoordinate
    686234.3789984966,        !- Vertex 3 Xcoordinate
    4928732.831119192,        !- Vertex 3 Ycoordinate
    0,                        !- Vertex 3 Zcoordinate
    686234.3789984966,        !- Vertex 4 Xcoordinate
    4928732.831119192,        !- Vertex 4 Ycoordinate
    15;                       !- Vertex 4 Zcoordinate

SHADING:SITE:DETAILED,
    shade_31529_3,            !- Name
    ,                         !- Transmittance Schedule Name
    autocalculate,            !- Number of Vertices
    686234.3789984966,        !- Vertex 1 Xcoordinate
    4928732.831119192,        !- Vertex 1 Ycoordinate
    15,                       !- Vertex 1 Zcoordinate
    686234.3789984966,        !- Vertex 2 Xcoordinate
    4928732.831119192,        !- Vertex 2 Ycoordinate
    0,                        !- Vertex 2 Zcoordinate
    686226.1863127833,        !- Vertex 3 Xcoordinate
    4928704.207692079,        !- Vertex 3 Ycoordinate
    0,                        !- Vertex 3 Zcoordinate
    686226.1863127833,        !- Vertex 4 Xcoordinate
    4928704.207692079,        !- Vertex 4 Ycoordinate
    15;                       !- Vertex 4 Zcoordinate

SHADING:SITE:DETAILED,
    shade_31529_4,            !- Name
    ,                         !- Transmittance Schedule Name
    autocalculate,            !- Number of Vertices
    686226.1863127833,        !- Vertex 1 Xcoordinate
    4928704.207692079,        !- Vertex 1 Ycoordinate
    15,                       !- Vertex 1 Zcoordinate
    686226.1863127833,        !- Vertex 2 Xcoordinate
    4928704.207692079,        !- Vertex 2 Ycoordinate
    0,                        !- Vertex 2 Zcoordinate
    686219.7683146708,        !- Vertex 3 Xcoordinate
    4928706.044686174,        !- Vertex 3 Ycoordinate
    0,                        !- Vertex 3 Zcoordinate
    686219.7683146708,        !- Vertex 4 Xcoordinate
    4928706.044686174,        !- Vertex 4 Ycoordinate
    15;                       !- Vertex 4 Zcoordinate

SHADING:SITE:DETAILED,
    shade_31331_1,            !- Name
    ,                         !- Transmittance Schedule Name
    autocalculate,            !- Number of Vertices
    686251.908055992,         !- Vertex 1 Xcoordinate
    4928734.677231337,        !- Vertex 1 Ycoordinate
    15,                       !- Vertex 1 Zcoordinate
    686251.908055992,         !- Vertex 2 Xcoordinate
    4928734.677231337,        !- Vertex 2 Ycoordinate
    0,                        !- Vertex 2 Zcoordinate
    686259.1425825917,        !- Vertex 3 Xcoordinate
    4928762.190817724,        !- Vertex 3 Ycoordinate
    0,                        !- Vertex 3 Zcoordinate
    686259.1425825917,        !- Vertex 4 Xcoordinate
    4928762.190817724,        !- Vertex 4 Ycoordinate
    15;                       !- Vertex 4 Zcoordinate

SHADING:SITE:DETAILED,
    shade_31331_2,            !- Name
    ,                         !- Transmittance Schedule Name
    autocalculate,            !- Number of Vertices
    686259.1425825917,        !- Vertex 1 Xcoordinate
    4928762.190817724,        !- Vertex 1 Ycoordinate
    15,                       !- Vertex 1 Zcoordinate
    686259.1425825917,        !- Vertex 2 Xcoordinate
    4928762.190817724,        !- Vertex 2 Ycoordinate
    0,                        !- Vertex 2 Zcoordinate
    686271.619008046,         !- Vertex 3 Xcoordinate
    4928758.910219173,        !- Vertex 3 Ycoordinate
    0,                        !- Vertex 3 Zcoordinate
    686271.619008046,         !- Vertex 4 Xcoordinate
    4928758.910219173,        !- Vertex 4 Ycoordinate
    15;                       !- Vertex 4 Zcoordinate

SHADING:SITE:DETAILED,
    shade_31331_3,            !- Name
    ,                         !- Transmittance Schedule Name
    autocalculate,            !- Number of Vertices
    686271.619008046,         !- Vertex 1 Xcoordinate
    4928758.910219173,        !- Vertex 1 Ycoordinate
    15,                       !- Vertex 1 Zcoordinate
    686271.619008046,         !- Vertex 2 Xcoordinate
    4928758.910219173,        !- Vertex 2 Ycoordinate
    0,                        !- Vertex 2 Zcoordinate
    686264.3844814462,        !- Vertex 3 Xcoordinate
    4928731.396632785,        !- Vertex 3 Ycoordinate
    0,                        !- Vertex 3 Zcoordinate
    686264.3844814462,        !- Vertex 4 Xcoordinate
    4928731.396632785,        !- Vertex 4 Ycoordinate
    15;                       !- Vertex 4 Zcoordinate

SHADING:SITE:DETAILED,
    shade_31331_4,            !- Name
    ,                         !- Transmittance Schedule Name
    autocalculate,            !- Number of Vertices
    686264.3844814462,        !- Vertex 1 Xcoordinate
    4928731.396632785,        !- Vertex 1 Ycoordinate
    15,                       !- Vertex 1 Zcoordinate
    686264.3844814462,        !- Vertex 2 Xcoordinate
    4928731.396632785,        !- Vertex 2 Ycoordinate
    0,                        !- Vertex 2 Zcoordinate
    686251.908055992,         !- Vertex 3 Xcoordinate
    4928734.677231337,        !- Vertex 3 Ycoordinate
    0,                        !- Vertex 3 Zcoordinate
    686251.908055992,         !- Vertex 4 Xcoordinate
    4928734.677231337,        !- Vertex 4 Ycoordinate
    15;                       !- Vertex 4 Zcoordinate

SHADING:SITE:DETAILED,
    shade_31065_1,            !- Name
    ,                         !- Transmittance Schedule Name
    autocalculate,            !- Number of Vertices
    686361.4695312375,        !- Vertex 1 Xcoordinate
    4928701.39176093,         !- Vertex 1 Ycoordinate
    15,                       !- Vertex 1 Zcoordinate
    686361.4695312375,        !- Vertex 2 Xcoordinate
    4928701.39176093,         !- Vertex 2 Ycoordinate
    0,                        !- Vertex 2 Zcoordinate
    686264.5028232875,        !- Vertex 3 Xcoordinate
    4928732.44549327,         !- Vertex 3 Ycoordinate
    0,                        !- Vertex 3 Zcoordinate
    686264.5028232875,        !- Vertex 4 Xcoordinate
    4928732.44549327,         !- Vertex 4 Ycoordinate
    15;                       !- Vertex 4 Zcoordinate

SHADING:SITE:DETAILED,
    shade_31065_2,            !- Name
    ,                         !- Transmittance Schedule Name
    autocalculate,            !- Number of Vertices
    686264.5028232875,        !- Vertex 1 Xcoordinate
    4928732.44549327,         !- Vertex 1 Ycoordinate
    15,                       !- Vertex 1 Zcoordinate
    686264.5028232875,        !- Vertex 2 Xcoordinate
    4928732.44549327,         !- Vertex 2 Ycoordinate
    0,                        !- Vertex 2 Zcoordinate
    686285.2079984961,        !- Vertex 3 Xcoordinate
    4928797.098119192,        !- Vertex 3 Ycoordinate
    0,                        !- Vertex 3 Zcoordinate
    686285.2079984961,        !- Vertex 4 Xcoordinate
    4928797.098119192,        !- Vertex 4 Ycoordinate
    15;                       !- Vertex 4 Zcoordinate

SHADING:SITE:DETAILED,
    shade_31065_3,            !- Name
    ,                         !- Transmittance Schedule Name
    autocalculate,            !- Number of Vertices
    686285.2079984961,        !- Vertex 1 Xcoordinate
    4928797.098119192,        !- Vertex 1 Ycoordinate
    15,                       !- Vertex 1 Zcoordinate
    686285.2079984961,        !- Vertex 2 Xcoordinate
    4928797.098119192,        !- Vertex 2 Ycoordinate
    0,                        !- Vertex 2 Zcoordinate
    686382.174548028,         !- Vertex 3 Xcoordinate
    4928766.04412855,         !- Vertex 3 Ycoordinate
    0,                        !- Vertex 3 Zcoordinate
    686382.174548028,         !- Vertex 4 Xcoordinate
    4928766.04412855,         !- Vertex 4 Ycoordinate
    15;                       !- Vertex 4 Zcoordinate

SHADING:SITE:DETAILED,
    shade_31065_4,            !- Name
    ,                         !- Transmittance Schedule Name
    autocalculate,            !- Number of Vertices
    686382.174548028,         !- Vertex 1 Xcoordinate
    4928766.04412855,         !- Vertex 1 Ycoordinate
    15,                       !- Vertex 1 Zcoordinate
    686382.174548028,         !- Vertex 2 Xcoordinate
    4928766.04412855,         !- Vertex 2 Ycoordinate
    0,                        !- Vertex 2 Zcoordinate
    686361.4695312375,        !- Vertex 3 Xcoordinate
    4928701.39176093,         !- Vertex 3 Ycoordinate
    0,                        !- Vertex 3 Zcoordinate
    686361.4695312375,        !- Vertex 4 Xcoordinate
    4928701.39176093,         !- Vertex 4 Ycoordinate
    15;                       !- Vertex 4 Zcoordinate

SHADING:SITE:DETAILED,
    shade_31319_1,            !- Name
    ,                         !- Transmittance Schedule Name
    autocalculate,            !- Number of Vertices
    686230.6193446022,        !- Vertex 1 Xcoordinate
    4928741.633188561,        !- Vertex 1 Ycoordinate
    15,                       !- Vertex 1 Zcoordinate
    686230.6193446022,        !- Vertex 2 Xcoordinate
    4928741.633188561,        !- Vertex 2 Ycoordinate
    0,                        !- Vertex 2 Zcoordinate
    686237.479085904,         !- Vertex 3 Xcoordinate
    4928764.611783864,        !- Vertex 3 Ycoordinate
    0,                        !- Vertex 3 Zcoordinate
    686237.479085904,         !- Vertex 4 Xcoordinate
    4928764.611783864,        !- Vertex 4 Ycoordinate
    15;                       !- Vertex 4 Zcoordinate

SHADING:SITE:DETAILED,
    shade_31319_2,            !- Name
    ,                         !- Transmittance Schedule Name
    autocalculate,            !- Number of Vertices
    686237.479085904,         !- Vertex 1 Xcoordinate
    4928764.611783864,        !- Vertex 1 Ycoordinate
    15,                       !- Vertex 1 Zcoordinate
    686237.479085904,         !- Vertex 2 Xcoordinate
    4928764.611783864,        !- Vertex 2 Ycoordinate
    0,                        !- Vertex 2 Zcoordinate
    686246.567529773,         !- Vertex 3 Xcoordinate
    4928761.898633956,        !- Vertex 3 Ycoordinate
    0,                        !- Vertex 3 Zcoordinate
    686246.567529773,         !- Vertex 4 Xcoordinate
    4928761.898633956,        !- Vertex 4 Ycoordinate
    15;                       !- Vertex 4 Zcoordinate

SHADING:SITE:DETAILED,
    shade_31319_3,            !- Name
    ,                         !- Transmittance Schedule Name
    autocalculate,            !- Number of Vertices
    686246.567529773,         !- Vertex 1 Xcoordinate
    4928761.898633956,        !- Vertex 1 Ycoordinate
    15,                       !- Vertex 1 Zcoordinate
    686246.567529773,         !- Vertex 2 Xcoordinate
    4928761.898633956,        !- Vertex 2 Ycoordinate
    0,                        !- Vertex 2 Zcoordinate
    686239.7077884712,        !- Vertex 3 Xcoordinate
    4928738.920038653,        !- Vertex 3 Ycoordinate
    0,                        !- Vertex 3 Zcoordinate
    686239.7077884712,        !- Vertex 4 Xcoordinate
    4928738.920038653,        !- Vertex 4 Ycoordinate
    15;                       !- Vertex 4 Zcoordinate

SHADING:SITE:DETAILED,
    shade_31319_4,            !- Name
    ,                         !- Transmittance Schedule Name
    autocalculate,            !- Number of Vertices
    686239.7077884712,        !- Vertex 1 Xcoordinate
    4928738.920038653,        !- Vertex 1 Ycoordinate
    15,                       !- Vertex 1 Zcoordinate
    686239.7077884712,        !- Vertex 2 Xcoordinate
    4928738.920038653,        !- Vertex 2 Ycoordinate
    0,                        !- Vertex 2 Zcoordinate
    686230.6193446022,        !- Vertex 3 Xcoordinate
    4928741.633188561,        !- Vertex 3 Ycoordinate
    0,                        !- Vertex 3 Zcoordinate
    686230.6193446022,        !- Vertex 4 Xcoordinate
    4928741.633188561,        !- Vertex 4 Ycoordinate
    15;                       !- Vertex 4 Zcoordinate

SHADING:SITE:DETAILED,
    shade_31229_1,            !- Name
    ,                         !- Transmittance Schedule Name
    autocalculate,            !- Number of Vertices
    686239.7661032907,        !- Vertex 1 Xcoordinate
    4928773.765831679,        !- Vertex 1 Ycoordinate
    15,                       !- Vertex 1 Zcoordinate
    686239.7661032907,        !- Vertex 2 Xcoordinate
    4928773.765831679,        !- Vertex 2 Ycoordinate
    0,                        !- Vertex 2 Zcoordinate
    686231.0038786316,        !- Vertex 3 Xcoordinate
    4928741.541809773,        !- Vertex 3 Ycoordinate
    0,                        !- Vertex 3 Zcoordinate
    686231.0038786316,        !- Vertex 4 Xcoordinate
    4928741.541809773,        !- Vertex 4 Ycoordinate
    15;                       !- Vertex 4 Zcoordinate

SHADING:SITE:DETAILED,
    shade_31229_2,            !- Name
    ,                         !- Transmittance Schedule Name
    autocalculate,            !- Number of Vertices
    686231.0038786316,        !- Vertex 1 Xcoordinate
    4928741.541809773,        !- Vertex 1 Ycoordinate
    15,                       !- Vertex 1 Zcoordinate
    686231.0038786316,        !- Vertex 2 Xcoordinate
    4928741.541809773,        !- Vertex 2 Ycoordinate
    0,                        !- Vertex 2 Zcoordinate
    686217.3989984968,        !- Vertex 3 Xcoordinate
    4928745.241119191,        !- Vertex 3 Ycoordinate
    0,                        !- Vertex 3 Zcoordinate
    686217.3989984968,        !- Vertex 4 Xcoordinate
    4928745.241119191,        !- Vertex 4 Ycoordinate
    15;                       !- Vertex 4 Zcoordinate

SHADING:SITE:DETAILED,
    shade_31229_3,            !- Name
    ,                         !- Transmittance Schedule Name
    autocalculate,            !- Number of Vertices
    686217.3989984968,        !- Vertex 1 Xcoordinate
    4928745.241119191,        !- Vertex 1 Ycoordinate
    15,                       !- Vertex 1 Zcoordinate
    686217.3989984968,        !- Vertex 2 Xcoordinate
    4928745.241119191,        !- Vertex 2 Ycoordinate
    0,                        !- Vertex 2 Zcoordinate
    686226.1612804956,        !- Vertex 3 Xcoordinate
    4928777.465199625,        !- Vertex 3 Ycoordinate
    0,                        !- Vertex 3 Zcoordinate
    686226.1612804956,        !- Vertex 4 Xcoordinate
    4928777.465199625,        !- Vertex 4 Ycoordinate
    15;                       !- Vertex 4 Zcoordinate

SHADING:SITE:DETAILED,
    shade_31229_4,            !- Name
    ,                         !- Transmittance Schedule Name
    autocalculate,            !- Number of Vertices
    686226.1612804956,        !- Vertex 1 Xcoordinate
    4928777.465199625,        !- Vertex 1 Ycoordinate
    15,                       !- Vertex 1 Zcoordinate
    686226.1612804956,        !- Vertex 2 Xcoordinate
    4928777.465199625,        !- Vertex 2 Ycoordinate
    0,                        !- Vertex 2 Zcoordinate
    686239.7661032907,        !- Vertex 3 Xcoordinate
    4928773.765831679,        !- Vertex 3 Ycoordinate
    0,                        !- Vertex 3 Zcoordinate
    686239.7661032907,        !- Vertex 4 Xcoordinate
    4928773.765831679,        !- Vertex 4 Ycoordinate
    15;                       !- Vertex 4 Zcoordinate

SHADING:SITE:DETAILED,
    shade_31276_1,            !- Name
    ,                         !- Transmittance Schedule Name
    autocalculate,            !- Number of Vertices
    686271.896119663,         !- Vertex 1 Xcoordinate
    4928758.8450712925,       !- Vertex 1 Ycoordinate
    15,                       !- Vertex 1 Zcoordinate
    686271.896119663,         !- Vertex 2 Xcoordinate
    4928758.8450712925,       !- Vertex 2 Ycoordinate
    0,                        !- Vertex 2 Zcoordinate
    686259.2932161142,        !- Vertex 3 Xcoordinate
    4928761.900882902,        !- Vertex 3 Ycoordinate
    0,                        !- Vertex 3 Zcoordinate
    686259.2932161142,        !- Vertex 4 Xcoordinate
    4928761.900882902,        !- Vertex 4 Ycoordinate
    15;                       !- Vertex 4 Zcoordinate

SHADING:SITE:DETAILED,
    shade_31276_2,            !- Name
    ,                         !- Transmittance Schedule Name
    autocalculate,            !- Number of Vertices
    686259.2932161142,        !- Vertex 1 Xcoordinate
    4928761.900882902,        !- Vertex 1 Ycoordinate
    15,                       !- Vertex 1 Zcoordinate
    686259.2932161142,        !- Vertex 2 Xcoordinate
    4928761.900882902,        !- Vertex 2 Ycoordinate
    0,                        !- Vertex 2 Zcoordinate
    686261.907475912,         !- Vertex 3 Xcoordinate
    4928772.68272036,         !- Vertex 3 Ycoordinate
    0,                        !- Vertex 3 Zcoordinate
    686261.907475912,         !- Vertex 4 Xcoordinate
    4928772.68272036,         !- Vertex 4 Ycoordinate
    15;                       !- Vertex 4 Zcoordinate

SHADING:SITE:DETAILED,
    shade_31276_3,            !- Name
    ,                         !- Transmittance Schedule Name
    autocalculate,            !- Number of Vertices
    686261.907475912,         !- Vertex 1 Xcoordinate
    4928772.68272036,         !- Vertex 1 Ycoordinate
    15,                       !- Vertex 1 Zcoordinate
    686261.907475912,         !- Vertex 2 Xcoordinate
    4928772.68272036,         !- Vertex 2 Ycoordinate
    0,                        !- Vertex 2 Zcoordinate
    686274.5103794609,        !- Vertex 3 Xcoordinate
    4928769.626908751,        !- Vertex 3 Ycoordinate
    0,                        !- Vertex 3 Zcoordinate
    686274.5103794609,        !- Vertex 4 Xcoordinate
    4928769.626908751,        !- Vertex 4 Ycoordinate
    15;                       !- Vertex 4 Zcoordinate

SHADING:SITE:DETAILED,
    shade_31276_4,            !- Name
    ,                         !- Transmittance Schedule Name
    autocalculate,            !- Number of Vertices
    686274.5103794609,        !- Vertex 1 Xcoordinate
    4928769.626908751,        !- Vertex 1 Ycoordinate
    15,                       !- Vertex 1 Zcoordinate
    686274.5103794609,        !- Vertex 2 Xcoordinate
    4928769.626908751,        !- Vertex 2 Ycoordinate
    0,                        !- Vertex 2 Zcoordinate
    686271.896119663,         !- Vertex 3 Xcoordinate
    4928758.8450712925,       !- Vertex 3 Ycoordinate
    0,                        !- Vertex 3 Zcoordinate
    686271.896119663,         !- Vertex 4 Xcoordinate
    4928758.8450712925,       !- Vertex 4 Ycoordinate
    15;                       !- Vertex 4 Zcoordinate

SHADING:SITE:DETAILED,
    shade_31519_1,            !- Name
    ,                         !- Transmittance Schedule Name
    autocalculate,            !- Number of Vertices
    686220.3919984967,        !- Vertex 1 Xcoordinate
    4928736.81611919,         !- Vertex 1 Ycoordinate
    15,                       !- Vertex 1 Zcoordinate
    686220.3919984967,        !- Vertex 2 Xcoordinate
    4928736.81611919,         !- Vertex 2 Ycoordinate
    0,                        !- Vertex 2 Zcoordinate
    686227.9589984968,        !- Vertex 3 Xcoordinate
    4928734.661119192,        !- Vertex 3 Ycoordinate
    0,                        !- Vertex 3 Zcoordinate
    686227.9589984968,        !- Vertex 4 Xcoordinate
    4928734.661119192,        !- Vertex 4 Ycoordinate
    15;                       !- Vertex 4 Zcoordinate

SHADING:SITE:DETAILED,
    shade_31519_2,            !- Name
    ,                         !- Transmittance Schedule Name
    autocalculate,            !- Number of Vertices
    686227.9589984968,        !- Vertex 1 Xcoordinate
    4928734.661119192,        !- Vertex 1 Ycoordinate
    15,                       !- Vertex 1 Zcoordinate
    686227.9589984968,        !- Vertex 2 Xcoordinate
    4928734.661119192,        !- Vertex 2 Ycoordinate
    0,                        !- Vertex 2 Zcoordinate
    686219.8369415349,        !- Vertex 3 Xcoordinate
    4928706.141551934,        !- Vertex 3 Ycoordinate
    0,                        !- Vertex 3 Zcoordinate
    686219.8369415349,        !- Vertex 4 Xcoordinate
    4928706.141551934,        !- Vertex 4 Ycoordinate
    15;                       !- Vertex 4 Zcoordinate

SHADING:SITE:DETAILED,
    shade_31519_3,            !- Name
    ,                         !- Transmittance Schedule Name
    autocalculate,            !- Number of Vertices
    686219.8369415349,        !- Vertex 1 Xcoordinate
    4928706.141551934,        !- Vertex 1 Ycoordinate
    15,                       !- Vertex 1 Zcoordinate
    686219.8369415349,        !- Vertex 2 Xcoordinate
    4928706.141551934,        !- Vertex 2 Ycoordinate
    0,                        !- Vertex 2 Zcoordinate
    686212.269941534,         !- Vertex 3 Xcoordinate
    4928708.29655193,         !- Vertex 3 Ycoordinate
    0,                        !- Vertex 3 Zcoordinate
    686212.269941534,         !- Vertex 4 Xcoordinate
    4928708.29655193,         !- Vertex 4 Ycoordinate
    15;                       !- Vertex 4 Zcoordinate

SHADING:SITE:DETAILED,
    shade_31519_4,            !- Name
    ,                         !- Transmittance Schedule Name
    autocalculate,            !- Number of Vertices
    686212.269941534,         !- Vertex 1 Xcoordinate
    4928708.29655193,         !- Vertex 1 Ycoordinate
    15,                       !- Vertex 1 Zcoordinate
    686212.269941534,         !- Vertex 2 Xcoordinate
    4928708.29655193,         !- Vertex 2 Ycoordinate
    0,                        !- Vertex 2 Zcoordinate
    686220.3919984967,        !- Vertex 3 Xcoordinate
    4928736.81611919,         !- Vertex 3 Ycoordinate
    0,                        !- Vertex 3 Zcoordinate
    686220.3919984967,        !- Vertex 4 Xcoordinate
    4928736.81611919,         !- Vertex 4 Ycoordinate
    15;                       !- Vertex 4 Zcoordinate

SHADING:SITE:DETAILED,
    shade_92821_1,            !- Name
    ,                         !- Transmittance Schedule Name
    autocalculate,            !- Number of Vertices
    686220.4195754591,        !- Vertex 1 Xcoordinate
    4928736.92214102,         !- Vertex 1 Ycoordinate
    15,                       !- Vertex 1 Zcoordinate
    686220.4195754591,        !- Vertex 2 Xcoordinate
    4928736.92214102,         !- Vertex 2 Ycoordinate
    0,                        !- Vertex 2 Zcoordinate
    686212.9529984967,        !- Vertex 3 Xcoordinate
    4928708.258119192,        !- Vertex 3 Ycoordinate
    0,                        !- Vertex 3 Zcoordinate
    686212.9529984967,        !- Vertex 4 Xcoordinate
    4928708.258119192,        !- Vertex 4 Ycoordinate
    15;                       !- Vertex 4 Zcoordinate

SHADING:SITE:DETAILED,
    shade_92821_2,            !- Name
    ,                         !- Transmittance Schedule Name
    autocalculate,            !- Number of Vertices
    686212.9529984967,        !- Vertex 1 Xcoordinate
    4928708.258119192,        !- Vertex 1 Ycoordinate
    15,                       !- Vertex 1 Zcoordinate
    686212.9529984967,        !- Vertex 2 Xcoordinate
    4928708.258119192,        !- Vertex 2 Ycoordinate
    0,                        !- Vertex 2 Zcoordinate
    686198.2536910792,        !- Vertex 3 Xcoordinate
    4928712.087269382,        !- Vertex 3 Ycoordinate
    0,                        !- Vertex 3 Zcoordinate
    686198.2536910792,        !- Vertex 4 Xcoordinate
    4928712.087269382,        !- Vertex 4 Ycoordinate
    15;                       !- Vertex 4 Zcoordinate

SHADING:SITE:DETAILED,
    shade_92821_3,            !- Name
    ,                         !- Transmittance Schedule Name
    autocalculate,            !- Number of Vertices
    686198.2536910792,        !- Vertex 1 Xcoordinate
    4928712.087269382,        !- Vertex 1 Ycoordinate
    15,                       !- Vertex 1 Zcoordinate
    686198.2536910792,        !- Vertex 2 Xcoordinate
    4928712.087269382,        !- Vertex 2 Ycoordinate
    0,                        !- Vertex 2 Zcoordinate
    686205.7202655206,        !- Vertex 3 Xcoordinate
    4928740.751126472,        !- Vertex 3 Ycoordinate
    0,                        !- Vertex 3 Zcoordinate
    686205.7202655206,        !- Vertex 4 Xcoordinate
    4928740.751126472,        !- Vertex 4 Ycoordinate
    15;                       !- Vertex 4 Zcoordinate

SHADING:SITE:DETAILED,
    shade_92821_4,            !- Name
    ,                         !- Transmittance Schedule Name
    autocalculate,            !- Number of Vertices
    686205.7202655206,        !- Vertex 1 Xcoordinate
    4928740.751126472,        !- Vertex 1 Ycoordinate
    15,                       !- Vertex 1 Zcoordinate
    686205.7202655206,        !- Vertex 2 Xcoordinate
    4928740.751126472,        !- Vertex 2 Ycoordinate
    0,                        !- Vertex 2 Zcoordinate
    686220.4195754591,        !- Vertex 3 Xcoordinate
    4928736.92214102,         !- Vertex 3 Ycoordinate
    0,                        !- Vertex 3 Zcoordinate
    686220.4195754591,        !- Vertex 4 Xcoordinate
    4928736.92214102,         !- Vertex 4 Ycoordinate
    15;                       !- Vertex 4 Zcoordinate

SHADING:SITE:DETAILED,
    shade_31289_1,            !- Name
    ,                         !- Transmittance Schedule Name
    autocalculate,            !- Number of Vertices
    686223.8423923551,        !- Vertex 1 Xcoordinate
    4928766.933065958,        !- Vertex 1 Ycoordinate
    15,                       !- Vertex 1 Zcoordinate
    686223.8423923551,        !- Vertex 2 Xcoordinate
    4928766.933065958,        !- Vertex 2 Ycoordinate
    0,                        !- Vertex 2 Zcoordinate
    686217.3989984968,        !- Vertex 3 Xcoordinate
    4928745.241119191,        !- Vertex 3 Ycoordinate
    0,                        !- Vertex 3 Zcoordinate
    686217.3989984968,        !- Vertex 4 Xcoordinate
    4928745.241119191,        !- Vertex 4 Ycoordinate
    15;                       !- Vertex 4 Zcoordinate

SHADING:SITE:DETAILED,
    shade_31289_2,            !- Name
    ,                         !- Transmittance Schedule Name
    autocalculate,            !- Number of Vertices
    686217.3989984968,        !- Vertex 1 Xcoordinate
    4928745.241119191,        !- Vertex 1 Ycoordinate
    15,                       !- Vertex 1 Zcoordinate
    686217.3989984968,        !- Vertex 2 Xcoordinate
    4928745.241119191,        !- Vertex 2 Ycoordinate
    0,                        !- Vertex 2 Zcoordinate
    686210.5209490171,        !- Vertex 3 Xcoordinate
    4928747.284321709,        !- Vertex 3 Ycoordinate
    0,                        !- Vertex 3 Zcoordinate
    686210.5209490171,        !- Vertex 4 Xcoordinate
    4928747.284321709,        !- Vertex 4 Ycoordinate
    15;                       !- Vertex 4 Zcoordinate

SHADING:SITE:DETAILED,
    shade_31289_3,            !- Name
    ,                         !- Transmittance Schedule Name
    autocalculate,            !- Number of Vertices
    686210.5209490171,        !- Vertex 1 Xcoordinate
    4928747.284321709,        !- Vertex 1 Ycoordinate
    15,                       !- Vertex 1 Zcoordinate
    686210.5209490171,        !- Vertex 2 Xcoordinate
    4928747.284321709,        !- Vertex 2 Ycoordinate
    0,                        !- Vertex 2 Zcoordinate
    686216.9644390454,        !- Vertex 3 Xcoordinate
    4928768.976141376,        !- Vertex 3 Ycoordinate
    0,                        !- Vertex 3 Zcoordinate
    686216.9644390454,        !- Vertex 4 Xcoordinate
    4928768.976141376,        !- Vertex 4 Ycoordinate
    15;                       !- Vertex 4 Zcoordinate

SHADING:SITE:DETAILED,
    shade_31289_4,            !- Name
    ,                         !- Transmittance Schedule Name
    autocalculate,            !- Number of Vertices
    686216.9644390454,        !- Vertex 1 Xcoordinate
    4928768.976141376,        !- Vertex 1 Ycoordinate
    15,                       !- Vertex 1 Zcoordinate
    686216.9644390454,        !- Vertex 2 Xcoordinate
    4928768.976141376,        !- Vertex 2 Ycoordinate
    0,                        !- Vertex 2 Zcoordinate
    686223.8423923551,        !- Vertex 3 Xcoordinate
    4928766.933065958,        !- Vertex 3 Ycoordinate
    0,                        !- Vertex 3 Zcoordinate
    686223.8423923551,        !- Vertex 4 Xcoordinate
    4928766.933065958,        !- Vertex 4 Ycoordinate
    15;                       !- Vertex 4 Zcoordinate

SHADING:SITE:DETAILED,
    shade_31158_1,            !- Name
    ,                         !- Transmittance Schedule Name
    autocalculate,            !- Number of Vertices
    686233.0889374714,        !- Vertex 1 Xcoordinate
    4928781.580353964,        !- Vertex 1 Ycoordinate
    15,                       !- Vertex 1 Zcoordinate
    686233.0889374714,        !- Vertex 2 Xcoordinate
    4928781.580353964,        !- Vertex 2 Ycoordinate
    0,                        !- Vertex 2 Zcoordinate
    686223.9444894101,        !- Vertex 3 Xcoordinate
    4928744.827175414,        !- Vertex 3 Ycoordinate
    0,                        !- Vertex 3 Zcoordinate
    686223.9444894101,        !- Vertex 4 Xcoordinate
    4928744.827175414,        !- Vertex 4 Ycoordinate
    15;                       !- Vertex 4 Zcoordinate

SHADING:SITE:DETAILED,
    shade_31158_2,            !- Name
    ,                         !- Transmittance Schedule Name
    autocalculate,            !- Number of Vertices
    686223.9444894101,        !- Vertex 1 Xcoordinate
    4928744.827175414,        !- Vertex 1 Ycoordinate
    15,                       !- Vertex 1 Zcoordinate
    686223.9444894101,        !- Vertex 2 Xcoordinate
    4928744.827175414,        !- Vertex 2 Ycoordinate
    0,                        !- Vertex 2 Zcoordinate
    686200.6963555479,        !- Vertex 3 Xcoordinate
    4928750.611473834,        !- Vertex 3 Ycoordinate
    0,                        !- Vertex 3 Zcoordinate
    686200.6963555479,        !- Vertex 4 Xcoordinate
    4928750.611473834,        !- Vertex 4 Ycoordinate
    15;                       !- Vertex 4 Zcoordinate

SHADING:SITE:DETAILED,
    shade_31158_3,            !- Name
    ,                         !- Transmittance Schedule Name
    autocalculate,            !- Number of Vertices
    686200.6963555479,        !- Vertex 1 Xcoordinate
    4928750.611473834,        !- Vertex 1 Ycoordinate
    15,                       !- Vertex 1 Zcoordinate
    686200.6963555479,        !- Vertex 2 Xcoordinate
    4928750.611473834,        !- Vertex 2 Ycoordinate
    0,                        !- Vertex 2 Zcoordinate
    686209.840803609,         !- Vertex 3 Xcoordinate
    4928787.364652384,        !- Vertex 3 Ycoordinate
    0,                        !- Vertex 3 Zcoordinate
    686209.840803609,         !- Vertex 4 Xcoordinate
    4928787.364652384,        !- Vertex 4 Ycoordinate
    15;                       !- Vertex 4 Zcoordinate

SHADING:SITE:DETAILED,
    shade_31158_4,            !- Name
    ,                         !- Transmittance Schedule Name
    autocalculate,            !- Number of Vertices
    686209.840803609,         !- Vertex 1 Xcoordinate
    4928787.364652384,        !- Vertex 1 Ycoordinate
    15,                       !- Vertex 1 Zcoordinate
    686209.840803609,         !- Vertex 2 Xcoordinate
    4928787.364652384,        !- Vertex 2 Ycoordinate
    0,                        !- Vertex 2 Zcoordinate
    686233.0889374714,        !- Vertex 3 Xcoordinate
    4928781.580353964,        !- Vertex 3 Ycoordinate
    0,                        !- Vertex 3 Zcoordinate
    686233.0889374714,        !- Vertex 4 Xcoordinate
    4928781.580353964,        !- Vertex 4 Ycoordinate
    15;                       !- Vertex 4 Zcoordinate

SHADING:SITE:DETAILED,
    shade_31141_1,            !- Name
    ,                         !- Transmittance Schedule Name
    autocalculate,            !- Number of Vertices
    686277.6479984963,        !- Vertex 1 Xcoordinate
    4928782.949119192,        !- Vertex 1 Ycoordinate
    15,                       !- Vertex 1 Zcoordinate
    686277.6479984963,        !- Vertex 2 Xcoordinate
    4928782.949119192,        !- Vertex 2 Ycoordinate
    0,                        !- Vertex 2 Zcoordinate
    686273.484040841,         !- Vertex 3 Xcoordinate
    4928765.290615603,        !- Vertex 3 Ycoordinate
    0,                        !- Vertex 3 Zcoordinate
    686273.484040841,         !- Vertex 4 Xcoordinate
    4928765.290615603,        !- Vertex 4 Ycoordinate
    15;                       !- Vertex 4 Zcoordinate

SHADING:SITE:DETAILED,
    shade_31141_2,            !- Name
    ,                         !- Transmittance Schedule Name
    autocalculate,            !- Number of Vertices
    686273.484040841,         !- Vertex 1 Xcoordinate
    4928765.290615603,        !- Vertex 1 Ycoordinate
    15,                       !- Vertex 1 Zcoordinate
    686273.484040841,         !- Vertex 2 Xcoordinate
    4928765.290615603,        !- Vertex 2 Ycoordinate
    0,                        !- Vertex 2 Zcoordinate
    686254.5400621243,        !- Vertex 3 Xcoordinate
    4928769.757635741,        !- Vertex 3 Ycoordinate
    0,                        !- Vertex 3 Zcoordinate
    686254.5400621243,        !- Vertex 4 Xcoordinate
    4928769.757635741,        !- Vertex 4 Ycoordinate
    15;                       !- Vertex 4 Zcoordinate

SHADING:SITE:DETAILED,
    shade_31141_3,            !- Name
    ,                         !- Transmittance Schedule Name
    autocalculate,            !- Number of Vertices
    686254.5400621243,        !- Vertex 1 Xcoordinate
    4928769.757635741,        !- Vertex 1 Ycoordinate
    15,                       !- Vertex 1 Zcoordinate
    686254.5400621243,        !- Vertex 2 Xcoordinate
    4928769.757635741,        !- Vertex 2 Ycoordinate
    0,                        !- Vertex 2 Zcoordinate
    686258.7040143881,        !- Vertex 3 Xcoordinate
    4928787.416347934,        !- Vertex 3 Ycoordinate
    0,                        !- Vertex 3 Zcoordinate
    686258.7040143881,        !- Vertex 4 Xcoordinate
    4928787.416347934,        !- Vertex 4 Ycoordinate
    15;                       !- Vertex 4 Zcoordinate

SHADING:SITE:DETAILED,
    shade_31141_4,            !- Name
    ,                         !- Transmittance Schedule Name
    autocalculate,            !- Number of Vertices
    686258.7040143881,        !- Vertex 1 Xcoordinate
    4928787.416347934,        !- Vertex 1 Ycoordinate
    15,                       !- Vertex 1 Zcoordinate
    686258.7040143881,        !- Vertex 2 Xcoordinate
    4928787.416347934,        !- Vertex 2 Ycoordinate
    0,                        !- Vertex 2 Zcoordinate
    686277.6479984963,        !- Vertex 3 Xcoordinate
    4928782.949119192,        !- Vertex 3 Ycoordinate
    0,                        !- Vertex 3 Zcoordinate
    686277.6479984963,        !- Vertex 4 Xcoordinate
    4928782.949119192,        !- Vertex 4 Ycoordinate
    15;                       !- Vertex 4 Zcoordinate

SHADING:SITE:DETAILED,
    shade_31029_1,            !- Name
    ,                         !- Transmittance Schedule Name
    autocalculate,            !- Number of Vertices
    686275.2709984963,        !- Vertex 1 Xcoordinate
    4928802.717119192,        !- Vertex 1 Ycoordinate
    15,                       !- Vertex 1 Zcoordinate
    686275.2709984963,        !- Vertex 2 Xcoordinate
    4928802.717119192,        !- Vertex 2 Ycoordinate
    0,                        !- Vertex 2 Zcoordinate
    686281.9579984962,        !- Vertex 3 Xcoordinate
    4928801.25811919,         !- Vertex 3 Ycoordinate
    0,                        !- Vertex 3 Zcoordinate
    686281.9579984962,        !- Vertex 4 Xcoordinate
    4928801.25811919,         !- Vertex 4 Ycoordinate
    15;                       !- Vertex 4 Zcoordinate

SHADING:SITE:DETAILED,
    shade_31029_2,            !- Name
    ,                         !- Transmittance Schedule Name
    autocalculate,            !- Number of Vertices
    686281.9579984962,        !- Vertex 1 Xcoordinate
    4928801.25811919,         !- Vertex 1 Ycoordinate
    15,                       !- Vertex 1 Zcoordinate
    686281.9579984962,        !- Vertex 2 Xcoordinate
    4928801.25811919,         !- Vertex 2 Ycoordinate
    0,                        !- Vertex 2 Zcoordinate
    686277.9319676455,        !- Vertex 3 Xcoordinate
    4928782.8053440275,       !- Vertex 3 Ycoordinate
    0,                        !- Vertex 3 Zcoordinate
    686277.9319676455,        !- Vertex 4 Xcoordinate
    4928782.8053440275,       !- Vertex 4 Ycoordinate
    15;                       !- Vertex 4 Zcoordinate

SHADING:SITE:DETAILED,
    shade_31029_3,            !- Name
    ,                         !- Transmittance Schedule Name
    autocalculate,            !- Number of Vertices
    686277.9319676455,        !- Vertex 1 Xcoordinate
    4928782.8053440275,       !- Vertex 1 Ycoordinate
    15,                       !- Vertex 1 Zcoordinate
    686277.9319676455,        !- Vertex 2 Xcoordinate
    4928782.8053440275,       !- Vertex 2 Ycoordinate
    0,                        !- Vertex 2 Zcoordinate
    686271.2449676454,        !- Vertex 3 Xcoordinate
    4928784.264344028,        !- Vertex 3 Ycoordinate
    0,                        !- Vertex 3 Zcoordinate
    686271.2449676454,        !- Vertex 4 Xcoordinate
    4928784.264344028,        !- Vertex 4 Ycoordinate
    15;                       !- Vertex 4 Zcoordinate

SHADING:SITE:DETAILED,
    shade_31029_4,            !- Name
    ,                         !- Transmittance Schedule Name
    autocalculate,            !- Number of Vertices
    686271.2449676454,        !- Vertex 1 Xcoordinate
    4928784.264344028,        !- Vertex 1 Ycoordinate
    15,                       !- Vertex 1 Zcoordinate
    686271.2449676454,        !- Vertex 2 Xcoordinate
    4928784.264344028,        !- Vertex 2 Ycoordinate
    0,                        !- Vertex 2 Zcoordinate
    686275.2709984963,        !- Vertex 3 Xcoordinate
    4928802.717119192,        !- Vertex 3 Ycoordinate
    0,                        !- Vertex 3 Zcoordinate
    686275.2709984963,        !- Vertex 4 Xcoordinate
    4928802.717119192,        !- Vertex 4 Ycoordinate
    15;                       !- Vertex 4 Zcoordinate

SHADING:SITE:DETAILED,
    shade_30980_1,            !- Name
    ,                         !- Transmittance Schedule Name
    autocalculate,            !- Number of Vertices
    686248.4973735483,        !- Vertex 1 Xcoordinate
    4928779.286042668,        !- Vertex 1 Ycoordinate
    15,                       !- Vertex 1 Zcoordinate
    686248.4973735483,        !- Vertex 2 Xcoordinate
    4928779.286042668,        !- Vertex 2 Ycoordinate
    0,                        !- Vertex 2 Zcoordinate
    686254.5951297055,        !- Vertex 3 Xcoordinate
    4928808.5059444215,       !- Vertex 3 Ycoordinate
    0,                        !- Vertex 3 Zcoordinate
    686254.5951297055,        !- Vertex 4 Xcoordinate
    4928808.5059444215,       !- Vertex 4 Ycoordinate
    15;                       !- Vertex 4 Zcoordinate

SHADING:SITE:DETAILED,
    shade_30980_2,            !- Name
    ,                         !- Transmittance Schedule Name
    autocalculate,            !- Number of Vertices
    686254.5951297055,        !- Vertex 1 Xcoordinate
    4928808.5059444215,       !- Vertex 1 Ycoordinate
    15,                       !- Vertex 1 Zcoordinate
    686254.5951297055,        !- Vertex 2 Xcoordinate
    4928808.5059444215,       !- Vertex 2 Ycoordinate
    0,                        !- Vertex 2 Zcoordinate
    686263.1227174575,        !- Vertex 3 Xcoordinate
    4928806.72636449,         !- Vertex 3 Ycoordinate
    0,                        !- Vertex 3 Zcoordinate
    686263.1227174575,        !- Vertex 4 Xcoordinate
    4928806.72636449,         !- Vertex 4 Ycoordinate
    15;                       !- Vertex 4 Zcoordinate

SHADING:SITE:DETAILED,
    shade_30980_3,            !- Name
    ,                         !- Transmittance Schedule Name
    autocalculate,            !- Number of Vertices
    686263.1227174575,        !- Vertex 1 Xcoordinate
    4928806.72636449,         !- Vertex 1 Ycoordinate
    15,                       !- Vertex 1 Zcoordinate
    686263.1227174575,        !- Vertex 2 Xcoordinate
    4928806.72636449,         !- Vertex 2 Ycoordinate
    0,                        !- Vertex 2 Zcoordinate
    686257.0249613002,        !- Vertex 3 Xcoordinate
    4928777.506462736,        !- Vertex 3 Ycoordinate
    0,                        !- Vertex 3 Zcoordinate
    686257.0249613002,        !- Vertex 4 Xcoordinate
    4928777.506462736,        !- Vertex 4 Ycoordinate
    15;                       !- Vertex 4 Zcoordinate

SHADING:SITE:DETAILED,
    shade_30980_4,            !- Name
    ,                         !- Transmittance Schedule Name
    autocalculate,            !- Number of Vertices
    686257.0249613002,        !- Vertex 1 Xcoordinate
    4928777.506462736,        !- Vertex 1 Ycoordinate
    15,                       !- Vertex 1 Zcoordinate
    686257.0249613002,        !- Vertex 2 Xcoordinate
    4928777.506462736,        !- Vertex 2 Ycoordinate
    0,                        !- Vertex 2 Zcoordinate
    686248.4973735483,        !- Vertex 3 Xcoordinate
    4928779.286042668,        !- Vertex 3 Ycoordinate
    0,                        !- Vertex 3 Zcoordinate
    686248.4973735483,        !- Vertex 4 Xcoordinate
    4928779.286042668,        !- Vertex 4 Ycoordinate
    15;                       !- Vertex 4 Zcoordinate

SHADING:SITE:DETAILED,
    shade_31018_1,            !- Name
    ,                         !- Transmittance Schedule Name
    autocalculate,            !- Number of Vertices
    686275.2879364225,        !- Vertex 1 Xcoordinate
    4928802.7992105875,       !- Vertex 1 Ycoordinate
    15,                       !- Vertex 1 Zcoordinate
    686275.2879364225,        !- Vertex 2 Xcoordinate
    4928802.7992105875,       !- Vertex 2 Ycoordinate
    0,                        !- Vertex 2 Zcoordinate
    686271.48457469,          !- Vertex 3 Xcoordinate
    4928784.213977608,        !- Vertex 3 Ycoordinate
    0,                        !- Vertex 3 Zcoordinate
    686271.48457469,          !- Vertex 4 Xcoordinate
    4928784.213977608,        !- Vertex 4 Ycoordinate
    15;                       !- Vertex 4 Zcoordinate

SHADING:SITE:DETAILED,
    shade_31018_2,            !- Name
    ,                         !- Transmittance Schedule Name
    autocalculate,            !- Number of Vertices
    686271.48457469,          !- Vertex 1 Xcoordinate
    4928784.213977608,        !- Vertex 1 Ycoordinate
    15,                       !- Vertex 1 Zcoordinate
    686271.48457469,          !- Vertex 2 Xcoordinate
    4928784.213977608,        !- Vertex 2 Ycoordinate
    0,                        !- Vertex 2 Zcoordinate
    686265.235750115,         !- Vertex 3 Xcoordinate
    4928785.492763852,        !- Vertex 3 Ycoordinate
    0,                        !- Vertex 3 Zcoordinate
    686265.235750115,         !- Vertex 4 Xcoordinate
    4928785.492763852,        !- Vertex 4 Ycoordinate
    15;                       !- Vertex 4 Zcoordinate

SHADING:SITE:DETAILED,
    shade_31018_3,            !- Name
    ,                         !- Transmittance Schedule Name
    autocalculate,            !- Number of Vertices
    686265.235750115,         !- Vertex 1 Xcoordinate
    4928785.492763852,        !- Vertex 1 Ycoordinate
    15,                       !- Vertex 1 Zcoordinate
    686265.235750115,         !- Vertex 2 Xcoordinate
    4928785.492763852,        !- Vertex 2 Ycoordinate
    0,                        !- Vertex 2 Zcoordinate
    686269.0389984964,        !- Vertex 3 Xcoordinate
    4928804.07811919,         !- Vertex 3 Ycoordinate
    0,                        !- Vertex 3 Zcoordinate
    686269.0389984964,        !- Vertex 4 Xcoordinate
    4928804.07811919,         !- Vertex 4 Ycoordinate
    15;                       !- Vertex 4 Zcoordinate

SHADING:SITE:DETAILED,
    shade_31018_4,            !- Name
    ,                         !- Transmittance Schedule Name
    autocalculate,            !- Number of Vertices
    686269.0389984964,        !- Vertex 1 Xcoordinate
    4928804.07811919,         !- Vertex 1 Ycoordinate
    15,                       !- Vertex 1 Zcoordinate
    686269.0389984964,        !- Vertex 2 Xcoordinate
    4928804.07811919,         !- Vertex 2 Ycoordinate
    0,                        !- Vertex 2 Zcoordinate
    686275.2879364225,        !- Vertex 3 Xcoordinate
    4928802.7992105875,       !- Vertex 3 Ycoordinate
    0,                        !- Vertex 3 Zcoordinate
    686275.2879364225,        !- Vertex 4 Xcoordinate
    4928802.7992105875,       !- Vertex 4 Ycoordinate
    15;                       !- Vertex 4 Zcoordinate

SHADING:SITE:DETAILED,
    shade_30971_1,            !- Name
    ,                         !- Transmittance Schedule Name
    autocalculate,            !- Number of Vertices
    686244.4793214784,        !- Vertex 1 Xcoordinate
    4928810.1273162225,       !- Vertex 1 Ycoordinate
    15,                       !- Vertex 1 Zcoordinate
    686244.4793214784,        !- Vertex 2 Xcoordinate
    4928810.1273162225,       !- Vertex 2 Ycoordinate
    0,                        !- Vertex 2 Zcoordinate
    686254.7225398833,        !- Vertex 3 Xcoordinate
    4928807.895796801,        !- Vertex 3 Ycoordinate
    0,                        !- Vertex 3 Zcoordinate
    686254.7225398833,        !- Vertex 4 Xcoordinate
    4928807.895796801,        !- Vertex 4 Ycoordinate
    15;                       !- Vertex 4 Zcoordinate

SHADING:SITE:DETAILED,
    shade_30971_2,            !- Name
    ,                         !- Transmittance Schedule Name
    autocalculate,            !- Number of Vertices
    686254.7225398833,        !- Vertex 1 Xcoordinate
    4928807.895796801,        !- Vertex 1 Ycoordinate
    15,                       !- Vertex 1 Zcoordinate
    686254.7225398833,        !- Vertex 2 Xcoordinate
    4928807.895796801,        !- Vertex 2 Ycoordinate
    0,                        !- Vertex 2 Zcoordinate
    686248.2920687698,        !- Vertex 3 Xcoordinate
    4928778.378365964,        !- Vertex 3 Ycoordinate
    0,                        !- Vertex 3 Zcoordinate
    686248.2920687698,        !- Vertex 4 Xcoordinate
    4928778.378365964,        !- Vertex 4 Ycoordinate
    15;                       !- Vertex 4 Zcoordinate

SHADING:SITE:DETAILED,
    shade_30971_3,            !- Name
    ,                         !- Transmittance Schedule Name
    autocalculate,            !- Number of Vertices
    686248.2920687698,        !- Vertex 1 Xcoordinate
    4928778.378365964,        !- Vertex 1 Ycoordinate
    15,                       !- Vertex 1 Zcoordinate
    686248.2920687698,        !- Vertex 2 Xcoordinate
    4928778.378365964,        !- Vertex 2 Ycoordinate
    0,                        !- Vertex 2 Zcoordinate
    686238.0489984965,        !- Vertex 3 Xcoordinate
    4928780.610119192,        !- Vertex 3 Ycoordinate
    0,                        !- Vertex 3 Zcoordinate
    686238.0489984965,        !- Vertex 4 Xcoordinate
    4928780.610119192,        !- Vertex 4 Ycoordinate
    15;                       !- Vertex 4 Zcoordinate

SHADING:SITE:DETAILED,
    shade_30971_4,            !- Name
    ,                         !- Transmittance Schedule Name
    autocalculate,            !- Number of Vertices
    686238.0489984965,        !- Vertex 1 Xcoordinate
    4928780.610119192,        !- Vertex 1 Ycoordinate
    15,                       !- Vertex 1 Zcoordinate
    686238.0489984965,        !- Vertex 2 Xcoordinate
    4928780.610119192,        !- Vertex 2 Ycoordinate
    0,                        !- Vertex 2 Zcoordinate
    686244.4793214784,        !- Vertex 3 Xcoordinate
    4928810.1273162225,       !- Vertex 3 Ycoordinate
    0,                        !- Vertex 3 Zcoordinate
    686244.4793214784,        !- Vertex 4 Xcoordinate
    4928810.1273162225,       !- Vertex 4 Ycoordinate
    15;                       !- Vertex 4 Zcoordinate

SHADING:SITE:DETAILED,
    shade_31005_1,            !- Name
    ,                         !- Transmittance Schedule Name
    autocalculate,            !- Number of Vertices
    686258.893042252,         !- Vertex 1 Xcoordinate
    4928786.828362949,        !- Vertex 1 Ycoordinate
    15,                       !- Vertex 1 Zcoordinate
    686258.893042252,         !- Vertex 2 Xcoordinate
    4928786.828362949,        !- Vertex 2 Ycoordinate
    0,                        !- Vertex 2 Zcoordinate
    686262.8389984964,        !- Vertex 3 Xcoordinate
    4928805.429119192,        !- Vertex 3 Ycoordinate
    0,                        !- Vertex 3 Zcoordinate
    686262.8389984964,        !- Vertex 4 Xcoordinate
    4928805.429119192,        !- Vertex 4 Ycoordinate
    15;                       !- Vertex 4 Zcoordinate

SHADING:SITE:DETAILED,
    shade_31005_2,            !- Name
    ,                         !- Transmittance Schedule Name
    autocalculate,            !- Number of Vertices
    686262.8389984964,        !- Vertex 1 Xcoordinate
    4928805.429119192,        !- Vertex 1 Ycoordinate
    15,                       !- Vertex 1 Zcoordinate
    686262.8389984964,        !- Vertex 2 Xcoordinate
    4928805.429119192,        !- Vertex 2 Ycoordinate
    0,                        !- Vertex 2 Zcoordinate
    686269.1985154359,        !- Vertex 3 Xcoordinate
    4928804.080055238,        !- Vertex 3 Ycoordinate
    0,                        !- Vertex 3 Zcoordinate
    686269.1985154359,        !- Vertex 4 Xcoordinate
    4928804.080055238,        !- Vertex 4 Ycoordinate
    15;                       !- Vertex 4 Zcoordinate

SHADING:SITE:DETAILED,
    shade_31005_3,            !- Name
    ,                         !- Transmittance Schedule Name
    autocalculate,            !- Number of Vertices
    686269.1985154359,        !- Vertex 1 Xcoordinate
    4928804.080055238,        !- Vertex 1 Ycoordinate
    15,                       !- Vertex 1 Zcoordinate
    686269.1985154359,        !- Vertex 2 Xcoordinate
    4928804.080055238,        !- Vertex 2 Ycoordinate
    0,                        !- Vertex 2 Zcoordinate
    686265.2525534471,        !- Vertex 3 Xcoordinate
    4928785.479259913,        !- Vertex 3 Ycoordinate
    0,                        !- Vertex 3 Zcoordinate
    686265.2525534471,        !- Vertex 4 Xcoordinate
    4928785.479259913,        !- Vertex 4 Ycoordinate
    15;                       !- Vertex 4 Zcoordinate

SHADING:SITE:DETAILED,
    shade_31005_4,            !- Name
    ,                         !- Transmittance Schedule Name
    autocalculate,            !- Number of Vertices
    686265.2525534471,        !- Vertex 1 Xcoordinate
    4928785.479259913,        !- Vertex 1 Ycoordinate
    15,                       !- Vertex 1 Zcoordinate
    686265.2525534471,        !- Vertex 2 Xcoordinate
    4928785.479259913,        !- Vertex 2 Ycoordinate
    0,                        !- Vertex 2 Zcoordinate
    686258.893042252,         !- Vertex 3 Xcoordinate
    4928786.828362949,        !- Vertex 3 Ycoordinate
    0,                        !- Vertex 3 Zcoordinate
    686258.893042252,         !- Vertex 4 Xcoordinate
    4928786.828362949,        !- Vertex 4 Ycoordinate
    15;                       !- Vertex 4 Zcoordinate

SHADING:SITE:DETAILED,
    shade_30954_1,            !- Name
    ,                         !- Transmittance Schedule Name
    autocalculate,            !- Number of Vertices
    686245.0689984965,        !- Vertex 1 Xcoordinate
    4928809.9991191905,       !- Vertex 1 Ycoordinate
    15,                       !- Vertex 1 Zcoordinate
    686245.0689984965,        !- Vertex 2 Xcoordinate
    4928809.9991191905,       !- Vertex 2 Ycoordinate
    0,                        !- Vertex 2 Zcoordinate
    686237.7081302401,        !- Vertex 3 Xcoordinate
    4928779.182637751,        !- Vertex 3 Ycoordinate
    0,                        !- Vertex 3 Zcoordinate
    686237.7081302401,        !- Vertex 4 Xcoordinate
    4928779.182637751,        !- Vertex 4 Ycoordinate
    15;                       !- Vertex 4 Zcoordinate

SHADING:SITE:DETAILED,
    shade_30954_2,            !- Name
    ,                         !- Transmittance Schedule Name
    autocalculate,            !- Number of Vertices
    686237.7081302401,        !- Vertex 1 Xcoordinate
    4928779.182637751,        !- Vertex 1 Ycoordinate
    15,                       !- Vertex 1 Zcoordinate
    686237.7081302401,        !- Vertex 2 Xcoordinate
    4928779.182637751,        !- Vertex 2 Ycoordinate
    0,                        !- Vertex 2 Zcoordinate
    686225.4049984968,        !- Vertex 3 Xcoordinate
    4928782.121119191,        !- Vertex 3 Ycoordinate
    0,                        !- Vertex 3 Zcoordinate
    686225.4049984968,        !- Vertex 4 Xcoordinate
    4928782.121119191,        !- Vertex 4 Ycoordinate
    15;                       !- Vertex 4 Zcoordinate

SHADING:SITE:DETAILED,
    shade_30954_3,            !- Name
    ,                         !- Transmittance Schedule Name
    autocalculate,            !- Number of Vertices
    686225.4049984968,        !- Vertex 1 Xcoordinate
    4928782.121119191,        !- Vertex 1 Ycoordinate
    15,                       !- Vertex 1 Zcoordinate
    686225.4049984968,        !- Vertex 2 Xcoordinate
    4928782.121119191,        !- Vertex 2 Ycoordinate
    0,                        !- Vertex 2 Zcoordinate
    686232.7662067589,        !- Vertex 3 Xcoordinate
    4928812.938128743,        !- Vertex 3 Ycoordinate
    0,                        !- Vertex 3 Zcoordinate
    686232.7662067589,        !- Vertex 4 Xcoordinate
    4928812.938128743,        !- Vertex 4 Ycoordinate
    15;                       !- Vertex 4 Zcoordinate

SHADING:SITE:DETAILED,
    shade_30954_4,            !- Name
    ,                         !- Transmittance Schedule Name
    autocalculate,            !- Number of Vertices
    686232.7662067589,        !- Vertex 1 Xcoordinate
    4928812.938128743,        !- Vertex 1 Ycoordinate
    15,                       !- Vertex 1 Zcoordinate
    686232.7662067589,        !- Vertex 2 Xcoordinate
    4928812.938128743,        !- Vertex 2 Ycoordinate
    0,                        !- Vertex 2 Zcoordinate
    686245.0689984965,        !- Vertex 3 Xcoordinate
    4928809.9991191905,       !- Vertex 3 Ycoordinate
    0,                        !- Vertex 3 Zcoordinate
    686245.0689984965,        !- Vertex 4 Xcoordinate
    4928809.9991191905,       !- Vertex 4 Ycoordinate
    15;                       !- Vertex 4 Zcoordinate

OTHEREQUIPMENT,
    EU_Step8_InternalGain_635e498716218cea_F0_whole_f000,    !- Name
    Electricity,              !- Fuel Type
    635e498716218cea_F0_whole,    !- Zone or ZoneList or Space or SpaceList Name
    EU_Step8_GainSchedule_635e498716218cea_F0_whole_f000,    !- Schedule Name
    Watts/Area,               !- Design Level Calculation Method
    ,                         !- Design Level
    1,                        !- Power per Zone Floor Area
    ,                         !- Power per Person
    0,                        !- Fraction Latent
    0,                        !- Fraction Radiant
    0,                        !- Fraction Lost
    0,                        !- Carbon Dioxide Generation Rate
    EU_Step8_InternalGains;    !- EndUse Subcategory

OTHEREQUIPMENT,
    EU_Step8_InternalGain_635e498716218cea_F1_whole_f000,    !- Name
    Electricity,              !- Fuel Type
    635e498716218cea_F1_whole,    !- Zone or ZoneList or Space or SpaceList Name
    EU_Step8_GainSchedule_635e498716218cea_F1_whole_f000,    !- Schedule Name
    Watts/Area,               !- Design Level Calculation Method
    ,                         !- Design Level
    1,                        !- Power per Zone Floor Area
    ,                         !- Power per Person
    0,                        !- Fraction Latent
    0,                        !- Fraction Radiant
    0,                        !- Fraction Lost
    0,                        !- Carbon Dioxide Generation Rate
    EU_Step8_InternalGains;    !- EndUse Subcategory

OTHEREQUIPMENT,
    EU_Step8_InternalGain_635e498716218cea_F2_whole_f000,    !- Name
    Electricity,              !- Fuel Type
    635e498716218cea_F2_whole,    !- Zone or ZoneList or Space or SpaceList Name
    EU_Step8_GainSchedule_635e498716218cea_F2_whole_f000,    !- Schedule Name
    Watts/Area,               !- Design Level Calculation Method
    ,                         !- Design Level
    1,                        !- Power per Zone Floor Area
    ,                         !- Power per Person
    0,                        !- Fraction Latent
    0,                        !- Fraction Radiant
    0,                        !- Fraction Lost
    0,                        !- Carbon Dioxide Generation Rate
    EU_Step8_InternalGains;    !- EndUse Subcategory

OTHEREQUIPMENT,
    EU_Step8_InternalGain_635e498716218cea_F3_whole_f000,    !- Name
    Electricity,              !- Fuel Type
    635e498716218cea_F3_whole,    !- Zone or ZoneList or Space or SpaceList Name
    EU_Step8_GainSchedule_635e498716218cea_F3_whole_f000,    !- Schedule Name
    Watts/Area,               !- Design Level Calculation Method
    ,                         !- Design Level
    1,                        !- Power per Zone Floor Area
    ,                         !- Power per Person
    0,                        !- Fraction Latent
    0,                        !- Fraction Radiant
    0,                        !- Fraction Lost
    0,                        !- Carbon Dioxide Generation Rate
    EU_Step8_InternalGains;    !- EndUse Subcategory

OTHEREQUIPMENT,
    EU_Step8_InternalGain_635e498716218cea_F4_whole_f000,    !- Name
    Electricity,              !- Fuel Type
    635e498716218cea_F4_whole,    !- Zone or ZoneList or Space or SpaceList Name
    EU_Step8_GainSchedule_635e498716218cea_F4_whole_f000,    !- Schedule Name
    Watts/Area,               !- Design Level Calculation Method
    ,                         !- Design Level
    1,                        !- Power per Zone Floor Area
    ,                         !- Power per Person
    0,                        !- Fraction Latent
    0,                        !- Fraction Radiant
    0,                        !- Fraction Lost
    0,                        !- Carbon Dioxide Generation Rate
    EU_Step8_InternalGains;    !- EndUse Subcategory

OTHEREQUIPMENT,
    EU_Step8_InternalGain_635e498716218cea_F5_whole_f000,    !- Name
    Electricity,              !- Fuel Type
    635e498716218cea_F5_whole,    !- Zone or ZoneList or Space or SpaceList Name
    EU_Step8_GainSchedule_635e498716218cea_F5_whole_f000,    !- Schedule Name
    Watts/Area,               !- Design Level Calculation Method
    ,                         !- Design Level
    1,                        !- Power per Zone Floor Area
    ,                         !- Power per Person
    0,                        !- Fraction Latent
    0,                        !- Fraction Radiant
    0,                        !- Fraction Lost
    0,                        !- Carbon Dioxide Generation Rate
    EU_Step8_InternalGains;    !- EndUse Subcategory

ZONEVENTILATION:DESIGNFLOWRATE,
    EU_ConstantAir_635e498716218cea_F0_whole,    !- Name
    635e498716218cea_F0_whole,    !- Zone or ZoneList or Space or SpaceList Name
    EU_AlwaysOn,              !- Schedule Name
    AirChanges/Hour,          !- Design Flow Rate Calculation Method
    ,                         !- Design Flow Rate
    ,                         !- Flow Rate per Floor Area
    ,                         !- Flow Rate per Person
    0.7312898234710613,       !- Air Changes per Hour
    Natural,                  !- Ventilation Type
    0,                        !- Fan Pressure Rise
    1,                        !- Fan Total Efficiency
    1,                        !- Constant Term Coefficient
    0,                        !- Temperature Term Coefficient
    0,                        !- Velocity Term Coefficient
    0,                        !- Velocity Squared Term Coefficient
    -100,                     !- Minimum Indoor Temperature
    ,                         !- Minimum Indoor Temperature Schedule Name
    100,                      !- Maximum Indoor Temperature
    ,                         !- Maximum Indoor Temperature Schedule Name
    -100,                     !- Delta Temperature
    ,                         !- Delta Temperature Schedule Name
    -100,                     !- Minimum Outdoor Temperature
    ,                         !- Minimum Outdoor Temperature Schedule Name
    100,                      !- Maximum Outdoor Temperature
    ,                         !- Maximum Outdoor Temperature Schedule Name
    40;                       !- Maximum Wind Speed

ZONEVENTILATION:DESIGNFLOWRATE,
    EU_ConstantAir_635e498716218cea_F1_whole,    !- Name
    635e498716218cea_F1_whole,    !- Zone or ZoneList or Space or SpaceList Name
    EU_AlwaysOn,              !- Schedule Name
    AirChanges/Hour,          !- Design Flow Rate Calculation Method
    ,                         !- Design Flow Rate
    ,                         !- Flow Rate per Floor Area
    ,                         !- Flow Rate per Person
    0.7312898234710613,       !- Air Changes per Hour
    Natural,                  !- Ventilation Type
    0,                        !- Fan Pressure Rise
    1,                        !- Fan Total Efficiency
    1,                        !- Constant Term Coefficient
    0,                        !- Temperature Term Coefficient
    0,                        !- Velocity Term Coefficient
    0,                        !- Velocity Squared Term Coefficient
    -100,                     !- Minimum Indoor Temperature
    ,                         !- Minimum Indoor Temperature Schedule Name
    100,                      !- Maximum Indoor Temperature
    ,                         !- Maximum Indoor Temperature Schedule Name
    -100,                     !- Delta Temperature
    ,                         !- Delta Temperature Schedule Name
    -100,                     !- Minimum Outdoor Temperature
    ,                         !- Minimum Outdoor Temperature Schedule Name
    100,                      !- Maximum Outdoor Temperature
    ,                         !- Maximum Outdoor Temperature Schedule Name
    40;                       !- Maximum Wind Speed

ZONEVENTILATION:DESIGNFLOWRATE,
    EU_ConstantAir_635e498716218cea_F2_whole,    !- Name
    635e498716218cea_F2_whole,    !- Zone or ZoneList or Space or SpaceList Name
    EU_AlwaysOn,              !- Schedule Name
    AirChanges/Hour,          !- Design Flow Rate Calculation Method
    ,                         !- Design Flow Rate
    ,                         !- Flow Rate per Floor Area
    ,                         !- Flow Rate per Person
    0.7312898234710613,       !- Air Changes per Hour
    Natural,                  !- Ventilation Type
    0,                        !- Fan Pressure Rise
    1,                        !- Fan Total Efficiency
    1,                        !- Constant Term Coefficient
    0,                        !- Temperature Term Coefficient
    0,                        !- Velocity Term Coefficient
    0,                        !- Velocity Squared Term Coefficient
    -100,                     !- Minimum Indoor Temperature
    ,                         !- Minimum Indoor Temperature Schedule Name
    100,                      !- Maximum Indoor Temperature
    ,                         !- Maximum Indoor Temperature Schedule Name
    -100,                     !- Delta Temperature
    ,                         !- Delta Temperature Schedule Name
    -100,                     !- Minimum Outdoor Temperature
    ,                         !- Minimum Outdoor Temperature Schedule Name
    100,                      !- Maximum Outdoor Temperature
    ,                         !- Maximum Outdoor Temperature Schedule Name
    40;                       !- Maximum Wind Speed

ZONEVENTILATION:DESIGNFLOWRATE,
    EU_ConstantAir_635e498716218cea_F3_whole,    !- Name
    635e498716218cea_F3_whole,    !- Zone or ZoneList or Space or SpaceList Name
    EU_AlwaysOn,              !- Schedule Name
    AirChanges/Hour,          !- Design Flow Rate Calculation Method
    ,                         !- Design Flow Rate
    ,                         !- Flow Rate per Floor Area
    ,                         !- Flow Rate per Person
    0.7312898234710613,       !- Air Changes per Hour
    Natural,                  !- Ventilation Type
    0,                        !- Fan Pressure Rise
    1,                        !- Fan Total Efficiency
    1,                        !- Constant Term Coefficient
    0,                        !- Temperature Term Coefficient
    0,                        !- Velocity Term Coefficient
    0,                        !- Velocity Squared Term Coefficient
    -100,                     !- Minimum Indoor Temperature
    ,                         !- Minimum Indoor Temperature Schedule Name
    100,                      !- Maximum Indoor Temperature
    ,                         !- Maximum Indoor Temperature Schedule Name
    -100,                     !- Delta Temperature
    ,                         !- Delta Temperature Schedule Name
    -100,                     !- Minimum Outdoor Temperature
    ,                         !- Minimum Outdoor Temperature Schedule Name
    100,                      !- Maximum Outdoor Temperature
    ,                         !- Maximum Outdoor Temperature Schedule Name
    40;                       !- Maximum Wind Speed

ZONEVENTILATION:DESIGNFLOWRATE,
    EU_ConstantAir_635e498716218cea_F4_whole,    !- Name
    635e498716218cea_F4_whole,    !- Zone or ZoneList or Space or SpaceList Name
    EU_AlwaysOn,              !- Schedule Name
    AirChanges/Hour,          !- Design Flow Rate Calculation Method
    ,                         !- Design Flow Rate
    ,                         !- Flow Rate per Floor Area
    ,                         !- Flow Rate per Person
    0.7312898234710613,       !- Air Changes per Hour
    Natural,                  !- Ventilation Type
    0,                        !- Fan Pressure Rise
    1,                        !- Fan Total Efficiency
    1,                        !- Constant Term Coefficient
    0,                        !- Temperature Term Coefficient
    0,                        !- Velocity Term Coefficient
    0,                        !- Velocity Squared Term Coefficient
    -100,                     !- Minimum Indoor Temperature
    ,                         !- Minimum Indoor Temperature Schedule Name
    100,                      !- Maximum Indoor Temperature
    ,                         !- Maximum Indoor Temperature Schedule Name
    -100,                     !- Delta Temperature
    ,                         !- Delta Temperature Schedule Name
    -100,                     !- Minimum Outdoor Temperature
    ,                         !- Minimum Outdoor Temperature Schedule Name
    100,                      !- Maximum Outdoor Temperature
    ,                         !- Maximum Outdoor Temperature Schedule Name
    40;                       !- Maximum Wind Speed

ZONEVENTILATION:DESIGNFLOWRATE,
    EU_ConstantAir_635e498716218cea_F5_whole,    !- Name
    635e498716218cea_F5_whole,    !- Zone or ZoneList or Space or SpaceList Name
    EU_AlwaysOn,              !- Schedule Name
    AirChanges/Hour,          !- Design Flow Rate Calculation Method
    ,                         !- Design Flow Rate
    ,                         !- Flow Rate per Floor Area
    ,                         !- Flow Rate per Person
    0.7312898234710613,       !- Air Changes per Hour
    Natural,                  !- Ventilation Type
    0,                        !- Fan Pressure Rise
    1,                        !- Fan Total Efficiency
    1,                        !- Constant Term Coefficient
    0,                        !- Temperature Term Coefficient
    0,                        !- Velocity Term Coefficient
    0,                        !- Velocity Squared Term Coefficient
    -100,                     !- Minimum Indoor Temperature
    ,                         !- Minimum Indoor Temperature Schedule Name
    100,                      !- Maximum Indoor Temperature
    ,                         !- Maximum Indoor Temperature Schedule Name
    -100,                     !- Delta Temperature
    ,                         !- Delta Temperature Schedule Name
    -100,                     !- Minimum Outdoor Temperature
    ,                         !- Minimum Outdoor Temperature Schedule Name
    100,                      !- Maximum Outdoor Temperature
    ,                         !- Maximum Outdoor Temperature Schedule Name
    40;                       !- Maximum Wind Speed

HVACTEMPLATE:THERMOSTAT,
    EU_HeatOnly_635e498716218cea_F0_whole,    !- Name
    ,                         !- Heating Setpoint Schedule Name
    20,                       !- Constant Heating Setpoint
    ,                         !- Cooling Setpoint Schedule Name
    50;                       !- Constant Cooling Setpoint

HVACTEMPLATE:THERMOSTAT,
    EU_HeatOnly_635e498716218cea_F1_whole,    !- Name
    ,                         !- Heating Setpoint Schedule Name
    20,                       !- Constant Heating Setpoint
    ,                         !- Cooling Setpoint Schedule Name
    50;                       !- Constant Cooling Setpoint

HVACTEMPLATE:THERMOSTAT,
    EU_HeatOnly_635e498716218cea_F2_whole,    !- Name
    ,                         !- Heating Setpoint Schedule Name
    20,                       !- Constant Heating Setpoint
    ,                         !- Cooling Setpoint Schedule Name
    50;                       !- Constant Cooling Setpoint

HVACTEMPLATE:THERMOSTAT,
    EU_HeatOnly_635e498716218cea_F3_whole,    !- Name
    ,                         !- Heating Setpoint Schedule Name
    20,                       !- Constant Heating Setpoint
    ,                         !- Cooling Setpoint Schedule Name
    50;                       !- Constant Cooling Setpoint

HVACTEMPLATE:THERMOSTAT,
    EU_HeatOnly_635e498716218cea_F4_whole,    !- Name
    ,                         !- Heating Setpoint Schedule Name
    20,                       !- Constant Heating Setpoint
    ,                         !- Cooling Setpoint Schedule Name
    50;                       !- Constant Cooling Setpoint

HVACTEMPLATE:THERMOSTAT,
    EU_HeatOnly_635e498716218cea_F5_whole,    !- Name
    ,                         !- Heating Setpoint Schedule Name
    20,                       !- Constant Heating Setpoint
    ,                         !- Cooling Setpoint Schedule Name
    50;                       !- Constant Cooling Setpoint

HVACTEMPLATE:ZONE:IDEALLOADSAIRSYSTEM,
    635e498716218cea_F0_whole,    !- Zone Name
    EU_HeatOnly_635e498716218cea_F0_whole,    !- Template Thermostat Name
    EU_AlwaysOn,              !- System Availability Schedule Name
    50,                       !- Maximum Heating Supply Air Temperature
    13,                       !- Minimum Cooling Supply Air Temperature
    0.0156,                   !- Maximum Heating Supply Air Humidity Ratio
    0.0077,                   !- Minimum Cooling Supply Air Humidity Ratio
    NoLimit,                  !- Heating Limit
    ,                         !- Maximum Heating Air Flow Rate
    ,                         !- Maximum Sensible Heating Capacity
    NoLimit,                  !- Cooling Limit
    ,                         !- Maximum Cooling Air Flow Rate
    ,                         !- Maximum Total Cooling Capacity
    EU_AlwaysOn,              !- Heating Availability Schedule Name
    EU_CoolingOff,            !- Cooling Availability Schedule Name
    ConstantSensibleHeatRatio,    !- Dehumidification Control Type
    0.7,                      !- Cooling Sensible Heat Ratio
    60,                       !- Dehumidification Setpoint
    None,                     !- Humidification Control Type
    30,                       !- Humidification Setpoint
    None,                     !- Outdoor Air Method
    0.00944,                  !- Outdoor Air Flow Rate per Person
    0.0,                      !- Outdoor Air Flow Rate per Zone Floor Area
    0,                        !- Outdoor Air Flow Rate per Zone
    ,                         !- Design Specification Outdoor Air Object Name
    None,                     !- Demand Controlled Ventilation Type
    NoEconomizer,             !- Outdoor Air Economizer Type
    None,                     !- Heat Recovery Type
    0.70,                     !- Sensible Heat Recovery Effectiveness
    0.65;                     !- Latent Heat Recovery Effectiveness

HVACTEMPLATE:ZONE:IDEALLOADSAIRSYSTEM,
    635e498716218cea_F1_whole,    !- Zone Name
    EU_HeatOnly_635e498716218cea_F1_whole,    !- Template Thermostat Name
    EU_AlwaysOn,              !- System Availability Schedule Name
    50,                       !- Maximum Heating Supply Air Temperature
    13,                       !- Minimum Cooling Supply Air Temperature
    0.0156,                   !- Maximum Heating Supply Air Humidity Ratio
    0.0077,                   !- Minimum Cooling Supply Air Humidity Ratio
    NoLimit,                  !- Heating Limit
    ,                         !- Maximum Heating Air Flow Rate
    ,                         !- Maximum Sensible Heating Capacity
    NoLimit,                  !- Cooling Limit
    ,                         !- Maximum Cooling Air Flow Rate
    ,                         !- Maximum Total Cooling Capacity
    EU_AlwaysOn,              !- Heating Availability Schedule Name
    EU_CoolingOff,            !- Cooling Availability Schedule Name
    ConstantSensibleHeatRatio,    !- Dehumidification Control Type
    0.7,                      !- Cooling Sensible Heat Ratio
    60,                       !- Dehumidification Setpoint
    None,                     !- Humidification Control Type
    30,                       !- Humidification Setpoint
    None,                     !- Outdoor Air Method
    0.00944,                  !- Outdoor Air Flow Rate per Person
    0.0,                      !- Outdoor Air Flow Rate per Zone Floor Area
    0,                        !- Outdoor Air Flow Rate per Zone
    ,                         !- Design Specification Outdoor Air Object Name
    None,                     !- Demand Controlled Ventilation Type
    NoEconomizer,             !- Outdoor Air Economizer Type
    None,                     !- Heat Recovery Type
    0.70,                     !- Sensible Heat Recovery Effectiveness
    0.65;                     !- Latent Heat Recovery Effectiveness

HVACTEMPLATE:ZONE:IDEALLOADSAIRSYSTEM,
    635e498716218cea_F2_whole,    !- Zone Name
    EU_HeatOnly_635e498716218cea_F2_whole,    !- Template Thermostat Name
    EU_AlwaysOn,              !- System Availability Schedule Name
    50,                       !- Maximum Heating Supply Air Temperature
    13,                       !- Minimum Cooling Supply Air Temperature
    0.0156,                   !- Maximum Heating Supply Air Humidity Ratio
    0.0077,                   !- Minimum Cooling Supply Air Humidity Ratio
    NoLimit,                  !- Heating Limit
    ,                         !- Maximum Heating Air Flow Rate
    ,                         !- Maximum Sensible Heating Capacity
    NoLimit,                  !- Cooling Limit
    ,                         !- Maximum Cooling Air Flow Rate
    ,                         !- Maximum Total Cooling Capacity
    EU_AlwaysOn,              !- Heating Availability Schedule Name
    EU_CoolingOff,            !- Cooling Availability Schedule Name
    ConstantSensibleHeatRatio,    !- Dehumidification Control Type
    0.7,                      !- Cooling Sensible Heat Ratio
    60,                       !- Dehumidification Setpoint
    None,                     !- Humidification Control Type
    30,                       !- Humidification Setpoint
    None,                     !- Outdoor Air Method
    0.00944,                  !- Outdoor Air Flow Rate per Person
    0.0,                      !- Outdoor Air Flow Rate per Zone Floor Area
    0,                        !- Outdoor Air Flow Rate per Zone
    ,                         !- Design Specification Outdoor Air Object Name
    None,                     !- Demand Controlled Ventilation Type
    NoEconomizer,             !- Outdoor Air Economizer Type
    None,                     !- Heat Recovery Type
    0.70,                     !- Sensible Heat Recovery Effectiveness
    0.65;                     !- Latent Heat Recovery Effectiveness

HVACTEMPLATE:ZONE:IDEALLOADSAIRSYSTEM,
    635e498716218cea_F3_whole,    !- Zone Name
    EU_HeatOnly_635e498716218cea_F3_whole,    !- Template Thermostat Name
    EU_AlwaysOn,              !- System Availability Schedule Name
    50,                       !- Maximum Heating Supply Air Temperature
    13,                       !- Minimum Cooling Supply Air Temperature
    0.0156,                   !- Maximum Heating Supply Air Humidity Ratio
    0.0077,                   !- Minimum Cooling Supply Air Humidity Ratio
    NoLimit,                  !- Heating Limit
    ,                         !- Maximum Heating Air Flow Rate
    ,                         !- Maximum Sensible Heating Capacity
    NoLimit,                  !- Cooling Limit
    ,                         !- Maximum Cooling Air Flow Rate
    ,                         !- Maximum Total Cooling Capacity
    EU_AlwaysOn,              !- Heating Availability Schedule Name
    EU_CoolingOff,            !- Cooling Availability Schedule Name
    ConstantSensibleHeatRatio,    !- Dehumidification Control Type
    0.7,                      !- Cooling Sensible Heat Ratio
    60,                       !- Dehumidification Setpoint
    None,                     !- Humidification Control Type
    30,                       !- Humidification Setpoint
    None,                     !- Outdoor Air Method
    0.00944,                  !- Outdoor Air Flow Rate per Person
    0.0,                      !- Outdoor Air Flow Rate per Zone Floor Area
    0,                        !- Outdoor Air Flow Rate per Zone
    ,                         !- Design Specification Outdoor Air Object Name
    None,                     !- Demand Controlled Ventilation Type
    NoEconomizer,             !- Outdoor Air Economizer Type
    None,                     !- Heat Recovery Type
    0.70,                     !- Sensible Heat Recovery Effectiveness
    0.65;                     !- Latent Heat Recovery Effectiveness

HVACTEMPLATE:ZONE:IDEALLOADSAIRSYSTEM,
    635e498716218cea_F4_whole,    !- Zone Name
    EU_HeatOnly_635e498716218cea_F4_whole,    !- Template Thermostat Name
    EU_AlwaysOn,              !- System Availability Schedule Name
    50,                       !- Maximum Heating Supply Air Temperature
    13,                       !- Minimum Cooling Supply Air Temperature
    0.0156,                   !- Maximum Heating Supply Air Humidity Ratio
    0.0077,                   !- Minimum Cooling Supply Air Humidity Ratio
    NoLimit,                  !- Heating Limit
    ,                         !- Maximum Heating Air Flow Rate
    ,                         !- Maximum Sensible Heating Capacity
    NoLimit,                  !- Cooling Limit
    ,                         !- Maximum Cooling Air Flow Rate
    ,                         !- Maximum Total Cooling Capacity
    EU_AlwaysOn,              !- Heating Availability Schedule Name
    EU_CoolingOff,            !- Cooling Availability Schedule Name
    ConstantSensibleHeatRatio,    !- Dehumidification Control Type
    0.7,                      !- Cooling Sensible Heat Ratio
    60,                       !- Dehumidification Setpoint
    None,                     !- Humidification Control Type
    30,                       !- Humidification Setpoint
    None,                     !- Outdoor Air Method
    0.00944,                  !- Outdoor Air Flow Rate per Person
    0.0,                      !- Outdoor Air Flow Rate per Zone Floor Area
    0,                        !- Outdoor Air Flow Rate per Zone
    ,                         !- Design Specification Outdoor Air Object Name
    None,                     !- Demand Controlled Ventilation Type
    NoEconomizer,             !- Outdoor Air Economizer Type
    None,                     !- Heat Recovery Type
    0.70,                     !- Sensible Heat Recovery Effectiveness
    0.65;                     !- Latent Heat Recovery Effectiveness

HVACTEMPLATE:ZONE:IDEALLOADSAIRSYSTEM,
    635e498716218cea_F5_whole,    !- Zone Name
    EU_HeatOnly_635e498716218cea_F5_whole,    !- Template Thermostat Name
    EU_AlwaysOn,              !- System Availability Schedule Name
    50,                       !- Maximum Heating Supply Air Temperature
    13,                       !- Minimum Cooling Supply Air Temperature
    0.0156,                   !- Maximum Heating Supply Air Humidity Ratio
    0.0077,                   !- Minimum Cooling Supply Air Humidity Ratio
    NoLimit,                  !- Heating Limit
    ,                         !- Maximum Heating Air Flow Rate
    ,                         !- Maximum Sensible Heating Capacity
    NoLimit,                  !- Cooling Limit
    ,                         !- Maximum Cooling Air Flow Rate
    ,                         !- Maximum Total Cooling Capacity
    EU_AlwaysOn,              !- Heating Availability Schedule Name
    EU_CoolingOff,            !- Cooling Availability Schedule Name
    ConstantSensibleHeatRatio,    !- Dehumidification Control Type
    0.7,                      !- Cooling Sensible Heat Ratio
    60,                       !- Dehumidification Setpoint
    None,                     !- Humidification Control Type
    30,                       !- Humidification Setpoint
    None,                     !- Outdoor Air Method
    0.00944,                  !- Outdoor Air Flow Rate per Person
    0.0,                      !- Outdoor Air Flow Rate per Zone Floor Area
    0,                        !- Outdoor Air Flow Rate per Zone
    ,                         !- Design Specification Outdoor Air Object Name
    None,                     !- Demand Controlled Ventilation Type
    NoEconomizer,             !- Outdoor Air Economizer Type
    None,                     !- Heat Recovery Type
    0.70,                     !- Sensible Heat Recovery Effectiveness
    0.65;                     !- Latent Heat Recovery Effectiveness

SIZING:ZONE,
    635e498716218cea_F0_whole,    !- Zone or ZoneList Name
    SupplyAirTemperature,     !- Zone Cooling Design Supply Air Temperature Input Method
    13,                       !- Zone Cooling Design Supply Air Temperature
    ,                         !- Zone Cooling Design Supply Air Temperature Difference
    SupplyAirTemperature,     !- Zone Heating Design Supply Air Temperature Input Method
    50,                       !- Zone Heating Design Supply Air Temperature
    ,                         !- Zone Heating Design Supply Air Temperature Difference
    0.008,                    !- Zone Cooling Design Supply Air Humidity Ratio
    0.008,                    !- Zone Heating Design Supply Air Humidity Ratio
    ,                         !- Design Specification Outdoor Air Object Name
    ,                         !- Zone Heating Sizing Factor
    ,                         !- Zone Cooling Sizing Factor
    DesignDay,                !- Cooling Design Air Flow Method
    0,                        !- Cooling Design Air Flow Rate
    0.000762,                 !- Cooling Minimum Air Flow per Zone Floor Area
    0,                        !- Cooling Minimum Air Flow
    0.2,                      !- Cooling Minimum Air Flow Fraction
    DesignDay,                !- Heating Design Air Flow Method
    0,                        !- Heating Design Air Flow Rate
    0.002032,                 !- Heating Maximum Air Flow per Zone Floor Area
    0.1415762,                !- Heating Maximum Air Flow
    0.3,                      !- Heating Maximum Air Flow Fraction
    ,                         !- Design Specification Zone Air Distribution Object Name
    No,                       !- Account for Dedicated Outdoor Air System
    NeutralSupplyAir,         !- Dedicated Outdoor Air System Control Strategy
    autosize,                 !- Dedicated Outdoor Air Low Setpoint Temperature for Design
    autosize,                 !- Dedicated Outdoor Air High Setpoint Temperature for Design
    Sensible Load Only No Latent Load,    !- Zone Load Sizing Method
    HumidityRatioDifference,    !- Zone Latent Cooling Design Supply Air Humidity Ratio Input Method
    ,                         !- Zone Dehumidification Design Supply Air Humidity Ratio
    0.005,                    !- Zone Cooling Design Supply Air Humidity Ratio Difference
    HumidityRatioDifference,    !- Zone Latent Heating Design Supply Air Humidity Ratio Input Method
    ,                         !- Zone Humidification Design Supply Air Humidity Ratio
    0.005;                    !- Zone Humidification Design Supply Air Humidity Ratio Difference

SIZING:ZONE,
    635e498716218cea_F1_whole,    !- Zone or ZoneList Name
    SupplyAirTemperature,     !- Zone Cooling Design Supply Air Temperature Input Method
    13,                       !- Zone Cooling Design Supply Air Temperature
    ,                         !- Zone Cooling Design Supply Air Temperature Difference
    SupplyAirTemperature,     !- Zone Heating Design Supply Air Temperature Input Method
    50,                       !- Zone Heating Design Supply Air Temperature
    ,                         !- Zone Heating Design Supply Air Temperature Difference
    0.008,                    !- Zone Cooling Design Supply Air Humidity Ratio
    0.008,                    !- Zone Heating Design Supply Air Humidity Ratio
    ,                         !- Design Specification Outdoor Air Object Name
    ,                         !- Zone Heating Sizing Factor
    ,                         !- Zone Cooling Sizing Factor
    DesignDay,                !- Cooling Design Air Flow Method
    0,                        !- Cooling Design Air Flow Rate
    0.000762,                 !- Cooling Minimum Air Flow per Zone Floor Area
    0,                        !- Cooling Minimum Air Flow
    0.2,                      !- Cooling Minimum Air Flow Fraction
    DesignDay,                !- Heating Design Air Flow Method
    0,                        !- Heating Design Air Flow Rate
    0.002032,                 !- Heating Maximum Air Flow per Zone Floor Area
    0.1415762,                !- Heating Maximum Air Flow
    0.3,                      !- Heating Maximum Air Flow Fraction
    ,                         !- Design Specification Zone Air Distribution Object Name
    No,                       !- Account for Dedicated Outdoor Air System
    NeutralSupplyAir,         !- Dedicated Outdoor Air System Control Strategy
    autosize,                 !- Dedicated Outdoor Air Low Setpoint Temperature for Design
    autosize,                 !- Dedicated Outdoor Air High Setpoint Temperature for Design
    Sensible Load Only No Latent Load,    !- Zone Load Sizing Method
    HumidityRatioDifference,    !- Zone Latent Cooling Design Supply Air Humidity Ratio Input Method
    ,                         !- Zone Dehumidification Design Supply Air Humidity Ratio
    0.005,                    !- Zone Cooling Design Supply Air Humidity Ratio Difference
    HumidityRatioDifference,    !- Zone Latent Heating Design Supply Air Humidity Ratio Input Method
    ,                         !- Zone Humidification Design Supply Air Humidity Ratio
    0.005;                    !- Zone Humidification Design Supply Air Humidity Ratio Difference

SIZING:ZONE,
    635e498716218cea_F2_whole,    !- Zone or ZoneList Name
    SupplyAirTemperature,     !- Zone Cooling Design Supply Air Temperature Input Method
    13,                       !- Zone Cooling Design Supply Air Temperature
    ,                         !- Zone Cooling Design Supply Air Temperature Difference
    SupplyAirTemperature,     !- Zone Heating Design Supply Air Temperature Input Method
    50,                       !- Zone Heating Design Supply Air Temperature
    ,                         !- Zone Heating Design Supply Air Temperature Difference
    0.008,                    !- Zone Cooling Design Supply Air Humidity Ratio
    0.008,                    !- Zone Heating Design Supply Air Humidity Ratio
    ,                         !- Design Specification Outdoor Air Object Name
    ,                         !- Zone Heating Sizing Factor
    ,                         !- Zone Cooling Sizing Factor
    DesignDay,                !- Cooling Design Air Flow Method
    0,                        !- Cooling Design Air Flow Rate
    0.000762,                 !- Cooling Minimum Air Flow per Zone Floor Area
    0,                        !- Cooling Minimum Air Flow
    0.2,                      !- Cooling Minimum Air Flow Fraction
    DesignDay,                !- Heating Design Air Flow Method
    0,                        !- Heating Design Air Flow Rate
    0.002032,                 !- Heating Maximum Air Flow per Zone Floor Area
    0.1415762,                !- Heating Maximum Air Flow
    0.3,                      !- Heating Maximum Air Flow Fraction
    ,                         !- Design Specification Zone Air Distribution Object Name
    No,                       !- Account for Dedicated Outdoor Air System
    NeutralSupplyAir,         !- Dedicated Outdoor Air System Control Strategy
    autosize,                 !- Dedicated Outdoor Air Low Setpoint Temperature for Design
    autosize,                 !- Dedicated Outdoor Air High Setpoint Temperature for Design
    Sensible Load Only No Latent Load,    !- Zone Load Sizing Method
    HumidityRatioDifference,    !- Zone Latent Cooling Design Supply Air Humidity Ratio Input Method
    ,                         !- Zone Dehumidification Design Supply Air Humidity Ratio
    0.005,                    !- Zone Cooling Design Supply Air Humidity Ratio Difference
    HumidityRatioDifference,    !- Zone Latent Heating Design Supply Air Humidity Ratio Input Method
    ,                         !- Zone Humidification Design Supply Air Humidity Ratio
    0.005;                    !- Zone Humidification Design Supply Air Humidity Ratio Difference

SIZING:ZONE,
    635e498716218cea_F3_whole,    !- Zone or ZoneList Name
    SupplyAirTemperature,     !- Zone Cooling Design Supply Air Temperature Input Method
    13,                       !- Zone Cooling Design Supply Air Temperature
    ,                         !- Zone Cooling Design Supply Air Temperature Difference
    SupplyAirTemperature,     !- Zone Heating Design Supply Air Temperature Input Method
    50,                       !- Zone Heating Design Supply Air Temperature
    ,                         !- Zone Heating Design Supply Air Temperature Difference
    0.008,                    !- Zone Cooling Design Supply Air Humidity Ratio
    0.008,                    !- Zone Heating Design Supply Air Humidity Ratio
    ,                         !- Design Specification Outdoor Air Object Name
    ,                         !- Zone Heating Sizing Factor
    ,                         !- Zone Cooling Sizing Factor
    DesignDay,                !- Cooling Design Air Flow Method
    0,                        !- Cooling Design Air Flow Rate
    0.000762,                 !- Cooling Minimum Air Flow per Zone Floor Area
    0,                        !- Cooling Minimum Air Flow
    0.2,                      !- Cooling Minimum Air Flow Fraction
    DesignDay,                !- Heating Design Air Flow Method
    0,                        !- Heating Design Air Flow Rate
    0.002032,                 !- Heating Maximum Air Flow per Zone Floor Area
    0.1415762,                !- Heating Maximum Air Flow
    0.3,                      !- Heating Maximum Air Flow Fraction
    ,                         !- Design Specification Zone Air Distribution Object Name
    No,                       !- Account for Dedicated Outdoor Air System
    NeutralSupplyAir,         !- Dedicated Outdoor Air System Control Strategy
    autosize,                 !- Dedicated Outdoor Air Low Setpoint Temperature for Design
    autosize,                 !- Dedicated Outdoor Air High Setpoint Temperature for Design
    Sensible Load Only No Latent Load,    !- Zone Load Sizing Method
    HumidityRatioDifference,    !- Zone Latent Cooling Design Supply Air Humidity Ratio Input Method
    ,                         !- Zone Dehumidification Design Supply Air Humidity Ratio
    0.005,                    !- Zone Cooling Design Supply Air Humidity Ratio Difference
    HumidityRatioDifference,    !- Zone Latent Heating Design Supply Air Humidity Ratio Input Method
    ,                         !- Zone Humidification Design Supply Air Humidity Ratio
    0.005;                    !- Zone Humidification Design Supply Air Humidity Ratio Difference

SIZING:ZONE,
    635e498716218cea_F4_whole,    !- Zone or ZoneList Name
    SupplyAirTemperature,     !- Zone Cooling Design Supply Air Temperature Input Method
    13,                       !- Zone Cooling Design Supply Air Temperature
    ,                         !- Zone Cooling Design Supply Air Temperature Difference
    SupplyAirTemperature,     !- Zone Heating Design Supply Air Temperature Input Method
    50,                       !- Zone Heating Design Supply Air Temperature
    ,                         !- Zone Heating Design Supply Air Temperature Difference
    0.008,                    !- Zone Cooling Design Supply Air Humidity Ratio
    0.008,                    !- Zone Heating Design Supply Air Humidity Ratio
    ,                         !- Design Specification Outdoor Air Object Name
    ,                         !- Zone Heating Sizing Factor
    ,                         !- Zone Cooling Sizing Factor
    DesignDay,                !- Cooling Design Air Flow Method
    0,                        !- Cooling Design Air Flow Rate
    0.000762,                 !- Cooling Minimum Air Flow per Zone Floor Area
    0,                        !- Cooling Minimum Air Flow
    0.2,                      !- Cooling Minimum Air Flow Fraction
    DesignDay,                !- Heating Design Air Flow Method
    0,                        !- Heating Design Air Flow Rate
    0.002032,                 !- Heating Maximum Air Flow per Zone Floor Area
    0.1415762,                !- Heating Maximum Air Flow
    0.3,                      !- Heating Maximum Air Flow Fraction
    ,                         !- Design Specification Zone Air Distribution Object Name
    No,                       !- Account for Dedicated Outdoor Air System
    NeutralSupplyAir,         !- Dedicated Outdoor Air System Control Strategy
    autosize,                 !- Dedicated Outdoor Air Low Setpoint Temperature for Design
    autosize,                 !- Dedicated Outdoor Air High Setpoint Temperature for Design
    Sensible Load Only No Latent Load,    !- Zone Load Sizing Method
    HumidityRatioDifference,    !- Zone Latent Cooling Design Supply Air Humidity Ratio Input Method
    ,                         !- Zone Dehumidification Design Supply Air Humidity Ratio
    0.005,                    !- Zone Cooling Design Supply Air Humidity Ratio Difference
    HumidityRatioDifference,    !- Zone Latent Heating Design Supply Air Humidity Ratio Input Method
    ,                         !- Zone Humidification Design Supply Air Humidity Ratio
    0.005;                    !- Zone Humidification Design Supply Air Humidity Ratio Difference

SIZING:ZONE,
    635e498716218cea_F5_whole,    !- Zone or ZoneList Name
    SupplyAirTemperature,     !- Zone Cooling Design Supply Air Temperature Input Method
    13,                       !- Zone Cooling Design Supply Air Temperature
    ,                         !- Zone Cooling Design Supply Air Temperature Difference
    SupplyAirTemperature,     !- Zone Heating Design Supply Air Temperature Input Method
    50,                       !- Zone Heating Design Supply Air Temperature
    ,                         !- Zone Heating Design Supply Air Temperature Difference
    0.008,                    !- Zone Cooling Design Supply Air Humidity Ratio
    0.008,                    !- Zone Heating Design Supply Air Humidity Ratio
    ,                         !- Design Specification Outdoor Air Object Name
    ,                         !- Zone Heating Sizing Factor
    ,                         !- Zone Cooling Sizing Factor
    DesignDay,                !- Cooling Design Air Flow Method
    0,                        !- Cooling Design Air Flow Rate
    0.000762,                 !- Cooling Minimum Air Flow per Zone Floor Area
    0,                        !- Cooling Minimum Air Flow
    0.2,                      !- Cooling Minimum Air Flow Fraction
    DesignDay,                !- Heating Design Air Flow Method
    0,                        !- Heating Design Air Flow Rate
    0.002032,                 !- Heating Maximum Air Flow per Zone Floor Area
    0.1415762,                !- Heating Maximum Air Flow
    0.3,                      !- Heating Maximum Air Flow Fraction
    ,                         !- Design Specification Zone Air Distribution Object Name
    No,                       !- Account for Dedicated Outdoor Air System
    NeutralSupplyAir,         !- Dedicated Outdoor Air System Control Strategy
    autosize,                 !- Dedicated Outdoor Air Low Setpoint Temperature for Design
    autosize,                 !- Dedicated Outdoor Air High Setpoint Temperature for Design
    Sensible Load Only No Latent Load,    !- Zone Load Sizing Method
    HumidityRatioDifference,    !- Zone Latent Cooling Design Supply Air Humidity Ratio Input Method
    ,                         !- Zone Dehumidification Design Supply Air Humidity Ratio
    0.005,                    !- Zone Cooling Design Supply Air Humidity Ratio Difference
    HumidityRatioDifference,    !- Zone Latent Heating Design Supply Air Humidity Ratio Input Method
    ,                         !- Zone Humidification Design Supply Air Humidity Ratio
    0.005;                    !- Zone Humidification Design Supply Air Humidity Ratio Difference

OUTPUT:VARIABLE,
    *,                        !- Key Value
    Zone Ideal Loads Zone Total Heating Energy,    !- Variable Name
    Hourly;                   !- Reporting Frequency

OUTPUT:SQLITE,
    SimpleAndTabular,         !- Option Type
    UseOutputControlTableStyle;    !- Unit Conversion for Tabular Data