!- Windows Line endings 

Version,
    23.1;                     !- Version Identifier

SimulationControl,
    Yes,                      !- Do Zone Sizing Calculation
    Yes,                      !- Do System Sizing Calculation
    Yes,                      !- Do Plant Sizing Calculation
    No,                       !- Run Simulation for Sizing Periods
    Yes,                      !- Run Simulation for Weather File Run Periods
    No,                       !- Do HVAC Sizing Simulation for Sizing Periods
    1;                        !- Maximum Number of HVAC Sizing Simulation Passes

Building,
    EU S2 Campaign,           !- Name
    0,                        !- North Axis
    City,                     !- Terrain
    ,                         !- Loads Convergence Tolerance Value
    ,                         !- Temperature Convergence Tolerance Value
    FullExterior,             !- Solar Distribution
    ,                         !- Maximum Number of Warmup Days
    ;                         !- Minimum Number of Warmup Days

ShadowCalculation,
    PolygonClipping,          !- Shading Calculation Method
    Periodic,                 !- Shading Calculation Update Frequency Method
    1;                        !- Shading Calculation Update Frequency

HeatBalanceAlgorithm,
    ConductionTransferFunction,    !- Algorithm
    200,                      !- Surface Temperature Upper Limit
    0.1,                      !- Minimum Surface Convection Heat Transfer Coefficient Value
    10000000;                 !- Maximum Surface Convection Heat Transfer Coefficient Value

Timestep,
    12;                       !- Number of Timesteps per Hour

Site:Location,
    Bologna,                  !- Name
    44.5,                     !- Latitude
    11.25,                    !- Longitude
    1,                        !- Time Zone
    37;                       !- Elevation

SizingPeriod:WeatherFileDays,
    AnnualSizingPeriod,       !- Name
    1,                        !- Begin Month
    1,                        !- Begin Day of Month
    12,                       !- End Month
    31,                       !- End Day of Month
    Monday,                   !- Day of Week for Start Day
    No,                       !- Use Weather File Daylight Saving Period
    No;                       !- Use Weather File Rain and Snow Indicators

RunPeriod,
    RunPeriod1,               !- Name
    1,                        !- Begin Month
    1,                        !- Begin Day of Month
    ,                         !- Begin Year
    12,                       !- End Month
    31,                       !- End Day of Month
    ,                         !- End Year
    Sunday,                   !- Day of Week for Start Day
    No,                       !- Use Weather File Holidays and Special Days
    No,                       !- Use Weather File Daylight Saving Period
    No,                       !- Apply Weekend Holiday Rule
    Yes,                      !- Use Weather File Rain Indicators
    Yes;                      !- Use Weather File Snow Indicators

ScheduleTypeLimits,
    Any Number;               !- Name

SCHEDULETYPELIMITS,
    EU_Step8_AnyNumber_Wm2,    !- Name
    ,                         !- Lower Limit Value
    ,                         !- Upper Limit Value
    Continuous,               !- Numeric Type
    Dimensionless;            !- Unit Type

SCHEDULE:CONSTANT,
    EU_AlwaysOn,              !- Name
    ,                         !- Schedule Type Limits Name
    1;                        !- Hourly Value

SCHEDULE:CONSTANT,
    EU_CoolingOff,            !- Name
    ,                         !- Schedule Type Limits Name
    0;                        !- Hourly Value

SCHEDULE:FILE,
    EU_Step8_GainSchedule_6f17e6e83818aaa9_F0_whole_f000,    !- Name
    EU_Step8_AnyNumber_Wm2,    !- Schedule Type Limits Name
    ../../schedules/6f17e6e83818aaa9/6f17e6e83818aaa9_F0_whole_f000_gain.csv,    !- File Name
    1,                        !- Column Number
    0,                        !- Rows to Skip at Top
    8760,                     !- Number of Hours of Data
    Comma,                    !- Column Separator
    No,                       !- Interpolate to Timestep
    60,                       !- Minutes per Item
    Yes;                      !- Adjust Schedule for Daylight Savings

SCHEDULE:FILE,
    EU_Step8_GainSchedule_6f17e6e83818aaa9_F1_whole_f000,    !- Name
    EU_Step8_AnyNumber_Wm2,    !- Schedule Type Limits Name
    ../../schedules/6f17e6e83818aaa9/6f17e6e83818aaa9_F1_whole_f000_gain.csv,    !- File Name
    1,                        !- Column Number
    0,                        !- Rows to Skip at Top
    8760,                     !- Number of Hours of Data
    Comma,                    !- Column Separator
    No,                       !- Interpolate to Timestep
    60,                       !- Minutes per Item
    Yes;                      !- Adjust Schedule for Daylight Savings

SCHEDULE:FILE,
    EU_Step8_GainSchedule_6f17e6e83818aaa9_F2_whole_f000,    !- Name
    EU_Step8_AnyNumber_Wm2,    !- Schedule Type Limits Name
    ../../schedules/6f17e6e83818aaa9/6f17e6e83818aaa9_F2_whole_f000_gain.csv,    !- File Name
    1,                        !- Column Number
    0,                        !- Rows to Skip at Top
    8760,                     !- Number of Hours of Data
    Comma,                    !- Column Separator
    No,                       !- Interpolate to Timestep
    60,                       !- Minutes per Item
    Yes;                      !- Adjust Schedule for Daylight Savings

MATERIAL,
    EU_InternalMass_Material,    !- Name
    MediumRough,              !- Roughness
    0.1,                      !- Thickness
    1,                        !- Conductivity
    1800,                     !- Density
    900,                      !- Specific Heat
    0.9,                      !- Thermal Absorptance
    0.7,                      !- Solar Absorptance
    0.7;                      !- Visible Absorptance

MATERIAL:NOMASS,
    EU_wall_NoMass,           !- Name
    MediumRough,              !- Roughness
    0.9378813067869615,       !- Thermal Resistance
    0.9,                      !- Thermal Absorptance
    0.7,                      !- Solar Absorptance
    0.7;                      !- Visible Absorptance

MATERIAL:NOMASS,
    EU_roof_NoMass,           !- Name
    MediumRough,              !- Roughness
    0.5485720851018077,       !- Thermal Resistance
    0.9,                      !- Thermal Absorptance
    0.7,                      !- Solar Absorptance
    0.7;                      !- Visible Absorptance

MATERIAL:NOMASS,
    EU_floor_NoMass,          !- Name
    MediumRough,              !- Roughness
    0.7134802579238234,       !- Thermal Resistance
    0.9,                      !- Thermal Absorptance
    0.7,                      !- Solar Absorptance
    0.7;                      !- Visible Absorptance

CONSTRUCTION,
    EU_wall_Construction,     !- Name
    EU_wall_NoMass;           !- Outside Layer

CONSTRUCTION,
    EU_roof_Construction,     !- Name
    EU_roof_NoMass;           !- Outside Layer

CONSTRUCTION,
    EU_floor_Construction,    !- Name
    EU_floor_NoMass;          !- Outside Layer

CONSTRUCTION,
    EU_InternalMass_Construction,    !- Name
    EU_InternalMass_Material;    !- Outside Layer

GlobalGeometryRules,
    UpperLeftCorner,          !- Starting Vertex Position
    CounterClockWise,         !- Vertex Entry Direction
    World;                    !- Coordinate System

ZONE,
    6f17e6e83818aaa9_F0_whole,    !- Name
    0,                        !- Direction of Relative North
    0,                        !- X Origin
    0,                        !- Y Origin
    0,                        !- Z Origin
    1,                        !- Type
    1,                        !- Multiplier
    autocalculate,            !- Ceiling Height
    183.897216796875,         !- Volume
    autocalculate,            !- Floor Area
    ,                         !- Zone Inside Convection Algorithm
    ,                         !- Zone Outside Convection Algorithm
    Yes;                      !- Part of Total Floor Area

ZONE,
    6f17e6e83818aaa9_F1_whole,    !- Name
    0,                        !- Direction of Relative North
    0,                        !- X Origin
    0,                        !- Y Origin
    0,                        !- Z Origin
    1,                        !- Type
    1,                        !- Multiplier
    autocalculate,            !- Ceiling Height
    183.896484375,            !- Volume
    autocalculate,            !- Floor Area
    ,                         !- Zone Inside Convection Algorithm
    ,                         !- Zone Outside Convection Algorithm
    Yes;                      !- Part of Total Floor Area

ZONE,
    6f17e6e83818aaa9_F2_whole,    !- Name
    0,                        !- Direction of Relative North
    0,                        !- X Origin
    0,                        !- Y Origin
    0,                        !- Z Origin
    1,                        !- Type
    1,                        !- Multiplier
    autocalculate,            !- Ceiling Height
    183.896484375,            !- Volume
    autocalculate,            !- Floor Area
    ,                         !- Zone Inside Convection Algorithm
    ,                         !- Zone Outside Convection Algorithm
    Yes;                      !- Part of Total Floor Area

BUILDINGSURFACE:DETAILED,
    Block 6f17e6e83818aaa9_whole Storey 0 Wall 0001,    !- Name
    wall,                     !- Surface Type
    EU_wall_Construction,     !- Construction Name
    6f17e6e83818aaa9_F0_whole,    !- Zone Name
    ,                         !- Space Name
    Adiabatic,                !- Outside Boundary Condition
    ,                         !- Outside Boundary Condition Object
    NoSun,                    !- Sun Exposure
    NoWind,                   !- Wind Exposure
    autocalculate,            !- View Factor to Ground
    autocalculate,            !- Number of Vertices
    687073.82,                !- Vertex 1 Xcoordinate
    4928866.725,              !- Vertex 1 Ycoordinate
    3,                        !- Vertex 1 Zcoordinate
    687073.82,                !- Vertex 2 Xcoordinate
    4928866.725,              !- Vertex 2 Ycoordinate
    0,                        !- Vertex 2 Zcoordinate
    687070.135,               !- Vertex 3 Xcoordinate
    4928869.715,              !- Vertex 3 Ycoordinate
    0,                        !- Vertex 3 Zcoordinate
    687070.135,               !- Vertex 4 Xcoordinate
    4928869.715,              !- Vertex 4 Ycoordinate
    3;                        !- Vertex 4 Zcoordinate

BUILDINGSURFACE:DETAILED,
    Block 6f17e6e83818aaa9_whole Storey 0 Wall 0002,    !- Name
    wall,                     !- Surface Type
    EU_wall_Construction,     !- Construction Name
    6f17e6e83818aaa9_F0_whole,    !- Zone Name
    ,                         !- Space Name
    Adiabatic,                !- Outside Boundary Condition
    ,                         !- Outside Boundary Condition Object
    NoSun,                    !- Sun Exposure
    NoWind,                   !- Wind Exposure
    autocalculate,            !- View Factor to Ground
    autocalculate,            !- Number of Vertices
    687070.135,               !- Vertex 1 Xcoordinate
    4928869.715,              !- Vertex 1 Ycoordinate
    3,                        !- Vertex 1 Zcoordinate
    687070.135,               !- Vertex 2 Xcoordinate
    4928869.715,              !- Vertex 2 Ycoordinate
    0,                        !- Vertex 2 Zcoordinate
    687078.275,               !- Vertex 3 Xcoordinate
    4928879.745,              !- Vertex 3 Ycoordinate
    0,                        !- Vertex 3 Zcoordinate
    687078.275,               !- Vertex 4 Xcoordinate
    4928879.745,              !- Vertex 4 Ycoordinate
    3;                        !- Vertex 4 Zcoordinate

BUILDINGSURFACE:DETAILED,
    Block 6f17e6e83818aaa9_whole Storey 0 Wall 0003,    !- Name
    wall,                     !- Surface Type
    EU_wall_Construction,     !- Construction Name
    6f17e6e83818aaa9_F0_whole,    !- Zone Name
    ,                         !- Space Name
    outdoors,                 !- Outside Boundary Condition
    ,                         !- Outside Boundary Condition Object
    SunExposed,               !- Sun Exposure
    WindExposed,              !- Wind Exposure
    autocalculate,            !- View Factor to Ground
    autocalculate,            !- Number of Vertices
    687078.275,               !- Vertex 1 Xcoordinate
    4928879.745,              !- Vertex 1 Ycoordinate
    3,                        !- Vertex 1 Zcoordinate
    687078.275,               !- Vertex 2 Xcoordinate
    4928879.745,              !- Vertex 2 Ycoordinate
    0,                        !- Vertex 2 Zcoordinate
    687081.96,                !- Vertex 3 Xcoordinate
    4928876.755,              !- Vertex 3 Ycoordinate
    0,                        !- Vertex 3 Zcoordinate
    687081.96,                !- Vertex 4 Xcoordinate
    4928876.755,              !- Vertex 4 Ycoordinate
    3;                        !- Vertex 4 Zcoordinate

BUILDINGSURFACE:DETAILED,
    Block 6f17e6e83818aaa9_whole Storey 0 Wall 0004,    !- Name
    wall,                     !- Surface Type
    EU_wall_Construction,     !- Construction Name
    6f17e6e83818aaa9_F0_whole,    !- Zone Name
    ,                         !- Space Name
    Adiabatic,                !- Outside Boundary Condition
    ,                         !- Outside Boundary Condition Object
    NoSun,                    !- Sun Exposure
    NoWind,                   !- Wind Exposure
    autocalculate,            !- View Factor to Ground
    autocalculate,            !- Number of Vertices
    687081.96,                !- Vertex 1 Xcoordinate
    4928876.755,              !- Vertex 1 Ycoordinate
    3,                        !- Vertex 1 Zcoordinate
    687081.96,                !- Vertex 2 Xcoordinate
    4928876.755,              !- Vertex 2 Ycoordinate
    0,                        !- Vertex 2 Zcoordinate
    687073.82,                !- Vertex 3 Xcoordinate
    4928866.725,              !- Vertex 3 Ycoordinate
    0,                        !- Vertex 3 Zcoordinate
    687073.82,                !- Vertex 4 Xcoordinate
    4928866.725,              !- Vertex 4 Ycoordinate
    3;                        !- Vertex 4 Zcoordinate

BUILDINGSURFACE:DETAILED,
    Block 6f17e6e83818aaa9_whole Storey 0 Floor 0001,    !- Name
    floor,                    !- Surface Type
    EU_floor_Construction,    !- Construction Name
    6f17e6e83818aaa9_F0_whole,    !- Zone Name
    ,                         !- Space Name
    ground,                   !- Outside Boundary Condition
    ,                         !- Outside Boundary Condition Object
    NoSun,                    !- Sun Exposure
    NoWind,                   !- Wind Exposure
    autocalculate,            !- View Factor to Ground
    autocalculate,            !- Number of Vertices
    687073.82,                !- Vertex 1 Xcoordinate
    4928866.725,              !- Vertex 1 Ycoordinate
    0,                        !- Vertex 1 Zcoordinate
    687081.96,                !- Vertex 2 Xcoordinate
    4928876.755,              !- Vertex 2 Ycoordinate
    0,                        !- Vertex 2 Zcoordinate
    687078.275,               !- Vertex 3 Xcoordinate
    4928879.745,              !- Vertex 3 Ycoordinate
    0,                        !- Vertex 3 Zcoordinate
    687070.135,               !- Vertex 4 Xcoordinate
    4928869.715,              !- Vertex 4 Ycoordinate
    0;                        !- Vertex 4 Zcoordinate

BUILDINGSURFACE:DETAILED,
    Block 6f17e6e83818aaa9_whole Storey 1 Wall 0001,    !- Name
    wall,                     !- Surface Type
    EU_wall_Construction,     !- Construction Name
    6f17e6e83818aaa9_F1_whole,    !- Zone Name
    ,                         !- Space Name
    Adiabatic,                !- Outside Boundary Condition
    ,                         !- Outside Boundary Condition Object
    NoSun,                    !- Sun Exposure
    NoWind,                   !- Wind Exposure
    autocalculate,            !- View Factor to Ground
    autocalculate,            !- Number of Vertices
    687073.82,                !- Vertex 1 Xcoordinate
    4928866.725,              !- Vertex 1 Ycoordinate
    6,                        !- Vertex 1 Zcoordinate
    687073.82,                !- Vertex 2 Xcoordinate
    4928866.725,              !- Vertex 2 Ycoordinate
    3,                        !- Vertex 2 Zcoordinate
    687070.135,               !- Vertex 3 Xcoordinate
    4928869.715,              !- Vertex 3 Ycoordinate
    3,                        !- Vertex 3 Zcoordinate
    687070.135,               !- Vertex 4 Xcoordinate
    4928869.715,              !- Vertex 4 Ycoordinate
    6;                        !- Vertex 4 Zcoordinate

BUILDINGSURFACE:DETAILED,
    Block 6f17e6e83818aaa9_whole Storey 1 Wall 0002,    !- Name
    wall,                     !- Surface Type
    EU_wall_Construction,     !- Construction Name
    6f17e6e83818aaa9_F1_whole,    !- Zone Name
    ,                         !- Space Name
    Adiabatic,                !- Outside Boundary Condition
    ,                         !- Outside Boundary Condition Object
    NoSun,                    !- Sun Exposure
    NoWind,                   !- Wind Exposure
    autocalculate,            !- View Factor to Ground
    autocalculate,            !- Number of Vertices
    687070.135,               !- Vertex 1 Xcoordinate
    4928869.715,              !- Vertex 1 Ycoordinate
    6,                        !- Vertex 1 Zcoordinate
    687070.135,               !- Vertex 2 Xcoordinate
    4928869.715,              !- Vertex 2 Ycoordinate
    3,                        !- Vertex 2 Zcoordinate
    687078.275,               !- Vertex 3 Xcoordinate
    4928879.745,              !- Vertex 3 Ycoordinate
    3,                        !- Vertex 3 Zcoordinate
    687078.275,               !- Vertex 4 Xcoordinate
    4928879.745,              !- Vertex 4 Ycoordinate
    6;                        !- Vertex 4 Zcoordinate

BUILDINGSURFACE:DETAILED,
    Block 6f17e6e83818aaa9_whole Storey 1 Wall 0003,    !- Name
    wall,                     !- Surface Type
    EU_wall_Construction,     !- Construction Name
    6f17e6e83818aaa9_F1_whole,    !- Zone Name
    ,                         !- Space Name
    outdoors,                 !- Outside Boundary Condition
    ,                         !- Outside Boundary Condition Object
    SunExposed,               !- Sun Exposure
    WindExposed,              !- Wind Exposure
    autocalculate,            !- View Factor to Ground
    autocalculate,            !- Number of Vertices
    687078.275,               !- Vertex 1 Xcoordinate
    4928879.745,              !- Vertex 1 Ycoordinate
    6,                        !- Vertex 1 Zcoordinate
    687078.275,               !- Vertex 2 Xcoordinate
    4928879.745,              !- Vertex 2 Ycoordinate
    3,                        !- Vertex 2 Zcoordinate
    687081.96,                !- Vertex 3 Xcoordinate
    4928876.755,              !- Vertex 3 Ycoordinate
    3,                        !- Vertex 3 Zcoordinate
    687081.96,                !- Vertex 4 Xcoordinate
    4928876.755,              !- Vertex 4 Ycoordinate
    6;                        !- Vertex 4 Zcoordinate

BUILDINGSURFACE:DETAILED,
    Block 6f17e6e83818aaa9_whole Storey 1 Wall 0004,    !- Name
    wall,                     !- Surface Type
    EU_wall_Construction,     !- Construction Name
    6f17e6e83818aaa9_F1_whole,    !- Zone Name
    ,                         !- Space Name
    Adiabatic,                !- Outside Boundary Condition
    ,                         !- Outside Boundary Condition Object
    NoSun,                    !- Sun Exposure
    NoWind,                   !- Wind Exposure
    autocalculate,            !- View Factor to Ground
    autocalculate,            !- Number of Vertices
    687081.96,                !- Vertex 1 Xcoordinate
    4928876.755,              !- Vertex 1 Ycoordinate
    6,                        !- Vertex 1 Zcoordinate
    687081.96,                !- Vertex 2 Xcoordinate
    4928876.755,              !- Vertex 2 Ycoordinate
    3,                        !- Vertex 2 Zcoordinate
    687073.82,                !- Vertex 3 Xcoordinate
    4928866.725,              !- Vertex 3 Ycoordinate
    3,                        !- Vertex 3 Zcoordinate
    687073.82,                !- Vertex 4 Xcoordinate
    4928866.725,              !- Vertex 4 Ycoordinate
    6;                        !- Vertex 4 Zcoordinate

BUILDINGSURFACE:DETAILED,
    Block 6f17e6e83818aaa9_whole Storey 2 Wall 0001,    !- Name
    wall,                     !- Surface Type
    EU_wall_Construction,     !- Construction Name
    6f17e6e83818aaa9_F2_whole,    !- Zone Name
    ,                         !- Space Name
    Adiabatic,                !- Outside Boundary Condition
    ,                         !- Outside Boundary Condition Object
    NoSun,                    !- Sun Exposure
    NoWind,                   !- Wind Exposure
    autocalculate,            !- View Factor to Ground
    autocalculate,            !- Number of Vertices
    687073.82,                !- Vertex 1 Xcoordinate
    4928866.725,              !- Vertex 1 Ycoordinate
    9,                        !- Vertex 1 Zcoordinate
    687073.82,                !- Vertex 2 Xcoordinate
    4928866.725,              !- Vertex 2 Ycoordinate
    6,                        !- Vertex 2 Zcoordinate
    687070.135,               !- Vertex 3 Xcoordinate
    4928869.715,              !- Vertex 3 Ycoordinate
    6,                        !- Vertex 3 Zcoordinate
    687070.135,               !- Vertex 4 Xcoordinate
    4928869.715,              !- Vertex 4 Ycoordinate
    9;                        !- Vertex 4 Zcoordinate

BUILDINGSURFACE:DETAILED,
    Block 6f17e6e83818aaa9_whole Storey 2 Wall 0002,    !- Name
    wall,                     !- Surface Type
    EU_wall_Construction,     !- Construction Name
    6f17e6e83818aaa9_F2_whole,    !- Zone Name
    ,                         !- Space Name
    Adiabatic,                !- Outside Boundary Condition
    ,                         !- Outside Boundary Condition Object
    NoSun,                    !- Sun Exposure
    NoWind,                   !- Wind Exposure
    autocalculate,            !- View Factor to Ground
    autocalculate,            !- Number of Vertices
    687070.135,               !- Vertex 1 Xcoordinate
    4928869.715,              !- Vertex 1 Ycoordinate
    9,                        !- Vertex 1 Zcoordinate
    687070.135,               !- Vertex 2 Xcoordinate
    4928869.715,              !- Vertex 2 Ycoordinate
    6,                        !- Vertex 2 Zcoordinate
    687078.275,               !- Vertex 3 Xcoordinate
    4928879.745,              !- Vertex 3 Ycoordinate
    6,                        !- Vertex 3 Zcoordinate
    687078.275,               !- Vertex 4 Xcoordinate
    4928879.745,              !- Vertex 4 Ycoordinate
    9;                        !- Vertex 4 Zcoordinate

BUILDINGSURFACE:DETAILED,
    Block 6f17e6e83818aaa9_whole Storey 2 Wall 0003,    !- Name
    wall,                     !- Surface Type
    EU_wall_Construction,     !- Construction Name
    6f17e6e83818aaa9_F2_whole,    !- Zone Name
    ,                         !- Space Name
    outdoors,                 !- Outside Boundary Condition
    ,                         !- Outside Boundary Condition Object
    SunExposed,               !- Sun Exposure
    WindExposed,              !- Wind Exposure
    autocalculate,            !- View Factor to Ground
    autocalculate,            !- Number of Vertices
    687078.275,               !- Vertex 1 Xcoordinate
    4928879.745,              !- Vertex 1 Ycoordinate
    9,                        !- Vertex 1 Zcoordinate
    687078.275,               !- Vertex 2 Xcoordinate
    4928879.745,              !- Vertex 2 Ycoordinate
    6,                        !- Vertex 2 Zcoordinate
    687081.96,                !- Vertex 3 Xcoordinate
    4928876.755,              !- Vertex 3 Ycoordinate
    6,                        !- Vertex 3 Zcoordinate
    687081.96,                !- Vertex 4 Xcoordinate
    4928876.755,              !- Vertex 4 Ycoordinate
    9;                        !- Vertex 4 Zcoordinate

BUILDINGSURFACE:DETAILED,
    Block 6f17e6e83818aaa9_whole Storey 2 Wall 0004,    !- Name
    wall,                     !- Surface Type
    EU_wall_Construction,     !- Construction Name
    6f17e6e83818aaa9_F2_whole,    !- Zone Name
    ,                         !- Space Name
    Adiabatic,                !- Outside Boundary Condition
    ,                         !- Outside Boundary Condition Object
    NoSun,                    !- Sun Exposure
    NoWind,                   !- Wind Exposure
    autocalculate,            !- View Factor to Ground
    autocalculate,            !- Number of Vertices
    687081.96,                !- Vertex 1 Xcoordinate
    4928876.755,              !- Vertex 1 Ycoordinate
    9,                        !- Vertex 1 Zcoordinate
    687081.96,                !- Vertex 2 Xcoordinate
    4928876.755,              !- Vertex 2 Ycoordinate
    6,                        !- Vertex 2 Zcoordinate
    687073.82,                !- Vertex 3 Xcoordinate
    4928866.725,              !- Vertex 3 Ycoordinate
    6,                        !- Vertex 3 Zcoordinate
    687073.82,                !- Vertex 4 Xcoordinate
    4928866.725,              !- Vertex 4 Ycoordinate
    9;                        !- Vertex 4 Zcoordinate

BUILDINGSURFACE:DETAILED,
    Block 6f17e6e83818aaa9_whole Storey 2 Roof 0001,    !- Name
    roof,                     !- Surface Type
    EU_roof_Construction,     !- Construction Name
    6f17e6e83818aaa9_F2_whole,    !- Zone Name
    ,                         !- Space Name
    outdoors,                 !- Outside Boundary Condition
    ,                         !- Outside Boundary Condition Object
    NoSun,                    !- Sun Exposure
    WindExposed,              !- Wind Exposure
    autocalculate,            !- View Factor to Ground
    autocalculate,            !- Number of Vertices
    687081.96,                !- Vertex 1 Xcoordinate
    4928876.755,              !- Vertex 1 Ycoordinate
    9,                        !- Vertex 1 Zcoordinate
    687073.82,                !- Vertex 2 Xcoordinate
    4928866.725,              !- Vertex 2 Ycoordinate
    9,                        !- Vertex 2 Zcoordinate
    687070.135,               !- Vertex 3 Xcoordinate
    4928869.715,              !- Vertex 3 Ycoordinate
    9,                        !- Vertex 3 Zcoordinate
    687078.275,               !- Vertex 4 Xcoordinate
    4928879.745,              !- Vertex 4 Ycoordinate
    9;                        !- Vertex 4 Zcoordinate

BUILDINGSURFACE:DETAILED,
    Block 6f17e6e83818aaa9_whole Storey 0 Ceiling 0001_1,    !- Name
    ceiling,                  !- Surface Type
    EU_floor_Construction,    !- Construction Name
    6f17e6e83818aaa9_F0_whole,    !- Zone Name
    ,                         !- Space Name
    Surface,                  !- Outside Boundary Condition
    Block 6f17e6e83818aaa9_whole Storey 1 Floor 0001_1,    !- Outside Boundary Condition Object
    NoSun,                    !- Sun Exposure
    NoWind,                   !- Wind Exposure
    autocalculate,            !- View Factor to Ground
    autocalculate,            !- Number of Vertices
    687081.96,                !- Vertex 1 Xcoordinate
    4928876.755,              !- Vertex 1 Ycoordinate
    3,                        !- Vertex 1 Zcoordinate
    687073.8199999998,        !- Vertex 2 Xcoordinate
    4928866.725,              !- Vertex 2 Ycoordinate
    3,                        !- Vertex 2 Zcoordinate
    687070.1349999998,        !- Vertex 3 Xcoordinate
    4928869.715,              !- Vertex 3 Ycoordinate
    3,                        !- Vertex 3 Zcoordinate
    687078.2749999999,        !- Vertex 4 Xcoordinate
    4928879.745,              !- Vertex 4 Ycoordinate
    3;                        !- Vertex 4 Zcoordinate

BUILDINGSURFACE:DETAILED,
    Block 6f17e6e83818aaa9_whole Storey 1 Floor 0001_1,    !- Name
    floor,                    !- Surface Type
    EU_floor_Construction,    !- Construction Name
    6f17e6e83818aaa9_F1_whole,    !- Zone Name
    ,                         !- Space Name
    Surface,                  !- Outside Boundary Condition
    Block 6f17e6e83818aaa9_whole Storey 0 Ceiling 0001_1,    !- Outside Boundary Condition Object
    NoSun,                    !- Sun Exposure
    NoWind,                   !- Wind Exposure
    autocalculate,            !- View Factor to Ground
    autocalculate,            !- Number of Vertices
    687073.8199999998,        !- Vertex 1 Xcoordinate
    4928866.725,              !- Vertex 1 Ycoordinate
    3,                        !- Vertex 1 Zcoordinate
    687081.96,                !- Vertex 2 Xcoordinate
    4928876.755,              !- Vertex 2 Ycoordinate
    3,                        !- Vertex 2 Zcoordinate
    687078.2749999999,        !- Vertex 3 Xcoordinate
    4928879.745,              !- Vertex 3 Ycoordinate
    3,                        !- Vertex 3 Zcoordinate
    687070.1349999998,        !- Vertex 4 Xcoordinate
    4928869.715,              !- Vertex 4 Ycoordinate
    3;                        !- Vertex 4 Zcoordinate

BUILDINGSURFACE:DETAILED,
    Block 6f17e6e83818aaa9_whole Storey 1 Ceiling 0001_1,    !- Name
    ceiling,                  !- Surface Type
    EU_floor_Construction,    !- Construction Name
    6f17e6e83818aaa9_F1_whole,    !- Zone Name
    ,                         !- Space Name
    Surface,                  !- Outside Boundary Condition
    Block 6f17e6e83818aaa9_whole Storey 2 Floor 0001_1,    !- Outside Boundary Condition Object
    NoSun,                    !- Sun Exposure
    NoWind,                   !- Wind Exposure
    autocalculate,            !- View Factor to Ground
    autocalculate,            !- Number of Vertices
    687081.96,                !- Vertex 1 Xcoordinate
    4928876.755,              !- Vertex 1 Ycoordinate
    6,                        !- Vertex 1 Zcoordinate
    687073.8199999998,        !- Vertex 2 Xcoordinate
    4928866.725,              !- Vertex 2 Ycoordinate
    6,                        !- Vertex 2 Zcoordinate
    687070.1349999998,        !- Vertex 3 Xcoordinate
    4928869.715,              !- Vertex 3 Ycoordinate
    6,                        !- Vertex 3 Zcoordinate
    687078.2749999999,        !- Vertex 4 Xcoordinate
    4928879.745,              !- Vertex 4 Ycoordinate
    6;                        !- Vertex 4 Zcoordinate

BUILDINGSURFACE:DETAILED,
    Block 6f17e6e83818aaa9_whole Storey 2 Floor 0001_1,    !- Name
    floor,                    !- Surface Type
    EU_floor_Construction,    !- Construction Name
    6f17e6e83818aaa9_F2_whole,    !- Zone Name
    ,                         !- Space Name
    Surface,                  !- Outside Boundary Condition
    Block 6f17e6e83818aaa9_whole Storey 1 Ceiling 0001_1,    !- Outside Boundary Condition Object
    NoSun,                    !- Sun Exposure
    NoWind,                   !- Wind Exposure
    autocalculate,            !- View Factor to Ground
    autocalculate,            !- Number of Vertices
    687073.8199999998,        !- Vertex 1 Xcoordinate
    4928866.725,              !- Vertex 1 Ycoordinate
    6,                        !- Vertex 1 Zcoordinate
    687081.96,                !- Vertex 2 Xcoordinate
    4928876.755,              !- Vertex 2 Ycoordinate
    6,                        !- Vertex 2 Zcoordinate
    687078.2749999999,        !- Vertex 3 Xcoordinate
    4928879.745,              !- Vertex 3 Ycoordinate
    6,                        !- Vertex 3 Zcoordinate
    687070.1349999998,        !- Vertex 4 Xcoordinate
    4928869.715,              !- Vertex 4 Ycoordinate
    6;                        !- Vertex 4 Zcoordinate

INTERNALMASS,
    6f17e6e83818aaa9_F0_whole_EU_InternalMass,    !- Name
    EU_InternalMass_Construction,    !- Construction Name
    6f17e6e83818aaa9_F0_whole,    !- Zone or ZoneList Name
    ,                         !- Space or SpaceList Name
    61.29915000221495;        !- Surface Area

INTERNALMASS,
    6f17e6e83818aaa9_F1_whole_EU_InternalMass,    !- Name
    EU_InternalMass_Construction,    !- Construction Name
    6f17e6e83818aaa9_F1_whole,    !- Zone or ZoneList Name
    ,                         !- Space or SpaceList Name
    61.29915000221495;        !- Surface Area

INTERNALMASS,
    6f17e6e83818aaa9_F2_whole_EU_InternalMass,    !- Name
    EU_InternalMass_Construction,    !- Construction Name
    6f17e6e83818aaa9_F2_whole,    !- Zone or ZoneList Name
    ,                         !- Space or SpaceList Name
    61.29915000221495;        !- Surface Area

SHADING:SITE:DETAILED,
    shade_30442_1,            !- Name
    ,                         !- Transmittance Schedule Name
    autocalculate,            !- Number of Vertices
    687113.7886276406,        !- Vertex 1 Xcoordinate
    4928857.0301713785,       !- Vertex 1 Ycoordinate
    15,                       !- Vertex 1 Zcoordinate
    687113.7886276406,        !- Vertex 2 Xcoordinate
    4928857.0301713785,       !- Vertex 2 Ycoordinate
    0,                        !- Vertex 2 Zcoordinate
    687088.2673368744,        !- Vertex 3 Xcoordinate
    4928821.793264774,        !- Vertex 3 Ycoordinate
    0,                        !- Vertex 3 Zcoordinate
    687088.2673368744,        !- Vertex 4 Xcoordinate
    4928821.793264774,        !- Vertex 4 Ycoordinate
    15;                       !- Vertex 4 Zcoordinate

SHADING:SITE:DETAILED,
    shade_30442_2,            !- Name
    ,                         !- Transmittance Schedule Name
    autocalculate,            !- Number of Vertices
    687088.2673368744,        !- Vertex 1 Xcoordinate
    4928821.793264774,        !- Vertex 1 Ycoordinate
    15,                       !- Vertex 1 Zcoordinate
    687088.2673368744,        !- Vertex 2 Xcoordinate
    4928821.793264774,        !- Vertex 2 Ycoordinate
    0,                        !- Vertex 2 Zcoordinate
    687063.0667683384,        !- Vertex 3 Xcoordinate
    4928840.04546392,         !- Vertex 3 Ycoordinate
    0,                        !- Vertex 3 Zcoordinate
    687063.0667683384,        !- Vertex 4 Xcoordinate
    4928840.04546392,         !- Vertex 4 Ycoordinate
    15;                       !- Vertex 4 Zcoordinate

SHADING:SITE:DETAILED,
    shade_30442_3,            !- Name
    ,                         !- Transmittance Schedule Name
    autocalculate,            !- Number of Vertices
    687063.0667683384,        !- Vertex 1 Xcoordinate
    4928840.04546392,         !- Vertex 1 Ycoordinate
    15,                       !- Vertex 1 Zcoordinate
    687063.0667683384,        !- Vertex 2 Xcoordinate
    4928840.04546392,         !- Vertex 2 Ycoordinate
    0,                        !- Vertex 2 Zcoordinate
    687088.5880591046,        !- Vertex 3 Xcoordinate
    4928875.2823705245,       !- Vertex 3 Ycoordinate
    0,                        !- Vertex 3 Zcoordinate
    687088.5880591046,        !- Vertex 4 Xcoordinate
    4928875.2823705245,       !- Vertex 4 Ycoordinate
    15;                       !- Vertex 4 Zcoordinate

SHADING:SITE:DETAILED,
    shade_30442_4,            !- Name
    ,                         !- Transmittance Schedule Name
    autocalculate,            !- Number of Vertices
    687088.5880591046,        !- Vertex 1 Xcoordinate
    4928875.2823705245,       !- Vertex 1 Ycoordinate
    15,                       !- Vertex 1 Zcoordinate
    687088.5880591046,        !- Vertex 2 Xcoordinate
    4928875.2823705245,       !- Vertex 2 Ycoordinate
    0,                        !- Vertex 2 Zcoordinate
    687113.7886276406,        !- Vertex 3 Xcoordinate
    4928857.0301713785,       !- Vertex 3 Ycoordinate
    0,                        !- Vertex 3 Zcoordinate
    687113.7886276406,        !- Vertex 4 Xcoordinate
    4928857.0301713785,       !- Vertex 4 Ycoordinate
    15;                       !- Vertex 4 Zcoordinate

SHADING:SITE:DETAILED,
    shade_30488_1,            !- Name
    ,                         !- Transmittance Schedule Name
    autocalculate,            !- Number of Vertices
    687086.2759984897,        !- Vertex 1 Xcoordinate
    4928873.651119191,        !- Vertex 1 Ycoordinate
    15,                       !- Vertex 1 Zcoordinate
    687086.2759984897,        !- Vertex 2 Xcoordinate
    4928873.651119191,        !- Vertex 2 Ycoordinate
    0,                        !- Vertex 2 Zcoordinate
    687070.97599849,          !- Vertex 3 Xcoordinate
    4928853.711119191,        !- Vertex 3 Ycoordinate
    0,                        !- Vertex 3 Zcoordinate
    687070.97599849,          !- Vertex 4 Xcoordinate
    4928853.711119191,        !- Vertex 4 Ycoordinate
    15;                       !- Vertex 4 Zcoordinate

SHADING:SITE:DETAILED,
    shade_30488_2,            !- Name
    ,                         !- Transmittance Schedule Name
    autocalculate,            !- Number of Vertices
    687070.97599849,          !- Vertex 1 Xcoordinate
    4928853.711119191,        !- Vertex 1 Ycoordinate
    15,                       !- Vertex 1 Zcoordinate
    687070.97599849,          !- Vertex 2 Xcoordinate
    4928853.711119191,        !- Vertex 2 Ycoordinate
    0,                        !- Vertex 2 Zcoordinate
    687066.4897587778,        !- Vertex 3 Xcoordinate
    4928857.153272415,        !- Vertex 3 Ycoordinate
    0,                        !- Vertex 3 Zcoordinate
    687066.4897587778,        !- Vertex 4 Xcoordinate
    4928857.153272415,        !- Vertex 4 Ycoordinate
    15;                       !- Vertex 4 Zcoordinate

SHADING:SITE:DETAILED,
    shade_30488_3,            !- Name
    ,                         !- Transmittance Schedule Name
    autocalculate,            !- Number of Vertices
    687066.4897587778,        !- Vertex 1 Xcoordinate
    4928857.153272415,        !- Vertex 1 Ycoordinate
    15,                       !- Vertex 1 Zcoordinate
    687066.4897587778,        !- Vertex 2 Xcoordinate
    4928857.153272415,        !- Vertex 2 Ycoordinate
    0,                        !- Vertex 2 Zcoordinate
    687081.7897587788,        !- Vertex 3 Xcoordinate
    4928877.09327241,         !- Vertex 3 Ycoordinate
    0,                        !- Vertex 3 Zcoordinate
    687081.7897587788,        !- Vertex 4 Xcoordinate
    4928877.09327241,         !- Vertex 4 Ycoordinate
    15;                       !- Vertex 4 Zcoordinate

SHADING:SITE:DETAILED,
    shade_30488_4,            !- Name
    ,                         !- Transmittance Schedule Name
    autocalculate,            !- Number of Vertices
    687081.7897587788,        !- Vertex 1 Xcoordinate
    4928877.09327241,         !- Vertex 1 Ycoordinate
    15,                       !- Vertex 1 Zcoordinate
    687081.7897587788,        !- Vertex 2 Xcoordinate
    4928877.09327241,         !- Vertex 2 Ycoordinate
    0,                        !- Vertex 2 Zcoordinate
    687086.2759984897,        !- Vertex 3 Xcoordinate
    4928873.651119191,        !- Vertex 3 Ycoordinate
    0,                        !- Vertex 3 Zcoordinate
    687086.2759984897,        !- Vertex 4 Xcoordinate
    4928873.651119191,        !- Vertex 4 Ycoordinate
    15;                       !- Vertex 4 Zcoordinate

SHADING:SITE:DETAILED,
    shade_30440_1,            !- Name
    ,                         !- Transmittance Schedule Name
    autocalculate,            !- Number of Vertices
    687115.1204008124,        !- Vertex 1 Xcoordinate
    4928859.934578068,        !- Vertex 1 Ycoordinate
    15,                       !- Vertex 1 Zcoordinate
    687115.1204008124,        !- Vertex 2 Xcoordinate
    4928859.934578068,        !- Vertex 2 Ycoordinate
    0,                        !- Vertex 2 Zcoordinate
    687099.074079771,         !- Vertex 3 Xcoordinate
    4928871.508305499,        !- Vertex 3 Ycoordinate
    0,                        !- Vertex 3 Zcoordinate
    687099.074079771,         !- Vertex 4 Xcoordinate
    4928871.508305499,        !- Vertex 4 Ycoordinate
    15;                       !- Vertex 4 Zcoordinate

SHADING:SITE:DETAILED,
    shade_30440_2,            !- Name
    ,                         !- Transmittance Schedule Name
    autocalculate,            !- Number of Vertices
    687099.074079771,         !- Vertex 1 Xcoordinate
    4928871.508305499,        !- Vertex 1 Ycoordinate
    15,                       !- Vertex 1 Zcoordinate
    687099.074079771,         !- Vertex 2 Xcoordinate
    4928871.508305499,        !- Vertex 2 Ycoordinate
    0,                        !- Vertex 2 Zcoordinate
    687104.8987050104,        !- Vertex 3 Xcoordinate
    4928879.583820245,        !- Vertex 3 Ycoordinate
    0,                        !- Vertex 3 Zcoordinate
    687104.8987050104,        !- Vertex 4 Xcoordinate
    4928879.583820245,        !- Vertex 4 Ycoordinate
    15;                       !- Vertex 4 Zcoordinate

SHADING:SITE:DETAILED,
    shade_30440_3,            !- Name
    ,                         !- Transmittance Schedule Name
    autocalculate,            !- Number of Vertices
    687104.8987050104,        !- Vertex 1 Xcoordinate
    4928879.583820245,        !- Vertex 1 Ycoordinate
    15,                       !- Vertex 1 Zcoordinate
    687104.8987050104,        !- Vertex 2 Xcoordinate
    4928879.583820245,        !- Vertex 2 Ycoordinate
    0,                        !- Vertex 2 Zcoordinate
    687120.9449984893,        !- Vertex 3 Xcoordinate
    4928868.0101191895,       !- Vertex 3 Ycoordinate
    0,                        !- Vertex 3 Zcoordinate
    687120.9449984893,        !- Vertex 4 Xcoordinate
    4928868.0101191895,       !- Vertex 4 Ycoordinate
    15;                       !- Vertex 4 Zcoordinate

SHADING:SITE:DETAILED,
    shade_30440_4,            !- Name
    ,                         !- Transmittance Schedule Name
    autocalculate,            !- Number of Vertices
    687120.9449984893,        !- Vertex 1 Xcoordinate
    4928868.0101191895,       !- Vertex 1 Ycoordinate
    15,                       !- Vertex 1 Zcoordinate
    687120.9449984893,        !- Vertex 2 Xcoordinate
    4928868.0101191895,       !- Vertex 2 Ycoordinate
    0,                        !- Vertex 2 Zcoordinate
    687115.1204008124,        !- Vertex 3 Xcoordinate
    4928859.934578068,        !- Vertex 3 Ycoordinate
    0,                        !- Vertex 3 Zcoordinate
    687115.1204008124,        !- Vertex 4 Xcoordinate
    4928859.934578068,        !- Vertex 4 Ycoordinate
    15;                       !- Vertex 4 Zcoordinate

SHADING:SITE:DETAILED,
    shade_93415_1,            !- Name
    ,                         !- Transmittance Schedule Name
    autocalculate,            !- Number of Vertices
    687096.3066158446,        !- Vertex 1 Xcoordinate
    4928873.441099338,        !- Vertex 1 Ycoordinate
    15,                       !- Vertex 1 Zcoordinate
    687096.3066158446,        !- Vertex 2 Xcoordinate
    4928873.441099338,        !- Vertex 2 Ycoordinate
    0,                        !- Vertex 2 Zcoordinate
    687101.1399984895,        !- Vertex 3 Xcoordinate
    4928880.194119191,        !- Vertex 3 Ycoordinate
    0,                        !- Vertex 3 Zcoordinate
    687101.1399984895,        !- Vertex 4 Xcoordinate
    4928880.194119191,        !- Vertex 4 Ycoordinate
    15;                       !- Vertex 4 Zcoordinate

SHADING:SITE:DETAILED,
    shade_93415_2,            !- Name
    ,                         !- Transmittance Schedule Name
    autocalculate,            !- Number of Vertices
    687101.1399984895,        !- Vertex 1 Xcoordinate
    4928880.194119191,        !- Vertex 1 Ycoordinate
    15,                       !- Vertex 1 Zcoordinate
    687101.1399984895,        !- Vertex 2 Xcoordinate
    4928880.194119191,        !- Vertex 2 Ycoordinate
    0,                        !- Vertex 2 Zcoordinate
    687104.1455479582,        !- Vertex 3 Xcoordinate
    4928878.043388787,        !- Vertex 3 Ycoordinate
    0,                        !- Vertex 3 Zcoordinate
    687104.1455479582,        !- Vertex 4 Xcoordinate
    4928878.043388787,        !- Vertex 4 Ycoordinate
    15;                       !- Vertex 4 Zcoordinate

SHADING:SITE:DETAILED,
    shade_93415_3,            !- Name
    ,                         !- Transmittance Schedule Name
    autocalculate,            !- Number of Vertices
    687104.1455479582,        !- Vertex 1 Xcoordinate
    4928878.043388787,        !- Vertex 1 Ycoordinate
    15,                       !- Vertex 1 Zcoordinate
    687104.1455479582,        !- Vertex 2 Xcoordinate
    4928878.043388787,        !- Vertex 2 Ycoordinate
    0,                        !- Vertex 2 Zcoordinate
    687099.3126246963,        !- Vertex 3 Xcoordinate
    4928871.289932624,        !- Vertex 3 Ycoordinate
    0,                        !- Vertex 3 Zcoordinate
    687099.3126246963,        !- Vertex 4 Xcoordinate
    4928871.289932624,        !- Vertex 4 Ycoordinate
    15;                       !- Vertex 4 Zcoordinate

SHADING:SITE:DETAILED,
    shade_93415_4,            !- Name
    ,                         !- Transmittance Schedule Name
    autocalculate,            !- Number of Vertices
    687099.3126246963,        !- Vertex 1 Xcoordinate
    4928871.289932624,        !- Vertex 1 Ycoordinate
    15,                       !- Vertex 1 Zcoordinate
    687099.3126246963,        !- Vertex 2 Xcoordinate
    4928871.289932624,        !- Vertex 2 Ycoordinate
    0,                        !- Vertex 2 Zcoordinate
    687096.3066158446,        !- Vertex 3 Xcoordinate
    4928873.441099338,        !- Vertex 3 Ycoordinate
    0,                        !- Vertex 3 Zcoordinate
    687096.3066158446,        !- Vertex 4 Xcoordinate
    4928873.441099338,        !- Vertex 4 Ycoordinate
    15;                       !- Vertex 4 Zcoordinate

SHADING:SITE:DETAILED,
    shade_30304_1,            !- Name
    ,                         !- Transmittance Schedule Name
    autocalculate,            !- Number of Vertices
    687051.1694529514,        !- Vertex 1 Xcoordinate
    4928872.809856979,        !- Vertex 1 Ycoordinate
    15,                       !- Vertex 1 Zcoordinate
    687051.1694529514,        !- Vertex 2 Xcoordinate
    4928872.809856979,        !- Vertex 2 Ycoordinate
    0,                        !- Vertex 2 Zcoordinate
    687065.9190318646,        !- Vertex 3 Xcoordinate
    4928892.222827048,        !- Vertex 3 Ycoordinate
    0,                        !- Vertex 3 Zcoordinate
    687065.9190318646,        !- Vertex 4 Xcoordinate
    4928892.222827048,        !- Vertex 4 Ycoordinate
    15;                       !- Vertex 4 Zcoordinate

SHADING:SITE:DETAILED,
    shade_30304_2,            !- Name
    ,                         !- Transmittance Schedule Name
    autocalculate,            !- Number of Vertices
    687065.9190318646,        !- Vertex 1 Xcoordinate
    4928892.222827048,        !- Vertex 1 Ycoordinate
    15,                       !- Vertex 1 Zcoordinate
    687065.9190318646,        !- Vertex 2 Xcoordinate
    4928892.222827048,        !- Vertex 2 Ycoordinate
    0,                        !- Vertex 2 Zcoordinate
    687083.250828602,         !- Vertex 3 Xcoordinate
    4928879.0544812055,       !- Vertex 3 Ycoordinate
    0,                        !- Vertex 3 Zcoordinate
    687083.250828602,         !- Vertex 4 Xcoordinate
    4928879.0544812055,       !- Vertex 4 Ycoordinate
    15;                       !- Vertex 4 Zcoordinate

SHADING:SITE:DETAILED,
    shade_30304_3,            !- Name
    ,                         !- Transmittance Schedule Name
    autocalculate,            !- Number of Vertices
    687083.250828602,         !- Vertex 1 Xcoordinate
    4928879.0544812055,       !- Vertex 1 Ycoordinate
    15,                       !- Vertex 1 Zcoordinate
    687083.250828602,         !- Vertex 2 Xcoordinate
    4928879.0544812055,       !- Vertex 2 Ycoordinate
    0,                        !- Vertex 2 Zcoordinate
    687068.5012496889,        !- Vertex 3 Xcoordinate
    4928859.641511137,        !- Vertex 3 Ycoordinate
    0,                        !- Vertex 3 Zcoordinate
    687068.5012496889,        !- Vertex 4 Xcoordinate
    4928859.641511137,        !- Vertex 4 Ycoordinate
    15;                       !- Vertex 4 Zcoordinate

SHADING:SITE:DETAILED,
    shade_30304_4,            !- Name
    ,                         !- Transmittance Schedule Name
    autocalculate,            !- Number of Vertices
    687068.5012496889,        !- Vertex 1 Xcoordinate
    4928859.641511137,        !- Vertex 1 Ycoordinate
    15,                       !- Vertex 1 Zcoordinate
    687068.5012496889,        !- Vertex 2 Xcoordinate
    4928859.641511137,        !- Vertex 2 Ycoordinate
    0,                        !- Vertex 2 Zcoordinate
    687051.1694529514,        !- Vertex 3 Xcoordinate
    4928872.809856979,        !- Vertex 3 Ycoordinate
    0,                        !- Vertex 3 Zcoordinate
    687051.1694529514,        !- Vertex 4 Xcoordinate
    4928872.809856979,        !- Vertex 4 Ycoordinate
    15;                       !- Vertex 4 Zcoordinate

SHADING:SITE:DETAILED,
    shade_30376_1,            !- Name
    ,                         !- Transmittance Schedule Name
    autocalculate,            !- Number of Vertices
    687123.6408101496,        !- Vertex 1 Xcoordinate
    4928871.762549328,        !- Vertex 1 Ycoordinate
    15,                       !- Vertex 1 Zcoordinate
    687123.6408101496,        !- Vertex 2 Xcoordinate
    4928871.762549328,        !- Vertex 2 Ycoordinate
    0,                        !- Vertex 2 Zcoordinate
    687119.9181489,           !- Vertex 3 Xcoordinate
    4928866.579096952,        !- Vertex 3 Ycoordinate
    0,                        !- Vertex 3 Zcoordinate
    687119.9181489,           !- Vertex 4 Xcoordinate
    4928866.579096952,        !- Vertex 4 Ycoordinate
    15;                       !- Vertex 4 Zcoordinate

SHADING:SITE:DETAILED,
    shade_30376_2,            !- Name
    ,                         !- Transmittance Schedule Name
    autocalculate,            !- Number of Vertices
    687119.9181489,           !- Vertex 1 Xcoordinate
    4928866.579096952,        !- Vertex 1 Ycoordinate
    15,                       !- Vertex 1 Zcoordinate
    687119.9181489,           !- Vertex 2 Xcoordinate
    4928866.579096952,        !- Vertex 2 Ycoordinate
    0,                        !- Vertex 2 Zcoordinate
    687100.9204933724,        !- Vertex 3 Xcoordinate
    4928880.222867733,        !- Vertex 3 Ycoordinate
    0,                        !- Vertex 3 Zcoordinate
    687100.9204933724,        !- Vertex 4 Xcoordinate
    4928880.222867733,        !- Vertex 4 Ycoordinate
    15;                       !- Vertex 4 Zcoordinate

SHADING:SITE:DETAILED,
    shade_30376_3,            !- Name
    ,                         !- Transmittance Schedule Name
    autocalculate,            !- Number of Vertices
    687100.9204933724,        !- Vertex 1 Xcoordinate
    4928880.222867733,        !- Vertex 1 Ycoordinate
    15,                       !- Vertex 1 Zcoordinate
    687100.9204933724,        !- Vertex 2 Xcoordinate
    4928880.222867733,        !- Vertex 2 Ycoordinate
    0,                        !- Vertex 2 Zcoordinate
    687104.6431546219,        !- Vertex 3 Xcoordinate
    4928885.406320109,        !- Vertex 3 Ycoordinate
    0,                        !- Vertex 3 Zcoordinate
    687104.6431546219,        !- Vertex 4 Xcoordinate
    4928885.406320109,        !- Vertex 4 Ycoordinate
    15;                       !- Vertex 4 Zcoordinate

SHADING:SITE:DETAILED,
    shade_30376_4,            !- Name
    ,                         !- Transmittance Schedule Name
    autocalculate,            !- Number of Vertices
    687104.6431546219,        !- Vertex 1 Xcoordinate
    4928885.406320109,        !- Vertex 1 Ycoordinate
    15,                       !- Vertex 1 Zcoordinate
    687104.6431546219,        !- Vertex 2 Xcoordinate
    4928885.406320109,        !- Vertex 2 Ycoordinate
    0,                        !- Vertex 2 Zcoordinate
    687123.6408101496,        !- Vertex 3 Xcoordinate
    4928871.762549328,        !- Vertex 3 Ycoordinate
    0,                        !- Vertex 3 Zcoordinate
    687123.6408101496,        !- Vertex 4 Xcoordinate
    4928871.762549328,        !- Vertex 4 Ycoordinate
    15;                       !- Vertex 4 Zcoordinate

SHADING:SITE:DETAILED,
    shade_30340_1,            !- Name
    ,                         !- Transmittance Schedule Name
    autocalculate,            !- Number of Vertices
    687093.0480768188,        !- Vertex 1 Xcoordinate
    4928875.745390511,        !- Vertex 1 Ycoordinate
    15,                       !- Vertex 1 Zcoordinate
    687093.0480768188,        !- Vertex 2 Xcoordinate
    4928875.745390511,        !- Vertex 2 Ycoordinate
    0,                        !- Vertex 2 Zcoordinate
    687100.7648916792,        !- Vertex 3 Xcoordinate
    4928886.798065143,        !- Vertex 3 Ycoordinate
    0,                        !- Vertex 3 Zcoordinate
    687100.7648916792,        !- Vertex 4 Xcoordinate
    4928886.798065143,        !- Vertex 4 Ycoordinate
    15;                       !- Vertex 4 Zcoordinate

SHADING:SITE:DETAILED,
    shade_30340_2,            !- Name
    ,                         !- Transmittance Schedule Name
    autocalculate,            !- Number of Vertices
    687100.7648916792,        !- Vertex 1 Xcoordinate
    4928886.798065143,        !- Vertex 1 Ycoordinate
    15,                       !- Vertex 1 Zcoordinate
    687100.7648916792,        !- Vertex 2 Xcoordinate
    4928886.798065143,        !- Vertex 2 Ycoordinate
    0,                        !- Vertex 2 Zcoordinate
    687104.117575653,         !- Vertex 3 Xcoordinate
    4928884.457270506,        !- Vertex 3 Ycoordinate
    0,                        !- Vertex 3 Zcoordinate
    687104.117575653,         !- Vertex 4 Xcoordinate
    4928884.457270506,        !- Vertex 4 Ycoordinate
    15;                       !- Vertex 4 Zcoordinate

SHADING:SITE:DETAILED,
    shade_30340_3,            !- Name
    ,                         !- Transmittance Schedule Name
    autocalculate,            !- Number of Vertices
    687104.117575653,         !- Vertex 1 Xcoordinate
    4928884.457270506,        !- Vertex 1 Ycoordinate
    15,                       !- Vertex 1 Zcoordinate
    687104.117575653,         !- Vertex 2 Xcoordinate
    4928884.457270506,        !- Vertex 2 Ycoordinate
    0,                        !- Vertex 2 Zcoordinate
    687096.4007607927,        !- Vertex 3 Xcoordinate
    4928873.404595875,        !- Vertex 3 Ycoordinate
    0,                        !- Vertex 3 Zcoordinate
    687096.4007607927,        !- Vertex 4 Xcoordinate
    4928873.404595875,        !- Vertex 4 Ycoordinate
    15;                       !- Vertex 4 Zcoordinate

SHADING:SITE:DETAILED,
    shade_30340_4,            !- Name
    ,                         !- Transmittance Schedule Name
    autocalculate,            !- Number of Vertices
    687096.4007607927,        !- Vertex 1 Xcoordinate
    4928873.404595875,        !- Vertex 1 Ycoordinate
    15,                       !- Vertex 1 Zcoordinate
    687096.4007607927,        !- Vertex 2 Xcoordinate
    4928873.404595875,        !- Vertex 2 Ycoordinate
    0,                        !- Vertex 2 Zcoordinate
    687093.0480768188,        !- Vertex 3 Xcoordinate
    4928875.745390511,        !- Vertex 3 Ycoordinate
    0,                        !- Vertex 3 Zcoordinate
    687093.0480768188,        !- Vertex 4 Xcoordinate
    4928875.745390511,        !- Vertex 4 Ycoordinate
    15;                       !- Vertex 4 Zcoordinate

SHADING:SITE:DETAILED,
    shade_30259_1,            !- Name
    ,                         !- Transmittance Schedule Name
    autocalculate,            !- Number of Vertices
    687082.2578184304,        !- Vertex 1 Xcoordinate
    4928898.326778874,        !- Vertex 1 Ycoordinate
    15,                       !- Vertex 1 Zcoordinate
    687082.2578184304,        !- Vertex 2 Xcoordinate
    4928898.326778874,        !- Vertex 2 Ycoordinate
    0,                        !- Vertex 2 Zcoordinate
    687100.4649984896,        !- Vertex 3 Xcoordinate
    4928886.370119192,        !- Vertex 3 Ycoordinate
    0,                        !- Vertex 3 Zcoordinate
    687100.4649984896,        !- Vertex 4 Xcoordinate
    4928886.370119192,        !- Vertex 4 Ycoordinate
    15;                       !- Vertex 4 Zcoordinate

SHADING:SITE:DETAILED,
    shade_30259_2,            !- Name
    ,                         !- Transmittance Schedule Name
    autocalculate,            !- Number of Vertices
    687100.4649984896,        !- Vertex 1 Xcoordinate
    4928886.370119192,        !- Vertex 1 Ycoordinate
    15,                       !- Vertex 1 Zcoordinate
    687100.4649984896,        !- Vertex 2 Xcoordinate
    4928886.370119192,        !- Vertex 2 Ycoordinate
    0,                        !- Vertex 2 Zcoordinate
    687093.4345773904,        !- Vertex 3 Xcoordinate
    4928875.662938071,        !- Vertex 3 Ycoordinate
    0,                        !- Vertex 3 Zcoordinate
    687093.4345773904,        !- Vertex 4 Xcoordinate
    4928875.662938071,        !- Vertex 4 Ycoordinate
    15;                       !- Vertex 4 Zcoordinate

SHADING:SITE:DETAILED,
    shade_30259_3,            !- Name
    ,                         !- Transmittance Schedule Name
    autocalculate,            !- Number of Vertices
    687093.4345773904,        !- Vertex 1 Xcoordinate
    4928875.662938071,        !- Vertex 1 Ycoordinate
    15,                       !- Vertex 1 Zcoordinate
    687093.4345773904,        !- Vertex 2 Xcoordinate
    4928875.662938071,        !- Vertex 2 Ycoordinate
    0,                        !- Vertex 2 Zcoordinate
    687075.2259984898,        !- Vertex 3 Xcoordinate
    4928887.620119191,        !- Vertex 3 Ycoordinate
    0,                        !- Vertex 3 Zcoordinate
    687075.2259984898,        !- Vertex 4 Xcoordinate
    4928887.620119191,        !- Vertex 4 Ycoordinate
    15;                       !- Vertex 4 Zcoordinate

SHADING:SITE:DETAILED,
    shade_30259_4,            !- Name
    ,                         !- Transmittance Schedule Name
    autocalculate,            !- Number of Vertices
    687075.2259984898,        !- Vertex 1 Xcoordinate
    4928887.620119191,        !- Vertex 1 Ycoordinate
    15,                       !- Vertex 1 Zcoordinate
    687075.2259984898,        !- Vertex 2 Xcoordinate
    4928887.620119191,        !- Vertex 2 Ycoordinate
    0,                        !- Vertex 2 Zcoordinate
    687082.2578184304,        !- Vertex 3 Xcoordinate
    4928898.326778874,        !- Vertex 3 Ycoordinate
    0,                        !- Vertex 3 Zcoordinate
    687082.2578184304,        !- Vertex 4 Xcoordinate
    4928898.326778874,        !- Vertex 4 Ycoordinate
    15;                       !- Vertex 4 Zcoordinate

SHADING:SITE:DETAILED,
    shade_30210_1,            !- Name
    ,                         !- Transmittance Schedule Name
    autocalculate,            !- Number of Vertices
    687082.8249984898,        !- Vertex 1 Xcoordinate
    4928897.9541191915,       !- Vertex 1 Ycoordinate
    15,                       !- Vertex 1 Zcoordinate
    687082.8249984898,        !- Vertex 2 Xcoordinate
    4928897.9541191915,       !- Vertex 2 Ycoordinate
    0,                        !- Vertex 2 Zcoordinate
    687074.1659984897,        !- Vertex 3 Xcoordinate
    4928885.9711191915,       !- Vertex 3 Ycoordinate
    0,                        !- Vertex 3 Zcoordinate
    687074.1659984897,        !- Vertex 4 Xcoordinate
    4928885.9711191915,       !- Vertex 4 Ycoordinate
    15;                       !- Vertex 4 Zcoordinate

SHADING:SITE:DETAILED,
    shade_30210_2,            !- Name
    ,                         !- Transmittance Schedule Name
    autocalculate,            !- Number of Vertices
    687074.1659984897,        !- Vertex 1 Xcoordinate
    4928885.9711191915,       !- Vertex 1 Ycoordinate
    15,                       !- Vertex 1 Zcoordinate
    687074.1659984897,        !- Vertex 2 Xcoordinate
    4928885.9711191915,       !- Vertex 2 Ycoordinate
    0,                        !- Vertex 2 Zcoordinate
    687065.7952921203,        !- Vertex 3 Xcoordinate
    4928892.019727519,        !- Vertex 3 Ycoordinate
    0,                        !- Vertex 3 Zcoordinate
    687065.7952921203,        !- Vertex 4 Xcoordinate
    4928892.019727519,        !- Vertex 4 Ycoordinate
    15;                       !- Vertex 4 Zcoordinate

SHADING:SITE:DETAILED,
    shade_30210_3,            !- Name
    ,                         !- Transmittance Schedule Name
    autocalculate,            !- Number of Vertices
    687065.7952921203,        !- Vertex 1 Xcoordinate
    4928892.019727519,        !- Vertex 1 Ycoordinate
    15,                       !- Vertex 1 Zcoordinate
    687065.7952921203,        !- Vertex 2 Xcoordinate
    4928892.019727519,        !- Vertex 2 Ycoordinate
    0,                        !- Vertex 2 Zcoordinate
    687074.4542921213,        !- Vertex 3 Xcoordinate
    4928904.002727517,        !- Vertex 3 Ycoordinate
    0,                        !- Vertex 3 Zcoordinate
    687074.4542921213,        !- Vertex 4 Xcoordinate
    4928904.002727517,        !- Vertex 4 Ycoordinate
    15;                       !- Vertex 4 Zcoordinate

SHADING:SITE:DETAILED,
    shade_30210_4,            !- Name
    ,                         !- Transmittance Schedule Name
    autocalculate,            !- Number of Vertices
    687074.4542921213,        !- Vertex 1 Xcoordinate
    4928904.002727517,        !- Vertex 1 Ycoordinate
    15,                       !- Vertex 1 Zcoordinate
    687074.4542921213,        !- Vertex 2 Xcoordinate
    4928904.002727517,        !- Vertex 2 Ycoordinate
    0,                        !- Vertex 2 Zcoordinate
    687082.8249984898,        !- Vertex 3 Xcoordinate
    4928897.9541191915,       !- Vertex 3 Ycoordinate
    0,                        !- Vertex 3 Zcoordinate
    687082.8249984898,        !- Vertex 4 Xcoordinate
    4928897.9541191915,       !- Vertex 4 Ycoordinate
    15;                       !- Vertex 4 Zcoordinate

OTHEREQUIPMENT,
    EU_Step8_InternalGain_6f17e6e83818aaa9_F0_whole_f000,    !- Name
    Electricity,              !- Fuel Type
    6f17e6e83818aaa9_F0_whole,    !- Zone or ZoneList or Space or SpaceList Name
    EU_Step8_GainSchedule_6f17e6e83818aaa9_F0_whole_f000,    !- Schedule Name
    Watts/Area,               !- Design Level Calculation Method
    ,                         !- Design Level
    1,                        !- Power per Zone Floor Area
    ,                         !- Power per Person
    0,                        !- Fraction Latent
    0,                        !- Fraction Radiant
    0,                        !- Fraction Lost
    0,                        !- Carbon Dioxide Generation Rate
    EU_Step8_InternalGains;    !- EndUse Subcategory

OTHEREQUIPMENT,
    EU_Step8_InternalGain_6f17e6e83818aaa9_F1_whole_f000,    !- Name
    Electricity,              !- Fuel Type
    6f17e6e83818aaa9_F1_whole,    !- Zone or ZoneList or Space or SpaceList Name
    EU_Step8_GainSchedule_6f17e6e83818aaa9_F1_whole_f000,    !- Schedule Name
    Watts/Area,               !- Design Level Calculation Method
    ,                         !- Design Level
    1,                        !- Power per Zone Floor Area
    ,                         !- Power per Person
    0,                        !- Fraction Latent
    0,                        !- Fraction Radiant
    0,                        !- Fraction Lost
    0,                        !- Carbon Dioxide Generation Rate
    EU_Step8_InternalGains;    !- EndUse Subcategory

OTHEREQUIPMENT,
    EU_Step8_InternalGain_6f17e6e83818aaa9_F2_whole_f000,    !- Name
    Electricity,              !- Fuel Type
    6f17e6e83818aaa9_F2_whole,    !- Zone or ZoneList or Space or SpaceList Name
    EU_Step8_GainSchedule_6f17e6e83818aaa9_F2_whole_f000,    !- Schedule Name
    Watts/Area,               !- Design Level Calculation Method
    ,                         !- Design Level
    1,                        !- Power per Zone Floor Area
    ,                         !- Power per Person
    0,                        !- Fraction Latent
    0,                        !- Fraction Radiant
    0,                        !- Fraction Lost
    0,                        !- Carbon Dioxide Generation Rate
    EU_Step8_InternalGains;    !- EndUse Subcategory

ZONEVENTILATION:DESIGNFLOWRATE,
    EU_ConstantAir_6f17e6e83818aaa9_F0_whole,    !- Name
    6f17e6e83818aaa9_F0_whole,    !- Zone or ZoneList or Space or SpaceList Name
    EU_AlwaysOn,              !- Schedule Name
    AirChanges/Hour,          !- Design Flow Rate Calculation Method
    ,                         !- Design Flow Rate
    ,                         !- Flow Rate per Floor Area
    ,                         !- Flow Rate per Person
    0.6878922584914343,       !- Air Changes per Hour
    Natural,                  !- Ventilation Type
    0,                        !- Fan Pressure Rise
    1,                        !- Fan Total Efficiency
    1,                        !- Constant Term Coefficient
    0,                        !- Temperature Term Coefficient
    0,                        !- Velocity Term Coefficient
    0,                        !- Velocity Squared Term Coefficient
    -100,                     !- Minimum Indoor Temperature
    ,                         !- Minimum Indoor Temperature Schedule Name
    100,                      !- Maximum Indoor Temperature
    ,                         !- Maximum Indoor Temperature Schedule Name
    -100,                     !- Delta Temperature
    ,                         !- Delta Temperature Schedule Name
    -100,                     !- Minimum Outdoor Temperature
    ,                         !- Minimum Outdoor Temperature Schedule Name
    100,                      !- Maximum Outdoor Temperature
    ,                         !- Maximum Outdoor Temperature Schedule Name
    40;                       !- Maximum Wind Speed

ZONEVENTILATION:DESIGNFLOWRATE,
    EU_ConstantAir_6f17e6e83818aaa9_F1_whole,    !- Name
    6f17e6e83818aaa9_F1_whole,    !- Zone or ZoneList or Space or SpaceList Name
    EU_AlwaysOn,              !- Schedule Name
    AirChanges/Hour,          !- Design Flow Rate Calculation Method
    ,                         !- Design Flow Rate
    ,                         !- Flow Rate per Floor Area
    ,                         !- Flow Rate per Person
    0.6878922584914343,       !- Air Changes per Hour
    Natural,                  !- Ventilation Type
    0,                        !- Fan Pressure Rise
    1,                        !- Fan Total Efficiency
    1,                        !- Constant Term Coefficient
    0,                        !- Temperature Term Coefficient
    0,                        !- Velocity Term Coefficient
    0,                        !- Velocity Squared Term Coefficient
    -100,                     !- Minimum Indoor Temperature
    ,                         !- Minimum Indoor Temperature Schedule Name
    100,                      !- Maximum Indoor Temperature
    ,                         !- Maximum Indoor Temperature Schedule Name
    -100,                     !- Delta Temperature
    ,                         !- Delta Temperature Schedule Name
    -100,                     !- Minimum Outdoor Temperature
    ,                         !- Minimum Outdoor Temperature Schedule Name
    100,                      !- Maximum Outdoor Temperature
    ,                         !- Maximum Outdoor Temperature Schedule Name
    40;                       !- Maximum Wind Speed

ZONEVENTILATION:DESIGNFLOWRATE,
    EU_ConstantAir_6f17e6e83818aaa9_F2_whole,    !- Name
    6f17e6e83818aaa9_F2_whole,    !- Zone or ZoneList or Space or SpaceList Name
    EU_AlwaysOn,              !- Schedule Name
    AirChanges/Hour,          !- Design Flow Rate Calculation Method
    ,                         !- Design Flow Rate
    ,                         !- Flow Rate per Floor Area
    ,                         !- Flow Rate per Person
    0.6878922584914343,       !- Air Changes per Hour
    Natural,                  !- Ventilation Type
    0,                        !- Fan Pressure Rise
    1,                        !- Fan Total Efficiency
    1,                        !- Constant Term Coefficient
    0,                        !- Temperature Term Coefficient
    0,                        !- Velocity Term Coefficient
    0,                        !- Velocity Squared Term Coefficient
    -100,                     !- Minimum Indoor Temperature
    ,                         !- Minimum Indoor Temperature Schedule Name
    100,                      !- Maximum Indoor Temperature
    ,                         !- Maximum Indoor Temperature Schedule Name
    -100,                     !- Delta Temperature
    ,                         !- Delta Temperature Schedule Name
    -100,                     !- Minimum Outdoor Temperature
    ,                         !- Minimum Outdoor Temperature Schedule Name
    100,                      !- Maximum Outdoor Temperature
    ,                         !- Maximum Outdoor Temperature Schedule Name
    40;                       !- Maximum Wind Speed

HVACTEMPLATE:THERMOSTAT,
    EU_HeatOnly_6f17e6e83818aaa9_F0_whole,    !- Name
    ,                         !- Heating Setpoint Schedule Name
    20,                       !- Constant Heating Setpoint
    ,                         !- Cooling Setpoint Schedule Name
    50;                       !- Constant Cooling Setpoint

HVACTEMPLATE:THERMOSTAT,
    EU_HeatOnly_6f17e6e83818aaa9_F1_whole,    !- Name
    ,                         !- Heating Setpoint Schedule Name
    20,                       !- Constant Heating Setpoint
    ,                         !- Cooling Setpoint Schedule Name
    50;                       !- Constant Cooling Setpoint

HVACTEMPLATE:THERMOSTAT,
    EU_HeatOnly_6f17e6e83818aaa9_F2_whole,    !- Name
    ,                         !- Heating Setpoint Schedule Name
    20,                       !- Constant Heating Setpoint
    ,                         !- Cooling Setpoint Schedule Name
    50;                       !- Constant Cooling Setpoint

HVACTEMPLATE:ZONE:IDEALLOADSAIRSYSTEM,
    6f17e6e83818aaa9_F0_whole,    !- Zone Name
    EU_HeatOnly_6f17e6e83818aaa9_F0_whole,    !- Template Thermostat Name
    EU_AlwaysOn,              !- System Availability Schedule Name
    50,                       !- Maximum Heating Supply Air Temperature
    13,                       !- Minimum Cooling Supply Air Temperature
    0.0156,                   !- Maximum Heating Supply Air Humidity Ratio
    0.0077,                   !- Minimum Cooling Supply Air Humidity Ratio
    NoLimit,                  !- Heating Limit
    ,                         !- Maximum Heating Air Flow Rate
    ,                         !- Maximum Sensible Heating Capacity
    NoLimit,                  !- Cooling Limit
    ,                         !- Maximum Cooling Air Flow Rate
    ,                         !- Maximum Total Cooling Capacity
    EU_AlwaysOn,              !- Heating Availability Schedule Name
    EU_CoolingOff,            !- Cooling Availability Schedule Name
    ConstantSensibleHeatRatio,    !- Dehumidification Control Type
    0.7,                      !- Cooling Sensible Heat Ratio
    60,                       !- Dehumidification Setpoint
    None,                     !- Humidification Control Type
    30,                       !- Humidification Setpoint
    None,                     !- Outdoor Air Method
    0.00944,                  !- Outdoor Air Flow Rate per Person
    0.0,                      !- Outdoor Air Flow Rate per Zone Floor Area
    0,                        !- Outdoor Air Flow Rate per Zone
    ,                         !- Design Specification Outdoor Air Object Name
    None,                     !- Demand Controlled Ventilation Type
    NoEconomizer,             !- Outdoor Air Economizer Type
    None,                     !- Heat Recovery Type
    0.70,                     !- Sensible Heat Recovery Effectiveness
    0.65;                     !- Latent Heat Recovery Effectiveness

HVACTEMPLATE:ZONE:IDEALLOADSAIRSYSTEM,
    6f17e6e83818aaa9_F1_whole,    !- Zone Name
    EU_HeatOnly_6f17e6e83818aaa9_F1_whole,    !- Template Thermostat Name
    EU_AlwaysOn,              !- System Availability Schedule Name
    50,                       !- Maximum Heating Supply Air Temperature
    13,                       !- Minimum Cooling Supply Air Temperature
    0.0156,                   !- Maximum Heating Supply Air Humidity Ratio
    0.0077,                   !- Minimum Cooling Supply Air Humidity Ratio
    NoLimit,                  !- Heating Limit
    ,                         !- Maximum Heating Air Flow Rate
    ,                         !- Maximum Sensible Heating Capacity
    NoLimit,                  !- Cooling Limit
    ,                         !- Maximum Cooling Air Flow Rate
    ,                         !- Maximum Total Cooling Capacity
    EU_AlwaysOn,              !- Heating Availability Schedule Name
    EU_CoolingOff,            !- Cooling Availability Schedule Name
    ConstantSensibleHeatRatio,    !- Dehumidification Control Type
    0.7,                      !- Cooling Sensible Heat Ratio
    60,                       !- Dehumidification Setpoint
    None,                     !- Humidification Control Type
    30,                       !- Humidification Setpoint
    None,                     !- Outdoor Air Method
    0.00944,                  !- Outdoor Air Flow Rate per Person
    0.0,                      !- Outdoor Air Flow Rate per Zone Floor Area
    0,                        !- Outdoor Air Flow Rate per Zone
    ,                         !- Design Specification Outdoor Air Object Name
    None,                     !- Demand Controlled Ventilation Type
    NoEconomizer,             !- Outdoor Air Economizer Type
    None,                     !- Heat Recovery Type
    0.70,                     !- Sensible Heat Recovery Effectiveness
    0.65;                     !- Latent Heat Recovery Effectiveness

HVACTEMPLATE:ZONE:IDEALLOADSAIRSYSTEM,
    6f17e6e83818aaa9_F2_whole,    !- Zone Name
    EU_HeatOnly_6f17e6e83818aaa9_F2_whole,    !- Template Thermostat Name
    EU_AlwaysOn,              !- System Availability Schedule Name
    50,                       !- Maximum Heating Supply Air Temperature
    13,                       !- Minimum Cooling Supply Air Temperature
    0.0156,                   !- Maximum Heating Supply Air Humidity Ratio
    0.0077,                   !- Minimum Cooling Supply Air Humidity Ratio
    NoLimit,                  !- Heating Limit
    ,                         !- Maximum Heating Air Flow Rate
    ,                         !- Maximum Sensible Heating Capacity
    NoLimit,                  !- Cooling Limit
    ,                         !- Maximum Cooling Air Flow Rate
    ,                         !- Maximum Total Cooling Capacity
    EU_AlwaysOn,              !- Heating Availability Schedule Name
    EU_CoolingOff,            !- Cooling Availability Schedule Name
    ConstantSensibleHeatRatio,    !- Dehumidification Control Type
    0.7,                      !- Cooling Sensible Heat Ratio
    60,                       !- Dehumidification Setpoint
    None,                     !- Humidification Control Type
    30,                       !- Humidification Setpoint
    None,                     !- Outdoor Air Method
    0.00944,                  !- Outdoor Air Flow Rate per Person
    0.0,                      !- Outdoor Air Flow Rate per Zone Floor Area
    0,                        !- Outdoor Air Flow Rate per Zone
    ,                         !- Design Specification Outdoor Air Object Name
    None,                     !- Demand Controlled Ventilation Type
    NoEconomizer,             !- Outdoor Air Economizer Type
    None,                     !- Heat Recovery Type
    0.70,                     !- Sensible Heat Recovery Effectiveness
    0.65;                     !- Latent Heat Recovery Effectiveness

SIZING:ZONE,
    6f17e6e83818aaa9_F0_whole,    !- Zone or ZoneList Name
    SupplyAirTemperature,     !- Zone Cooling Design Supply Air Temperature Input Method
    13,                       !- Zone Cooling Design Supply Air Temperature
    ,                         !- Zone Cooling Design Supply Air Temperature Difference
    SupplyAirTemperature,     !- Zone Heating Design Supply Air Temperature Input Method
    50,                       !- Zone Heating Design Supply Air Temperature
    ,                         !- Zone Heating Design Supply Air Temperature Difference
    0.008,                    !- Zone Cooling Design Supply Air Humidity Ratio
    0.008,                    !- Zone Heating Design Supply Air Humidity Ratio
    ,                         !- Design Specification Outdoor Air Object Name
    ,                         !- Zone Heating Sizing Factor
    ,                         !- Zone Cooling Sizing Factor
    DesignDay,                !- Cooling Design Air Flow Method
    0,                        !- Cooling Design Air Flow Rate
    0.000762,                 !- Cooling Minimum Air Flow per Zone Floor Area
    0,                        !- Cooling Minimum Air Flow
    0.2,                      !- Cooling Minimum Air Flow Fraction
    DesignDay,                !- Heating Design Air Flow Method
    0,                        !- Heating Design Air Flow Rate
    0.002032,                 !- Heating Maximum Air Flow per Zone Floor Area
    0.1415762,                !- Heating Maximum Air Flow
    0.3,                      !- Heating Maximum Air Flow Fraction
    ,                         !- Design Specification Zone Air Distribution Object Name
    No,                       !- Account for Dedicated Outdoor Air System
    NeutralSupplyAir,         !- Dedicated Outdoor Air System Control Strategy
    autosize,                 !- Dedicated Outdoor Air Low Setpoint Temperature for Design
    autosize,                 !- Dedicated Outdoor Air High Setpoint Temperature for Design
    Sensible Load Only No Latent Load,    !- Zone Load Sizing Method
    HumidityRatioDifference,    !- Zone Latent Cooling Design Supply Air Humidity Ratio Input Method
    ,                         !- Zone Dehumidification Design Supply Air Humidity Ratio
    0.005,                    !- Zone Cooling Design Supply Air Humidity Ratio Difference
    HumidityRatioDifference,    !- Zone Latent Heating Design Supply Air Humidity Ratio Input Method
    ,                         !- Zone Humidification Design Supply Air Humidity Ratio
    0.005;                    !- Zone Humidification Design Supply Air Humidity Ratio Difference

SIZING:ZONE,
    6f17e6e83818aaa9_F1_whole,    !- Zone or ZoneList Name
    SupplyAirTemperature,     !- Zone Cooling Design Supply Air Temperature Input Method
    13,                       !- Zone Cooling Design Supply Air Temperature
    ,                         !- Zone Cooling Design Supply Air Temperature Difference
    SupplyAirTemperature,     !- Zone Heating Design Supply Air Temperature Input Method
    50,                       !- Zone Heating Design Supply Air Temperature
    ,                         !- Zone Heating Design Supply Air Temperature Difference
    0.008,                    !- Zone Cooling Design Supply Air Humidity Ratio
    0.008,                    !- Zone Heating Design Supply Air Humidity Ratio
    ,                         !- Design Specification Outdoor Air Object Name
    ,                         !- Zone Heating Sizing Factor
    ,                         !- Zone Cooling Sizing Factor
    DesignDay,                !- Cooling Design Air Flow Method
    0,                        !- Cooling Design Air Flow Rate
    0.000762,                 !- Cooling Minimum Air Flow per Zone Floor Area
    0,                        !- Cooling Minimum Air Flow
    0.2,                      !- Cooling Minimum Air Flow Fraction
    DesignDay,                !- Heating Design Air Flow Method
    0,                        !- Heating Design Air Flow Rate
    0.002032,                 !- Heating Maximum Air Flow per Zone Floor Area
    0.1415762,                !- Heating Maximum Air Flow
    0.3,                      !- Heating Maximum Air Flow Fraction
    ,                         !- Design Specification Zone Air Distribution Object Name
    No,                       !- Account for Dedicated Outdoor Air System
    NeutralSupplyAir,         !- Dedicated Outdoor Air System Control Strategy
    autosize,                 !- Dedicated Outdoor Air Low Setpoint Temperature for Design
    autosize,                 !- Dedicated Outdoor Air High Setpoint Temperature for Design
    Sensible Load Only No Latent Load,    !- Zone Load Sizing Method
    HumidityRatioDifference,    !- Zone Latent Cooling Design Supply Air Humidity Ratio Input Method
    ,                         !- Zone Dehumidification Design Supply Air Humidity Ratio
    0.005,                    !- Zone Cooling Design Supply Air Humidity Ratio Difference
    HumidityRatioDifference,    !- Zone Latent Heating Design Supply Air Humidity Ratio Input Method
    ,                         !- Zone Humidification Design Supply Air Humidity Ratio
    0.005;                    !- Zone Humidification Design Supply Air Humidity Ratio Difference

SIZING:ZONE,
    6f17e6e83818aaa9_F2_whole,    !- Zone or ZoneList Name
    SupplyAirTemperature,     !- Zone Cooling Design Supply Air Temperature Input Method
    13,                       !- Zone Cooling Design Supply Air Temperature
    ,                         !- Zone Cooling Design Supply Air Temperature Difference
    SupplyAirTemperature,     !- Zone Heating Design Supply Air Temperature Input Method
    50,                       !- Zone Heating Design Supply Air Temperature
    ,                         !- Zone Heating Design Supply Air Temperature Difference
    0.008,                    !- Zone Cooling Design Supply Air Humidity Ratio
    0.008,                    !- Zone Heating Design Supply Air Humidity Ratio
    ,                         !- Design Specification Outdoor Air Object Name
    ,                         !- Zone Heating Sizing Factor
    ,                         !- Zone Cooling Sizing Factor
    DesignDay,                !- Cooling Design Air Flow Method
    0,                        !- Cooling Design Air Flow Rate
    0.000762,                 !- Cooling Minimum Air Flow per Zone Floor Area
    0,                        !- Cooling Minimum Air Flow
    0.2,                      !- Cooling Minimum Air Flow Fraction
    DesignDay,                !- Heating Design Air Flow Method
    0,                        !- Heating Design Air Flow Rate
    0.002032,                 !- Heating Maximum Air Flow per Zone Floor Area
    0.1415762,                !- Heating Maximum Air Flow
    0.3,                      !- Heating Maximum Air Flow Fraction
    ,                         !- Design Specification Zone Air Distribution Object Name
    No,                       !- Account for Dedicated Outdoor Air System
    NeutralSupplyAir,         !- Dedicated Outdoor Air System Control Strategy
    autosize,                 !- Dedicated Outdoor Air Low Setpoint Temperature for Design
    autosize,                 !- Dedicated Outdoor Air High Setpoint Temperature for Design
    Sensible Load Only No Latent Load,    !- Zone Load Sizing Method
    HumidityRatioDifference,    !- Zone Latent Cooling Design Supply Air Humidity Ratio Input Method
    ,                         !- Zone Dehumidification Design Supply Air Humidity Ratio
    0.005,                    !- Zone Cooling Design Supply Air Humidity Ratio Difference
    HumidityRatioDifference,    !- Zone Latent Heating Design Supply Air Humidity Ratio Input Method
    ,                         !- Zone Humidification Design Supply Air Humidity Ratio
    0.005;                    !- Zone Humidification Design Supply Air Humidity Ratio Difference

OUTPUT:VARIABLE,
    *,                        !- Key Value
    Zone Ideal Loads Zone Total Heating Energy,    !- Variable Name
    Hourly;                   !- Reporting Frequency

OUTPUT:SQLITE,
    SimpleAndTabular,         !- Option Type
    UseOutputControlTableStyle;    !- Unit Conversion for Tabular Data