!- Windows Line endings 

Version,
    23.1;                     !- Version Identifier

SimulationControl,
    Yes,                      !- Do Zone Sizing Calculation
    Yes,                      !- Do System Sizing Calculation
    Yes,                      !- Do Plant Sizing Calculation
    No,                       !- Run Simulation for Sizing Periods
    Yes,                      !- Run Simulation for Weather File Run Periods
    No,                       !- Do HVAC Sizing Simulation for Sizing Periods
    1;                        !- Maximum Number of HVAC Sizing Simulation Passes

Building,
    EU S2 Campaign,           !- Name
    0,                        !- North Axis
    City,                     !- Terrain
    ,                         !- Loads Convergence Tolerance Value
    ,                         !- Temperature Convergence Tolerance Value
    FullExterior,             !- Solar Distribution
    ,                         !- Maximum Number of Warmup Days
    ;                         !- Minimum Number of Warmup Days

ShadowCalculation,
    PolygonClipping,          !- Shading Calculation Method
    Periodic,                 !- Shading Calculation Update Frequency Method
    1;                        !- Shading Calculation Update Frequency

HeatBalanceAlgorithm,
    ConductionTransferFunction,    !- Algorithm
    200,                      !- Surface Temperature Upper Limit
    0.1,                      !- Minimum Surface Convection Heat Transfer Coefficient Value
    10000000;                 !- Maximum Surface Convection Heat Transfer Coefficient Value

Timestep,
    12;                       !- Number of Timesteps per Hour

Site:Location,
    Madrid,                   !- Name
    40.5,                     !- Latitude
    -3.5,                     !- Longitude
    1,                        !- Time Zone
    609;                      !- Elevation

SizingPeriod:WeatherFileDays,
    AnnualSizingPeriod,       !- Name
    1,                        !- Begin Month
    1,                        !- Begin Day of Month
    12,                       !- End Month
    31,                       !- End Day of Month
    Monday,                   !- Day of Week for Start Day
    No,                       !- Use Weather File Daylight Saving Period
    No;                       !- Use Weather File Rain and Snow Indicators

RunPeriod,
    RunPeriod1,               !- Name
    1,                        !- Begin Month
    1,                        !- Begin Day of Month
    ,                         !- Begin Year
    12,                       !- End Month
    31,                       !- End Day of Month
    ,                         !- End Year
    Sunday,                   !- Day of Week for Start Day
    No,                       !- Use Weather File Holidays and Special Days
    No,                       !- Use Weather File Daylight Saving Period
    No,                       !- Apply Weekend Holiday Rule
    Yes,                      !- Use Weather File Rain Indicators
    Yes;                      !- Use Weather File Snow Indicators

ScheduleTypeLimits,
    Any Number;               !- Name

SCHEDULETYPELIMITS,
    EU_Step8_AnyNumber_Wm2,    !- Name
    ,                         !- Lower Limit Value
    ,                         !- Upper Limit Value
    Continuous,               !- Numeric Type
    Dimensionless;            !- Unit Type

SCHEDULE:CONSTANT,
    EU_AlwaysOn,              !- Name
    ,                         !- Schedule Type Limits Name
    1;                        !- Hourly Value

SCHEDULE:CONSTANT,
    EU_CoolingOff,            !- Name
    ,                         !- Schedule Type Limits Name
    0;                        !- Hourly Value

SCHEDULE:FILE,
    EU_Step8_GainSchedule_b0862431fa56c773_F0_dwelling_0_f000,    !- Name
    EU_Step8_AnyNumber_Wm2,    !- Schedule Type Limits Name
    ../../schedules/b0862431fa56c773/b0862431fa56c773_F0_dwelling_0_f000_gain.csv,    !- File Name
    1,                        !- Column Number
    0,                        !- Rows to Skip at Top
    8760,                     !- Number of Hours of Data
    Comma,                    !- Column Separator
    No,                       !- Interpolate to Timestep
    60,                       !- Minutes per Item
    Yes;                      !- Adjust Schedule for Daylight Savings

SCHEDULE:FILE,
    EU_Step8_GainSchedule_b0862431fa56c773_F1_dwelling_0_f000,    !- Name
    EU_Step8_AnyNumber_Wm2,    !- Schedule Type Limits Name
    ../../schedules/b0862431fa56c773/b0862431fa56c773_F1_dwelling_0_f000_gain.csv,    !- File Name
    1,                        !- Column Number
    0,                        !- Rows to Skip at Top
    8760,                     !- Number of Hours of Data
    Comma,                    !- Column Separator
    No,                       !- Interpolate to Timestep
    60,                       !- Minutes per Item
    Yes;                      !- Adjust Schedule for Daylight Savings

SCHEDULE:FILE,
    EU_Step8_GainSchedule_b0862431fa56c773_F2_dwelling_0_f000,    !- Name
    EU_Step8_AnyNumber_Wm2,    !- Schedule Type Limits Name
    ../../schedules/b0862431fa56c773/b0862431fa56c773_F2_dwelling_0_f000_gain.csv,    !- File Name
    1,                        !- Column Number
    0,                        !- Rows to Skip at Top
    8760,                     !- Number of Hours of Data
    Comma,                    !- Column Separator
    No,                       !- Interpolate to Timestep
    60,                       !- Minutes per Item
    Yes;                      !- Adjust Schedule for Daylight Savings

MATERIAL,
    EU_InternalMass_Material,    !- Name
    MediumRough,              !- Roughness
    0.1,                      !- Thickness
    1,                        !- Conductivity
    1800,                     !- Density
    900,                      !- Specific Heat
    0.9,                      !- Thermal Absorptance
    0.7,                      !- Solar Absorptance
    0.7;                      !- Visible Absorptance

MATERIAL:NOMASS,
    EU_wall_NoMass,           !- Name
    MediumRough,              !- Roughness
    0.6092162551495478,       !- Thermal Resistance
    0.9,                      !- Thermal Absorptance
    0.7,                      !- Solar Absorptance
    0.7;                      !- Visible Absorptance

MATERIAL:NOMASS,
    EU_roof_NoMass,           !- Name
    MediumRough,              !- Roughness
    0.5132681413430042,       !- Thermal Resistance
    0.9,                      !- Thermal Absorptance
    0.7,                      !- Solar Absorptance
    0.7;                      !- Visible Absorptance

MATERIAL:NOMASS,
    EU_floor_NoMass,          !- Name
    MediumRough,              !- Roughness
    0.5681631297219353,       !- Thermal Resistance
    0.9,                      !- Thermal Absorptance
    0.7,                      !- Solar Absorptance
    0.7;                      !- Visible Absorptance

CONSTRUCTION,
    EU_wall_Construction,     !- Name
    EU_wall_NoMass;           !- Outside Layer

CONSTRUCTION,
    EU_roof_Construction,     !- Name
    EU_roof_NoMass;           !- Outside Layer

CONSTRUCTION,
    EU_floor_Construction,    !- Name
    EU_floor_NoMass;          !- Outside Layer

CONSTRUCTION,
    EU_InternalMass_Construction,    !- Name
    EU_InternalMass_Material;    !- Outside Layer

GlobalGeometryRules,
    UpperLeftCorner,          !- Starting Vertex Position
    CounterClockWise,         !- Vertex Entry Direction
    World;                    !- Coordinate System

ZONE,
    b0862431fa56c773_F0_dwelling_0,    !- Name
    0,                        !- Direction of Relative North
    0,                        !- X Origin
    0,                        !- Y Origin
    0,                        !- Z Origin
    1,                        !- Type
    1,                        !- Multiplier
    autocalculate,            !- Ceiling Height
    206.838134765625,         !- Volume
    autocalculate,            !- Floor Area
    ,                         !- Zone Inside Convection Algorithm
    ,                         !- Zone Outside Convection Algorithm
    Yes;                      !- Part of Total Floor Area

ZONE,
    b0862431fa56c773_F1_dwelling_0,    !- Name
    0,                        !- Direction of Relative North
    0,                        !- X Origin
    0,                        !- Y Origin
    0,                        !- Z Origin
    1,                        !- Type
    1,                        !- Multiplier
    autocalculate,            !- Ceiling Height
    206.8370361328125,        !- Volume
    autocalculate,            !- Floor Area
    ,                         !- Zone Inside Convection Algorithm
    ,                         !- Zone Outside Convection Algorithm
    Yes;                      !- Part of Total Floor Area

ZONE,
    b0862431fa56c773_F2_dwelling_0,    !- Name
    0,                        !- Direction of Relative North
    0,                        !- X Origin
    0,                        !- Y Origin
    0,                        !- Z Origin
    1,                        !- Type
    1,                        !- Multiplier
    autocalculate,            !- Ceiling Height
    413.674072265625,         !- Volume
    autocalculate,            !- Floor Area
    ,                         !- Zone Inside Convection Algorithm
    ,                         !- Zone Outside Convection Algorithm
    Yes;                      !- Part of Total Floor Area

BUILDINGSURFACE:DETAILED,
    Block b0862431fa56c773_0 Storey 0 Wall 0001,    !- Name
    wall,                     !- Surface Type
    EU_wall_Construction,     !- Construction Name
    b0862431fa56c773_F0_dwelling_0,    !- Zone Name
    ,                         !- Space Name
    outdoors,                 !- Outside Boundary Condition
    ,                         !- Outside Boundary Condition Object
    SunExposed,               !- Sun Exposure
    WindExposed,              !- Wind Exposure
    autocalculate,            !- View Factor to Ground
    autocalculate,            !- Number of Vertices
    440532.56,                !- Vertex 1 Xcoordinate
    4478984.156,              !- Vertex 1 Ycoordinate
    3,                        !- Vertex 1 Zcoordinate
    440532.56,                !- Vertex 2 Xcoordinate
    4478984.156,              !- Vertex 2 Ycoordinate
    0,                        !- Vertex 2 Zcoordinate
    440536.293,               !- Vertex 3 Xcoordinate
    4478988.622,              !- Vertex 3 Ycoordinate
    0,                        !- Vertex 3 Zcoordinate
    440536.293,               !- Vertex 4 Xcoordinate
    4478988.622,              !- Vertex 4 Ycoordinate
    3;                        !- Vertex 4 Zcoordinate

BUILDINGSURFACE:DETAILED,
    Block b0862431fa56c773_0 Storey 0 Wall 0002,    !- Name
    wall,                     !- Surface Type
    EU_wall_Construction,     !- Construction Name
    b0862431fa56c773_F0_dwelling_0,    !- Zone Name
    ,                         !- Space Name
    outdoors,                 !- Outside Boundary Condition
    ,                         !- Outside Boundary Condition Object
    SunExposed,               !- Sun Exposure
    WindExposed,              !- Wind Exposure
    autocalculate,            !- View Factor to Ground
    autocalculate,            !- Number of Vertices
    440536.293,               !- Vertex 1 Xcoordinate
    4478988.622,              !- Vertex 1 Ycoordinate
    3,                        !- Vertex 1 Zcoordinate
    440536.293,               !- Vertex 2 Xcoordinate
    4478988.622,              !- Vertex 2 Ycoordinate
    0,                        !- Vertex 2 Zcoordinate
    440542.26,                !- Vertex 3 Xcoordinate
    4478984.034,              !- Vertex 3 Ycoordinate
    0,                        !- Vertex 3 Zcoordinate
    440542.26,                !- Vertex 4 Xcoordinate
    4478984.034,              !- Vertex 4 Ycoordinate
    3;                        !- Vertex 4 Zcoordinate

BUILDINGSURFACE:DETAILED,
    Block b0862431fa56c773_0 Storey 0 Wall 0003,    !- Name
    wall,                     !- Surface Type
    EU_wall_Construction,     !- Construction Name
    b0862431fa56c773_F0_dwelling_0,    !- Zone Name
    ,                         !- Space Name
    outdoors,                 !- Outside Boundary Condition
    ,                         !- Outside Boundary Condition Object
    SunExposed,               !- Sun Exposure
    WindExposed,              !- Wind Exposure
    autocalculate,            !- View Factor to Ground
    autocalculate,            !- Number of Vertices
    440542.26,                !- Vertex 1 Xcoordinate
    4478984.034,              !- Vertex 1 Ycoordinate
    3,                        !- Vertex 1 Zcoordinate
    440542.26,                !- Vertex 2 Xcoordinate
    4478984.034,              !- Vertex 2 Ycoordinate
    0,                        !- Vertex 2 Zcoordinate
    440545.302,               !- Vertex 3 Xcoordinate
    4478981.734,              !- Vertex 3 Ycoordinate
    0,                        !- Vertex 3 Zcoordinate
    440545.302,               !- Vertex 4 Xcoordinate
    4478981.734,              !- Vertex 4 Ycoordinate
    3;                        !- Vertex 4 Zcoordinate

BUILDINGSURFACE:DETAILED,
    Block b0862431fa56c773_0 Storey 0 Wall 0004,    !- Name
    wall,                     !- Surface Type
    EU_wall_Construction,     !- Construction Name
    b0862431fa56c773_F0_dwelling_0,    !- Zone Name
    ,                         !- Space Name
    Adiabatic,                !- Outside Boundary Condition
    ,                         !- Outside Boundary Condition Object
    NoSun,                    !- Sun Exposure
    NoWind,                   !- Wind Exposure
    autocalculate,            !- View Factor to Ground
    autocalculate,            !- Number of Vertices
    440545.302,               !- Vertex 1 Xcoordinate
    4478981.734,              !- Vertex 1 Ycoordinate
    3,                        !- Vertex 1 Zcoordinate
    440545.302,               !- Vertex 2 Xcoordinate
    4478981.734,              !- Vertex 2 Ycoordinate
    0,                        !- Vertex 2 Zcoordinate
    440541.38,                !- Vertex 3 Xcoordinate
    4478976.815,              !- Vertex 3 Ycoordinate
    0,                        !- Vertex 3 Zcoordinate
    440541.38,                !- Vertex 4 Xcoordinate
    4478976.815,              !- Vertex 4 Ycoordinate
    3;                        !- Vertex 4 Zcoordinate

BUILDINGSURFACE:DETAILED,
    Block b0862431fa56c773_0 Storey 0 Wall 0005,    !- Name
    wall,                     !- Surface Type
    EU_wall_Construction,     !- Construction Name
    b0862431fa56c773_F0_dwelling_0,    !- Zone Name
    ,                         !- Space Name
    Adiabatic,                !- Outside Boundary Condition
    ,                         !- Outside Boundary Condition Object
    NoSun,                    !- Sun Exposure
    NoWind,                   !- Wind Exposure
    autocalculate,            !- View Factor to Ground
    autocalculate,            !- Number of Vertices
    440541.38,                !- Vertex 1 Xcoordinate
    4478976.815,              !- Vertex 1 Ycoordinate
    3,                        !- Vertex 1 Zcoordinate
    440541.38,                !- Vertex 2 Xcoordinate
    4478976.815,              !- Vertex 2 Ycoordinate
    0,                        !- Vertex 2 Zcoordinate
    440532.56,                !- Vertex 3 Xcoordinate
    4478984.156,              !- Vertex 3 Ycoordinate
    0,                        !- Vertex 3 Zcoordinate
    440532.56,                !- Vertex 4 Xcoordinate
    4478984.156,              !- Vertex 4 Ycoordinate
    3;                        !- Vertex 4 Zcoordinate

BUILDINGSURFACE:DETAILED,
    Block b0862431fa56c773_0 Storey 0 Floor 0001,    !- Name
    floor,                    !- Surface Type
    EU_floor_Construction,    !- Construction Name
    b0862431fa56c773_F0_dwelling_0,    !- Zone Name
    ,                         !- Space Name
    ground,                   !- Outside Boundary Condition
    ,                         !- Outside Boundary Condition Object
    NoSun,                    !- Sun Exposure
    NoWind,                   !- Wind Exposure
    autocalculate,            !- View Factor to Ground
    autocalculate,            !- Number of Vertices
    440541.38,                !- Vertex 1 Xcoordinate
    4478976.815,              !- Vertex 1 Ycoordinate
    0,                        !- Vertex 1 Zcoordinate
    440545.302,               !- Vertex 2 Xcoordinate
    4478981.734,              !- Vertex 2 Ycoordinate
    0,                        !- Vertex 2 Zcoordinate
    440542.26,                !- Vertex 3 Xcoordinate
    4478984.034,              !- Vertex 3 Ycoordinate
    0,                        !- Vertex 3 Zcoordinate
    440536.293,               !- Vertex 4 Xcoordinate
    4478988.622,              !- Vertex 4 Ycoordinate
    0,                        !- Vertex 4 Zcoordinate
    440532.56,                !- Vertex 5 Xcoordinate
    4478984.156,              !- Vertex 5 Ycoordinate
    0;                        !- Vertex 5 Zcoordinate

BUILDINGSURFACE:DETAILED,
    Block b0862431fa56c773_0 Storey 1 Wall 0001,    !- Name
    wall,                     !- Surface Type
    EU_wall_Construction,     !- Construction Name
    b0862431fa56c773_F1_dwelling_0,    !- Zone Name
    ,                         !- Space Name
    outdoors,                 !- Outside Boundary Condition
    ,                         !- Outside Boundary Condition Object
    SunExposed,               !- Sun Exposure
    WindExposed,              !- Wind Exposure
    autocalculate,            !- View Factor to Ground
    autocalculate,            !- Number of Vertices
    440532.56,                !- Vertex 1 Xcoordinate
    4478984.156,              !- Vertex 1 Ycoordinate
    6,                        !- Vertex 1 Zcoordinate
    440532.56,                !- Vertex 2 Xcoordinate
    4478984.156,              !- Vertex 2 Ycoordinate
    3,                        !- Vertex 2 Zcoordinate
    440536.293,               !- Vertex 3 Xcoordinate
    4478988.622,              !- Vertex 3 Ycoordinate
    3,                        !- Vertex 3 Zcoordinate
    440536.293,               !- Vertex 4 Xcoordinate
    4478988.622,              !- Vertex 4 Ycoordinate
    6;                        !- Vertex 4 Zcoordinate

BUILDINGSURFACE:DETAILED,
    Block b0862431fa56c773_0 Storey 1 Wall 0002,    !- Name
    wall,                     !- Surface Type
    EU_wall_Construction,     !- Construction Name
    b0862431fa56c773_F1_dwelling_0,    !- Zone Name
    ,                         !- Space Name
    outdoors,                 !- Outside Boundary Condition
    ,                         !- Outside Boundary Condition Object
    SunExposed,               !- Sun Exposure
    WindExposed,              !- Wind Exposure
    autocalculate,            !- View Factor to Ground
    autocalculate,            !- Number of Vertices
    440536.293,               !- Vertex 1 Xcoordinate
    4478988.622,              !- Vertex 1 Ycoordinate
    6,                        !- Vertex 1 Zcoordinate
    440536.293,               !- Vertex 2 Xcoordinate
    4478988.622,              !- Vertex 2 Ycoordinate
    3,                        !- Vertex 2 Zcoordinate
    440542.26,                !- Vertex 3 Xcoordinate
    4478984.034,              !- Vertex 3 Ycoordinate
    3,                        !- Vertex 3 Zcoordinate
    440542.26,                !- Vertex 4 Xcoordinate
    4478984.034,              !- Vertex 4 Ycoordinate
    6;                        !- Vertex 4 Zcoordinate

BUILDINGSURFACE:DETAILED,
    Block b0862431fa56c773_0 Storey 1 Wall 0003,    !- Name
    wall,                     !- Surface Type
    EU_wall_Construction,     !- Construction Name
    b0862431fa56c773_F1_dwelling_0,    !- Zone Name
    ,                         !- Space Name
    outdoors,                 !- Outside Boundary Condition
    ,                         !- Outside Boundary Condition Object
    SunExposed,               !- Sun Exposure
    WindExposed,              !- Wind Exposure
    autocalculate,            !- View Factor to Ground
    autocalculate,            !- Number of Vertices
    440542.26,                !- Vertex 1 Xcoordinate
    4478984.034,              !- Vertex 1 Ycoordinate
    6,                        !- Vertex 1 Zcoordinate
    440542.26,                !- Vertex 2 Xcoordinate
    4478984.034,              !- Vertex 2 Ycoordinate
    3,                        !- Vertex 2 Zcoordinate
    440545.302,               !- Vertex 3 Xcoordinate
    4478981.734,              !- Vertex 3 Ycoordinate
    3,                        !- Vertex 3 Zcoordinate
    440545.302,               !- Vertex 4 Xcoordinate
    4478981.734,              !- Vertex 4 Ycoordinate
    6;                        !- Vertex 4 Zcoordinate

BUILDINGSURFACE:DETAILED,
    Block b0862431fa56c773_0 Storey 1 Wall 0004,    !- Name
    wall,                     !- Surface Type
    EU_wall_Construction,     !- Construction Name
    b0862431fa56c773_F1_dwelling_0,    !- Zone Name
    ,                         !- Space Name
    Adiabatic,                !- Outside Boundary Condition
    ,                         !- Outside Boundary Condition Object
    NoSun,                    !- Sun Exposure
    NoWind,                   !- Wind Exposure
    autocalculate,            !- View Factor to Ground
    autocalculate,            !- Number of Vertices
    440545.302,               !- Vertex 1 Xcoordinate
    4478981.734,              !- Vertex 1 Ycoordinate
    6,                        !- Vertex 1 Zcoordinate
    440545.302,               !- Vertex 2 Xcoordinate
    4478981.734,              !- Vertex 2 Ycoordinate
    3,                        !- Vertex 2 Zcoordinate
    440541.38,                !- Vertex 3 Xcoordinate
    4478976.815,              !- Vertex 3 Ycoordinate
    3,                        !- Vertex 3 Zcoordinate
    440541.38,                !- Vertex 4 Xcoordinate
    4478976.815,              !- Vertex 4 Ycoordinate
    6;                        !- Vertex 4 Zcoordinate

BUILDINGSURFACE:DETAILED,
    Block b0862431fa56c773_0 Storey 1 Wall 0005,    !- Name
    wall,                     !- Surface Type
    EU_wall_Construction,     !- Construction Name
    b0862431fa56c773_F1_dwelling_0,    !- Zone Name
    ,                         !- Space Name
    Adiabatic,                !- Outside Boundary Condition
    ,                         !- Outside Boundary Condition Object
    NoSun,                    !- Sun Exposure
    NoWind,                   !- Wind Exposure
    autocalculate,            !- View Factor to Ground
    autocalculate,            !- Number of Vertices
    440541.38,                !- Vertex 1 Xcoordinate
    4478976.815,              !- Vertex 1 Ycoordinate
    6,                        !- Vertex 1 Zcoordinate
    440541.38,                !- Vertex 2 Xcoordinate
    4478976.815,              !- Vertex 2 Ycoordinate
    3,                        !- Vertex 2 Zcoordinate
    440532.56,                !- Vertex 3 Xcoordinate
    4478984.156,              !- Vertex 3 Ycoordinate
    3,                        !- Vertex 3 Zcoordinate
    440532.56,                !- Vertex 4 Xcoordinate
    4478984.156,              !- Vertex 4 Ycoordinate
    6;                        !- Vertex 4 Zcoordinate

BUILDINGSURFACE:DETAILED,
    Block b0862431fa56c773_0 Storey 2 Wall 0001,    !- Name
    wall,                     !- Surface Type
    EU_wall_Construction,     !- Construction Name
    b0862431fa56c773_F2_dwelling_0,    !- Zone Name
    ,                         !- Space Name
    outdoors,                 !- Outside Boundary Condition
    ,                         !- Outside Boundary Condition Object
    SunExposed,               !- Sun Exposure
    WindExposed,              !- Wind Exposure
    autocalculate,            !- View Factor to Ground
    autocalculate,            !- Number of Vertices
    440532.56,                !- Vertex 1 Xcoordinate
    4478984.156,              !- Vertex 1 Ycoordinate
    9,                        !- Vertex 1 Zcoordinate
    440532.56,                !- Vertex 2 Xcoordinate
    4478984.156,              !- Vertex 2 Ycoordinate
    6,                        !- Vertex 2 Zcoordinate
    440536.293,               !- Vertex 3 Xcoordinate
    4478988.622,              !- Vertex 3 Ycoordinate
    6,                        !- Vertex 3 Zcoordinate
    440536.293,               !- Vertex 4 Xcoordinate
    4478988.622,              !- Vertex 4 Ycoordinate
    9;                        !- Vertex 4 Zcoordinate

BUILDINGSURFACE:DETAILED,
    Block b0862431fa56c773_0 Storey 2 Wall 0002,    !- Name
    wall,                     !- Surface Type
    EU_wall_Construction,     !- Construction Name
    b0862431fa56c773_F2_dwelling_0,    !- Zone Name
    ,                         !- Space Name
    outdoors,                 !- Outside Boundary Condition
    ,                         !- Outside Boundary Condition Object
    SunExposed,               !- Sun Exposure
    WindExposed,              !- Wind Exposure
    autocalculate,            !- View Factor to Ground
    autocalculate,            !- Number of Vertices
    440536.293,               !- Vertex 1 Xcoordinate
    4478988.622,              !- Vertex 1 Ycoordinate
    9,                        !- Vertex 1 Zcoordinate
    440536.293,               !- Vertex 2 Xcoordinate
    4478988.622,              !- Vertex 2 Ycoordinate
    6,                        !- Vertex 2 Zcoordinate
    440542.26,                !- Vertex 3 Xcoordinate
    4478984.034,              !- Vertex 3 Ycoordinate
    6,                        !- Vertex 3 Zcoordinate
    440542.26,                !- Vertex 4 Xcoordinate
    4478984.034,              !- Vertex 4 Ycoordinate
    9;                        !- Vertex 4 Zcoordinate

BUILDINGSURFACE:DETAILED,
    Block b0862431fa56c773_0 Storey 2 Wall 0003,    !- Name
    wall,                     !- Surface Type
    EU_wall_Construction,     !- Construction Name
    b0862431fa56c773_F2_dwelling_0,    !- Zone Name
    ,                         !- Space Name
    outdoors,                 !- Outside Boundary Condition
    ,                         !- Outside Boundary Condition Object
    SunExposed,               !- Sun Exposure
    WindExposed,              !- Wind Exposure
    autocalculate,            !- View Factor to Ground
    autocalculate,            !- Number of Vertices
    440542.26,                !- Vertex 1 Xcoordinate
    4478984.034,              !- Vertex 1 Ycoordinate
    9,                        !- Vertex 1 Zcoordinate
    440542.26,                !- Vertex 2 Xcoordinate
    4478984.034,              !- Vertex 2 Ycoordinate
    6,                        !- Vertex 2 Zcoordinate
    440545.302,               !- Vertex 3 Xcoordinate
    4478981.734,              !- Vertex 3 Ycoordinate
    6,                        !- Vertex 3 Zcoordinate
    440545.302,               !- Vertex 4 Xcoordinate
    4478981.734,              !- Vertex 4 Ycoordinate
    9;                        !- Vertex 4 Zcoordinate

BUILDINGSURFACE:DETAILED,
    Block b0862431fa56c773_0 Storey 2 Wall 0004,    !- Name
    wall,                     !- Surface Type
    EU_wall_Construction,     !- Construction Name
    b0862431fa56c773_F2_dwelling_0,    !- Zone Name
    ,                         !- Space Name
    Adiabatic,                !- Outside Boundary Condition
    ,                         !- Outside Boundary Condition Object
    NoSun,                    !- Sun Exposure
    NoWind,                   !- Wind Exposure
    autocalculate,            !- View Factor to Ground
    autocalculate,            !- Number of Vertices
    440545.302,               !- Vertex 1 Xcoordinate
    4478981.734,              !- Vertex 1 Ycoordinate
    9,                        !- Vertex 1 Zcoordinate
    440545.302,               !- Vertex 2 Xcoordinate
    4478981.734,              !- Vertex 2 Ycoordinate
    6,                        !- Vertex 2 Zcoordinate
    440541.38,                !- Vertex 3 Xcoordinate
    4478976.815,              !- Vertex 3 Ycoordinate
    6,                        !- Vertex 3 Zcoordinate
    440541.38,                !- Vertex 4 Xcoordinate
    4478976.815,              !- Vertex 4 Ycoordinate
    9;                        !- Vertex 4 Zcoordinate

BUILDINGSURFACE:DETAILED,
    Block b0862431fa56c773_0 Storey 2 Wall 0005,    !- Name
    wall,                     !- Surface Type
    EU_wall_Construction,     !- Construction Name
    b0862431fa56c773_F2_dwelling_0,    !- Zone Name
    ,                         !- Space Name
    Adiabatic,                !- Outside Boundary Condition
    ,                         !- Outside Boundary Condition Object
    NoSun,                    !- Sun Exposure
    NoWind,                   !- Wind Exposure
    autocalculate,            !- View Factor to Ground
    autocalculate,            !- Number of Vertices
    440541.38,                !- Vertex 1 Xcoordinate
    4478976.815,              !- Vertex 1 Ycoordinate
    9,                        !- Vertex 1 Zcoordinate
    440541.38,                !- Vertex 2 Xcoordinate
    4478976.815,              !- Vertex 2 Ycoordinate
    6,                        !- Vertex 2 Zcoordinate
    440532.56,                !- Vertex 3 Xcoordinate
    4478984.156,              !- Vertex 3 Ycoordinate
    6,                        !- Vertex 3 Zcoordinate
    440532.56,                !- Vertex 4 Xcoordinate
    4478984.156,              !- Vertex 4 Ycoordinate
    9;                        !- Vertex 4 Zcoordinate

BUILDINGSURFACE:DETAILED,
    Block b0862431fa56c773_0 Storey 2 Roof 0001,    !- Name
    roof,                     !- Surface Type
    EU_roof_Construction,     !- Construction Name
    b0862431fa56c773_F2_dwelling_0,    !- Zone Name
    ,                         !- Space Name
    outdoors,                 !- Outside Boundary Condition
    ,                         !- Outside Boundary Condition Object
    NoSun,                    !- Sun Exposure
    WindExposed,              !- Wind Exposure
    autocalculate,            !- View Factor to Ground
    autocalculate,            !- Number of Vertices
    440542.26,                !- Vertex 1 Xcoordinate
    4478984.034,              !- Vertex 1 Ycoordinate
    9,                        !- Vertex 1 Zcoordinate
    440545.302,               !- Vertex 2 Xcoordinate
    4478981.734,              !- Vertex 2 Ycoordinate
    9,                        !- Vertex 2 Zcoordinate
    440541.38,                !- Vertex 3 Xcoordinate
    4478976.815,              !- Vertex 3 Ycoordinate
    9,                        !- Vertex 3 Zcoordinate
    440532.56,                !- Vertex 4 Xcoordinate
    4478984.156,              !- Vertex 4 Ycoordinate
    9,                        !- Vertex 4 Zcoordinate
    440536.293,               !- Vertex 5 Xcoordinate
    4478988.622,              !- Vertex 5 Ycoordinate
    9;                        !- Vertex 5 Zcoordinate

BUILDINGSURFACE:DETAILED,
    Block b0862431fa56c773_0 Storey 0 Ceiling 0001_1,    !- Name
    ceiling,                  !- Surface Type
    EU_floor_Construction,    !- Construction Name
    b0862431fa56c773_F0_dwelling_0,    !- Zone Name
    ,                         !- Space Name
    Surface,                  !- Outside Boundary Condition
    Block b0862431fa56c773_0 Storey 1 Floor 0001_1,    !- Outside Boundary Condition Object
    NoSun,                    !- Sun Exposure
    NoWind,                   !- Wind Exposure
    autocalculate,            !- View Factor to Ground
    autocalculate,            !- Number of Vertices
    440542.2599999998,        !- Vertex 1 Xcoordinate
    4478984.034,              !- Vertex 1 Ycoordinate
    3,                        !- Vertex 1 Zcoordinate
    440545.3019999997,        !- Vertex 2 Xcoordinate
    4478981.734,              !- Vertex 2 Ycoordinate
    3,                        !- Vertex 2 Zcoordinate
    440541.3799999999,        !- Vertex 3 Xcoordinate
    4478976.815,              !- Vertex 3 Ycoordinate
    3,                        !- Vertex 3 Zcoordinate
    440532.5599999996,        !- Vertex 4 Xcoordinate
    4478984.156,              !- Vertex 4 Ycoordinate
    3,                        !- Vertex 4 Zcoordinate
    440536.2929999996,        !- Vertex 5 Xcoordinate
    4478988.622,              !- Vertex 5 Ycoordinate
    3;                        !- Vertex 5 Zcoordinate

BUILDINGSURFACE:DETAILED,
    Block b0862431fa56c773_0 Storey 1 Floor 0001_1,    !- Name
    floor,                    !- Surface Type
    EU_floor_Construction,    !- Construction Name
    b0862431fa56c773_F1_dwelling_0,    !- Zone Name
    ,                         !- Space Name
    Surface,                  !- Outside Boundary Condition
    Block b0862431fa56c773_0 Storey 0 Ceiling 0001_1,    !- Outside Boundary Condition Object
    NoSun,                    !- Sun Exposure
    NoWind,                   !- Wind Exposure
    autocalculate,            !- View Factor to Ground
    autocalculate,            !- Number of Vertices
    440541.3799999999,        !- Vertex 1 Xcoordinate
    4478976.815,              !- Vertex 1 Ycoordinate
    3,                        !- Vertex 1 Zcoordinate
    440545.3019999997,        !- Vertex 2 Xcoordinate
    4478981.734,              !- Vertex 2 Ycoordinate
    3,                        !- Vertex 2 Zcoordinate
    440542.2599999998,        !- Vertex 3 Xcoordinate
    4478984.034,              !- Vertex 3 Ycoordinate
    3,                        !- Vertex 3 Zcoordinate
    440536.2929999996,        !- Vertex 4 Xcoordinate
    4478988.622,              !- Vertex 4 Ycoordinate
    3,                        !- Vertex 4 Zcoordinate
    440532.5599999996,        !- Vertex 5 Xcoordinate
    4478984.156,              !- Vertex 5 Ycoordinate
    3;                        !- Vertex 5 Zcoordinate

BUILDINGSURFACE:DETAILED,
    Block b0862431fa56c773_0 Storey 1 Ceiling 0001_1,    !- Name
    ceiling,                  !- Surface Type
    EU_floor_Construction,    !- Construction Name
    b0862431fa56c773_F1_dwelling_0,    !- Zone Name
    ,                         !- Space Name
    Surface,                  !- Outside Boundary Condition
    Block b0862431fa56c773_0 Storey 2 Floor 0001_1,    !- Outside Boundary Condition Object
    NoSun,                    !- Sun Exposure
    NoWind,                   !- Wind Exposure
    autocalculate,            !- View Factor to Ground
    autocalculate,            !- Number of Vertices
    440542.2599999998,        !- Vertex 1 Xcoordinate
    4478984.034,              !- Vertex 1 Ycoordinate
    6,                        !- Vertex 1 Zcoordinate
    440545.3019999997,        !- Vertex 2 Xcoordinate
    4478981.734,              !- Vertex 2 Ycoordinate
    6,                        !- Vertex 2 Zcoordinate
    440541.3799999999,        !- Vertex 3 Xcoordinate
    4478976.815,              !- Vertex 3 Ycoordinate
    6,                        !- Vertex 3 Zcoordinate
    440532.5599999996,        !- Vertex 4 Xcoordinate
    4478984.156,              !- Vertex 4 Ycoordinate
    6,                        !- Vertex 4 Zcoordinate
    440536.2929999996,        !- Vertex 5 Xcoordinate
    4478988.622,              !- Vertex 5 Ycoordinate
    6;                        !- Vertex 5 Zcoordinate

BUILDINGSURFACE:DETAILED,
    Block b0862431fa56c773_0 Storey 2 Floor 0001_1,    !- Name
    floor,                    !- Surface Type
    EU_floor_Construction,    !- Construction Name
    b0862431fa56c773_F2_dwelling_0,    !- Zone Name
    ,                         !- Space Name
    Surface,                  !- Outside Boundary Condition
    Block b0862431fa56c773_0 Storey 1 Ceiling 0001_1,    !- Outside Boundary Condition Object
    NoSun,                    !- Sun Exposure
    NoWind,                   !- Wind Exposure
    autocalculate,            !- View Factor to Ground
    autocalculate,            !- Number of Vertices
    440541.3799999999,        !- Vertex 1 Xcoordinate
    4478976.815,              !- Vertex 1 Ycoordinate
    6,                        !- Vertex 1 Zcoordinate
    440545.3019999997,        !- Vertex 2 Xcoordinate
    4478981.734,              !- Vertex 2 Ycoordinate
    6,                        !- Vertex 2 Zcoordinate
    440542.2599999998,        !- Vertex 3 Xcoordinate
    4478984.034,              !- Vertex 3 Ycoordinate
    6,                        !- Vertex 3 Zcoordinate
    440536.2929999996,        !- Vertex 4 Xcoordinate
    4478988.622,              !- Vertex 4 Ycoordinate
    6,                        !- Vertex 4 Zcoordinate
    440532.5599999996,        !- Vertex 5 Xcoordinate
    4478984.156,              !- Vertex 5 Ycoordinate
    6;                        !- Vertex 5 Zcoordinate

INTERNALMASS,
    b0862431fa56c773_F0_dwelling_0_EU_InternalMass,    !- Name
    EU_InternalMass_Construction,    !- Construction Name
    b0862431fa56c773_F0_dwelling_0,    !- Zone or ZoneList Name
    ,                         !- Space or SpaceList Name
    68.94574200221518;        !- Surface Area

INTERNALMASS,
    b0862431fa56c773_F1_dwelling_0_EU_InternalMass,    !- Name
    EU_InternalMass_Construction,    !- Construction Name
    b0862431fa56c773_F1_dwelling_0,    !- Zone or ZoneList Name
    ,                         !- Space or SpaceList Name
    68.94574200221518;        !- Surface Area

INTERNALMASS,
    b0862431fa56c773_F2_dwelling_0_EU_InternalMass,    !- Name
    EU_InternalMass_Construction,    !- Construction Name
    b0862431fa56c773_F2_dwelling_0,    !- Zone or ZoneList Name
    ,                         !- Space or SpaceList Name
    68.94574200221518;        !- Surface Area

SHADING:SITE:DETAILED,
    shade_way/289364389_1,    !- Name
    ,                         !- Transmittance Schedule Name
    autocalculate,            !- Number of Vertices
    440559.3727944185,        !- Vertex 1 Xcoordinate
    4478971.176599827,        !- Vertex 1 Ycoordinate
    15,                       !- Vertex 1 Zcoordinate
    440559.3727944185,        !- Vertex 2 Xcoordinate
    4478971.176599827,        !- Vertex 2 Ycoordinate
    0,                        !- Vertex 2 Zcoordinate
    440567.4414291787,        !- Vertex 3 Xcoordinate
    4478964.618322334,        !- Vertex 3 Ycoordinate
    0,                        !- Vertex 3 Zcoordinate
    440567.4414291787,        !- Vertex 4 Xcoordinate
    4478964.618322334,        !- Vertex 4 Ycoordinate
    15;                       !- Vertex 4 Zcoordinate

SHADING:SITE:DETAILED,
    shade_way/289364389_2,    !- Name
    ,                         !- Transmittance Schedule Name
    autocalculate,            !- Number of Vertices
    440567.4414291787,        !- Vertex 1 Xcoordinate
    4478964.618322334,        !- Vertex 1 Ycoordinate
    15,                       !- Vertex 1 Zcoordinate
    440567.4414291787,        !- Vertex 2 Xcoordinate
    4478964.618322334,        !- Vertex 2 Ycoordinate
    0,                        !- Vertex 2 Zcoordinate
    440556.2123530498,        !- Vertex 3 Xcoordinate
    4478950.801859424,        !- Vertex 3 Ycoordinate
    0,                        !- Vertex 3 Zcoordinate
    440556.2123530498,        !- Vertex 4 Xcoordinate
    4478950.801859424,        !- Vertex 4 Ycoordinate
    15;                       !- Vertex 4 Zcoordinate

SHADING:SITE:DETAILED,
    shade_way/289364389_3,    !- Name
    ,                         !- Transmittance Schedule Name
    autocalculate,            !- Number of Vertices
    440556.2123530498,        !- Vertex 1 Xcoordinate
    4478950.801859424,        !- Vertex 1 Ycoordinate
    15,                       !- Vertex 1 Zcoordinate
    440556.2123530498,        !- Vertex 2 Xcoordinate
    4478950.801859424,        !- Vertex 2 Ycoordinate
    0,                        !- Vertex 2 Zcoordinate
    440548.1431183676,        !- Vertex 3 Xcoordinate
    4478957.36050806,         !- Vertex 3 Ycoordinate
    0,                        !- Vertex 3 Zcoordinate
    440548.1431183676,        !- Vertex 4 Xcoordinate
    4478957.36050806,         !- Vertex 4 Ycoordinate
    15;                       !- Vertex 4 Zcoordinate

SHADING:SITE:DETAILED,
    shade_way/289364389_4,    !- Name
    ,                         !- Transmittance Schedule Name
    autocalculate,            !- Number of Vertices
    440548.1431183676,        !- Vertex 1 Xcoordinate
    4478957.36050806,         !- Vertex 1 Ycoordinate
    15,                       !- Vertex 1 Zcoordinate
    440548.1431183676,        !- Vertex 2 Xcoordinate
    4478957.36050806,         !- Vertex 2 Ycoordinate
    0,                        !- Vertex 2 Zcoordinate
    440559.3727944185,        !- Vertex 3 Xcoordinate
    4478971.176599827,        !- Vertex 3 Ycoordinate
    0,                        !- Vertex 3 Zcoordinate
    440559.3727944185,        !- Vertex 4 Xcoordinate
    4478971.176599827,        !- Vertex 4 Ycoordinate
    15;                       !- Vertex 4 Zcoordinate

SHADING:SITE:DETAILED,
    shade_way/289362374_1,    !- Name
    ,                         !- Transmittance Schedule Name
    autocalculate,            !- Number of Vertices
    440530.35122990445,       !- Vertex 1 Xcoordinate
    4478962.182104167,        !- Vertex 1 Ycoordinate
    12,                       !- Vertex 1 Zcoordinate
    440530.35122990445,       !- Vertex 2 Xcoordinate
    4478962.182104167,        !- Vertex 2 Ycoordinate
    0,                        !- Vertex 2 Zcoordinate
    440519.49428344605,       !- Vertex 3 Xcoordinate
    4478969.195224075,        !- Vertex 3 Ycoordinate
    0,                        !- Vertex 3 Zcoordinate
    440519.49428344605,       !- Vertex 4 Xcoordinate
    4478969.195224075,        !- Vertex 4 Ycoordinate
    12;                       !- Vertex 4 Zcoordinate

SHADING:SITE:DETAILED,
    shade_way/289362374_2,    !- Name
    ,                         !- Transmittance Schedule Name
    autocalculate,            !- Number of Vertices
    440519.49428344605,       !- Vertex 1 Xcoordinate
    4478969.195224075,        !- Vertex 1 Ycoordinate
    12,                       !- Vertex 1 Zcoordinate
    440519.49428344605,       !- Vertex 2 Xcoordinate
    4478969.195224075,        !- Vertex 2 Ycoordinate
    0,                        !- Vertex 2 Zcoordinate
    440521.23891218286,       !- Vertex 3 Xcoordinate
    4478971.896643911,        !- Vertex 3 Ycoordinate
    0,                        !- Vertex 3 Zcoordinate
    440521.23891218286,       !- Vertex 4 Xcoordinate
    4478971.896643911,        !- Vertex 4 Ycoordinate
    12;                       !- Vertex 4 Zcoordinate

SHADING:SITE:DETAILED,
    shade_way/289362374_3,    !- Name
    ,                         !- Transmittance Schedule Name
    autocalculate,            !- Number of Vertices
    440521.23891218286,       !- Vertex 1 Xcoordinate
    4478971.896643911,        !- Vertex 1 Ycoordinate
    12,                       !- Vertex 1 Zcoordinate
    440521.23891218286,       !- Vertex 2 Xcoordinate
    4478971.896643911,        !- Vertex 2 Ycoordinate
    0,                        !- Vertex 2 Zcoordinate
    440532.0958586399,        !- Vertex 3 Xcoordinate
    4478964.883524,           !- Vertex 3 Ycoordinate
    0,                        !- Vertex 3 Zcoordinate
    440532.0958586399,        !- Vertex 4 Xcoordinate
    4478964.883524,           !- Vertex 4 Ycoordinate
    12;                       !- Vertex 4 Zcoordinate

SHADING:SITE:DETAILED,
    shade_way/289362374_4,    !- Name
    ,                         !- Transmittance Schedule Name
    autocalculate,            !- Number of Vertices
    440532.0958586399,        !- Vertex 1 Xcoordinate
    4478964.883524,           !- Vertex 1 Ycoordinate
    12,                       !- Vertex 1 Zcoordinate
    440532.0958586399,        !- Vertex 2 Xcoordinate
    4478964.883524,           !- Vertex 2 Ycoordinate
    0,                        !- Vertex 2 Zcoordinate
    440530.35122990445,       !- Vertex 3 Xcoordinate
    4478962.182104167,        !- Vertex 3 Ycoordinate
    0,                        !- Vertex 3 Zcoordinate
    440530.35122990445,       !- Vertex 4 Xcoordinate
    4478962.182104167,        !- Vertex 4 Ycoordinate
    12;                       !- Vertex 4 Zcoordinate

SHADING:SITE:DETAILED,
    shade_way/289362376_1,    !- Name
    ,                         !- Transmittance Schedule Name
    autocalculate,            !- Number of Vertices
    440479.31460205215,       !- Vertex 1 Xcoordinate
    4478999.431086179,        !- Vertex 1 Ycoordinate
    12,                       !- Vertex 1 Zcoordinate
    440479.31460205215,       !- Vertex 2 Xcoordinate
    4478999.431086179,        !- Vertex 2 Ycoordinate
    0,                        !- Vertex 2 Zcoordinate
    440552.0209391681,        !- Vertex 3 Xcoordinate
    4478947.923148342,        !- Vertex 3 Ycoordinate
    0,                        !- Vertex 3 Zcoordinate
    440552.0209391681,        !- Vertex 4 Xcoordinate
    4478947.923148342,        !- Vertex 4 Ycoordinate
    12;                       !- Vertex 4 Zcoordinate

SHADING:SITE:DETAILED,
    shade_way/289362376_2,    !- Name
    ,                         !- Transmittance Schedule Name
    autocalculate,            !- Number of Vertices
    440552.0209391681,        !- Vertex 1 Xcoordinate
    4478947.923148342,        !- Vertex 1 Ycoordinate
    12,                       !- Vertex 1 Zcoordinate
    440552.0209391681,        !- Vertex 2 Xcoordinate
    4478947.923148342,        !- Vertex 2 Ycoordinate
    0,                        !- Vertex 2 Zcoordinate
    440546.52506863413,       !- Vertex 3 Xcoordinate
    4478940.16666217,         !- Vertex 3 Ycoordinate
    0,                        !- Vertex 3 Zcoordinate
    440546.52506863413,       !- Vertex 4 Xcoordinate
    4478940.16666217,         !- Vertex 4 Ycoordinate
    12;                       !- Vertex 4 Zcoordinate

SHADING:SITE:DETAILED,
    shade_way/289362376_3,    !- Name
    ,                         !- Transmittance Schedule Name
    autocalculate,            !- Number of Vertices
    440546.52506863413,       !- Vertex 1 Xcoordinate
    4478940.16666217,         !- Vertex 1 Ycoordinate
    12,                       !- Vertex 1 Zcoordinate
    440546.52506863413,       !- Vertex 2 Xcoordinate
    4478940.16666217,         !- Vertex 2 Ycoordinate
    0,                        !- Vertex 2 Zcoordinate
    440473.8187315201,        !- Vertex 3 Xcoordinate
    4478991.674600024,        !- Vertex 3 Ycoordinate
    0,                        !- Vertex 3 Zcoordinate
    440473.8187315201,        !- Vertex 4 Xcoordinate
    4478991.674600024,        !- Vertex 4 Ycoordinate
    12;                       !- Vertex 4 Zcoordinate

SHADING:SITE:DETAILED,
    shade_way/289362376_4,    !- Name
    ,                         !- Transmittance Schedule Name
    autocalculate,            !- Number of Vertices
    440473.8187315201,        !- Vertex 1 Xcoordinate
    4478991.674600024,        !- Vertex 1 Ycoordinate
    12,                       !- Vertex 1 Zcoordinate
    440473.8187315201,        !- Vertex 2 Xcoordinate
    4478991.674600024,        !- Vertex 2 Ycoordinate
    0,                        !- Vertex 2 Zcoordinate
    440479.31460205215,       !- Vertex 3 Xcoordinate
    4478999.431086179,        !- Vertex 3 Ycoordinate
    0,                        !- Vertex 3 Zcoordinate
    440479.31460205215,       !- Vertex 4 Xcoordinate
    4478999.431086179,        !- Vertex 4 Ycoordinate
    12;                       !- Vertex 4 Zcoordinate

SHADING:SITE:DETAILED,
    shade_way/681360944_1,    !- Name
    ,                         !- Transmittance Schedule Name
    autocalculate,            !- Number of Vertices
    440509.32597652695,       !- Vertex 1 Xcoordinate
    4478976.436002978,        !- Vertex 1 Ycoordinate
    12,                       !- Vertex 1 Zcoordinate
    440509.32597652695,       !- Vertex 2 Xcoordinate
    4478976.436002978,        !- Vertex 2 Ycoordinate
    0,                        !- Vertex 2 Zcoordinate
    440514.39520518616,       !- Vertex 3 Xcoordinate
    4478983.132608018,        !- Vertex 3 Ycoordinate
    0,                        !- Vertex 3 Zcoordinate
    440514.39520518616,       !- Vertex 4 Xcoordinate
    4478983.132608018,        !- Vertex 4 Ycoordinate
    12;                       !- Vertex 4 Zcoordinate

SHADING:SITE:DETAILED,
    shade_way/681360944_2,    !- Name
    ,                         !- Transmittance Schedule Name
    autocalculate,            !- Number of Vertices
    440514.39520518616,       !- Vertex 1 Xcoordinate
    4478983.132608018,        !- Vertex 1 Ycoordinate
    12,                       !- Vertex 1 Zcoordinate
    440514.39520518616,       !- Vertex 2 Xcoordinate
    4478983.132608018,        !- Vertex 2 Ycoordinate
    0,                        !- Vertex 2 Zcoordinate
    440519.93630132807,       !- Vertex 3 Xcoordinate
    4478978.938161133,        !- Vertex 3 Ycoordinate
    0,                        !- Vertex 3 Zcoordinate
    440519.93630132807,       !- Vertex 4 Xcoordinate
    4478978.938161133,        !- Vertex 4 Ycoordinate
    12;                       !- Vertex 4 Zcoordinate

SHADING:SITE:DETAILED,
    shade_way/681360944_3,    !- Name
    ,                         !- Transmittance Schedule Name
    autocalculate,            !- Number of Vertices
    440519.93630132807,       !- Vertex 1 Xcoordinate
    4478978.938161133,        !- Vertex 1 Ycoordinate
    12,                       !- Vertex 1 Zcoordinate
    440519.93630132807,       !- Vertex 2 Xcoordinate
    4478978.938161133,        !- Vertex 2 Ycoordinate
    0,                        !- Vertex 2 Zcoordinate
    440514.86763130204,       !- Vertex 3 Xcoordinate
    4478972.241483128,        !- Vertex 3 Ycoordinate
    0,                        !- Vertex 3 Zcoordinate
    440514.86763130204,       !- Vertex 4 Xcoordinate
    4478972.241483128,        !- Vertex 4 Ycoordinate
    12;                       !- Vertex 4 Zcoordinate

SHADING:SITE:DETAILED,
    shade_way/681360944_4,    !- Name
    ,                         !- Transmittance Schedule Name
    autocalculate,            !- Number of Vertices
    440514.86763130204,       !- Vertex 1 Xcoordinate
    4478972.241483128,        !- Vertex 1 Ycoordinate
    12,                       !- Vertex 1 Zcoordinate
    440514.86763130204,       !- Vertex 2 Xcoordinate
    4478972.241483128,        !- Vertex 2 Ycoordinate
    0,                        !- Vertex 2 Zcoordinate
    440509.32597652695,       !- Vertex 3 Xcoordinate
    4478976.436002978,        !- Vertex 3 Ycoordinate
    0,                        !- Vertex 3 Zcoordinate
    440509.32597652695,       !- Vertex 4 Xcoordinate
    4478976.436002978,        !- Vertex 4 Ycoordinate
    12;                       !- Vertex 4 Zcoordinate

SHADING:SITE:DETAILED,
    shade_way/288600859_1,    !- Name
    ,                         !- Transmittance Schedule Name
    autocalculate,            !- Number of Vertices
    440514.2095931403,        !- Vertex 1 Xcoordinate
    4478983.034294112,        !- Vertex 1 Ycoordinate
    9,                        !- Vertex 1 Zcoordinate
    440514.2095931403,        !- Vertex 2 Xcoordinate
    4478983.034294112,        !- Vertex 2 Ycoordinate
    0,                        !- Vertex 2 Zcoordinate
    440525.2962828441,        !- Vertex 3 Xcoordinate
    4478997.054993347,        !- Vertex 3 Ycoordinate
    0,                        !- Vertex 3 Zcoordinate
    440525.2962828441,        !- Vertex 4 Xcoordinate
    4478997.054993347,        !- Vertex 4 Ycoordinate
    9;                        !- Vertex 4 Zcoordinate

SHADING:SITE:DETAILED,
    shade_way/288600859_2,    !- Name
    ,                         !- Transmittance Schedule Name
    autocalculate,            !- Number of Vertices
    440525.2962828441,        !- Vertex 1 Xcoordinate
    4478997.054993347,        !- Vertex 1 Ycoordinate
    9,                        !- Vertex 1 Zcoordinate
    440525.2962828441,        !- Vertex 2 Xcoordinate
    4478997.054993347,        !- Vertex 2 Ycoordinate
    0,                        !- Vertex 2 Zcoordinate
    440531.1511128476,        !- Vertex 3 Xcoordinate
    4478992.425263938,        !- Vertex 3 Ycoordinate
    0,                        !- Vertex 3 Zcoordinate
    440531.1511128476,        !- Vertex 4 Xcoordinate
    4478992.425263938,        !- Vertex 4 Ycoordinate
    9;                        !- Vertex 4 Zcoordinate

SHADING:SITE:DETAILED,
    shade_way/288600859_3,    !- Name
    ,                         !- Transmittance Schedule Name
    autocalculate,            !- Number of Vertices
    440531.1511128476,        !- Vertex 1 Xcoordinate
    4478992.425263938,        !- Vertex 1 Ycoordinate
    9,                        !- Vertex 1 Zcoordinate
    440531.1511128476,        !- Vertex 2 Xcoordinate
    4478992.425263938,        !- Vertex 2 Ycoordinate
    0,                        !- Vertex 2 Zcoordinate
    440520.0638635026,        !- Vertex 3 Xcoordinate
    4478978.405104236,        !- Vertex 3 Ycoordinate
    0,                        !- Vertex 3 Zcoordinate
    440520.0638635026,        !- Vertex 4 Xcoordinate
    4478978.405104236,        !- Vertex 4 Ycoordinate
    9;                        !- Vertex 4 Zcoordinate

SHADING:SITE:DETAILED,
    shade_way/288600859_4,    !- Name
    ,                         !- Transmittance Schedule Name
    autocalculate,            !- Number of Vertices
    440520.0638635026,        !- Vertex 1 Xcoordinate
    4478978.405104236,        !- Vertex 1 Ycoordinate
    9,                        !- Vertex 1 Zcoordinate
    440520.0638635026,        !- Vertex 2 Xcoordinate
    4478978.405104236,        !- Vertex 2 Ycoordinate
    0,                        !- Vertex 2 Zcoordinate
    440514.2095931403,        !- Vertex 3 Xcoordinate
    4478983.034294112,        !- Vertex 3 Ycoordinate
    0,                        !- Vertex 3 Zcoordinate
    440514.2095931403,        !- Vertex 4 Xcoordinate
    4478983.034294112,        !- Vertex 4 Ycoordinate
    9;                        !- Vertex 4 Zcoordinate

SHADING:SITE:DETAILED,
    shade_way/288600854_1,    !- Name
    ,                         !- Transmittance Schedule Name
    autocalculate,            !- Number of Vertices
    440500.3461571324,        !- Vertex 1 Xcoordinate
    4478988.118746346,        !- Vertex 1 Ycoordinate
    9,                        !- Vertex 1 Zcoordinate
    440500.3461571324,        !- Vertex 2 Xcoordinate
    4478988.118746346,        !- Vertex 2 Ycoordinate
    0,                        !- Vertex 2 Zcoordinate
    440512.9173445758,        !- Vertex 3 Xcoordinate
    4479005.8355242815,       !- Vertex 3 Ycoordinate
    0,                        !- Vertex 3 Zcoordinate
    440512.9173445758,        !- Vertex 4 Xcoordinate
    4479005.8355242815,       !- Vertex 4 Ycoordinate
    9;                        !- Vertex 4 Zcoordinate

SHADING:SITE:DETAILED,
    shade_way/288600854_2,    !- Name
    ,                         !- Transmittance Schedule Name
    autocalculate,            !- Number of Vertices
    440512.9173445758,        !- Vertex 1 Xcoordinate
    4479005.8355242815,       !- Vertex 1 Ycoordinate
    9,                        !- Vertex 1 Zcoordinate
    440512.9173445758,        !- Vertex 2 Xcoordinate
    4479005.8355242815,       !- Vertex 2 Ycoordinate
    0,                        !- Vertex 2 Zcoordinate
    440525.2828677282,        !- Vertex 3 Xcoordinate
    4478997.061326263,        !- Vertex 3 Ycoordinate
    0,                        !- Vertex 3 Zcoordinate
    440525.2828677282,        !- Vertex 4 Xcoordinate
    4478997.061326263,        !- Vertex 4 Ycoordinate
    9;                        !- Vertex 4 Zcoordinate

SHADING:SITE:DETAILED,
    shade_way/288600854_3,    !- Name
    ,                         !- Transmittance Schedule Name
    autocalculate,            !- Number of Vertices
    440525.2828677282,        !- Vertex 1 Xcoordinate
    4478997.061326263,        !- Vertex 1 Ycoordinate
    9,                        !- Vertex 1 Zcoordinate
    440525.2828677282,        !- Vertex 2 Xcoordinate
    4478997.061326263,        !- Vertex 2 Ycoordinate
    0,                        !- Vertex 2 Zcoordinate
    440512.7116802836,        !- Vertex 3 Xcoordinate
    4478979.344548329,        !- Vertex 3 Ycoordinate
    0,                        !- Vertex 3 Zcoordinate
    440512.7116802836,        !- Vertex 4 Xcoordinate
    4478979.344548329,        !- Vertex 4 Ycoordinate
    9;                        !- Vertex 4 Zcoordinate

SHADING:SITE:DETAILED,
    shade_way/288600854_4,    !- Name
    ,                         !- Transmittance Schedule Name
    autocalculate,            !- Number of Vertices
    440512.7116802836,        !- Vertex 1 Xcoordinate
    4478979.344548329,        !- Vertex 1 Ycoordinate
    9,                        !- Vertex 1 Zcoordinate
    440512.7116802836,        !- Vertex 2 Xcoordinate
    4478979.344548329,        !- Vertex 2 Ycoordinate
    0,                        !- Vertex 2 Zcoordinate
    440500.3461571324,        !- Vertex 3 Xcoordinate
    4478988.118746346,        !- Vertex 3 Ycoordinate
    0,                        !- Vertex 3 Zcoordinate
    440500.3461571324,        !- Vertex 4 Xcoordinate
    4478988.118746346,        !- Vertex 4 Ycoordinate
    9;                        !- Vertex 4 Zcoordinate

SHADING:SITE:DETAILED,
    shade_way/289364388_1,    !- Name
    ,                         !- Transmittance Schedule Name
    autocalculate,            !- Number of Vertices
    440553.9230234305,        !- Vertex 1 Xcoordinate
    4478962.150290485,        !- Vertex 1 Ycoordinate
    9,                        !- Vertex 1 Zcoordinate
    440553.9230234305,        !- Vertex 2 Xcoordinate
    4478962.150290485,        !- Vertex 2 Ycoordinate
    0,                        !- Vertex 2 Zcoordinate
    440538.8279273137,        !- Vertex 3 Xcoordinate
    4478973.615133017,        !- Vertex 3 Ycoordinate
    0,                        !- Vertex 3 Zcoordinate
    440538.8279273137,        !- Vertex 4 Xcoordinate
    4478973.615133017,        !- Vertex 4 Ycoordinate
    9;                        !- Vertex 4 Zcoordinate

SHADING:SITE:DETAILED,
    shade_way/289364388_2,    !- Name
    ,                         !- Transmittance Schedule Name
    autocalculate,            !- Number of Vertices
    440538.8279273137,        !- Vertex 1 Xcoordinate
    4478973.615133017,        !- Vertex 1 Ycoordinate
    9,                        !- Vertex 1 Zcoordinate
    440538.8279273137,        !- Vertex 2 Xcoordinate
    4478973.615133017,        !- Vertex 2 Ycoordinate
    0,                        !- Vertex 2 Zcoordinate
    440545.14281589026,       !- Vertex 3 Xcoordinate
    4478981.92975042,         !- Vertex 3 Ycoordinate
    0,                        !- Vertex 3 Zcoordinate
    440545.14281589026,       !- Vertex 4 Xcoordinate
    4478981.92975042,         !- Vertex 4 Ycoordinate
    9;                        !- Vertex 4 Zcoordinate

SHADING:SITE:DETAILED,
    shade_way/289364388_3,    !- Name
    ,                         !- Transmittance Schedule Name
    autocalculate,            !- Number of Vertices
    440545.14281589026,       !- Vertex 1 Xcoordinate
    4478981.92975042,         !- Vertex 1 Ycoordinate
    9,                        !- Vertex 1 Zcoordinate
    440545.14281589026,       !- Vertex 2 Xcoordinate
    4478981.92975042,         !- Vertex 2 Ycoordinate
    0,                        !- Vertex 2 Zcoordinate
    440560.23791200784,       !- Vertex 3 Xcoordinate
    4478970.464907887,        !- Vertex 3 Ycoordinate
    0,                        !- Vertex 3 Zcoordinate
    440560.23791200784,       !- Vertex 4 Xcoordinate
    4478970.464907887,        !- Vertex 4 Ycoordinate
    9;                        !- Vertex 4 Zcoordinate

SHADING:SITE:DETAILED,
    shade_way/289364388_4,    !- Name
    ,                         !- Transmittance Schedule Name
    autocalculate,            !- Number of Vertices
    440560.23791200784,       !- Vertex 1 Xcoordinate
    4478970.464907887,        !- Vertex 1 Ycoordinate
    9,                        !- Vertex 1 Zcoordinate
    440560.23791200784,       !- Vertex 2 Xcoordinate
    4478970.464907887,        !- Vertex 2 Ycoordinate
    0,                        !- Vertex 2 Zcoordinate
    440553.9230234305,        !- Vertex 3 Xcoordinate
    4478962.150290485,        !- Vertex 3 Ycoordinate
    0,                        !- Vertex 3 Zcoordinate
    440553.9230234305,        !- Vertex 4 Xcoordinate
    4478962.150290485,        !- Vertex 4 Ycoordinate
    9;                        !- Vertex 4 Zcoordinate

SHADING:SITE:DETAILED,
    shade_way/289362372_1,    !- Name
    ,                         !- Transmittance Schedule Name
    autocalculate,            !- Number of Vertices
    440528.5016045053,        !- Vertex 1 Xcoordinate
    4478980.1238088915,       !- Vertex 1 Ycoordinate
    12,                       !- Vertex 1 Zcoordinate
    440528.5016045053,        !- Vertex 2 Xcoordinate
    4478980.1238088915,       !- Vertex 2 Ycoordinate
    0,                        !- Vertex 2 Zcoordinate
    440538.00679238763,       !- Vertex 3 Xcoordinate
    4478972.354143169,        !- Vertex 3 Ycoordinate
    0,                        !- Vertex 3 Zcoordinate
    440538.00679238763,       !- Vertex 4 Xcoordinate
    4478972.354143169,        !- Vertex 4 Ycoordinate
    12;                       !- Vertex 4 Zcoordinate

SHADING:SITE:DETAILED,
    shade_way/289362372_2,    !- Name
    ,                         !- Transmittance Schedule Name
    autocalculate,            !- Number of Vertices
    440538.00679238763,       !- Vertex 1 Xcoordinate
    4478972.354143169,        !- Vertex 1 Ycoordinate
    12,                       !- Vertex 1 Zcoordinate
    440538.00679238763,       !- Vertex 2 Xcoordinate
    4478972.354143169,        !- Vertex 2 Ycoordinate
    0,                        !- Vertex 2 Zcoordinate
    440529.99248783843,       !- Vertex 3 Xcoordinate
    4478962.549671114,        !- Vertex 3 Ycoordinate
    0,                        !- Vertex 3 Zcoordinate
    440529.99248783843,       !- Vertex 4 Xcoordinate
    4478962.549671114,        !- Vertex 4 Ycoordinate
    12;                       !- Vertex 4 Zcoordinate

SHADING:SITE:DETAILED,
    shade_way/289362372_3,    !- Name
    ,                         !- Transmittance Schedule Name
    autocalculate,            !- Number of Vertices
    440529.99248783843,       !- Vertex 1 Xcoordinate
    4478962.549671114,        !- Vertex 1 Ycoordinate
    12,                       !- Vertex 1 Zcoordinate
    440529.99248783843,       !- Vertex 2 Xcoordinate
    4478962.549671114,        !- Vertex 2 Ycoordinate
    0,                        !- Vertex 2 Zcoordinate
    440520.4867983615,        !- Vertex 3 Xcoordinate
    4478970.31961327,         !- Vertex 3 Ycoordinate
    0,                        !- Vertex 3 Zcoordinate
    440520.4867983615,        !- Vertex 4 Xcoordinate
    4478970.31961327,         !- Vertex 4 Ycoordinate
    12;                       !- Vertex 4 Zcoordinate

SHADING:SITE:DETAILED,
    shade_way/289362372_4,    !- Name
    ,                         !- Transmittance Schedule Name
    autocalculate,            !- Number of Vertices
    440520.4867983615,        !- Vertex 1 Xcoordinate
    4478970.31961327,         !- Vertex 1 Ycoordinate
    12,                       !- Vertex 1 Zcoordinate
    440520.4867983615,        !- Vertex 2 Xcoordinate
    4478970.31961327,         !- Vertex 2 Ycoordinate
    0,                        !- Vertex 2 Zcoordinate
    440528.5016045053,        !- Vertex 3 Xcoordinate
    4478980.1238088915,       !- Vertex 3 Ycoordinate
    0,                        !- Vertex 3 Zcoordinate
    440528.5016045053,        !- Vertex 4 Xcoordinate
    4478980.1238088915,       !- Vertex 4 Ycoordinate
    12;                       !- Vertex 4 Zcoordinate

SHADING:SITE:DETAILED,
    shade_way/289362370_1,    !- Name
    ,                         !- Transmittance Schedule Name
    autocalculate,            !- Number of Vertices
    440537.89441318554,       !- Vertex 1 Xcoordinate
    4478972.445869828,        !- Vertex 1 Ycoordinate
    12,                       !- Vertex 1 Zcoordinate
    440537.89441318554,       !- Vertex 2 Xcoordinate
    4478972.445869828,        !- Vertex 2 Ycoordinate
    0,                        !- Vertex 2 Zcoordinate
    440528.82972223713,       !- Vertex 3 Xcoordinate
    4478979.855467559,        !- Vertex 3 Ycoordinate
    0,                        !- Vertex 3 Zcoordinate
    440528.82972223713,       !- Vertex 4 Xcoordinate
    4478979.855467559,        !- Vertex 4 Ycoordinate
    12;                       !- Vertex 4 Zcoordinate

SHADING:SITE:DETAILED,
    shade_way/289362370_2,    !- Name
    ,                         !- Transmittance Schedule Name
    autocalculate,            !- Number of Vertices
    440528.82972223713,       !- Vertex 1 Xcoordinate
    4478979.855467559,        !- Vertex 1 Ycoordinate
    12,                       !- Vertex 1 Zcoordinate
    440528.82972223713,       !- Vertex 2 Xcoordinate
    4478979.855467559,        !- Vertex 2 Ycoordinate
    0,                        !- Vertex 2 Zcoordinate
    440532.4315171622,        !- Vertex 3 Xcoordinate
    4478984.2609108705,       !- Vertex 3 Ycoordinate
    0,                        !- Vertex 3 Zcoordinate
    440532.4315171622,        !- Vertex 4 Xcoordinate
    4478984.2609108705,       !- Vertex 4 Ycoordinate
    12;                       !- Vertex 4 Zcoordinate

SHADING:SITE:DETAILED,
    shade_way/289362370_3,    !- Name
    ,                         !- Transmittance Schedule Name
    autocalculate,            !- Number of Vertices
    440532.4315171622,        !- Vertex 1 Xcoordinate
    4478984.2609108705,       !- Vertex 1 Ycoordinate
    12,                       !- Vertex 1 Zcoordinate
    440532.4315171622,        !- Vertex 2 Xcoordinate
    4478984.2609108705,       !- Vertex 2 Ycoordinate
    0,                        !- Vertex 2 Zcoordinate
    440541.496208111,         !- Vertex 3 Xcoordinate
    4478976.851313142,        !- Vertex 3 Ycoordinate
    0,                        !- Vertex 3 Zcoordinate
    440541.496208111,         !- Vertex 4 Xcoordinate
    4478976.851313142,        !- Vertex 4 Ycoordinate
    12;                       !- Vertex 4 Zcoordinate

SHADING:SITE:DETAILED,
    shade_way/289362370_4,    !- Name
    ,                         !- Transmittance Schedule Name
    autocalculate,            !- Number of Vertices
    440541.496208111,         !- Vertex 1 Xcoordinate
    4478976.851313142,        !- Vertex 1 Ycoordinate
    12,                       !- Vertex 1 Zcoordinate
    440541.496208111,         !- Vertex 2 Xcoordinate
    4478976.851313142,        !- Vertex 2 Ycoordinate
    0,                        !- Vertex 2 Zcoordinate
    440537.89441318554,       !- Vertex 3 Xcoordinate
    4478972.445869828,        !- Vertex 3 Ycoordinate
    0,                        !- Vertex 3 Zcoordinate
    440537.89441318554,       !- Vertex 4 Xcoordinate
    4478972.445869828,        !- Vertex 4 Ycoordinate
    12;                       !- Vertex 4 Zcoordinate

SHADING:SITE:DETAILED,
    shade_way/289387273_1,    !- Name
    ,                         !- Transmittance Schedule Name
    autocalculate,            !- Number of Vertices
    440559.89294983074,       !- Vertex 1 Xcoordinate
    4479016.804141392,        !- Vertex 1 Ycoordinate
    9,                        !- Vertex 1 Zcoordinate
    440559.89294983074,       !- Vertex 2 Xcoordinate
    4479016.804141392,        !- Vertex 2 Ycoordinate
    0,                        !- Vertex 2 Zcoordinate
    440572.3395988282,        !- Vertex 3 Xcoordinate
    4478979.5352326045,       !- Vertex 3 Ycoordinate
    0,                        !- Vertex 3 Zcoordinate
    440572.3395988282,        !- Vertex 4 Xcoordinate
    4478979.5352326045,       !- Vertex 4 Ycoordinate
    9;                        !- Vertex 4 Zcoordinate

SHADING:SITE:DETAILED,
    shade_way/289387273_2,    !- Name
    ,                         !- Transmittance Schedule Name
    autocalculate,            !- Number of Vertices
    440572.3395988282,        !- Vertex 1 Xcoordinate
    4478979.5352326045,       !- Vertex 1 Ycoordinate
    9,                        !- Vertex 1 Zcoordinate
    440572.3395988282,        !- Vertex 2 Xcoordinate
    4478979.5352326045,       !- Vertex 2 Ycoordinate
    0,                        !- Vertex 2 Zcoordinate
    440555.9808670916,        !- Vertex 3 Xcoordinate
    4478974.071928235,        !- Vertex 3 Ycoordinate
    0,                        !- Vertex 3 Zcoordinate
    440555.9808670916,        !- Vertex 4 Xcoordinate
    4478974.071928235,        !- Vertex 4 Ycoordinate
    9;                        !- Vertex 4 Zcoordinate

SHADING:SITE:DETAILED,
    shade_way/289387273_3,    !- Name
    ,                         !- Transmittance Schedule Name
    autocalculate,            !- Number of Vertices
    440555.9808670916,        !- Vertex 1 Xcoordinate
    4478974.071928235,        !- Vertex 1 Ycoordinate
    9,                        !- Vertex 1 Zcoordinate
    440555.9808670916,        !- Vertex 2 Xcoordinate
    4478974.071928235,        !- Vertex 2 Ycoordinate
    0,                        !- Vertex 2 Zcoordinate
    440543.53421809414,       !- Vertex 3 Xcoordinate
    4479011.340837022,        !- Vertex 3 Ycoordinate
    0,                        !- Vertex 3 Zcoordinate
    440543.53421809414,       !- Vertex 4 Xcoordinate
    4479011.340837022,        !- Vertex 4 Ycoordinate
    9;                        !- Vertex 4 Zcoordinate

SHADING:SITE:DETAILED,
    shade_way/289387273_4,    !- Name
    ,                         !- Transmittance Schedule Name
    autocalculate,            !- Number of Vertices
    440543.53421809414,       !- Vertex 1 Xcoordinate
    4479011.340837022,        !- Vertex 1 Ycoordinate
    9,                        !- Vertex 1 Zcoordinate
    440543.53421809414,       !- Vertex 2 Xcoordinate
    4479011.340837022,        !- Vertex 2 Ycoordinate
    0,                        !- Vertex 2 Zcoordinate
    440559.89294983074,       !- Vertex 3 Xcoordinate
    4479016.804141392,        !- Vertex 3 Ycoordinate
    0,                        !- Vertex 3 Zcoordinate
    440559.89294983074,       !- Vertex 4 Xcoordinate
    4479016.804141392,        !- Vertex 4 Ycoordinate
    9;                        !- Vertex 4 Zcoordinate

SHADING:SITE:DETAILED,
    shade_way/288600861_1,    !- Name
    ,                         !- Transmittance Schedule Name
    autocalculate,            !- Number of Vertices
    440551.0394791787,        !- Vertex 1 Xcoordinate
    4479028.266989235,        !- Vertex 1 Ycoordinate
    12,                       !- Vertex 1 Zcoordinate
    440551.0394791787,        !- Vertex 2 Xcoordinate
    4479028.266989235,        !- Vertex 2 Ycoordinate
    0,                        !- Vertex 2 Zcoordinate
    440535.4059433127,        !- Vertex 3 Xcoordinate
    4478999.684649443,        !- Vertex 3 Ycoordinate
    0,                        !- Vertex 3 Zcoordinate
    440535.4059433127,        !- Vertex 4 Xcoordinate
    4478999.684649443,        !- Vertex 4 Ycoordinate
    12;                       !- Vertex 4 Zcoordinate

SHADING:SITE:DETAILED,
    shade_way/288600861_2,    !- Name
    ,                         !- Transmittance Schedule Name
    autocalculate,            !- Number of Vertices
    440535.4059433127,        !- Vertex 1 Xcoordinate
    4478999.684649443,        !- Vertex 1 Ycoordinate
    12,                       !- Vertex 1 Zcoordinate
    440535.4059433127,        !- Vertex 2 Xcoordinate
    4478999.684649443,        !- Vertex 2 Ycoordinate
    0,                        !- Vertex 2 Zcoordinate
    440492.65791281714,       !- Vertex 3 Xcoordinate
    4479023.066257329,        !- Vertex 3 Ycoordinate
    0,                        !- Vertex 3 Zcoordinate
    440492.65791281714,       !- Vertex 4 Xcoordinate
    4479023.066257329,        !- Vertex 4 Ycoordinate
    12;                       !- Vertex 4 Zcoordinate

SHADING:SITE:DETAILED,
    shade_way/288600861_3,    !- Name
    ,                         !- Transmittance Schedule Name
    autocalculate,            !- Number of Vertices
    440492.65791281714,       !- Vertex 1 Xcoordinate
    4479023.066257329,        !- Vertex 1 Ycoordinate
    12,                       !- Vertex 1 Zcoordinate
    440492.65791281714,       !- Vertex 2 Xcoordinate
    4479023.066257329,        !- Vertex 2 Ycoordinate
    0,                        !- Vertex 2 Zcoordinate
    440508.29144868033,       !- Vertex 3 Xcoordinate
    4479051.64859712,         !- Vertex 3 Ycoordinate
    0,                        !- Vertex 3 Zcoordinate
    440508.29144868033,       !- Vertex 4 Xcoordinate
    4479051.64859712,         !- Vertex 4 Ycoordinate
    12;                       !- Vertex 4 Zcoordinate

SHADING:SITE:DETAILED,
    shade_way/288600861_4,    !- Name
    ,                         !- Transmittance Schedule Name
    autocalculate,            !- Number of Vertices
    440508.29144868033,       !- Vertex 1 Xcoordinate
    4479051.64859712,         !- Vertex 1 Ycoordinate
    12,                       !- Vertex 1 Zcoordinate
    440508.29144868033,       !- Vertex 2 Xcoordinate
    4479051.64859712,         !- Vertex 2 Ycoordinate
    0,                        !- Vertex 2 Zcoordinate
    440551.0394791787,        !- Vertex 3 Xcoordinate
    4479028.266989235,        !- Vertex 3 Ycoordinate
    0,                        !- Vertex 3 Zcoordinate
    440551.0394791787,        !- Vertex 4 Xcoordinate
    4479028.266989235,        !- Vertex 4 Ycoordinate
    12;                       !- Vertex 4 Zcoordinate

OTHEREQUIPMENT,
    EU_Step8_InternalGain_b0862431fa56c773_F0_dwelling_0_f000,    !- Name
    Electricity,              !- Fuel Type
    b0862431fa56c773_F0_dwelling_0,    !- Zone or ZoneList or Space or SpaceList Name
    EU_Step8_GainSchedule_b0862431fa56c773_F0_dwelling_0_f000,    !- Schedule Name
    Watts/Area,               !- Design Level Calculation Method
    ,                         !- Design Level
    1,                        !- Power per Zone Floor Area
    ,                         !- Power per Person
    0,                        !- Fraction Latent
    0,                        !- Fraction Radiant
    0,                        !- Fraction Lost
    0,                        !- Carbon Dioxide Generation Rate
    EU_Step8_InternalGains;    !- EndUse Subcategory

OTHEREQUIPMENT,
    EU_Step8_InternalGain_b0862431fa56c773_F1_dwelling_0_f000,    !- Name
    Electricity,              !- Fuel Type
    b0862431fa56c773_F1_dwelling_0,    !- Zone or ZoneList or Space or SpaceList Name
    EU_Step8_GainSchedule_b0862431fa56c773_F1_dwelling_0_f000,    !- Schedule Name
    Watts/Area,               !- Design Level Calculation Method
    ,                         !- Design Level
    1,                        !- Power per Zone Floor Area
    ,                         !- Power per Person
    0,                        !- Fraction Latent
    0,                        !- Fraction Radiant
    0,                        !- Fraction Lost
    0,                        !- Carbon Dioxide Generation Rate
    EU_Step8_InternalGains;    !- EndUse Subcategory

OTHEREQUIPMENT,
    EU_Step8_InternalGain_b0862431fa56c773_F2_dwelling_0_f000,    !- Name
    Electricity,              !- Fuel Type
    b0862431fa56c773_F2_dwelling_0,    !- Zone or ZoneList or Space or SpaceList Name
    EU_Step8_GainSchedule_b0862431fa56c773_F2_dwelling_0_f000,    !- Schedule Name
    Watts/Area,               !- Design Level Calculation Method
    ,                         !- Design Level
    1,                        !- Power per Zone Floor Area
    ,                         !- Power per Person
    0,                        !- Fraction Latent
    0,                        !- Fraction Radiant
    0,                        !- Fraction Lost
    0,                        !- Carbon Dioxide Generation Rate
    EU_Step8_InternalGains;    !- EndUse Subcategory

ZONEVENTILATION:DESIGNFLOWRATE,
    EU_ConstantAir_b0862431fa56c773_F0_dwelling_0,    !- Name
    b0862431fa56c773_F0_dwelling_0,    !- Zone or ZoneList or Space or SpaceList Name
    EU_AlwaysOn,              !- Schedule Name
    AirChanges/Hour,          !- Design Flow Rate Calculation Method
    ,                         !- Design Flow Rate
    ,                         !- Flow Rate per Floor Area
    ,                         !- Flow Rate per Person
    0.7529659427925028,       !- Air Changes per Hour
    Natural,                  !- Ventilation Type
    0,                        !- Fan Pressure Rise
    1,                        !- Fan Total Efficiency
    1,                        !- Constant Term Coefficient
    0,                        !- Temperature Term Coefficient
    0,                        !- Velocity Term Coefficient
    0,                        !- Velocity Squared Term Coefficient
    -100,                     !- Minimum Indoor Temperature
    ,                         !- Minimum Indoor Temperature Schedule Name
    100,                      !- Maximum Indoor Temperature
    ,                         !- Maximum Indoor Temperature Schedule Name
    -100,                     !- Delta Temperature
    ,                         !- Delta Temperature Schedule Name
    -100,                     !- Minimum Outdoor Temperature
    ,                         !- Minimum Outdoor Temperature Schedule Name
    100,                      !- Maximum Outdoor Temperature
    ,                         !- Maximum Outdoor Temperature Schedule Name
    40;                       !- Maximum Wind Speed

ZONEVENTILATION:DESIGNFLOWRATE,
    EU_ConstantAir_b0862431fa56c773_F1_dwelling_0,    !- Name
    b0862431fa56c773_F1_dwelling_0,    !- Zone or ZoneList or Space or SpaceList Name
    EU_AlwaysOn,              !- Schedule Name
    AirChanges/Hour,          !- Design Flow Rate Calculation Method
    ,                         !- Design Flow Rate
    ,                         !- Flow Rate per Floor Area
    ,                         !- Flow Rate per Person
    0.7529659427925028,       !- Air Changes per Hour
    Natural,                  !- Ventilation Type
    0,                        !- Fan Pressure Rise
    1,                        !- Fan Total Efficiency
    1,                        !- Constant Term Coefficient
    0,                        !- Temperature Term Coefficient
    0,                        !- Velocity Term Coefficient
    0,                        !- Velocity Squared Term Coefficient
    -100,                     !- Minimum Indoor Temperature
    ,                         !- Minimum Indoor Temperature Schedule Name
    100,                      !- Maximum Indoor Temperature
    ,                         !- Maximum Indoor Temperature Schedule Name
    -100,                     !- Delta Temperature
    ,                         !- Delta Temperature Schedule Name
    -100,                     !- Minimum Outdoor Temperature
    ,                         !- Minimum Outdoor Temperature Schedule Name
    100,                      !- Maximum Outdoor Temperature
    ,                         !- Maximum Outdoor Temperature Schedule Name
    40;                       !- Maximum Wind Speed

ZONEVENTILATION:DESIGNFLOWRATE,
    EU_ConstantAir_b0862431fa56c773_F2_dwelling_0,    !- Name
    b0862431fa56c773_F2_dwelling_0,    !- Zone or ZoneList or Space or SpaceList Name
    EU_AlwaysOn,              !- Schedule Name
    AirChanges/Hour,          !- Design Flow Rate Calculation Method
    ,                         !- Design Flow Rate
    ,                         !- Flow Rate per Floor Area
    ,                         !- Flow Rate per Person
    0.7529659427925028,       !- Air Changes per Hour
    Natural,                  !- Ventilation Type
    0,                        !- Fan Pressure Rise
    1,                        !- Fan Total Efficiency
    1,                        !- Constant Term Coefficient
    0,                        !- Temperature Term Coefficient
    0,                        !- Velocity Term Coefficient
    0,                        !- Velocity Squared Term Coefficient
    -100,                     !- Minimum Indoor Temperature
    ,                         !- Minimum Indoor Temperature Schedule Name
    100,                      !- Maximum Indoor Temperature
    ,                         !- Maximum Indoor Temperature Schedule Name
    -100,                     !- Delta Temperature
    ,                         !- Delta Temperature Schedule Name
    -100,                     !- Minimum Outdoor Temperature
    ,                         !- Minimum Outdoor Temperature Schedule Name
    100,                      !- Maximum Outdoor Temperature
    ,                         !- Maximum Outdoor Temperature Schedule Name
    40;                       !- Maximum Wind Speed

HVACTEMPLATE:THERMOSTAT,
    EU_HeatOnly_b0862431fa56c773_F0_dwelling_0,    !- Name
    ,                         !- Heating Setpoint Schedule Name
    20,                       !- Constant Heating Setpoint
    ,                         !- Cooling Setpoint Schedule Name
    50;                       !- Constant Cooling Setpoint

HVACTEMPLATE:THERMOSTAT,
    EU_HeatOnly_b0862431fa56c773_F1_dwelling_0,    !- Name
    ,                         !- Heating Setpoint Schedule Name
    20,                       !- Constant Heating Setpoint
    ,                         !- Cooling Setpoint Schedule Name
    50;                       !- Constant Cooling Setpoint

HVACTEMPLATE:THERMOSTAT,
    EU_HeatOnly_b0862431fa56c773_F2_dwelling_0,    !- Name
    ,                         !- Heating Setpoint Schedule Name
    20,                       !- Constant Heating Setpoint
    ,                         !- Cooling Setpoint Schedule Name
    50;                       !- Constant Cooling Setpoint

HVACTEMPLATE:ZONE:IDEALLOADSAIRSYSTEM,
    b0862431fa56c773_F0_dwelling_0,    !- Zone Name
    EU_HeatOnly_b0862431fa56c773_F0_dwelling_0,    !- Template Thermostat Name
    EU_AlwaysOn,              !- System Availability Schedule Name
    50,                       !- Maximum Heating Supply Air Temperature
    13,                       !- Minimum Cooling Supply Air Temperature
    0.0156,                   !- Maximum Heating Supply Air Humidity Ratio
    0.0077,                   !- Minimum Cooling Supply Air Humidity Ratio
    NoLimit,                  !- Heating Limit
    ,                         !- Maximum Heating Air Flow Rate
    ,                         !- Maximum Sensible Heating Capacity
    NoLimit,                  !- Cooling Limit
    ,                         !- Maximum Cooling Air Flow Rate
    ,                         !- Maximum Total Cooling Capacity
    EU_AlwaysOn,              !- Heating Availability Schedule Name
    EU_CoolingOff,            !- Cooling Availability Schedule Name
    ConstantSensibleHeatRatio,    !- Dehumidification Control Type
    0.7,                      !- Cooling Sensible Heat Ratio
    60,                       !- Dehumidification Setpoint
    None,                     !- Humidification Control Type
    30,                       !- Humidification Setpoint
    None,                     !- Outdoor Air Method
    0.00944,                  !- Outdoor Air Flow Rate per Person
    0.0,                      !- Outdoor Air Flow Rate per Zone Floor Area
    0,                        !- Outdoor Air Flow Rate per Zone
    ,                         !- Design Specification Outdoor Air Object Name
    None,                     !- Demand Controlled Ventilation Type
    NoEconomizer,             !- Outdoor Air Economizer Type
    None,                     !- Heat Recovery Type
    0.70,                     !- Sensible Heat Recovery Effectiveness
    0.65;                     !- Latent Heat Recovery Effectiveness

HVACTEMPLATE:ZONE:IDEALLOADSAIRSYSTEM,
    b0862431fa56c773_F1_dwelling_0,    !- Zone Name
    EU_HeatOnly_b0862431fa56c773_F1_dwelling_0,    !- Template Thermostat Name
    EU_AlwaysOn,              !- System Availability Schedule Name
    50,                       !- Maximum Heating Supply Air Temperature
    13,                       !- Minimum Cooling Supply Air Temperature
    0.0156,                   !- Maximum Heating Supply Air Humidity Ratio
    0.0077,                   !- Minimum Cooling Supply Air Humidity Ratio
    NoLimit,                  !- Heating Limit
    ,                         !- Maximum Heating Air Flow Rate
    ,                         !- Maximum Sensible Heating Capacity
    NoLimit,                  !- Cooling Limit
    ,                         !- Maximum Cooling Air Flow Rate
    ,                         !- Maximum Total Cooling Capacity
    EU_AlwaysOn,              !- Heating Availability Schedule Name
    EU_CoolingOff,            !- Cooling Availability Schedule Name
    ConstantSensibleHeatRatio,    !- Dehumidification Control Type
    0.7,                      !- Cooling Sensible Heat Ratio
    60,                       !- Dehumidification Setpoint
    None,                     !- Humidification Control Type
    30,                       !- Humidification Setpoint
    None,                     !- Outdoor Air Method
    0.00944,                  !- Outdoor Air Flow Rate per Person
    0.0,                      !- Outdoor Air Flow Rate per Zone Floor Area
    0,                        !- Outdoor Air Flow Rate per Zone
    ,                         !- Design Specification Outdoor Air Object Name
    None,                     !- Demand Controlled Ventilation Type
    NoEconomizer,             !- Outdoor Air Economizer Type
    None,                     !- Heat Recovery Type
    0.70,                     !- Sensible Heat Recovery Effectiveness
    0.65;                     !- Latent Heat Recovery Effectiveness

HVACTEMPLATE:ZONE:IDEALLOADSAIRSYSTEM,
    b0862431fa56c773_F2_dwelling_0,    !- Zone Name
    EU_HeatOnly_b0862431fa56c773_F2_dwelling_0,    !- Template Thermostat Name
    EU_AlwaysOn,              !- System Availability Schedule Name
    50,                       !- Maximum Heating Supply Air Temperature
    13,                       !- Minimum Cooling Supply Air Temperature
    0.0156,                   !- Maximum Heating Supply Air Humidity Ratio
    0.0077,                   !- Minimum Cooling Supply Air Humidity Ratio
    NoLimit,                  !- Heating Limit
    ,                         !- Maximum Heating Air Flow Rate
    ,                         !- Maximum Sensible Heating Capacity
    NoLimit,                  !- Cooling Limit
    ,                         !- Maximum Cooling Air Flow Rate
    ,                         !- Maximum Total Cooling Capacity
    EU_AlwaysOn,              !- Heating Availability Schedule Name
    EU_CoolingOff,            !- Cooling Availability Schedule Name
    ConstantSensibleHeatRatio,    !- Dehumidification Control Type
    0.7,                      !- Cooling Sensible Heat Ratio
    60,                       !- Dehumidification Setpoint
    None,                     !- Humidification Control Type
    30,                       !- Humidification Setpoint
    None,                     !- Outdoor Air Method
    0.00944,                  !- Outdoor Air Flow Rate per Person
    0.0,                      !- Outdoor Air Flow Rate per Zone Floor Area
    0,                        !- Outdoor Air Flow Rate per Zone
    ,                         !- Design Specification Outdoor Air Object Name
    None,                     !- Demand Controlled Ventilation Type
    NoEconomizer,             !- Outdoor Air Economizer Type
    None,                     !- Heat Recovery Type
    0.70,                     !- Sensible Heat Recovery Effectiveness
    0.65;                     !- Latent Heat Recovery Effectiveness

SIZING:ZONE,
    b0862431fa56c773_F0_dwelling_0,    !- Zone or ZoneList Name
    SupplyAirTemperature,     !- Zone Cooling Design Supply Air Temperature Input Method
    13,                       !- Zone Cooling Design Supply Air Temperature
    ,                         !- Zone Cooling Design Supply Air Temperature Difference
    SupplyAirTemperature,     !- Zone Heating Design Supply Air Temperature Input Method
    50,                       !- Zone Heating Design Supply Air Temperature
    ,                         !- Zone Heating Design Supply Air Temperature Difference
    0.008,                    !- Zone Cooling Design Supply Air Humidity Ratio
    0.008,                    !- Zone Heating Design Supply Air Humidity Ratio
    ,                         !- Design Specification Outdoor Air Object Name
    ,                         !- Zone Heating Sizing Factor
    ,                         !- Zone Cooling Sizing Factor
    DesignDay,                !- Cooling Design Air Flow Method
    0,                        !- Cooling Design Air Flow Rate
    0.000762,                 !- Cooling Minimum Air Flow per Zone Floor Area
    0,                        !- Cooling Minimum Air Flow
    0.2,                      !- Cooling Minimum Air Flow Fraction
    DesignDay,                !- Heating Design Air Flow Method
    0,                        !- Heating Design Air Flow Rate
    0.002032,                 !- Heating Maximum Air Flow per Zone Floor Area
    0.1415762,                !- Heating Maximum Air Flow
    0.3,                      !- Heating Maximum Air Flow Fraction
    ,                         !- Design Specification Zone Air Distribution Object Name
    No,                       !- Account for Dedicated Outdoor Air System
    NeutralSupplyAir,         !- Dedicated Outdoor Air System Control Strategy
    autosize,                 !- Dedicated Outdoor Air Low Setpoint Temperature for Design
    autosize,                 !- Dedicated Outdoor Air High Setpoint Temperature for Design
    Sensible Load Only No Latent Load,    !- Zone Load Sizing Method
    HumidityRatioDifference,    !- Zone Latent Cooling Design Supply Air Humidity Ratio Input Method
    ,                         !- Zone Dehumidification Design Supply Air Humidity Ratio
    0.005,                    !- Zone Cooling Design Supply Air Humidity Ratio Difference
    HumidityRatioDifference,    !- Zone Latent Heating Design Supply Air Humidity Ratio Input Method
    ,                         !- Zone Humidification Design Supply Air Humidity Ratio
    0.005;                    !- Zone Humidification Design Supply Air Humidity Ratio Difference

SIZING:ZONE,
    b0862431fa56c773_F1_dwelling_0,    !- Zone or ZoneList Name
    SupplyAirTemperature,     !- Zone Cooling Design Supply Air Temperature Input Method
    13,                       !- Zone Cooling Design Supply Air Temperature
    ,                         !- Zone Cooling Design Supply Air Temperature Difference
    SupplyAirTemperature,     !- Zone Heating Design Supply Air Temperature Input Method
    50,                       !- Zone Heating Design Supply Air Temperature
    ,                         !- Zone Heating Design Supply Air Temperature Difference
    0.008,                    !- Zone Cooling Design Supply Air Humidity Ratio
    0.008,                    !- Zone Heating Design Supply Air Humidity Ratio
    ,                         !- Design Specification Outdoor Air Object Name
    ,                         !- Zone Heating Sizing Factor
    ,                         !- Zone Cooling Sizing Factor
    DesignDay,                !- Cooling Design Air Flow Method
    0,                        !- Cooling Design Air Flow Rate
    0.000762,                 !- Cooling Minimum Air Flow per Zone Floor Area
    0,                        !- Cooling Minimum Air Flow
    0.2,                      !- Cooling Minimum Air Flow Fraction
    DesignDay,                !- Heating Design Air Flow Method
    0,                        !- Heating Design Air Flow Rate
    0.002032,                 !- Heating Maximum Air Flow per Zone Floor Area
    0.1415762,                !- Heating Maximum Air Flow
    0.3,                      !- Heating Maximum Air Flow Fraction
    ,                         !- Design Specification Zone Air Distribution Object Name
    No,                       !- Account for Dedicated Outdoor Air System
    NeutralSupplyAir,         !- Dedicated Outdoor Air System Control Strategy
    autosize,                 !- Dedicated Outdoor Air Low Setpoint Temperature for Design
    autosize,                 !- Dedicated Outdoor Air High Setpoint Temperature for Design
    Sensible Load Only No Latent Load,    !- Zone Load Sizing Method
    HumidityRatioDifference,    !- Zone Latent Cooling Design Supply Air Humidity Ratio Input Method
    ,                         !- Zone Dehumidification Design Supply Air Humidity Ratio
    0.005,                    !- Zone Cooling Design Supply Air Humidity Ratio Difference
    HumidityRatioDifference,    !- Zone Latent Heating Design Supply Air Humidity Ratio Input Method
    ,                         !- Zone Humidification Design Supply Air Humidity Ratio
    0.005;                    !- Zone Humidification Design Supply Air Humidity Ratio Difference

SIZING:ZONE,
    b0862431fa56c773_F2_dwelling_0,    !- Zone or ZoneList Name
    SupplyAirTemperature,     !- Zone Cooling Design Supply Air Temperature Input Method
    13,                       !- Zone Cooling Design Supply Air Temperature
    ,                         !- Zone Cooling Design Supply Air Temperature Difference
    SupplyAirTemperature,     !- Zone Heating Design Supply Air Temperature Input Method
    50,                       !- Zone Heating Design Supply Air Temperature
    ,                         !- Zone Heating Design Supply Air Temperature Difference
    0.008,                    !- Zone Cooling Design Supply Air Humidity Ratio
    0.008,                    !- Zone Heating Design Supply Air Humidity Ratio
    ,                         !- Design Specification Outdoor Air Object Name
    ,                         !- Zone Heating Sizing Factor
    ,                         !- Zone Cooling Sizing Factor
    DesignDay,                !- Cooling Design Air Flow Method
    0,                        !- Cooling Design Air Flow Rate
    0.000762,                 !- Cooling Minimum Air Flow per Zone Floor Area
    0,                        !- Cooling Minimum Air Flow
    0.2,                      !- Cooling Minimum Air Flow Fraction
    DesignDay,                !- Heating Design Air Flow Method
    0,                        !- Heating Design Air Flow Rate
    0.002032,                 !- Heating Maximum Air Flow per Zone Floor Area
    0.1415762,                !- Heating Maximum Air Flow
    0.3,                      !- Heating Maximum Air Flow Fraction
    ,                         !- Design Specification Zone Air Distribution Object Name
    No,                       !- Account for Dedicated Outdoor Air System
    NeutralSupplyAir,         !- Dedicated Outdoor Air System Control Strategy
    autosize,                 !- Dedicated Outdoor Air Low Setpoint Temperature for Design
    autosize,                 !- Dedicated Outdoor Air High Setpoint Temperature for Design
    Sensible Load Only No Latent Load,    !- Zone Load Sizing Method
    HumidityRatioDifference,    !- Zone Latent Cooling Design Supply Air Humidity Ratio Input Method
    ,                         !- Zone Dehumidification Design Supply Air Humidity Ratio
    0.005,                    !- Zone Cooling Design Supply Air Humidity Ratio Difference
    HumidityRatioDifference,    !- Zone Latent Heating Design Supply Air Humidity Ratio Input Method
    ,                         !- Zone Humidification Design Supply Air Humidity Ratio
    0.005;                    !- Zone Humidification Design Supply Air Humidity Ratio Difference

OUTPUT:VARIABLE,
    *,                        !- Key Value
    Zone Ideal Loads Zone Total Heating Energy,    !- Variable Name
    Hourly;                   !- Reporting Frequency

OUTPUT:SQLITE,
    SimpleAndTabular,         !- Option Type
    UseOutputControlTableStyle;    !- Unit Conversion for Tabular Data