!- Windows Line endings 

Version,
    23.1;                     !- Version Identifier

SimulationControl,
    Yes,                      !- Do Zone Sizing Calculation
    Yes,                      !- Do System Sizing Calculation
    Yes,                      !- Do Plant Sizing Calculation
    No,                       !- Run Simulation for Sizing Periods
    Yes,                      !- Run Simulation for Weather File Run Periods
    No,                       !- Do HVAC Sizing Simulation for Sizing Periods
    1;                        !- Maximum Number of HVAC Sizing Simulation Passes

Building,
    EU S2 Campaign,           !- Name
    0,                        !- North Axis
    City,                     !- Terrain
    ,                         !- Loads Convergence Tolerance Value
    ,                         !- Temperature Convergence Tolerance Value
    FullExterior,             !- Solar Distribution
    ,                         !- Maximum Number of Warmup Days
    ;                         !- Minimum Number of Warmup Days

ShadowCalculation,
    PolygonClipping,          !- Shading Calculation Method
    Periodic,                 !- Shading Calculation Update Frequency Method
    1;                        !- Shading Calculation Update Frequency

HeatBalanceAlgorithm,
    ConductionTransferFunction,    !- Algorithm
    200,                      !- Surface Temperature Upper Limit
    0.1,                      !- Minimum Surface Convection Heat Transfer Coefficient Value
    10000000;                 !- Maximum Surface Convection Heat Transfer Coefficient Value

Timestep,
    12;                       !- Number of Timesteps per Hour

Site:Location,
    Madrid,                   !- Name
    40.5,                     !- Latitude
    -3.5,                     !- Longitude
    1,                        !- Time Zone
    609;                      !- Elevation

SizingPeriod:WeatherFileDays,
    AnnualSizingPeriod,       !- Name
    1,                        !- Begin Month
    1,                        !- Begin Day of Month
    12,                       !- End Month
    31,                       !- End Day of Month
    Monday,                   !- Day of Week for Start Day
    No,                       !- Use Weather File Daylight Saving Period
    No;                       !- Use Weather File Rain and Snow Indicators

RunPeriod,
    RunPeriod1,               !- Name
    1,                        !- Begin Month
    1,                        !- Begin Day of Month
    ,                         !- Begin Year
    12,                       !- End Month
    31,                       !- End Day of Month
    ,                         !- End Year
    Sunday,                   !- Day of Week for Start Day
    No,                       !- Use Weather File Holidays and Special Days
    No,                       !- Use Weather File Daylight Saving Period
    No,                       !- Apply Weekend Holiday Rule
    Yes,                      !- Use Weather File Rain Indicators
    Yes;                      !- Use Weather File Snow Indicators

ScheduleTypeLimits,
    Any Number;               !- Name

SCHEDULETYPELIMITS,
    EU_Step8_AnyNumber_Wm2,    !- Name
    ,                         !- Lower Limit Value
    ,                         !- Upper Limit Value
    Continuous,               !- Numeric Type
    Dimensionless;            !- Unit Type

SCHEDULE:CONSTANT,
    EU_AlwaysOn,              !- Name
    ,                         !- Schedule Type Limits Name
    1;                        !- Hourly Value

SCHEDULE:CONSTANT,
    EU_CoolingOff,            !- Name
    ,                         !- Schedule Type Limits Name
    0;                        !- Hourly Value

SCHEDULE:FILE,
    EU_Step8_GainSchedule_ee59f26430f27ad4_F0_dwelling_0_f000,    !- Name
    EU_Step8_AnyNumber_Wm2,    !- Schedule Type Limits Name
    ../../schedules/ee59f26430f27ad4/ee59f26430f27ad4_F0_dwelling_0_f000_gain.csv,    !- File Name
    1,                        !- Column Number
    0,                        !- Rows to Skip at Top
    8760,                     !- Number of Hours of Data
    Comma,                    !- Column Separator
    No,                       !- Interpolate to Timestep
    60,                       !- Minutes per Item
    Yes;                      !- Adjust Schedule for Daylight Savings

MATERIAL,
    EU_InternalMass_Material,    !- Name
    MediumRough,              !- Roughness
    0.1,                      !- Thickness
    1,                        !- Conductivity
    1800,                     !- Density
    900,                      !- Specific Heat
    0.9,                      !- Thermal Absorptance
    0.7,                      !- Solar Absorptance
    0.7;                      !- Visible Absorptance

MATERIAL:NOMASS,
    EU_wall_NoMass,           !- Name
    MediumRough,              !- Roughness
    4.197386e-01,             !- Thermal Resistance
    0.9,                      !- Thermal Absorptance
    0.7,                      !- Solar Absorptance
    0.7;                      !- Visible Absorptance

MATERIAL:NOMASS,
    EU_roof_NoMass,           !- Name
    MediumRough,              !- Roughness
    0.3521646044882231,       !- Thermal Resistance
    0.9,                      !- Thermal Absorptance
    0.7,                      !- Solar Absorptance
    0.7;                      !- Visible Absorptance

MATERIAL:NOMASS,
    EU_floor_NoMass,          !- Name
    MediumRough,              !- Roughness
    0.6082843168432945,       !- Thermal Resistance
    0.9,                      !- Thermal Absorptance
    0.7,                      !- Solar Absorptance
    0.7;                      !- Visible Absorptance

CONSTRUCTION,
    EU_wall_Construction,     !- Name
    EU_wall_NoMass;           !- Outside Layer

CONSTRUCTION,
    EU_roof_Construction,     !- Name
    EU_roof_NoMass;           !- Outside Layer

CONSTRUCTION,
    EU_floor_Construction,    !- Name
    EU_floor_NoMass;          !- Outside Layer

CONSTRUCTION,
    EU_InternalMass_Construction,    !- Name
    EU_InternalMass_Material;    !- Outside Layer

GlobalGeometryRules,
    UpperLeftCorner,          !- Starting Vertex Position
    CounterClockWise,         !- Vertex Entry Direction
    World;                    !- Coordinate System

ZONE,
    ee59f26430f27ad4_F0_dwelling_0,    !- Name
    0,                        !- Direction of Relative North
    0,                        !- X Origin
    0,                        !- Y Origin
    0,                        !- Z Origin
    1,                        !- Type
    1,                        !- Multiplier
    autocalculate,            !- Ceiling Height
    658.803955078125,         !- Volume
    autocalculate,            !- Floor Area
    ,                         !- Zone Inside Convection Algorithm
    ,                         !- Zone Outside Convection Algorithm
    Yes;                      !- Part of Total Floor Area

BUILDINGSURFACE:DETAILED,
    Block ee59f26430f27ad4_0 Storey 0 Wall 0001,    !- Name
    wall,                     !- Surface Type
    EU_wall_Construction,     !- Construction Name
    ee59f26430f27ad4_F0_dwelling_0,    !- Zone Name
    ,                         !- Space Name
    outdoors,                 !- Outside Boundary Condition
    ,                         !- Outside Boundary Condition Object
    SunExposed,               !- Sun Exposure
    WindExposed,              !- Wind Exposure
    autocalculate,            !- View Factor to Ground
    autocalculate,            !- Number of Vertices
    440205.665,               !- Vertex 1 Xcoordinate
    4478997.662,              !- Vertex 1 Ycoordinate
    9,                        !- Vertex 1 Zcoordinate
    440205.665,               !- Vertex 2 Xcoordinate
    4478997.662,              !- Vertex 2 Ycoordinate
    0,                        !- Vertex 2 Zcoordinate
    440205.664,               !- Vertex 3 Xcoordinate
    4478997.712,              !- Vertex 3 Ycoordinate
    0,                        !- Vertex 3 Zcoordinate
    440205.664,               !- Vertex 4 Xcoordinate
    4478997.712,              !- Vertex 4 Ycoordinate
    9;                        !- Vertex 4 Zcoordinate

BUILDINGSURFACE:DETAILED,
    Block ee59f26430f27ad4_0 Storey 0 Wall 0002,    !- Name
    wall,                     !- Surface Type
    EU_wall_Construction,     !- Construction Name
    ee59f26430f27ad4_F0_dwelling_0,    !- Zone Name
    ,                         !- Space Name
    outdoors,                 !- Outside Boundary Condition
    ,                         !- Outside Boundary Condition Object
    SunExposed,               !- Sun Exposure
    WindExposed,              !- Wind Exposure
    autocalculate,            !- View Factor to Ground
    autocalculate,            !- Number of Vertices
    440205.664,               !- Vertex 1 Xcoordinate
    4478997.712,              !- Vertex 1 Ycoordinate
    9,                        !- Vertex 1 Zcoordinate
    440205.664,               !- Vertex 2 Xcoordinate
    4478997.712,              !- Vertex 2 Ycoordinate
    0,                        !- Vertex 2 Zcoordinate
    440205.541,               !- Vertex 3 Xcoordinate
    4478997.708,              !- Vertex 3 Ycoordinate
    0,                        !- Vertex 3 Zcoordinate
    440205.541,               !- Vertex 4 Xcoordinate
    4478997.708,              !- Vertex 4 Ycoordinate
    9;                        !- Vertex 4 Zcoordinate

BUILDINGSURFACE:DETAILED,
    Block ee59f26430f27ad4_0 Storey 0 Wall 0003,    !- Name
    wall,                     !- Surface Type
    EU_wall_Construction,     !- Construction Name
    ee59f26430f27ad4_F0_dwelling_0,    !- Zone Name
    ,                         !- Space Name
    outdoors,                 !- Outside Boundary Condition
    ,                         !- Outside Boundary Condition Object
    SunExposed,               !- Sun Exposure
    WindExposed,              !- Wind Exposure
    autocalculate,            !- View Factor to Ground
    autocalculate,            !- Number of Vertices
    440205.541,               !- Vertex 1 Xcoordinate
    4478997.708,              !- Vertex 1 Ycoordinate
    9,                        !- Vertex 1 Zcoordinate
    440205.541,               !- Vertex 2 Xcoordinate
    4478997.708,              !- Vertex 2 Ycoordinate
    0,                        !- Vertex 2 Zcoordinate
    440207.515,               !- Vertex 3 Xcoordinate
    4478998.212,              !- Vertex 3 Ycoordinate
    0,                        !- Vertex 3 Zcoordinate
    440207.515,               !- Vertex 4 Xcoordinate
    4478998.212,              !- Vertex 4 Ycoordinate
    9;                        !- Vertex 4 Zcoordinate

BUILDINGSURFACE:DETAILED,
    Block ee59f26430f27ad4_0 Storey 0 Wall 0004,    !- Name
    wall,                     !- Surface Type
    EU_wall_Construction,     !- Construction Name
    ee59f26430f27ad4_F0_dwelling_0,    !- Zone Name
    ,                         !- Space Name
    outdoors,                 !- Outside Boundary Condition
    ,                         !- Outside Boundary Condition Object
    SunExposed,               !- Sun Exposure
    WindExposed,              !- Wind Exposure
    autocalculate,            !- View Factor to Ground
    autocalculate,            !- Number of Vertices
    440207.515,               !- Vertex 1 Xcoordinate
    4478998.212,              !- Vertex 1 Ycoordinate
    9,                        !- Vertex 1 Zcoordinate
    440207.515,               !- Vertex 2 Xcoordinate
    4478998.212,              !- Vertex 2 Ycoordinate
    0,                        !- Vertex 2 Zcoordinate
    440207.087,               !- Vertex 3 Xcoordinate
    4478999.836,              !- Vertex 3 Ycoordinate
    0,                        !- Vertex 3 Zcoordinate
    440207.087,               !- Vertex 4 Xcoordinate
    4478999.836,              !- Vertex 4 Ycoordinate
    9;                        !- Vertex 4 Zcoordinate

BUILDINGSURFACE:DETAILED,
    Block ee59f26430f27ad4_0 Storey 0 Wall 0005,    !- Name
    wall,                     !- Surface Type
    EU_wall_Construction,     !- Construction Name
    ee59f26430f27ad4_F0_dwelling_0,    !- Zone Name
    ,                         !- Space Name
    outdoors,                 !- Outside Boundary Condition
    ,                         !- Outside Boundary Condition Object
    SunExposed,               !- Sun Exposure
    WindExposed,              !- Wind Exposure
    autocalculate,            !- View Factor to Ground
    autocalculate,            !- Number of Vertices
    440207.087,               !- Vertex 1 Xcoordinate
    4478999.836,              !- Vertex 1 Ycoordinate
    9,                        !- Vertex 1 Zcoordinate
    440207.087,               !- Vertex 2 Xcoordinate
    4478999.836,              !- Vertex 2 Ycoordinate
    0,                        !- Vertex 2 Zcoordinate
    440207.639,               !- Vertex 3 Xcoordinate
    4478999.976,              !- Vertex 3 Ycoordinate
    0,                        !- Vertex 3 Zcoordinate
    440207.639,               !- Vertex 4 Xcoordinate
    4478999.976,              !- Vertex 4 Ycoordinate
    9;                        !- Vertex 4 Zcoordinate

BUILDINGSURFACE:DETAILED,
    Block ee59f26430f27ad4_0 Storey 0 Wall 0006,    !- Name
    wall,                     !- Surface Type
    EU_wall_Construction,     !- Construction Name
    ee59f26430f27ad4_F0_dwelling_0,    !- Zone Name
    ,                         !- Space Name
    outdoors,                 !- Outside Boundary Condition
    ,                         !- Outside Boundary Condition Object
    SunExposed,               !- Sun Exposure
    WindExposed,              !- Wind Exposure
    autocalculate,            !- View Factor to Ground
    autocalculate,            !- Number of Vertices
    440207.639,               !- Vertex 1 Xcoordinate
    4478999.976,              !- Vertex 1 Ycoordinate
    9,                        !- Vertex 1 Zcoordinate
    440207.639,               !- Vertex 2 Xcoordinate
    4478999.976,              !- Vertex 2 Ycoordinate
    0,                        !- Vertex 2 Zcoordinate
    440207.5,                 !- Vertex 3 Xcoordinate
    4479000.621,              !- Vertex 3 Ycoordinate
    0,                        !- Vertex 3 Zcoordinate
    440207.5,                 !- Vertex 4 Xcoordinate
    4479000.621,              !- Vertex 4 Ycoordinate
    9;                        !- Vertex 4 Zcoordinate

BUILDINGSURFACE:DETAILED,
    Block ee59f26430f27ad4_0 Storey 0 Wall 0007,    !- Name
    wall,                     !- Surface Type
    EU_wall_Construction,     !- Construction Name
    ee59f26430f27ad4_F0_dwelling_0,    !- Zone Name
    ,                         !- Space Name
    outdoors,                 !- Outside Boundary Condition
    ,                         !- Outside Boundary Condition Object
    SunExposed,               !- Sun Exposure
    WindExposed,              !- Wind Exposure
    autocalculate,            !- View Factor to Ground
    autocalculate,            !- Number of Vertices
    440207.5,                 !- Vertex 1 Xcoordinate
    4479000.621,              !- Vertex 1 Ycoordinate
    9,                        !- Vertex 1 Zcoordinate
    440207.5,                 !- Vertex 2 Xcoordinate
    4479000.621,              !- Vertex 2 Ycoordinate
    0,                        !- Vertex 2 Zcoordinate
    440205.3,                 !- Vertex 3 Xcoordinate
    4479000.039,              !- Vertex 3 Ycoordinate
    0,                        !- Vertex 3 Zcoordinate
    440205.3,                 !- Vertex 4 Xcoordinate
    4479000.039,              !- Vertex 4 Ycoordinate
    9;                        !- Vertex 4 Zcoordinate

BUILDINGSURFACE:DETAILED,
    Block ee59f26430f27ad4_0 Storey 0 Wall 0008,    !- Name
    wall,                     !- Surface Type
    EU_wall_Construction,     !- Construction Name
    ee59f26430f27ad4_F0_dwelling_0,    !- Zone Name
    ,                         !- Space Name
    outdoors,                 !- Outside Boundary Condition
    ,                         !- Outside Boundary Condition Object
    SunExposed,               !- Sun Exposure
    WindExposed,              !- Wind Exposure
    autocalculate,            !- View Factor to Ground
    autocalculate,            !- Number of Vertices
    440205.3,                 !- Vertex 1 Xcoordinate
    4479000.039,              !- Vertex 1 Ycoordinate
    9,                        !- Vertex 1 Zcoordinate
    440205.3,                 !- Vertex 2 Xcoordinate
    4479000.039,              !- Vertex 2 Ycoordinate
    0,                        !- Vertex 2 Zcoordinate
    440205.364,               !- Vertex 3 Xcoordinate
    4478997.702,              !- Vertex 3 Ycoordinate
    0,                        !- Vertex 3 Zcoordinate
    440205.364,               !- Vertex 4 Xcoordinate
    4478997.702,              !- Vertex 4 Ycoordinate
    9;                        !- Vertex 4 Zcoordinate

BUILDINGSURFACE:DETAILED,
    Block ee59f26430f27ad4_0 Storey 0 Wall 0009,    !- Name
    wall,                     !- Surface Type
    EU_wall_Construction,     !- Construction Name
    ee59f26430f27ad4_F0_dwelling_0,    !- Zone Name
    ,                         !- Space Name
    outdoors,                 !- Outside Boundary Condition
    ,                         !- Outside Boundary Condition Object
    SunExposed,               !- Sun Exposure
    WindExposed,              !- Wind Exposure
    autocalculate,            !- View Factor to Ground
    autocalculate,            !- Number of Vertices
    440205.364,               !- Vertex 1 Xcoordinate
    4478997.702,              !- Vertex 1 Ycoordinate
    9,                        !- Vertex 1 Zcoordinate
    440205.364,               !- Vertex 2 Xcoordinate
    4478997.702,              !- Vertex 2 Ycoordinate
    0,                        !- Vertex 2 Zcoordinate
    440204.154,               !- Vertex 3 Xcoordinate
    4478997.659,              !- Vertex 3 Ycoordinate
    0,                        !- Vertex 3 Zcoordinate
    440204.154,               !- Vertex 4 Xcoordinate
    4478997.659,              !- Vertex 4 Ycoordinate
    9;                        !- Vertex 4 Zcoordinate

BUILDINGSURFACE:DETAILED,
    Block ee59f26430f27ad4_0 Storey 0 Wall 0010,    !- Name
    wall,                     !- Surface Type
    EU_wall_Construction,     !- Construction Name
    ee59f26430f27ad4_F0_dwelling_0,    !- Zone Name
    ,                         !- Space Name
    outdoors,                 !- Outside Boundary Condition
    ,                         !- Outside Boundary Condition Object
    SunExposed,               !- Sun Exposure
    WindExposed,              !- Wind Exposure
    autocalculate,            !- View Factor to Ground
    autocalculate,            !- Number of Vertices
    440204.154,               !- Vertex 1 Xcoordinate
    4478997.659,              !- Vertex 1 Ycoordinate
    9,                        !- Vertex 1 Zcoordinate
    440204.154,               !- Vertex 2 Xcoordinate
    4478997.659,              !- Vertex 2 Ycoordinate
    0,                        !- Vertex 2 Zcoordinate
    440204.028,               !- Vertex 3 Xcoordinate
    4479001.203,              !- Vertex 3 Ycoordinate
    0,                        !- Vertex 3 Zcoordinate
    440204.028,               !- Vertex 4 Xcoordinate
    4479001.203,              !- Vertex 4 Ycoordinate
    9;                        !- Vertex 4 Zcoordinate

BUILDINGSURFACE:DETAILED,
    Block ee59f26430f27ad4_0 Storey 0 Wall 0011,    !- Name
    wall,                     !- Surface Type
    EU_wall_Construction,     !- Construction Name
    ee59f26430f27ad4_F0_dwelling_0,    !- Zone Name
    ,                         !- Space Name
    Adiabatic,                !- Outside Boundary Condition
    ,                         !- Outside Boundary Condition Object
    NoSun,                    !- Sun Exposure
    NoWind,                   !- Wind Exposure
    autocalculate,            !- View Factor to Ground
    autocalculate,            !- Number of Vertices
    440204.028,               !- Vertex 1 Xcoordinate
    4479001.203,              !- Vertex 1 Ycoordinate
    9,                        !- Vertex 1 Zcoordinate
    440204.028,               !- Vertex 2 Xcoordinate
    4479001.203,              !- Vertex 2 Ycoordinate
    0,                        !- Vertex 2 Zcoordinate
    440213.901,               !- Vertex 3 Xcoordinate
    4479003.667,              !- Vertex 3 Ycoordinate
    0,                        !- Vertex 3 Zcoordinate
    440213.901,               !- Vertex 4 Xcoordinate
    4479003.667,              !- Vertex 4 Ycoordinate
    9;                        !- Vertex 4 Zcoordinate

BUILDINGSURFACE:DETAILED,
    Block ee59f26430f27ad4_0 Storey 0 Wall 0012,    !- Name
    wall,                     !- Surface Type
    EU_wall_Construction,     !- Construction Name
    ee59f26430f27ad4_F0_dwelling_0,    !- Zone Name
    ,                         !- Space Name
    outdoors,                 !- Outside Boundary Condition
    ,                         !- Outside Boundary Condition Object
    SunExposed,               !- Sun Exposure
    WindExposed,              !- Wind Exposure
    autocalculate,            !- View Factor to Ground
    autocalculate,            !- Number of Vertices
    440213.901,               !- Vertex 1 Xcoordinate
    4479003.667,              !- Vertex 1 Ycoordinate
    9,                        !- Vertex 1 Zcoordinate
    440213.901,               !- Vertex 2 Xcoordinate
    4479003.667,              !- Vertex 2 Ycoordinate
    0,                        !- Vertex 2 Zcoordinate
    440215.695,               !- Vertex 3 Xcoordinate
    4478996.914,              !- Vertex 3 Ycoordinate
    0,                        !- Vertex 3 Zcoordinate
    440215.695,               !- Vertex 4 Xcoordinate
    4478996.914,              !- Vertex 4 Ycoordinate
    9;                        !- Vertex 4 Zcoordinate

BUILDINGSURFACE:DETAILED,
    Block ee59f26430f27ad4_0 Storey 0 Wall 0013,    !- Name
    wall,                     !- Surface Type
    EU_wall_Construction,     !- Construction Name
    ee59f26430f27ad4_F0_dwelling_0,    !- Zone Name
    ,                         !- Space Name
    Adiabatic,                !- Outside Boundary Condition
    ,                         !- Outside Boundary Condition Object
    NoSun,                    !- Sun Exposure
    NoWind,                   !- Wind Exposure
    autocalculate,            !- View Factor to Ground
    autocalculate,            !- Number of Vertices
    440215.695,               !- Vertex 1 Xcoordinate
    4478996.914,              !- Vertex 1 Ycoordinate
    9,                        !- Vertex 1 Zcoordinate
    440215.695,               !- Vertex 2 Xcoordinate
    4478996.914,              !- Vertex 2 Ycoordinate
    0,                        !- Vertex 2 Zcoordinate
    440204.292,               !- Vertex 3 Xcoordinate
    4478993.797,              !- Vertex 3 Ycoordinate
    0,                        !- Vertex 3 Zcoordinate
    440204.292,               !- Vertex 4 Xcoordinate
    4478993.797,              !- Vertex 4 Ycoordinate
    9;                        !- Vertex 4 Zcoordinate

BUILDINGSURFACE:DETAILED,
    Block ee59f26430f27ad4_0 Storey 0 Wall 0014,    !- Name
    wall,                     !- Surface Type
    EU_wall_Construction,     !- Construction Name
    ee59f26430f27ad4_F0_dwelling_0,    !- Zone Name
    ,                         !- Space Name
    outdoors,                 !- Outside Boundary Condition
    ,                         !- Outside Boundary Condition Object
    SunExposed,               !- Sun Exposure
    WindExposed,              !- Wind Exposure
    autocalculate,            !- View Factor to Ground
    autocalculate,            !- Number of Vertices
    440204.292,               !- Vertex 1 Xcoordinate
    4478993.797,              !- Vertex 1 Ycoordinate
    9,                        !- Vertex 1 Zcoordinate
    440204.292,               !- Vertex 2 Xcoordinate
    4478993.797,              !- Vertex 2 Ycoordinate
    0,                        !- Vertex 2 Zcoordinate
    440204.156,               !- Vertex 3 Xcoordinate
    4478997.609,              !- Vertex 3 Ycoordinate
    0,                        !- Vertex 3 Zcoordinate
    440204.156,               !- Vertex 4 Xcoordinate
    4478997.609,              !- Vertex 4 Ycoordinate
    9;                        !- Vertex 4 Zcoordinate

BUILDINGSURFACE:DETAILED,
    Block ee59f26430f27ad4_0 Storey 0 Wall 0015,    !- Name
    wall,                     !- Surface Type
    EU_wall_Construction,     !- Construction Name
    ee59f26430f27ad4_F0_dwelling_0,    !- Zone Name
    ,                         !- Space Name
    outdoors,                 !- Outside Boundary Condition
    ,                         !- Outside Boundary Condition Object
    SunExposed,               !- Sun Exposure
    WindExposed,              !- Wind Exposure
    autocalculate,            !- View Factor to Ground
    autocalculate,            !- Number of Vertices
    440204.156,               !- Vertex 1 Xcoordinate
    4478997.609,              !- Vertex 1 Ycoordinate
    9,                        !- Vertex 1 Zcoordinate
    440204.156,               !- Vertex 2 Xcoordinate
    4478997.609,              !- Vertex 2 Ycoordinate
    0,                        !- Vertex 2 Zcoordinate
    440205.665,               !- Vertex 3 Xcoordinate
    4478997.662,              !- Vertex 3 Ycoordinate
    0,                        !- Vertex 3 Zcoordinate
    440205.665,               !- Vertex 4 Xcoordinate
    4478997.662,              !- Vertex 4 Ycoordinate
    9;                        !- Vertex 4 Zcoordinate

BUILDINGSURFACE:DETAILED,
    Block ee59f26430f27ad4_0 Storey 0 Floor 0001,    !- Name
    floor,                    !- Surface Type
    EU_floor_Construction,    !- Construction Name
    ee59f26430f27ad4_F0_dwelling_0,    !- Zone Name
    ,                         !- Space Name
    ground,                   !- Outside Boundary Condition
    ,                         !- Outside Boundary Condition Object
    NoSun,                    !- Sun Exposure
    NoWind,                   !- Wind Exposure
    autocalculate,            !- View Factor to Ground
    autocalculate,            !- Number of Vertices
    440215.695,               !- Vertex 1 Xcoordinate
    4478996.914,              !- Vertex 1 Ycoordinate
    0,                        !- Vertex 1 Zcoordinate
    440213.901,               !- Vertex 2 Xcoordinate
    4479003.667,              !- Vertex 2 Ycoordinate
    0,                        !- Vertex 2 Zcoordinate
    440204.028,               !- Vertex 3 Xcoordinate
    4479001.203,              !- Vertex 3 Ycoordinate
    0,                        !- Vertex 3 Zcoordinate
    440204.154,               !- Vertex 4 Xcoordinate
    4478997.659,              !- Vertex 4 Ycoordinate
    0,                        !- Vertex 4 Zcoordinate
    440205.364,               !- Vertex 5 Xcoordinate
    4478997.702,              !- Vertex 5 Ycoordinate
    0,                        !- Vertex 5 Zcoordinate
    440205.3,                 !- Vertex 6 Xcoordinate
    4479000.039,              !- Vertex 6 Ycoordinate
    0,                        !- Vertex 6 Zcoordinate
    440207.5,                 !- Vertex 7 Xcoordinate
    4479000.621,              !- Vertex 7 Ycoordinate
    0,                        !- Vertex 7 Zcoordinate
    440207.639,               !- Vertex 8 Xcoordinate
    4478999.976,              !- Vertex 8 Ycoordinate
    0,                        !- Vertex 8 Zcoordinate
    440207.087,               !- Vertex 9 Xcoordinate
    4478999.836,              !- Vertex 9 Ycoordinate
    0,                        !- Vertex 9 Zcoordinate
    440207.515,               !- Vertex 10 Xcoordinate
    4478998.212,              !- Vertex 10 Ycoordinate
    0,                        !- Vertex 10 Zcoordinate
    440205.541,               !- Vertex 11 Xcoordinate
    4478997.708,              !- Vertex 11 Ycoordinate
    0,                        !- Vertex 11 Zcoordinate
    440205.664,               !- Vertex 12 Xcoordinate
    4478997.712,              !- Vertex 12 Ycoordinate
    0,                        !- Vertex 12 Zcoordinate
    440205.665,               !- Vertex 13 Xcoordinate
    4478997.662,              !- Vertex 13 Ycoordinate
    0,                        !- Vertex 13 Zcoordinate
    440204.156,               !- Vertex 14 Xcoordinate
    4478997.609,              !- Vertex 14 Ycoordinate
    0,                        !- Vertex 14 Zcoordinate
    440204.292,               !- Vertex 15 Xcoordinate
    4478993.797,              !- Vertex 15 Ycoordinate
    0;                        !- Vertex 15 Zcoordinate

BUILDINGSURFACE:DETAILED,
    Block ee59f26430f27ad4_0 Storey 0 Roof 0001,    !- Name
    roof,                     !- Surface Type
    EU_roof_Construction,     !- Construction Name
    ee59f26430f27ad4_F0_dwelling_0,    !- Zone Name
    ,                         !- Space Name
    outdoors,                 !- Outside Boundary Condition
    ,                         !- Outside Boundary Condition Object
    NoSun,                    !- Sun Exposure
    WindExposed,              !- Wind Exposure
    autocalculate,            !- View Factor to Ground
    autocalculate,            !- Number of Vertices
    440213.901,               !- Vertex 1 Xcoordinate
    4479003.667,              !- Vertex 1 Ycoordinate
    9,                        !- Vertex 1 Zcoordinate
    440215.695,               !- Vertex 2 Xcoordinate
    4478996.914,              !- Vertex 2 Ycoordinate
    9,                        !- Vertex 2 Zcoordinate
    440204.292,               !- Vertex 3 Xcoordinate
    4478993.797,              !- Vertex 3 Ycoordinate
    9,                        !- Vertex 3 Zcoordinate
    440204.156,               !- Vertex 4 Xcoordinate
    4478997.609,              !- Vertex 4 Ycoordinate
    9,                        !- Vertex 4 Zcoordinate
    440205.665,               !- Vertex 5 Xcoordinate
    4478997.662,              !- Vertex 5 Ycoordinate
    9,                        !- Vertex 5 Zcoordinate
    440205.664,               !- Vertex 6 Xcoordinate
    4478997.712,              !- Vertex 6 Ycoordinate
    9,                        !- Vertex 6 Zcoordinate
    440205.541,               !- Vertex 7 Xcoordinate
    4478997.708,              !- Vertex 7 Ycoordinate
    9,                        !- Vertex 7 Zcoordinate
    440207.515,               !- Vertex 8 Xcoordinate
    4478998.212,              !- Vertex 8 Ycoordinate
    9,                        !- Vertex 8 Zcoordinate
    440207.087,               !- Vertex 9 Xcoordinate
    4478999.836,              !- Vertex 9 Ycoordinate
    9,                        !- Vertex 9 Zcoordinate
    440207.639,               !- Vertex 10 Xcoordinate
    4478999.976,              !- Vertex 10 Ycoordinate
    9,                        !- Vertex 10 Zcoordinate
    440207.5,                 !- Vertex 11 Xcoordinate
    4479000.621,              !- Vertex 11 Ycoordinate
    9,                        !- Vertex 11 Zcoordinate
    440205.3,                 !- Vertex 12 Xcoordinate
    4479000.039,              !- Vertex 12 Ycoordinate
    9,                        !- Vertex 12 Zcoordinate
    440205.364,               !- Vertex 13 Xcoordinate
    4478997.702,              !- Vertex 13 Ycoordinate
    9,                        !- Vertex 13 Zcoordinate
    440204.154,               !- Vertex 14 Xcoordinate
    4478997.659,              !- Vertex 14 Ycoordinate
    9,                        !- Vertex 14 Zcoordinate
    440204.028,               !- Vertex 15 Xcoordinate
    4479001.203,              !- Vertex 15 Ycoordinate
    9;                        !- Vertex 15 Zcoordinate

INTERNALMASS,
    ee59f26430f27ad4_F0_dwelling_0_EU_InternalMass,    !- Name
    EU_InternalMass_Construction,    !- Construction Name
    ee59f26430f27ad4_F0_dwelling_0,    !- Zone or ZoneList Name
    ,                         !- Space or SpaceList Name
    73.20087949978856;        !- Surface Area

SHADING:SITE:DETAILED,
    shade_way/403855649_1,    !- Name
    ,                         !- Transmittance Schedule Name
    autocalculate,            !- Number of Vertices
    440212.0912894554,        !- Vertex 1 Xcoordinate
    4478923.762263684,        !- Vertex 1 Ycoordinate
    9,                        !- Vertex 1 Zcoordinate
    440212.0912894554,        !- Vertex 2 Xcoordinate
    4478923.762263684,        !- Vertex 2 Ycoordinate
    0,                        !- Vertex 2 Zcoordinate
    440205.04208108934,       !- Vertex 3 Xcoordinate
    4478975.730568949,        !- Vertex 3 Ycoordinate
    0,                        !- Vertex 3 Zcoordinate
    440205.04208108934,       !- Vertex 4 Xcoordinate
    4478975.730568949,        !- Vertex 4 Ycoordinate
    9;                        !- Vertex 4 Zcoordinate

SHADING:SITE:DETAILED,
    shade_way/403855649_2,    !- Name
    ,                         !- Transmittance Schedule Name
    autocalculate,            !- Number of Vertices
    440205.04208108934,       !- Vertex 1 Xcoordinate
    4478975.730568949,        !- Vertex 1 Ycoordinate
    9,                        !- Vertex 1 Zcoordinate
    440205.04208108934,       !- Vertex 2 Xcoordinate
    4478975.730568949,        !- Vertex 2 Ycoordinate
    0,                        !- Vertex 2 Zcoordinate
    440226.9435394861,        !- Vertex 3 Xcoordinate
    4478978.701378613,        !- Vertex 3 Ycoordinate
    0,                        !- Vertex 3 Zcoordinate
    440226.9435394861,        !- Vertex 4 Xcoordinate
    4478978.701378613,        !- Vertex 4 Ycoordinate
    9;                        !- Vertex 4 Zcoordinate

SHADING:SITE:DETAILED,
    shade_way/403855649_3,    !- Name
    ,                         !- Transmittance Schedule Name
    autocalculate,            !- Number of Vertices
    440226.9435394861,        !- Vertex 1 Xcoordinate
    4478978.701378613,        !- Vertex 1 Ycoordinate
    9,                        !- Vertex 1 Zcoordinate
    440226.9435394861,        !- Vertex 2 Xcoordinate
    4478978.701378613,        !- Vertex 2 Ycoordinate
    0,                        !- Vertex 2 Zcoordinate
    440233.99296761147,       !- Vertex 3 Xcoordinate
    4478926.7331826,          !- Vertex 3 Ycoordinate
    0,                        !- Vertex 3 Zcoordinate
    440233.99296761147,       !- Vertex 4 Xcoordinate
    4478926.7331826,          !- Vertex 4 Ycoordinate
    9;                        !- Vertex 4 Zcoordinate

SHADING:SITE:DETAILED,
    shade_way/403855649_4,    !- Name
    ,                         !- Transmittance Schedule Name
    autocalculate,            !- Number of Vertices
    440233.99296761147,       !- Vertex 1 Xcoordinate
    4478926.7331826,          !- Vertex 1 Ycoordinate
    9,                        !- Vertex 1 Zcoordinate
    440233.99296761147,       !- Vertex 2 Xcoordinate
    4478926.7331826,          !- Vertex 2 Ycoordinate
    0,                        !- Vertex 2 Zcoordinate
    440212.0912894554,        !- Vertex 3 Xcoordinate
    4478923.762263684,        !- Vertex 3 Ycoordinate
    0,                        !- Vertex 3 Zcoordinate
    440212.0912894554,        !- Vertex 4 Xcoordinate
    4478923.762263684,        !- Vertex 4 Ycoordinate
    9;                        !- Vertex 4 Zcoordinate

SHADING:SITE:DETAILED,
    shade_way/403856092_1,    !- Name
    ,                         !- Transmittance Schedule Name
    autocalculate,            !- Number of Vertices
    440188.0696701106,        !- Vertex 1 Xcoordinate
    4478970.473069685,        !- Vertex 1 Ycoordinate
    12,                       !- Vertex 1 Zcoordinate
    440188.0696701106,        !- Vertex 2 Xcoordinate
    4478970.473069685,        !- Vertex 2 Ycoordinate
    0,                        !- Vertex 2 Zcoordinate
    440205.2142405678,        !- Vertex 3 Xcoordinate
    4478974.463101019,        !- Vertex 3 Ycoordinate
    0,                        !- Vertex 3 Zcoordinate
    440205.2142405678,        !- Vertex 4 Xcoordinate
    4478974.463101019,        !- Vertex 4 Ycoordinate
    12;                       !- Vertex 4 Zcoordinate

SHADING:SITE:DETAILED,
    shade_way/403856092_2,    !- Name
    ,                         !- Transmittance Schedule Name
    autocalculate,            !- Number of Vertices
    440205.2142405678,        !- Vertex 1 Xcoordinate
    4478974.463101019,        !- Vertex 1 Ycoordinate
    12,                       !- Vertex 1 Zcoordinate
    440205.2142405678,        !- Vertex 2 Xcoordinate
    4478974.463101019,        !- Vertex 2 Ycoordinate
    0,                        !- Vertex 2 Zcoordinate
    440208.0440345548,        !- Vertex 3 Xcoordinate
    4478962.304251807,        !- Vertex 3 Ycoordinate
    0,                        !- Vertex 3 Zcoordinate
    440208.0440345548,        !- Vertex 4 Xcoordinate
    4478962.304251807,        !- Vertex 4 Ycoordinate
    12;                       !- Vertex 4 Zcoordinate

SHADING:SITE:DETAILED,
    shade_way/403856092_3,    !- Name
    ,                         !- Transmittance Schedule Name
    autocalculate,            !- Number of Vertices
    440208.0440345548,        !- Vertex 1 Xcoordinate
    4478962.304251807,        !- Vertex 1 Ycoordinate
    12,                       !- Vertex 1 Zcoordinate
    440208.0440345548,        !- Vertex 2 Xcoordinate
    4478962.304251807,        !- Vertex 2 Ycoordinate
    0,                        !- Vertex 2 Zcoordinate
    440190.89937813324,       !- Vertex 3 Xcoordinate
    4478958.314209173,        !- Vertex 3 Ycoordinate
    0,                        !- Vertex 3 Zcoordinate
    440190.89937813324,       !- Vertex 4 Xcoordinate
    4478958.314209173,        !- Vertex 4 Ycoordinate
    12;                       !- Vertex 4 Zcoordinate

SHADING:SITE:DETAILED,
    shade_way/403856092_4,    !- Name
    ,                         !- Transmittance Schedule Name
    autocalculate,            !- Number of Vertices
    440190.89937813324,       !- Vertex 1 Xcoordinate
    4478958.314209173,        !- Vertex 1 Ycoordinate
    12,                       !- Vertex 1 Zcoordinate
    440190.89937813324,       !- Vertex 2 Xcoordinate
    4478958.314209173,        !- Vertex 2 Ycoordinate
    0,                        !- Vertex 2 Zcoordinate
    440188.0696701106,        !- Vertex 3 Xcoordinate
    4478970.473069685,        !- Vertex 3 Ycoordinate
    0,                        !- Vertex 3 Zcoordinate
    440188.0696701106,        !- Vertex 4 Xcoordinate
    4478970.473069685,        !- Vertex 4 Ycoordinate
    12;                       !- Vertex 4 Zcoordinate

SHADING:SITE:DETAILED,
    shade_way/434023861_1,    !- Name
    ,                         !- Transmittance Schedule Name
    autocalculate,            !- Number of Vertices
    440181.68195334147,       !- Vertex 1 Xcoordinate
    4478977.315287804,        !- Vertex 1 Ycoordinate
    9,                        !- Vertex 1 Zcoordinate
    440181.68195334147,       !- Vertex 2 Xcoordinate
    4478977.315287804,        !- Vertex 2 Ycoordinate
    0,                        !- Vertex 2 Zcoordinate
    440180.0844577052,        !- Vertex 3 Xcoordinate
    4478994.217532361,        !- Vertex 3 Ycoordinate
    0,                        !- Vertex 3 Zcoordinate
    440180.0844577052,        !- Vertex 4 Xcoordinate
    4478994.217532361,        !- Vertex 4 Ycoordinate
    9;                        !- Vertex 4 Zcoordinate

SHADING:SITE:DETAILED,
    shade_way/434023861_2,    !- Name
    ,                         !- Transmittance Schedule Name
    autocalculate,            !- Number of Vertices
    440180.0844577052,        !- Vertex 1 Xcoordinate
    4478994.217532361,        !- Vertex 1 Ycoordinate
    9,                        !- Vertex 1 Zcoordinate
    440180.0844577052,        !- Vertex 2 Xcoordinate
    4478994.217532361,        !- Vertex 2 Ycoordinate
    0,                        !- Vertex 2 Zcoordinate
    440191.7924789638,        !- Vertex 3 Xcoordinate
    4478995.324269763,        !- Vertex 3 Ycoordinate
    0,                        !- Vertex 3 Zcoordinate
    440191.7924789638,        !- Vertex 4 Xcoordinate
    4478995.324269763,        !- Vertex 4 Ycoordinate
    9;                        !- Vertex 4 Zcoordinate

SHADING:SITE:DETAILED,
    shade_way/434023861_3,    !- Name
    ,                         !- Transmittance Schedule Name
    autocalculate,            !- Number of Vertices
    440191.7924789638,        !- Vertex 1 Xcoordinate
    4478995.324269763,        !- Vertex 1 Ycoordinate
    9,                        !- Vertex 1 Zcoordinate
    440191.7924789638,        !- Vertex 2 Xcoordinate
    4478995.324269763,        !- Vertex 2 Ycoordinate
    0,                        !- Vertex 2 Zcoordinate
    440193.39021188376,       !- Vertex 3 Xcoordinate
    4478978.4220750965,       !- Vertex 3 Ycoordinate
    0,                        !- Vertex 3 Zcoordinate
    440193.39021188376,       !- Vertex 4 Xcoordinate
    4478978.4220750965,       !- Vertex 4 Ycoordinate
    9;                        !- Vertex 4 Zcoordinate

SHADING:SITE:DETAILED,
    shade_way/434023861_4,    !- Name
    ,                         !- Transmittance Schedule Name
    autocalculate,            !- Number of Vertices
    440193.39021188376,       !- Vertex 1 Xcoordinate
    4478978.4220750965,       !- Vertex 1 Ycoordinate
    9,                        !- Vertex 1 Zcoordinate
    440193.39021188376,       !- Vertex 2 Xcoordinate
    4478978.4220750965,       !- Vertex 2 Ycoordinate
    0,                        !- Vertex 2 Zcoordinate
    440181.68195334147,       !- Vertex 3 Xcoordinate
    4478977.315287804,        !- Vertex 3 Ycoordinate
    0,                        !- Vertex 3 Zcoordinate
    440181.68195334147,       !- Vertex 4 Xcoordinate
    4478977.315287804,        !- Vertex 4 Ycoordinate
    9;                        !- Vertex 4 Zcoordinate

SHADING:SITE:DETAILED,
    shade_way/434023862_1,    !- Name
    ,                         !- Transmittance Schedule Name
    autocalculate,            !- Number of Vertices
    440191.42046457774,       !- Vertex 1 Xcoordinate
    4478991.95412609,         !- Vertex 1 Ycoordinate
    12,                       !- Vertex 1 Zcoordinate
    440191.42046457774,       !- Vertex 2 Xcoordinate
    4478991.95412609,         !- Vertex 2 Ycoordinate
    0,                        !- Vertex 2 Zcoordinate
    440204.29182496475,       !- Vertex 3 Xcoordinate
    4478993.79687212,         !- Vertex 3 Ycoordinate
    0,                        !- Vertex 3 Zcoordinate
    440204.29182496475,       !- Vertex 4 Xcoordinate
    4478993.79687212,         !- Vertex 4 Ycoordinate
    12;                       !- Vertex 4 Zcoordinate

SHADING:SITE:DETAILED,
    shade_way/434023862_2,    !- Name
    ,                         !- Transmittance Schedule Name
    autocalculate,            !- Number of Vertices
    440204.29182496475,       !- Vertex 1 Xcoordinate
    4478993.79687212,         !- Vertex 1 Ycoordinate
    12,                       !- Vertex 1 Zcoordinate
    440204.29182496475,       !- Vertex 2 Xcoordinate
    4478993.79687212,         !- Vertex 2 Ycoordinate
    0,                        !- Vertex 2 Zcoordinate
    440206.0135259188,        !- Vertex 3 Xcoordinate
    4478981.775500971,        !- Vertex 3 Ycoordinate
    0,                        !- Vertex 3 Zcoordinate
    440206.0135259188,        !- Vertex 4 Xcoordinate
    4478981.775500971,        !- Vertex 4 Ycoordinate
    12;                       !- Vertex 4 Zcoordinate

SHADING:SITE:DETAILED,
    shade_way/434023862_3,    !- Name
    ,                         !- Transmittance Schedule Name
    autocalculate,            !- Number of Vertices
    440206.0135259188,        !- Vertex 1 Xcoordinate
    4478981.775500971,        !- Vertex 1 Ycoordinate
    12,                       !- Vertex 1 Zcoordinate
    440206.0135259188,        !- Vertex 2 Xcoordinate
    4478981.775500971,        !- Vertex 2 Ycoordinate
    0,                        !- Vertex 2 Zcoordinate
    440193.1412309826,        !- Vertex 3 Xcoordinate
    4478979.932309285,        !- Vertex 3 Ycoordinate
    0,                        !- Vertex 3 Zcoordinate
    440193.1412309826,        !- Vertex 4 Xcoordinate
    4478979.932309285,        !- Vertex 4 Ycoordinate
    12;                       !- Vertex 4 Zcoordinate

SHADING:SITE:DETAILED,
    shade_way/434023862_4,    !- Name
    ,                         !- Transmittance Schedule Name
    autocalculate,            !- Number of Vertices
    440193.1412309826,        !- Vertex 1 Xcoordinate
    4478979.932309285,        !- Vertex 1 Ycoordinate
    12,                       !- Vertex 1 Zcoordinate
    440193.1412309826,        !- Vertex 2 Xcoordinate
    4478979.932309285,        !- Vertex 2 Ycoordinate
    0,                        !- Vertex 2 Zcoordinate
    440191.42046457774,       !- Vertex 3 Xcoordinate
    4478991.95412609,         !- Vertex 3 Ycoordinate
    0,                        !- Vertex 3 Zcoordinate
    440191.42046457774,       !- Vertex 4 Xcoordinate
    4478991.95412609,         !- Vertex 4 Ycoordinate
    12;                       !- Vertex 4 Zcoordinate

SHADING:SITE:DETAILED,
    shade_way/941927253_1,    !- Name
    ,                         !- Transmittance Schedule Name
    autocalculate,            !- Number of Vertices
    440226.84840964584,       !- Vertex 1 Xcoordinate
    4479002.767919842,        !- Vertex 1 Ycoordinate
    9,                        !- Vertex 1 Zcoordinate
    440226.84840964584,       !- Vertex 2 Xcoordinate
    4479002.767919842,        !- Vertex 2 Ycoordinate
    0,                        !- Vertex 2 Zcoordinate
    440233.5197999254,        !- Vertex 3 Xcoordinate
    4478983.146270761,        !- Vertex 3 Ycoordinate
    0,                        !- Vertex 3 Zcoordinate
    440233.5197999254,        !- Vertex 4 Xcoordinate
    4478983.146270761,        !- Vertex 4 Ycoordinate
    9;                        !- Vertex 4 Zcoordinate

SHADING:SITE:DETAILED,
    shade_way/941927253_2,    !- Name
    ,                         !- Transmittance Schedule Name
    autocalculate,            !- Number of Vertices
    440233.5197999254,        !- Vertex 1 Xcoordinate
    4478983.146270761,        !- Vertex 1 Ycoordinate
    9,                        !- Vertex 1 Zcoordinate
    440233.5197999254,        !- Vertex 2 Xcoordinate
    4478983.146270761,        !- Vertex 2 Ycoordinate
    0,                        !- Vertex 2 Zcoordinate
    440227.82264531014,       !- Vertex 3 Xcoordinate
    4478981.209411394,        !- Vertex 3 Ycoordinate
    0,                        !- Vertex 3 Zcoordinate
    440227.82264531014,       !- Vertex 4 Xcoordinate
    4478981.209411394,        !- Vertex 4 Ycoordinate
    9;                        !- Vertex 4 Zcoordinate

SHADING:SITE:DETAILED,
    shade_way/941927253_3,    !- Name
    ,                         !- Transmittance Schedule Name
    autocalculate,            !- Number of Vertices
    440227.82264531014,       !- Vertex 1 Xcoordinate
    4478981.209411394,        !- Vertex 1 Ycoordinate
    9,                        !- Vertex 1 Zcoordinate
    440227.82264531014,       !- Vertex 2 Xcoordinate
    4478981.209411394,        !- Vertex 2 Ycoordinate
    0,                        !- Vertex 2 Zcoordinate
    440221.1510987904,        !- Vertex 3 Xcoordinate
    4479000.830825562,        !- Vertex 3 Ycoordinate
    0,                        !- Vertex 3 Zcoordinate
    440221.1510987904,        !- Vertex 4 Xcoordinate
    4479000.830825562,        !- Vertex 4 Ycoordinate
    9;                        !- Vertex 4 Zcoordinate

SHADING:SITE:DETAILED,
    shade_way/941927253_4,    !- Name
    ,                         !- Transmittance Schedule Name
    autocalculate,            !- Number of Vertices
    440221.1510987904,        !- Vertex 1 Xcoordinate
    4479000.830825562,        !- Vertex 1 Ycoordinate
    9,                        !- Vertex 1 Zcoordinate
    440221.1510987904,        !- Vertex 2 Xcoordinate
    4479000.830825562,        !- Vertex 2 Ycoordinate
    0,                        !- Vertex 2 Zcoordinate
    440226.84840964584,       !- Vertex 3 Xcoordinate
    4479002.767919842,        !- Vertex 3 Ycoordinate
    0,                        !- Vertex 3 Zcoordinate
    440226.84840964584,       !- Vertex 4 Xcoordinate
    4479002.767919842,        !- Vertex 4 Ycoordinate
    9;                        !- Vertex 4 Zcoordinate

SHADING:SITE:DETAILED,
    shade_way/941927251_1,    !- Name
    ,                         !- Transmittance Schedule Name
    autocalculate,            !- Number of Vertices
    440238.69728365634,       !- Vertex 1 Xcoordinate
    4478984.963693172,        !- Vertex 1 Ycoordinate
    6,                        !- Vertex 1 Zcoordinate
    440238.69728365634,       !- Vertex 2 Xcoordinate
    4478984.963693172,        !- Vertex 2 Ycoordinate
    0,                        !- Vertex 2 Zcoordinate
    440231.8236861963,        !- Vertex 3 Xcoordinate
    4479004.433531823,        !- Vertex 3 Ycoordinate
    0,                        !- Vertex 3 Zcoordinate
    440231.8236861963,        !- Vertex 4 Xcoordinate
    4479004.433531823,        !- Vertex 4 Ycoordinate
    6;                        !- Vertex 4 Zcoordinate

SHADING:SITE:DETAILED,
    shade_way/941927251_2,    !- Name
    ,                         !- Transmittance Schedule Name
    autocalculate,            !- Number of Vertices
    440231.8236861963,        !- Vertex 1 Xcoordinate
    4479004.433531823,        !- Vertex 1 Ycoordinate
    6,                        !- Vertex 1 Zcoordinate
    440231.8236861963,        !- Vertex 2 Xcoordinate
    4479004.433531823,        !- Vertex 2 Ycoordinate
    0,                        !- Vertex 2 Zcoordinate
    440236.62034471275,       !- Vertex 3 Xcoordinate
    4479006.126703902,        !- Vertex 3 Ycoordinate
    0,                        !- Vertex 3 Zcoordinate
    440236.62034471275,       !- Vertex 4 Xcoordinate
    4479006.126703902,        !- Vertex 4 Ycoordinate
    6;                        !- Vertex 4 Zcoordinate

SHADING:SITE:DETAILED,
    shade_way/941927251_3,    !- Name
    ,                         !- Transmittance Schedule Name
    autocalculate,            !- Number of Vertices
    440236.62034471275,       !- Vertex 1 Xcoordinate
    4479006.126703902,        !- Vertex 1 Ycoordinate
    6,                        !- Vertex 1 Zcoordinate
    440236.62034471275,       !- Vertex 2 Xcoordinate
    4479006.126703902,        !- Vertex 2 Ycoordinate
    0,                        !- Vertex 2 Zcoordinate
    440243.4931876421,        !- Vertex 3 Xcoordinate
    4478986.656877622,        !- Vertex 3 Ycoordinate
    0,                        !- Vertex 3 Zcoordinate
    440243.4931876421,        !- Vertex 4 Xcoordinate
    4478986.656877622,        !- Vertex 4 Ycoordinate
    6;                        !- Vertex 4 Zcoordinate

SHADING:SITE:DETAILED,
    shade_way/941927251_4,    !- Name
    ,                         !- Transmittance Schedule Name
    autocalculate,            !- Number of Vertices
    440243.4931876421,        !- Vertex 1 Xcoordinate
    4478986.656877622,        !- Vertex 1 Ycoordinate
    6,                        !- Vertex 1 Zcoordinate
    440243.4931876421,        !- Vertex 2 Xcoordinate
    4478986.656877622,        !- Vertex 2 Ycoordinate
    0,                        !- Vertex 2 Zcoordinate
    440238.69728365634,       !- Vertex 3 Xcoordinate
    4478984.963693172,        !- Vertex 3 Ycoordinate
    0,                        !- Vertex 3 Zcoordinate
    440238.69728365634,       !- Vertex 4 Xcoordinate
    4478984.963693172,        !- Vertex 4 Ycoordinate
    6;                        !- Vertex 4 Zcoordinate

SHADING:SITE:DETAILED,
    shade_way/941927252_1,    !- Name
    ,                         !- Transmittance Schedule Name
    autocalculate,            !- Number of Vertices
    440231.07798433135,       !- Vertex 1 Xcoordinate
    4478990.298637551,        !- Vertex 1 Ycoordinate
    9,                        !- Vertex 1 Zcoordinate
    440231.07798433135,       !- Vertex 2 Xcoordinate
    4478990.298637551,        !- Vertex 2 Ycoordinate
    0,                        !- Vertex 2 Zcoordinate
    440226.8500706632,        !- Vertex 3 Xcoordinate
    4479002.763728963,        !- Vertex 3 Ycoordinate
    0,                        !- Vertex 3 Zcoordinate
    440226.8500706632,        !- Vertex 4 Xcoordinate
    4479002.763728963,        !- Vertex 4 Ycoordinate
    9;                        !- Vertex 4 Zcoordinate

SHADING:SITE:DETAILED,
    shade_way/941927252_2,    !- Name
    ,                         !- Transmittance Schedule Name
    autocalculate,            !- Number of Vertices
    440226.8500706632,        !- Vertex 1 Xcoordinate
    4479002.763728963,        !- Vertex 1 Ycoordinate
    9,                        !- Vertex 1 Zcoordinate
    440226.8500706632,        !- Vertex 2 Xcoordinate
    4479002.763728963,        !- Vertex 2 Ycoordinate
    0,                        !- Vertex 2 Zcoordinate
    440231.9607390213,        !- Vertex 3 Xcoordinate
    4479004.497484275,        !- Vertex 3 Ycoordinate
    0,                        !- Vertex 3 Zcoordinate
    440231.9607390213,        !- Vertex 4 Xcoordinate
    4479004.497484275,        !- Vertex 4 Ycoordinate
    9;                        !- Vertex 4 Zcoordinate

SHADING:SITE:DETAILED,
    shade_way/941927252_3,    !- Name
    ,                         !- Transmittance Schedule Name
    autocalculate,            !- Number of Vertices
    440231.9607390213,        !- Vertex 1 Xcoordinate
    4479004.497484275,        !- Vertex 1 Ycoordinate
    9,                        !- Vertex 1 Zcoordinate
    440231.9607390213,        !- Vertex 2 Xcoordinate
    4479004.497484275,        !- Vertex 2 Ycoordinate
    0,                        !- Vertex 2 Zcoordinate
    440236.1890753011,        !- Vertex 3 Xcoordinate
    4478992.032392206,        !- Vertex 3 Ycoordinate
    0,                        !- Vertex 3 Zcoordinate
    440236.1890753011,        !- Vertex 4 Xcoordinate
    4478992.032392206,        !- Vertex 4 Ycoordinate
    9;                        !- Vertex 4 Zcoordinate

SHADING:SITE:DETAILED,
    shade_way/941927252_4,    !- Name
    ,                         !- Transmittance Schedule Name
    autocalculate,            !- Number of Vertices
    440236.1890753011,        !- Vertex 1 Xcoordinate
    4478992.032392206,        !- Vertex 1 Ycoordinate
    9,                        !- Vertex 1 Zcoordinate
    440236.1890753011,        !- Vertex 2 Xcoordinate
    4478992.032392206,        !- Vertex 2 Ycoordinate
    0,                        !- Vertex 2 Zcoordinate
    440231.07798433135,       !- Vertex 3 Xcoordinate
    4478990.298637551,        !- Vertex 3 Ycoordinate
    0,                        !- Vertex 3 Zcoordinate
    440231.07798433135,       !- Vertex 4 Xcoordinate
    4478990.298637551,        !- Vertex 4 Ycoordinate
    9;                        !- Vertex 4 Zcoordinate

SHADING:SITE:DETAILED,
    shade_way/434023863_1,    !- Name
    ,                         !- Transmittance Schedule Name
    autocalculate,            !- Number of Vertices
    440201.7451139628,        !- Vertex 1 Xcoordinate
    4478993.100864122,        !- Vertex 1 Ycoordinate
    12,                       !- Vertex 1 Zcoordinate
    440201.7451139628,        !- Vertex 2 Xcoordinate
    4478993.100864122,        !- Vertex 2 Ycoordinate
    0,                        !- Vertex 2 Zcoordinate
    440215.76663480996,       !- Vertex 3 Xcoordinate
    4478996.9333765255,       !- Vertex 3 Ycoordinate
    0,                        !- Vertex 3 Zcoordinate
    440215.76663480996,       !- Vertex 4 Xcoordinate
    4478996.9333765255,       !- Vertex 4 Ycoordinate
    12;                       !- Vertex 4 Zcoordinate

SHADING:SITE:DETAILED,
    shade_way/434023863_2,    !- Name
    ,                         !- Transmittance Schedule Name
    autocalculate,            !- Number of Vertices
    440215.76663480996,       !- Vertex 1 Xcoordinate
    4478996.9333765255,       !- Vertex 1 Ycoordinate
    12,                       !- Vertex 1 Zcoordinate
    440215.76663480996,       !- Vertex 2 Xcoordinate
    4478996.9333765255,       !- Vertex 2 Ycoordinate
    0,                        !- Vertex 2 Zcoordinate
    440218.7699338225,        !- Vertex 3 Xcoordinate
    4478985.945592191,        !- Vertex 3 Ycoordinate
    0,                        !- Vertex 3 Zcoordinate
    440218.7699338225,        !- Vertex 4 Xcoordinate
    4478985.945592191,        !- Vertex 4 Ycoordinate
    12;                       !- Vertex 4 Zcoordinate

SHADING:SITE:DETAILED,
    shade_way/434023863_3,    !- Name
    ,                         !- Transmittance Schedule Name
    autocalculate,            !- Number of Vertices
    440218.7699338225,        !- Vertex 1 Xcoordinate
    4478985.945592191,        !- Vertex 1 Ycoordinate
    12,                       !- Vertex 1 Zcoordinate
    440218.7699338225,        !- Vertex 2 Xcoordinate
    4478985.945592191,        !- Vertex 2 Ycoordinate
    0,                        !- Vertex 2 Zcoordinate
    440204.74841297534,       !- Vertex 3 Xcoordinate
    4478982.113079787,        !- Vertex 3 Ycoordinate
    0,                        !- Vertex 3 Zcoordinate
    440204.74841297534,       !- Vertex 4 Xcoordinate
    4478982.113079787,        !- Vertex 4 Ycoordinate
    12;                       !- Vertex 4 Zcoordinate

SHADING:SITE:DETAILED,
    shade_way/434023863_4,    !- Name
    ,                         !- Transmittance Schedule Name
    autocalculate,            !- Number of Vertices
    440204.74841297534,       !- Vertex 1 Xcoordinate
    4478982.113079787,        !- Vertex 1 Ycoordinate
    12,                       !- Vertex 1 Zcoordinate
    440204.74841297534,       !- Vertex 2 Xcoordinate
    4478982.113079787,        !- Vertex 2 Ycoordinate
    0,                        !- Vertex 2 Zcoordinate
    440201.7451139628,        !- Vertex 3 Xcoordinate
    4478993.100864122,        !- Vertex 3 Ycoordinate
    0,                        !- Vertex 3 Zcoordinate
    440201.7451139628,        !- Vertex 4 Xcoordinate
    4478993.100864122,        !- Vertex 4 Ycoordinate
    12;                       !- Vertex 4 Zcoordinate

SHADING:SITE:DETAILED,
    shade_way/434023859_1,    !- Name
    ,                         !- Transmittance Schedule Name
    autocalculate,            !- Number of Vertices
    440202.4402222268,        !- Vertex 1 Xcoordinate
    4478998.125164891,        !- Vertex 1 Ycoordinate
    12,                       !- Vertex 1 Zcoordinate
    440202.4402222268,        !- Vertex 2 Xcoordinate
    4478998.125164891,        !- Vertex 2 Ycoordinate
    0,                        !- Vertex 2 Zcoordinate
    440180.18867368816,       !- Vertex 3 Xcoordinate
    4478993.11248586,         !- Vertex 3 Ycoordinate
    0,                        !- Vertex 3 Zcoordinate
    440180.18867368816,       !- Vertex 4 Xcoordinate
    4478993.11248586,         !- Vertex 4 Ycoordinate
    12;                       !- Vertex 4 Zcoordinate

SHADING:SITE:DETAILED,
    shade_way/434023859_2,    !- Name
    ,                         !- Transmittance Schedule Name
    autocalculate,            !- Number of Vertices
    440180.18867368816,       !- Vertex 1 Xcoordinate
    4478993.11248586,         !- Vertex 1 Ycoordinate
    12,                       !- Vertex 1 Zcoordinate
    440180.18867368816,       !- Vertex 2 Xcoordinate
    4478993.11248586,         !- Vertex 2 Ycoordinate
    0,                        !- Vertex 2 Zcoordinate
    440178.5469437374,        !- Vertex 3 Xcoordinate
    4479000.401150505,        !- Vertex 3 Ycoordinate
    0,                        !- Vertex 3 Zcoordinate
    440178.5469437374,        !- Vertex 4 Xcoordinate
    4479000.401150505,        !- Vertex 4 Ycoordinate
    12;                       !- Vertex 4 Zcoordinate

SHADING:SITE:DETAILED,
    shade_way/434023859_3,    !- Name
    ,                         !- Transmittance Schedule Name
    autocalculate,            !- Number of Vertices
    440178.5469437374,        !- Vertex 1 Xcoordinate
    4479000.401150505,        !- Vertex 1 Ycoordinate
    12,                       !- Vertex 1 Zcoordinate
    440178.5469437374,        !- Vertex 2 Xcoordinate
    4479000.401150505,        !- Vertex 2 Ycoordinate
    0,                        !- Vertex 2 Zcoordinate
    440200.7979559831,        !- Vertex 3 Xcoordinate
    4479005.413963441,        !- Vertex 3 Ycoordinate
    0,                        !- Vertex 3 Zcoordinate
    440200.7979559831,        !- Vertex 4 Xcoordinate
    4479005.413963441,        !- Vertex 4 Ycoordinate
    12;                       !- Vertex 4 Zcoordinate

SHADING:SITE:DETAILED,
    shade_way/434023859_4,    !- Name
    ,                         !- Transmittance Schedule Name
    autocalculate,            !- Number of Vertices
    440200.7979559831,        !- Vertex 1 Xcoordinate
    4479005.413963441,        !- Vertex 1 Ycoordinate
    12,                       !- Vertex 1 Zcoordinate
    440200.7979559831,        !- Vertex 2 Xcoordinate
    4479005.413963441,        !- Vertex 2 Ycoordinate
    0,                        !- Vertex 2 Zcoordinate
    440202.4402222268,        !- Vertex 3 Xcoordinate
    4478998.125164891,        !- Vertex 3 Ycoordinate
    0,                        !- Vertex 3 Zcoordinate
    440202.4402222268,        !- Vertex 4 Xcoordinate
    4478998.125164891,        !- Vertex 4 Ycoordinate
    12;                       !- Vertex 4 Zcoordinate

SHADING:SITE:DETAILED,
    shade_way/434023857_1,    !- Name
    ,                         !- Transmittance Schedule Name
    autocalculate,            !- Number of Vertices
    440195.6506900854,        !- Vertex 1 Xcoordinate
    4479012.100987128,        !- Vertex 1 Ycoordinate
    12,                       !- Vertex 1 Zcoordinate
    440195.6506900854,        !- Vertex 2 Xcoordinate
    4479012.100987128,        !- Vertex 2 Ycoordinate
    0,                        !- Vertex 2 Zcoordinate
    440197.4721822709,        !- Vertex 3 Xcoordinate
    4479004.333601913,        !- Vertex 3 Ycoordinate
    0,                        !- Vertex 3 Zcoordinate
    440197.4721822709,        !- Vertex 4 Xcoordinate
    4479004.333601913,        !- Vertex 4 Ycoordinate
    12;                       !- Vertex 4 Zcoordinate

SHADING:SITE:DETAILED,
    shade_way/434023857_2,    !- Name
    ,                         !- Transmittance Schedule Name
    autocalculate,            !- Number of Vertices
    440197.4721822709,        !- Vertex 1 Xcoordinate
    4479004.333601913,        !- Vertex 1 Ycoordinate
    12,                       !- Vertex 1 Zcoordinate
    440197.4721822709,        !- Vertex 2 Xcoordinate
    4479004.333601913,        !- Vertex 2 Ycoordinate
    0,                        !- Vertex 2 Zcoordinate
    440179.51918393193,       !- Vertex 3 Xcoordinate
    4479000.123530534,        !- Vertex 3 Ycoordinate
    0,                        !- Vertex 3 Zcoordinate
    440179.51918393193,       !- Vertex 4 Xcoordinate
    4479000.123530534,        !- Vertex 4 Ycoordinate
    12;                       !- Vertex 4 Zcoordinate

SHADING:SITE:DETAILED,
    shade_way/434023857_3,    !- Name
    ,                         !- Transmittance Schedule Name
    autocalculate,            !- Number of Vertices
    440179.51918393193,       !- Vertex 1 Xcoordinate
    4479000.123530534,        !- Vertex 1 Ycoordinate
    12,                       !- Vertex 1 Zcoordinate
    440179.51918393193,       !- Vertex 2 Xcoordinate
    4479000.123530534,        !- Vertex 2 Ycoordinate
    0,                        !- Vertex 2 Zcoordinate
    440177.6976917464,        !- Vertex 3 Xcoordinate
    4479007.890915748,        !- Vertex 3 Ycoordinate
    0,                        !- Vertex 3 Zcoordinate
    440177.6976917464,        !- Vertex 4 Xcoordinate
    4479007.890915748,        !- Vertex 4 Ycoordinate
    12;                       !- Vertex 4 Zcoordinate

SHADING:SITE:DETAILED,
    shade_way/434023857_4,    !- Name
    ,                         !- Transmittance Schedule Name
    autocalculate,            !- Number of Vertices
    440177.6976917464,        !- Vertex 1 Xcoordinate
    4479007.890915748,        !- Vertex 1 Ycoordinate
    12,                       !- Vertex 1 Zcoordinate
    440177.6976917464,        !- Vertex 2 Xcoordinate
    4479007.890915748,        !- Vertex 2 Ycoordinate
    0,                        !- Vertex 2 Zcoordinate
    440195.6506900854,        !- Vertex 3 Xcoordinate
    4479012.100987128,        !- Vertex 3 Ycoordinate
    0,                        !- Vertex 3 Zcoordinate
    440195.6506900854,        !- Vertex 4 Xcoordinate
    4479012.100987128,        !- Vertex 4 Ycoordinate
    12;                       !- Vertex 4 Zcoordinate

SHADING:SITE:DETAILED,
    shade_relation/12876437_1,    !- Name
    ,                         !- Transmittance Schedule Name
    autocalculate,            !- Number of Vertices
    440213.901188905,         !- Vertex 1 Xcoordinate
    4479003.666390006,        !- Vertex 1 Ycoordinate
    6,                        !- Vertex 1 Zcoordinate
    440213.901188905,         !- Vertex 2 Xcoordinate
    4479003.666390006,        !- Vertex 2 Ycoordinate
    0,                        !- Vertex 2 Zcoordinate
    440204.02877942845,       !- Vertex 3 Xcoordinate
    4479001.203172677,        !- Vertex 3 Ycoordinate
    0,                        !- Vertex 3 Zcoordinate
    440204.02877942845,       !- Vertex 4 Xcoordinate
    4479001.203172677,        !- Vertex 4 Ycoordinate
    6;                        !- Vertex 4 Zcoordinate

SHADING:SITE:DETAILED,
    shade_relation/12876437_2,    !- Name
    ,                         !- Transmittance Schedule Name
    autocalculate,            !- Number of Vertices
    440204.02877942845,       !- Vertex 1 Xcoordinate
    4479001.203172677,        !- Vertex 1 Ycoordinate
    6,                        !- Vertex 1 Zcoordinate
    440204.02877942845,       !- Vertex 2 Xcoordinate
    4479001.203172677,        !- Vertex 2 Ycoordinate
    0,                        !- Vertex 2 Zcoordinate
    440200.8620481156,        !- Vertex 3 Xcoordinate
    4479013.897253116,        !- Vertex 3 Ycoordinate
    0,                        !- Vertex 3 Zcoordinate
    440200.8620481156,        !- Vertex 4 Xcoordinate
    4479013.897253116,        !- Vertex 4 Ycoordinate
    6;                        !- Vertex 4 Zcoordinate

SHADING:SITE:DETAILED,
    shade_relation/12876437_3,    !- Name
    ,                         !- Transmittance Schedule Name
    autocalculate,            !- Number of Vertices
    440200.8620481156,        !- Vertex 1 Xcoordinate
    4479013.897253116,        !- Vertex 1 Ycoordinate
    6,                        !- Vertex 1 Zcoordinate
    440200.8620481156,        !- Vertex 2 Xcoordinate
    4479013.897253116,        !- Vertex 2 Ycoordinate
    0,                        !- Vertex 2 Zcoordinate
    440210.7344575924,        !- Vertex 3 Xcoordinate
    4479016.360470446,        !- Vertex 3 Ycoordinate
    0,                        !- Vertex 3 Zcoordinate
    440210.7344575924,        !- Vertex 4 Xcoordinate
    4479016.360470446,        !- Vertex 4 Ycoordinate
    6;                        !- Vertex 4 Zcoordinate

SHADING:SITE:DETAILED,
    shade_relation/12876437_4,    !- Name
    ,                         !- Transmittance Schedule Name
    autocalculate,            !- Number of Vertices
    440210.7344575924,        !- Vertex 1 Xcoordinate
    4479016.360470446,        !- Vertex 1 Ycoordinate
    6,                        !- Vertex 1 Zcoordinate
    440210.7344575924,        !- Vertex 2 Xcoordinate
    4479016.360470446,        !- Vertex 2 Ycoordinate
    0,                        !- Vertex 2 Zcoordinate
    440213.901188905,         !- Vertex 3 Xcoordinate
    4479003.666390006,        !- Vertex 3 Ycoordinate
    0,                        !- Vertex 3 Zcoordinate
    440213.901188905,         !- Vertex 4 Xcoordinate
    4479003.666390006,        !- Vertex 4 Ycoordinate
    6;                        !- Vertex 4 Zcoordinate

SHADING:SITE:DETAILED,
    shade_way/434023856_1,    !- Name
    ,                         !- Transmittance Schedule Name
    autocalculate,            !- Number of Vertices
    440190.7827756102,        !- Vertex 1 Xcoordinate
    4479010.939364503,        !- Vertex 1 Ycoordinate
    12,                       !- Vertex 1 Zcoordinate
    440190.7827756102,        !- Vertex 2 Xcoordinate
    4479010.939364503,        !- Vertex 2 Ycoordinate
    0,                        !- Vertex 2 Zcoordinate
    440178.75595602137,       !- Vertex 3 Xcoordinate
    4479007.998939289,        !- Vertex 3 Ycoordinate
    0,                        !- Vertex 3 Zcoordinate
    440178.75595602137,       !- Vertex 4 Xcoordinate
    4479007.998939289,        !- Vertex 4 Ycoordinate
    12;                       !- Vertex 4 Zcoordinate

SHADING:SITE:DETAILED,
    shade_way/434023856_2,    !- Name
    ,                         !- Transmittance Schedule Name
    autocalculate,            !- Number of Vertices
    440178.75595602137,       !- Vertex 1 Xcoordinate
    4479007.998939289,        !- Vertex 1 Ycoordinate
    12,                       !- Vertex 1 Zcoordinate
    440178.75595602137,       !- Vertex 2 Xcoordinate
    4479007.998939289,        !- Vertex 2 Ycoordinate
    0,                        !- Vertex 2 Zcoordinate
    440177.0975632866,        !- Vertex 3 Xcoordinate
    4479014.780097339,        !- Vertex 3 Ycoordinate
    0,                        !- Vertex 3 Zcoordinate
    440177.0975632866,        !- Vertex 4 Xcoordinate
    4479014.780097339,        !- Vertex 4 Ycoordinate
    12;                       !- Vertex 4 Zcoordinate

SHADING:SITE:DETAILED,
    shade_way/434023856_3,    !- Name
    ,                         !- Transmittance Schedule Name
    autocalculate,            !- Number of Vertices
    440177.0975632866,        !- Vertex 1 Xcoordinate
    4479014.780097339,        !- Vertex 1 Ycoordinate
    12,                       !- Vertex 1 Zcoordinate
    440177.0975632866,        !- Vertex 2 Xcoordinate
    4479014.780097339,        !- Vertex 2 Ycoordinate
    0,                        !- Vertex 2 Zcoordinate
    440189.1247023548,        !- Vertex 3 Xcoordinate
    4479017.720768338,        !- Vertex 3 Ycoordinate
    0,                        !- Vertex 3 Zcoordinate
    440189.1247023548,        !- Vertex 4 Xcoordinate
    4479017.720768338,        !- Vertex 4 Ycoordinate
    12;                       !- Vertex 4 Zcoordinate

SHADING:SITE:DETAILED,
    shade_way/434023856_4,    !- Name
    ,                         !- Transmittance Schedule Name
    autocalculate,            !- Number of Vertices
    440189.1247023548,        !- Vertex 1 Xcoordinate
    4479017.720768338,        !- Vertex 1 Ycoordinate
    12,                       !- Vertex 1 Zcoordinate
    440189.1247023548,        !- Vertex 2 Xcoordinate
    4479017.720768338,        !- Vertex 2 Ycoordinate
    0,                        !- Vertex 2 Zcoordinate
    440190.7827756102,        !- Vertex 3 Xcoordinate
    4479010.939364503,        !- Vertex 3 Ycoordinate
    0,                        !- Vertex 3 Zcoordinate
    440190.7827756102,        !- Vertex 4 Xcoordinate
    4479010.939364503,        !- Vertex 4 Ycoordinate
    12;                       !- Vertex 4 Zcoordinate

SHADING:SITE:DETAILED,
    shade_way/420409350_1,    !- Name
    ,                         !- Transmittance Schedule Name
    autocalculate,            !- Number of Vertices
    440225.25764927594,       !- Vertex 1 Xcoordinate
    4479019.960402911,        !- Vertex 1 Ycoordinate
    9,                        !- Vertex 1 Zcoordinate
    440225.25764927594,       !- Vertex 2 Xcoordinate
    4479019.960402911,        !- Vertex 2 Ycoordinate
    0,                        !- Vertex 2 Zcoordinate
    440227.5730176325,        !- Vertex 3 Xcoordinate
    4479011.329819794,        !- Vertex 3 Ycoordinate
    0,                        !- Vertex 3 Zcoordinate
    440227.5730176325,        !- Vertex 4 Xcoordinate
    4479011.329819794,        !- Vertex 4 Ycoordinate
    9;                        !- Vertex 4 Zcoordinate

SHADING:SITE:DETAILED,
    shade_way/420409350_2,    !- Name
    ,                         !- Transmittance Schedule Name
    autocalculate,            !- Number of Vertices
    440227.5730176325,        !- Vertex 1 Xcoordinate
    4479011.329819794,        !- Vertex 1 Ycoordinate
    9,                        !- Vertex 1 Zcoordinate
    440227.5730176325,        !- Vertex 2 Xcoordinate
    4479011.329819794,        !- Vertex 2 Ycoordinate
    0,                        !- Vertex 2 Zcoordinate
    440220.6729617843,        !- Vertex 3 Xcoordinate
    4479009.478808059,        !- Vertex 3 Ycoordinate
    0,                        !- Vertex 3 Zcoordinate
    440220.6729617843,        !- Vertex 4 Xcoordinate
    4479009.478808059,        !- Vertex 4 Ycoordinate
    9;                        !- Vertex 4 Zcoordinate

SHADING:SITE:DETAILED,
    shade_way/420409350_3,    !- Name
    ,                         !- Transmittance Schedule Name
    autocalculate,            !- Number of Vertices
    440220.6729617843,        !- Vertex 1 Xcoordinate
    4479009.478808059,        !- Vertex 1 Ycoordinate
    9,                        !- Vertex 1 Zcoordinate
    440220.6729617843,        !- Vertex 2 Xcoordinate
    4479009.478808059,        !- Vertex 2 Ycoordinate
    0,                        !- Vertex 2 Zcoordinate
    440218.35768716247,       !- Vertex 3 Xcoordinate
    4479018.109506565,        !- Vertex 3 Ycoordinate
    0,                        !- Vertex 3 Zcoordinate
    440218.35768716247,       !- Vertex 4 Xcoordinate
    4479018.109506565,        !- Vertex 4 Ycoordinate
    9;                        !- Vertex 4 Zcoordinate

SHADING:SITE:DETAILED,
    shade_way/420409350_4,    !- Name
    ,                         !- Transmittance Schedule Name
    autocalculate,            !- Number of Vertices
    440218.35768716247,       !- Vertex 1 Xcoordinate
    4479018.109506565,        !- Vertex 1 Ycoordinate
    9,                        !- Vertex 1 Zcoordinate
    440218.35768716247,       !- Vertex 2 Xcoordinate
    4479018.109506565,        !- Vertex 2 Ycoordinate
    0,                        !- Vertex 2 Zcoordinate
    440225.25764927594,       !- Vertex 3 Xcoordinate
    4479019.960402911,        !- Vertex 3 Ycoordinate
    0,                        !- Vertex 3 Zcoordinate
    440225.25764927594,       !- Vertex 4 Xcoordinate
    4479019.960402911,        !- Vertex 4 Ycoordinate
    9;                        !- Vertex 4 Zcoordinate

SHADING:SITE:DETAILED,
    shade_way/420409352_1,    !- Name
    ,                         !- Transmittance Schedule Name
    autocalculate,            !- Number of Vertices
    440229.6512257099,        !- Vertex 1 Xcoordinate
    4479020.13623488,         !- Vertex 1 Ycoordinate
    9,                        !- Vertex 1 Zcoordinate
    440229.6512257099,        !- Vertex 2 Xcoordinate
    4479020.13623488,         !- Vertex 2 Ycoordinate
    0,                        !- Vertex 2 Zcoordinate
    440231.78471032553,       !- Vertex 3 Xcoordinate
    4479012.790713687,        !- Vertex 3 Ycoordinate
    0,                        !- Vertex 3 Zcoordinate
    440231.78471032553,       !- Vertex 4 Xcoordinate
    4479012.790713687,        !- Vertex 4 Ycoordinate
    9;                        !- Vertex 4 Zcoordinate

SHADING:SITE:DETAILED,
    shade_way/420409352_2,    !- Name
    ,                         !- Transmittance Schedule Name
    autocalculate,            !- Number of Vertices
    440231.78471032553,       !- Vertex 1 Xcoordinate
    4479012.790713687,        !- Vertex 1 Ycoordinate
    9,                        !- Vertex 1 Zcoordinate
    440231.78471032553,       !- Vertex 2 Xcoordinate
    4479012.790713687,        !- Vertex 2 Ycoordinate
    0,                        !- Vertex 2 Zcoordinate
    440227.51376776566,       !- Vertex 3 Xcoordinate
    4479011.550221979,        !- Vertex 3 Ycoordinate
    0,                        !- Vertex 3 Zcoordinate
    440227.51376776566,       !- Vertex 4 Xcoordinate
    4479011.550221979,        !- Vertex 4 Ycoordinate
    9;                        !- Vertex 4 Zcoordinate

SHADING:SITE:DETAILED,
    shade_way/420409352_3,    !- Name
    ,                         !- Transmittance Schedule Name
    autocalculate,            !- Number of Vertices
    440227.51376776566,       !- Vertex 1 Xcoordinate
    4479011.550221979,        !- Vertex 1 Ycoordinate
    9,                        !- Vertex 1 Zcoordinate
    440227.51376776566,       !- Vertex 2 Xcoordinate
    4479011.550221979,        !- Vertex 2 Ycoordinate
    0,                        !- Vertex 2 Zcoordinate
    440225.3800262006,        !- Vertex 3 Xcoordinate
    4479018.895495853,        !- Vertex 3 Ycoordinate
    0,                        !- Vertex 3 Zcoordinate
    440225.3800262006,        !- Vertex 4 Xcoordinate
    4479018.895495853,        !- Vertex 4 Ycoordinate
    9;                        !- Vertex 4 Zcoordinate

SHADING:SITE:DETAILED,
    shade_way/420409352_4,    !- Name
    ,                         !- Transmittance Schedule Name
    autocalculate,            !- Number of Vertices
    440225.3800262006,        !- Vertex 1 Xcoordinate
    4479018.895495853,        !- Vertex 1 Ycoordinate
    9,                        !- Vertex 1 Zcoordinate
    440225.3800262006,        !- Vertex 2 Xcoordinate
    4479018.895495853,        !- Vertex 2 Ycoordinate
    0,                        !- Vertex 2 Zcoordinate
    440229.6512257099,        !- Vertex 3 Xcoordinate
    4479020.13623488,         !- Vertex 3 Ycoordinate
    0,                        !- Vertex 3 Zcoordinate
    440229.6512257099,        !- Vertex 4 Xcoordinate
    4479020.13623488,         !- Vertex 4 Ycoordinate
    9;                        !- Vertex 4 Zcoordinate

SHADING:SITE:DETAILED,
    shade_way/420409347_1,    !- Name
    ,                         !- Transmittance Schedule Name
    autocalculate,            !- Number of Vertices
    440215.1739605742,        !- Vertex 1 Xcoordinate
    4479028.937543495,        !- Vertex 1 Ycoordinate
    3,                        !- Vertex 1 Zcoordinate
    440215.1739605742,        !- Vertex 2 Xcoordinate
    4479028.937543495,        !- Vertex 2 Ycoordinate
    0,                        !- Vertex 2 Zcoordinate
    440236.9760419219,        !- Vertex 3 Xcoordinate
    4479035.366876717,        !- Vertex 3 Ycoordinate
    0,                        !- Vertex 3 Zcoordinate
    440236.9760419219,        !- Vertex 4 Xcoordinate
    4479035.366876717,        !- Vertex 4 Ycoordinate
    3;                        !- Vertex 4 Zcoordinate

SHADING:SITE:DETAILED,
    shade_way/420409347_2,    !- Name
    ,                         !- Transmittance Schedule Name
    autocalculate,            !- Number of Vertices
    440236.9760419219,        !- Vertex 1 Xcoordinate
    4479035.366876717,        !- Vertex 1 Ycoordinate
    3,                        !- Vertex 1 Zcoordinate
    440236.9760419219,        !- Vertex 2 Xcoordinate
    4479035.366876717,        !- Vertex 2 Ycoordinate
    0,                        !- Vertex 2 Zcoordinate
    440240.4899418382,        !- Vertex 3 Xcoordinate
    4479023.451126029,        !- Vertex 3 Ycoordinate
    0,                        !- Vertex 3 Zcoordinate
    440240.4899418382,        !- Vertex 4 Xcoordinate
    4479023.451126029,        !- Vertex 4 Ycoordinate
    3;                        !- Vertex 4 Zcoordinate

SHADING:SITE:DETAILED,
    shade_way/420409347_3,    !- Name
    ,                         !- Transmittance Schedule Name
    autocalculate,            !- Number of Vertices
    440240.4899418382,        !- Vertex 1 Xcoordinate
    4479023.451126029,        !- Vertex 1 Ycoordinate
    3,                        !- Vertex 1 Zcoordinate
    440240.4899418382,        !- Vertex 2 Xcoordinate
    4479023.451126029,        !- Vertex 2 Ycoordinate
    0,                        !- Vertex 2 Zcoordinate
    440218.6878604905,        !- Vertex 3 Xcoordinate
    4479017.021792807,        !- Vertex 3 Ycoordinate
    0,                        !- Vertex 3 Zcoordinate
    440218.6878604905,        !- Vertex 4 Xcoordinate
    4479017.021792807,        !- Vertex 4 Ycoordinate
    3;                        !- Vertex 4 Zcoordinate

SHADING:SITE:DETAILED,
    shade_way/420409347_4,    !- Name
    ,                         !- Transmittance Schedule Name
    autocalculate,            !- Number of Vertices
    440218.6878604905,        !- Vertex 1 Xcoordinate
    4479017.021792807,        !- Vertex 1 Ycoordinate
    3,                        !- Vertex 1 Zcoordinate
    440218.6878604905,        !- Vertex 2 Xcoordinate
    4479017.021792807,        !- Vertex 2 Ycoordinate
    0,                        !- Vertex 2 Zcoordinate
    440215.1739605742,        !- Vertex 3 Xcoordinate
    4479028.937543495,        !- Vertex 3 Ycoordinate
    0,                        !- Vertex 3 Zcoordinate
    440215.1739605742,        !- Vertex 4 Xcoordinate
    4479028.937543495,        !- Vertex 4 Ycoordinate
    3;                        !- Vertex 4 Zcoordinate

SHADING:SITE:DETAILED,
    shade_way/434023855_1,    !- Name
    ,                         !- Transmittance Schedule Name
    autocalculate,            !- Number of Vertices
    440210.8455716032,        !- Vertex 1 Xcoordinate
    4479016.396010369,        !- Vertex 1 Ycoordinate
    12,                       !- Vertex 1 Zcoordinate
    440210.8455716032,        !- Vertex 2 Xcoordinate
    4479016.396010369,        !- Vertex 2 Ycoordinate
    0,                        !- Vertex 2 Zcoordinate
    440197.8800608767,        !- Vertex 3 Xcoordinate
    4479012.818492196,        !- Vertex 3 Ycoordinate
    0,                        !- Vertex 3 Zcoordinate
    440197.8800608767,        !- Vertex 4 Xcoordinate
    4479012.818492196,        !- Vertex 4 Ycoordinate
    12;                       !- Vertex 4 Zcoordinate

SHADING:SITE:DETAILED,
    shade_way/434023855_2,    !- Name
    ,                         !- Transmittance Schedule Name
    autocalculate,            !- Number of Vertices
    440197.8800608767,        !- Vertex 1 Xcoordinate
    4479012.818492196,        !- Vertex 1 Ycoordinate
    12,                       !- Vertex 1 Zcoordinate
    440197.8800608767,        !- Vertex 2 Xcoordinate
    4479012.818492196,        !- Vertex 2 Ycoordinate
    0,                        !- Vertex 2 Zcoordinate
    440190.4007010515,        !- Vertex 3 Xcoordinate
    4479039.9249149775,       !- Vertex 3 Ycoordinate
    0,                        !- Vertex 3 Zcoordinate
    440190.4007010515,        !- Vertex 4 Xcoordinate
    4479039.9249149775,       !- Vertex 4 Ycoordinate
    12;                       !- Vertex 4 Zcoordinate

SHADING:SITE:DETAILED,
    shade_way/434023855_3,    !- Name
    ,                         !- Transmittance Schedule Name
    autocalculate,            !- Number of Vertices
    440190.4007010515,        !- Vertex 1 Xcoordinate
    4479039.9249149775,       !- Vertex 1 Ycoordinate
    12,                       !- Vertex 1 Zcoordinate
    440190.4007010515,        !- Vertex 2 Xcoordinate
    4479039.9249149775,       !- Vertex 2 Ycoordinate
    0,                        !- Vertex 2 Zcoordinate
    440203.3661349347,        !- Vertex 3 Xcoordinate
    4479043.502320074,        !- Vertex 3 Ycoordinate
    0,                        !- Vertex 3 Zcoordinate
    440203.3661349347,        !- Vertex 4 Xcoordinate
    4479043.502320074,        !- Vertex 4 Ycoordinate
    12;                       !- Vertex 4 Zcoordinate

SHADING:SITE:DETAILED,
    shade_way/434023855_4,    !- Name
    ,                         !- Transmittance Schedule Name
    autocalculate,            !- Number of Vertices
    440203.3661349347,        !- Vertex 1 Xcoordinate
    4479043.502320074,        !- Vertex 1 Ycoordinate
    12,                       !- Vertex 1 Zcoordinate
    440203.3661349347,        !- Vertex 2 Xcoordinate
    4479043.502320074,        !- Vertex 2 Ycoordinate
    0,                        !- Vertex 2 Zcoordinate
    440210.8455716032,        !- Vertex 3 Xcoordinate
    4479016.396010369,        !- Vertex 3 Ycoordinate
    0,                        !- Vertex 3 Zcoordinate
    440210.8455716032,        !- Vertex 4 Xcoordinate
    4479016.396010369,        !- Vertex 4 Ycoordinate
    12;                       !- Vertex 4 Zcoordinate

OTHEREQUIPMENT,
    EU_Step8_InternalGain_ee59f26430f27ad4_F0_dwelling_0_f000,    !- Name
    Electricity,              !- Fuel Type
    ee59f26430f27ad4_F0_dwelling_0,    !- Zone or ZoneList or Space or SpaceList Name
    EU_Step8_GainSchedule_ee59f26430f27ad4_F0_dwelling_0_f000,    !- Schedule Name
    Watts/Area,               !- Design Level Calculation Method
    ,                         !- Design Level
    1,                        !- Power per Zone Floor Area
    ,                         !- Power per Person
    0,                        !- Fraction Latent
    0,                        !- Fraction Radiant
    0,                        !- Fraction Lost
    0,                        !- Carbon Dioxide Generation Rate
    EU_Step8_InternalGains;    !- EndUse Subcategory

ZONEVENTILATION:DESIGNFLOWRATE,
    EU_ConstantAir_ee59f26430f27ad4_F0_dwelling_0,    !- Name
    ee59f26430f27ad4_F0_dwelling_0,    !- Zone or ZoneList or Space or SpaceList Name
    EU_AlwaysOn,              !- Schedule Name
    AirChanges/Hour,          !- Design Flow Rate Calculation Method
    ,                         !- Design Flow Rate
    ,                         !- Flow Rate per Floor Area
    ,                         !- Flow Rate per Person
    0.7033018520864271,       !- Air Changes per Hour
    Natural,                  !- Ventilation Type
    0,                        !- Fan Pressure Rise
    1,                        !- Fan Total Efficiency
    1,                        !- Constant Term Coefficient
    0,                        !- Temperature Term Coefficient
    0,                        !- Velocity Term Coefficient
    0,                        !- Velocity Squared Term Coefficient
    -100,                     !- Minimum Indoor Temperature
    ,                         !- Minimum Indoor Temperature Schedule Name
    100,                      !- Maximum Indoor Temperature
    ,                         !- Maximum Indoor Temperature Schedule Name
    -100,                     !- Delta Temperature
    ,                         !- Delta Temperature Schedule Name
    -100,                     !- Minimum Outdoor Temperature
    ,                         !- Minimum Outdoor Temperature Schedule Name
    100,                      !- Maximum Outdoor Temperature
    ,                         !- Maximum Outdoor Temperature Schedule Name
    40;                       !- Maximum Wind Speed

HVACTEMPLATE:THERMOSTAT,
    EU_HeatOnly_ee59f26430f27ad4_F0_dwelling_0,    !- Name
    ,                         !- Heating Setpoint Schedule Name
    20,                       !- Constant Heating Setpoint
    ,                         !- Cooling Setpoint Schedule Name
    50;                       !- Constant Cooling Setpoint

HVACTEMPLATE:ZONE:IDEALLOADSAIRSYSTEM,
    ee59f26430f27ad4_F0_dwelling_0,    !- Zone Name
    EU_HeatOnly_ee59f26430f27ad4_F0_dwelling_0,    !- Template Thermostat Name
    EU_AlwaysOn,              !- System Availability Schedule Name
    50,                       !- Maximum Heating Supply Air Temperature
    13,                       !- Minimum Cooling Supply Air Temperature
    0.0156,                   !- Maximum Heating Supply Air Humidity Ratio
    0.0077,                   !- Minimum Cooling Supply Air Humidity Ratio
    NoLimit,                  !- Heating Limit
    ,                         !- Maximum Heating Air Flow Rate
    ,                         !- Maximum Sensible Heating Capacity
    NoLimit,                  !- Cooling Limit
    ,                         !- Maximum Cooling Air Flow Rate
    ,                         !- Maximum Total Cooling Capacity
    EU_AlwaysOn,              !- Heating Availability Schedule Name
    EU_CoolingOff,            !- Cooling Availability Schedule Name
    ConstantSensibleHeatRatio,    !- Dehumidification Control Type
    0.7,                      !- Cooling Sensible Heat Ratio
    60,                       !- Dehumidification Setpoint
    None,                     !- Humidification Control Type
    30,                       !- Humidification Setpoint
    None,                     !- Outdoor Air Method
    0.00944,                  !- Outdoor Air Flow Rate per Person
    0.0,                      !- Outdoor Air Flow Rate per Zone Floor Area
    0,                        !- Outdoor Air Flow Rate per Zone
    ,                         !- Design Specification Outdoor Air Object Name
    None,                     !- Demand Controlled Ventilation Type
    NoEconomizer,             !- Outdoor Air Economizer Type
    None,                     !- Heat Recovery Type
    0.70,                     !- Sensible Heat Recovery Effectiveness
    0.65;                     !- Latent Heat Recovery Effectiveness

SIZING:ZONE,
    ee59f26430f27ad4_F0_dwelling_0,    !- Zone or ZoneList Name
    SupplyAirTemperature,     !- Zone Cooling Design Supply Air Temperature Input Method
    13,                       !- Zone Cooling Design Supply Air Temperature
    ,                         !- Zone Cooling Design Supply Air Temperature Difference
    SupplyAirTemperature,     !- Zone Heating Design Supply Air Temperature Input Method
    50,                       !- Zone Heating Design Supply Air Temperature
    ,                         !- Zone Heating Design Supply Air Temperature Difference
    0.008,                    !- Zone Cooling Design Supply Air Humidity Ratio
    0.008,                    !- Zone Heating Design Supply Air Humidity Ratio
    ,                         !- Design Specification Outdoor Air Object Name
    ,                         !- Zone Heating Sizing Factor
    ,                         !- Zone Cooling Sizing Factor
    DesignDay,                !- Cooling Design Air Flow Method
    0,                        !- Cooling Design Air Flow Rate
    0.000762,                 !- Cooling Minimum Air Flow per Zone Floor Area
    0,                        !- Cooling Minimum Air Flow
    0.2,                      !- Cooling Minimum Air Flow Fraction
    DesignDay,                !- Heating Design Air Flow Method
    0,                        !- Heating Design Air Flow Rate
    0.002032,                 !- Heating Maximum Air Flow per Zone Floor Area
    0.1415762,                !- Heating Maximum Air Flow
    0.3,                      !- Heating Maximum Air Flow Fraction
    ,                         !- Design Specification Zone Air Distribution Object Name
    No,                       !- Account for Dedicated Outdoor Air System
    NeutralSupplyAir,         !- Dedicated Outdoor Air System Control Strategy
    autosize,                 !- Dedicated Outdoor Air Low Setpoint Temperature for Design
    autosize,                 !- Dedicated Outdoor Air High Setpoint Temperature for Design
    Sensible Load Only No Latent Load,    !- Zone Load Sizing Method
    HumidityRatioDifference,    !- Zone Latent Cooling Design Supply Air Humidity Ratio Input Method
    ,                         !- Zone Dehumidification Design Supply Air Humidity Ratio
    0.005,                    !- Zone Cooling Design Supply Air Humidity Ratio Difference
    HumidityRatioDifference,    !- Zone Latent Heating Design Supply Air Humidity Ratio Input Method
    ,                         !- Zone Humidification Design Supply Air Humidity Ratio
    0.005;                    !- Zone Humidification Design Supply Air Humidity Ratio Difference

OUTPUT:VARIABLE,
    *,                        !- Key Value
    Zone Ideal Loads Zone Total Heating Energy,    !- Variable Name
    Hourly;                   !- Reporting Frequency

OUTPUT:SQLITE,
    SimpleAndTabular,         !- Option Type
    UseOutputControlTableStyle;    !- Unit Conversion for Tabular Data