!- Windows Line endings 

Version,
    23.1;                     !- Version Identifier

SimulationControl,
    Yes,                      !- Do Zone Sizing Calculation
    Yes,                      !- Do System Sizing Calculation
    Yes,                      !- Do Plant Sizing Calculation
    No,                       !- Run Simulation for Sizing Periods
    Yes,                      !- Run Simulation for Weather File Run Periods
    No,                       !- Do HVAC Sizing Simulation for Sizing Periods
    1;                        !- Maximum Number of HVAC Sizing Simulation Passes

Building,
    EU S2 Campaign,           !- Name
    0,                        !- North Axis
    City,                     !- Terrain
    ,                         !- Loads Convergence Tolerance Value
    ,                         !- Temperature Convergence Tolerance Value
    FullExterior,             !- Solar Distribution
    ,                         !- Maximum Number of Warmup Days
    ;                         !- Minimum Number of Warmup Days

ShadowCalculation,
    PolygonClipping,          !- Shading Calculation Method
    Periodic,                 !- Shading Calculation Update Frequency Method
    1;                        !- Shading Calculation Update Frequency

HeatBalanceAlgorithm,
    ConductionTransferFunction,    !- Algorithm
    200,                      !- Surface Temperature Upper Limit
    0.1,                      !- Minimum Surface Convection Heat Transfer Coefficient Value
    10000000;                 !- Maximum Surface Convection Heat Transfer Coefficient Value

Timestep,
    12;                       !- Number of Timesteps per Hour

Site:Location,
    London,                   !- Name
    51.5,                     !- Latitude
    -0.5,                     !- Longitude
    0,                        !- Time Zone
    25;                       !- Elevation

SizingPeriod:WeatherFileDays,
    AnnualSizingPeriod,       !- Name
    1,                        !- Begin Month
    1,                        !- Begin Day of Month
    12,                       !- End Month
    31,                       !- End Day of Month
    Monday,                   !- Day of Week for Start Day
    No,                       !- Use Weather File Daylight Saving Period
    No;                       !- Use Weather File Rain and Snow Indicators

RunPeriod,
    RunPeriod1,               !- Name
    1,                        !- Begin Month
    1,                        !- Begin Day of Month
    ,                         !- Begin Year
    12,                       !- End Month
    31,                       !- End Day of Month
    ,                         !- End Year
    Sunday,                   !- Day of Week for Start Day
    No,                       !- Use Weather File Holidays and Special Days
    No,                       !- Use Weather File Daylight Saving Period
    No,                       !- Apply Weekend Holiday Rule
    Yes,                      !- Use Weather File Rain Indicators
    Yes;                      !- Use Weather File Snow Indicators

ScheduleTypeLimits,
    Any Number;               !- Name

SCHEDULETYPELIMITS,
    EU_Step8_AnyNumber_Wm2,    !- Name
    ,                         !- Lower Limit Value
    ,                         !- Upper Limit Value
    Continuous,               !- Numeric Type
    Dimensionless;            !- Unit Type

SCHEDULE:CONSTANT,
    EU_AlwaysOn,              !- Name
    ,                         !- Schedule Type Limits Name
    1;                        !- Hourly Value

SCHEDULE:CONSTANT,
    EU_CoolingOff,            !- Name
    ,                         !- Schedule Type Limits Name
    0;                        !- Hourly Value

SCHEDULE:FILE,
    EU_Step8_GainSchedule_5ff998a792035b20_F0_whole_f000,    !- Name
    EU_Step8_AnyNumber_Wm2,    !- Schedule Type Limits Name
    ../../schedules/5ff998a792035b20/5ff998a792035b20_F0_whole_f000_gain.csv,    !- File Name
    1,                        !- Column Number
    0,                        !- Rows to Skip at Top
    8760,                     !- Number of Hours of Data
    Comma,                    !- Column Separator
    No,                       !- Interpolate to Timestep
    60,                       !- Minutes per Item
    Yes;                      !- Adjust Schedule for Daylight Savings

SCHEDULE:FILE,
    EU_Step8_GainSchedule_5ff998a792035b20_F1_whole_f000,    !- Name
    EU_Step8_AnyNumber_Wm2,    !- Schedule Type Limits Name
    ../../schedules/5ff998a792035b20/5ff998a792035b20_F1_whole_f000_gain.csv,    !- File Name
    1,                        !- Column Number
    0,                        !- Rows to Skip at Top
    8760,                     !- Number of Hours of Data
    Comma,                    !- Column Separator
    No,                       !- Interpolate to Timestep
    60,                       !- Minutes per Item
    Yes;                      !- Adjust Schedule for Daylight Savings

SCHEDULE:FILE,
    EU_Step8_GainSchedule_5ff998a792035b20_F2_whole_f000,    !- Name
    EU_Step8_AnyNumber_Wm2,    !- Schedule Type Limits Name
    ../../schedules/5ff998a792035b20/5ff998a792035b20_F2_whole_f000_gain.csv,    !- File Name
    1,                        !- Column Number
    0,                        !- Rows to Skip at Top
    8760,                     !- Number of Hours of Data
    Comma,                    !- Column Separator
    No,                       !- Interpolate to Timestep
    60,                       !- Minutes per Item
    Yes;                      !- Adjust Schedule for Daylight Savings

MATERIAL,
    EU_InternalMass_Material,    !- Name
    MediumRough,              !- Roughness
    0.1,                      !- Thickness
    1,                        !- Conductivity
    1800,                     !- Density
    900,                      !- Specific Heat
    0.9,                      !- Thermal Absorptance
    0.7,                      !- Solar Absorptance
    0.7;                      !- Visible Absorptance

MATERIAL:NOMASS,
    EU_wall_NoMass,           !- Name
    MediumRough,              !- Roughness
    0.5313800352364193,       !- Thermal Resistance
    0.9,                      !- Thermal Absorptance
    0.7,                      !- Solar Absorptance
    0.7;                      !- Visible Absorptance

MATERIAL:NOMASS,
    EU_roof_NoMass,           !- Name
    MediumRough,              !- Roughness
    2.544663173478617,        !- Thermal Resistance
    0.9,                      !- Thermal Absorptance
    0.7,                      !- Solar Absorptance
    0.7;                      !- Visible Absorptance

MATERIAL:NOMASS,
    EU_floor_NoMass,          !- Name
    MediumRough,              !- Roughness
    1.9630823296648006,       !- Thermal Resistance
    0.9,                      !- Thermal Absorptance
    0.7,                      !- Solar Absorptance
    0.7;                      !- Visible Absorptance

CONSTRUCTION,
    EU_wall_Construction,     !- Name
    EU_wall_NoMass;           !- Outside Layer

CONSTRUCTION,
    EU_roof_Construction,     !- Name
    EU_roof_NoMass;           !- Outside Layer

CONSTRUCTION,
    EU_floor_Construction,    !- Name
    EU_floor_NoMass;          !- Outside Layer

CONSTRUCTION,
    EU_InternalMass_Construction,    !- Name
    EU_InternalMass_Material;    !- Outside Layer

GlobalGeometryRules,
    UpperLeftCorner,          !- Starting Vertex Position
    CounterClockWise,         !- Vertex Entry Direction
    World;                    !- Coordinate System

ZONE,
    5ff998a792035b20_F0_whole,    !- Name
    0,                        !- Direction of Relative North
    0,                        !- X Origin
    0,                        !- Y Origin
    0,                        !- Z Origin
    1,                        !- Type
    1,                        !- Multiplier
    autocalculate,            !- Ceiling Height
    257.8330078125,           !- Volume
    autocalculate,            !- Floor Area
    ,                         !- Zone Inside Convection Algorithm
    ,                         !- Zone Outside Convection Algorithm
    Yes;                      !- Part of Total Floor Area

ZONE,
    5ff998a792035b20_F1_whole,    !- Name
    0,                        !- Direction of Relative North
    0,                        !- X Origin
    0,                        !- Y Origin
    0,                        !- Z Origin
    1,                        !- Type
    1,                        !- Multiplier
    autocalculate,            !- Ceiling Height
    257.833740234375,         !- Volume
    autocalculate,            !- Floor Area
    ,                         !- Zone Inside Convection Algorithm
    ,                         !- Zone Outside Convection Algorithm
    Yes;                      !- Part of Total Floor Area

ZONE,
    5ff998a792035b20_F2_whole,    !- Name
    0,                        !- Direction of Relative North
    0,                        !- X Origin
    0,                        !- Y Origin
    0,                        !- Z Origin
    1,                        !- Type
    1,                        !- Multiplier
    autocalculate,            !- Ceiling Height
    257.833740234375,         !- Volume
    autocalculate,            !- Floor Area
    ,                         !- Zone Inside Convection Algorithm
    ,                         !- Zone Outside Convection Algorithm
    Yes;                      !- Part of Total Floor Area

BUILDINGSURFACE:DETAILED,
    Block 5ff998a792035b20_whole Storey 0 Wall 0001,    !- Name
    wall,                     !- Surface Type
    EU_wall_Construction,     !- Construction Name
    5ff998a792035b20_F0_whole,    !- Zone Name
    ,                         !- Space Name
    outdoors,                 !- Outside Boundary Condition
    ,                         !- Outside Boundary Condition Object
    SunExposed,               !- Sun Exposure
    WindExposed,              !- Wind Exposure
    autocalculate,            !- View Factor to Ground
    autocalculate,            !- Number of Vertices
    704713.29,                !- Vertex 1 Xcoordinate
    5711895.58,               !- Vertex 1 Ycoordinate
    3,                        !- Vertex 1 Zcoordinate
    704713.29,                !- Vertex 2 Xcoordinate
    5711895.58,               !- Vertex 2 Ycoordinate
    0,                        !- Vertex 2 Zcoordinate
    704709.05,                !- Vertex 3 Xcoordinate
    5711906.105,              !- Vertex 3 Ycoordinate
    0,                        !- Vertex 3 Zcoordinate
    704709.05,                !- Vertex 4 Xcoordinate
    5711906.105,              !- Vertex 4 Ycoordinate
    3;                        !- Vertex 4 Zcoordinate

BUILDINGSURFACE:DETAILED,
    Block 5ff998a792035b20_whole Storey 0 Wall 0002,    !- Name
    wall,                     !- Surface Type
    EU_wall_Construction,     !- Construction Name
    5ff998a792035b20_F0_whole,    !- Zone Name
    ,                         !- Space Name
    outdoors,                 !- Outside Boundary Condition
    ,                         !- Outside Boundary Condition Object
    SunExposed,               !- Sun Exposure
    WindExposed,              !- Wind Exposure
    autocalculate,            !- View Factor to Ground
    autocalculate,            !- Number of Vertices
    704709.05,                !- Vertex 1 Xcoordinate
    5711906.105,              !- Vertex 1 Ycoordinate
    3,                        !- Vertex 1 Zcoordinate
    704709.05,                !- Vertex 2 Xcoordinate
    5711906.105,              !- Vertex 2 Ycoordinate
    0,                        !- Vertex 2 Zcoordinate
    704716.075,               !- Vertex 3 Xcoordinate
    5711908.935,              !- Vertex 3 Ycoordinate
    0,                        !- Vertex 3 Zcoordinate
    704716.075,               !- Vertex 4 Xcoordinate
    5711908.935,              !- Vertex 4 Ycoordinate
    3;                        !- Vertex 4 Zcoordinate

BUILDINGSURFACE:DETAILED,
    Block 5ff998a792035b20_whole Storey 0 Wall 0003,    !- Name
    wall,                     !- Surface Type
    EU_wall_Construction,     !- Construction Name
    5ff998a792035b20_F0_whole,    !- Zone Name
    ,                         !- Space Name
    outdoors,                 !- Outside Boundary Condition
    ,                         !- Outside Boundary Condition Object
    SunExposed,               !- Sun Exposure
    WindExposed,              !- Wind Exposure
    autocalculate,            !- View Factor to Ground
    autocalculate,            !- Number of Vertices
    704716.075,               !- Vertex 1 Xcoordinate
    5711908.935,              !- Vertex 1 Ycoordinate
    3,                        !- Vertex 1 Zcoordinate
    704716.075,               !- Vertex 2 Xcoordinate
    5711908.935,              !- Vertex 2 Ycoordinate
    0,                        !- Vertex 2 Zcoordinate
    704720.315,               !- Vertex 3 Xcoordinate
    5711898.405,              !- Vertex 3 Ycoordinate
    0,                        !- Vertex 3 Zcoordinate
    704720.315,               !- Vertex 4 Xcoordinate
    5711898.405,              !- Vertex 4 Ycoordinate
    3;                        !- Vertex 4 Zcoordinate

BUILDINGSURFACE:DETAILED,
    Block 5ff998a792035b20_whole Storey 0 Wall 0004,    !- Name
    wall,                     !- Surface Type
    EU_wall_Construction,     !- Construction Name
    5ff998a792035b20_F0_whole,    !- Zone Name
    ,                         !- Space Name
    Adiabatic,                !- Outside Boundary Condition
    ,                         !- Outside Boundary Condition Object
    NoSun,                    !- Sun Exposure
    NoWind,                   !- Wind Exposure
    autocalculate,            !- View Factor to Ground
    autocalculate,            !- Number of Vertices
    704720.315,               !- Vertex 1 Xcoordinate
    5711898.405,              !- Vertex 1 Ycoordinate
    3,                        !- Vertex 1 Zcoordinate
    704720.315,               !- Vertex 2 Xcoordinate
    5711898.405,              !- Vertex 2 Ycoordinate
    0,                        !- Vertex 2 Zcoordinate
    704713.29,                !- Vertex 3 Xcoordinate
    5711895.58,               !- Vertex 3 Ycoordinate
    0,                        !- Vertex 3 Zcoordinate
    704713.29,                !- Vertex 4 Xcoordinate
    5711895.58,               !- Vertex 4 Ycoordinate
    3;                        !- Vertex 4 Zcoordinate

BUILDINGSURFACE:DETAILED,
    Block 5ff998a792035b20_whole Storey 0 Floor 0001,    !- Name
    floor,                    !- Surface Type
    EU_floor_Construction,    !- Construction Name
    5ff998a792035b20_F0_whole,    !- Zone Name
    ,                         !- Space Name
    ground,                   !- Outside Boundary Condition
    ,                         !- Outside Boundary Condition Object
    NoSun,                    !- Sun Exposure
    NoWind,                   !- Wind Exposure
    autocalculate,            !- View Factor to Ground
    autocalculate,            !- Number of Vertices
    704720.315,               !- Vertex 1 Xcoordinate
    5711898.405,              !- Vertex 1 Ycoordinate
    0,                        !- Vertex 1 Zcoordinate
    704716.075,               !- Vertex 2 Xcoordinate
    5711908.935,              !- Vertex 2 Ycoordinate
    0,                        !- Vertex 2 Zcoordinate
    704709.05,                !- Vertex 3 Xcoordinate
    5711906.105,              !- Vertex 3 Ycoordinate
    0,                        !- Vertex 3 Zcoordinate
    704713.29,                !- Vertex 4 Xcoordinate
    5711895.58,               !- Vertex 4 Ycoordinate
    0;                        !- Vertex 4 Zcoordinate

BUILDINGSURFACE:DETAILED,
    Block 5ff998a792035b20_whole Storey 1 Wall 0001,    !- Name
    wall,                     !- Surface Type
    EU_wall_Construction,     !- Construction Name
    5ff998a792035b20_F1_whole,    !- Zone Name
    ,                         !- Space Name
    outdoors,                 !- Outside Boundary Condition
    ,                         !- Outside Boundary Condition Object
    SunExposed,               !- Sun Exposure
    WindExposed,              !- Wind Exposure
    autocalculate,            !- View Factor to Ground
    autocalculate,            !- Number of Vertices
    704713.29,                !- Vertex 1 Xcoordinate
    5711895.58,               !- Vertex 1 Ycoordinate
    6,                        !- Vertex 1 Zcoordinate
    704713.29,                !- Vertex 2 Xcoordinate
    5711895.58,               !- Vertex 2 Ycoordinate
    3,                        !- Vertex 2 Zcoordinate
    704709.05,                !- Vertex 3 Xcoordinate
    5711906.105,              !- Vertex 3 Ycoordinate
    3,                        !- Vertex 3 Zcoordinate
    704709.05,                !- Vertex 4 Xcoordinate
    5711906.105,              !- Vertex 4 Ycoordinate
    6;                        !- Vertex 4 Zcoordinate

BUILDINGSURFACE:DETAILED,
    Block 5ff998a792035b20_whole Storey 1 Wall 0002,    !- Name
    wall,                     !- Surface Type
    EU_wall_Construction,     !- Construction Name
    5ff998a792035b20_F1_whole,    !- Zone Name
    ,                         !- Space Name
    outdoors,                 !- Outside Boundary Condition
    ,                         !- Outside Boundary Condition Object
    SunExposed,               !- Sun Exposure
    WindExposed,              !- Wind Exposure
    autocalculate,            !- View Factor to Ground
    autocalculate,            !- Number of Vertices
    704709.05,                !- Vertex 1 Xcoordinate
    5711906.105,              !- Vertex 1 Ycoordinate
    6,                        !- Vertex 1 Zcoordinate
    704709.05,                !- Vertex 2 Xcoordinate
    5711906.105,              !- Vertex 2 Ycoordinate
    3,                        !- Vertex 2 Zcoordinate
    704716.075,               !- Vertex 3 Xcoordinate
    5711908.935,              !- Vertex 3 Ycoordinate
    3,                        !- Vertex 3 Zcoordinate
    704716.075,               !- Vertex 4 Xcoordinate
    5711908.935,              !- Vertex 4 Ycoordinate
    6;                        !- Vertex 4 Zcoordinate

BUILDINGSURFACE:DETAILED,
    Block 5ff998a792035b20_whole Storey 1 Wall 0003,    !- Name
    wall,                     !- Surface Type
    EU_wall_Construction,     !- Construction Name
    5ff998a792035b20_F1_whole,    !- Zone Name
    ,                         !- Space Name
    outdoors,                 !- Outside Boundary Condition
    ,                         !- Outside Boundary Condition Object
    SunExposed,               !- Sun Exposure
    WindExposed,              !- Wind Exposure
    autocalculate,            !- View Factor to Ground
    autocalculate,            !- Number of Vertices
    704716.075,               !- Vertex 1 Xcoordinate
    5711908.935,              !- Vertex 1 Ycoordinate
    6,                        !- Vertex 1 Zcoordinate
    704716.075,               !- Vertex 2 Xcoordinate
    5711908.935,              !- Vertex 2 Ycoordinate
    3,                        !- Vertex 2 Zcoordinate
    704720.315,               !- Vertex 3 Xcoordinate
    5711898.405,              !- Vertex 3 Ycoordinate
    3,                        !- Vertex 3 Zcoordinate
    704720.315,               !- Vertex 4 Xcoordinate
    5711898.405,              !- Vertex 4 Ycoordinate
    6;                        !- Vertex 4 Zcoordinate

BUILDINGSURFACE:DETAILED,
    Block 5ff998a792035b20_whole Storey 1 Wall 0004,    !- Name
    wall,                     !- Surface Type
    EU_wall_Construction,     !- Construction Name
    5ff998a792035b20_F1_whole,    !- Zone Name
    ,                         !- Space Name
    Adiabatic,                !- Outside Boundary Condition
    ,                         !- Outside Boundary Condition Object
    NoSun,                    !- Sun Exposure
    NoWind,                   !- Wind Exposure
    autocalculate,            !- View Factor to Ground
    autocalculate,            !- Number of Vertices
    704720.315,               !- Vertex 1 Xcoordinate
    5711898.405,              !- Vertex 1 Ycoordinate
    6,                        !- Vertex 1 Zcoordinate
    704720.315,               !- Vertex 2 Xcoordinate
    5711898.405,              !- Vertex 2 Ycoordinate
    3,                        !- Vertex 2 Zcoordinate
    704713.29,                !- Vertex 3 Xcoordinate
    5711895.58,               !- Vertex 3 Ycoordinate
    3,                        !- Vertex 3 Zcoordinate
    704713.29,                !- Vertex 4 Xcoordinate
    5711895.58,               !- Vertex 4 Ycoordinate
    6;                        !- Vertex 4 Zcoordinate

BUILDINGSURFACE:DETAILED,
    Block 5ff998a792035b20_whole Storey 2 Wall 0001,    !- Name
    wall,                     !- Surface Type
    EU_wall_Construction,     !- Construction Name
    5ff998a792035b20_F2_whole,    !- Zone Name
    ,                         !- Space Name
    outdoors,                 !- Outside Boundary Condition
    ,                         !- Outside Boundary Condition Object
    SunExposed,               !- Sun Exposure
    WindExposed,              !- Wind Exposure
    autocalculate,            !- View Factor to Ground
    autocalculate,            !- Number of Vertices
    704713.29,                !- Vertex 1 Xcoordinate
    5711895.58,               !- Vertex 1 Ycoordinate
    9,                        !- Vertex 1 Zcoordinate
    704713.29,                !- Vertex 2 Xcoordinate
    5711895.58,               !- Vertex 2 Ycoordinate
    6,                        !- Vertex 2 Zcoordinate
    704709.05,                !- Vertex 3 Xcoordinate
    5711906.105,              !- Vertex 3 Ycoordinate
    6,                        !- Vertex 3 Zcoordinate
    704709.05,                !- Vertex 4 Xcoordinate
    5711906.105,              !- Vertex 4 Ycoordinate
    9;                        !- Vertex 4 Zcoordinate

BUILDINGSURFACE:DETAILED,
    Block 5ff998a792035b20_whole Storey 2 Wall 0002,    !- Name
    wall,                     !- Surface Type
    EU_wall_Construction,     !- Construction Name
    5ff998a792035b20_F2_whole,    !- Zone Name
    ,                         !- Space Name
    outdoors,                 !- Outside Boundary Condition
    ,                         !- Outside Boundary Condition Object
    SunExposed,               !- Sun Exposure
    WindExposed,              !- Wind Exposure
    autocalculate,            !- View Factor to Ground
    autocalculate,            !- Number of Vertices
    704709.05,                !- Vertex 1 Xcoordinate
    5711906.105,              !- Vertex 1 Ycoordinate
    9,                        !- Vertex 1 Zcoordinate
    704709.05,                !- Vertex 2 Xcoordinate
    5711906.105,              !- Vertex 2 Ycoordinate
    6,                        !- Vertex 2 Zcoordinate
    704716.075,               !- Vertex 3 Xcoordinate
    5711908.935,              !- Vertex 3 Ycoordinate
    6,                        !- Vertex 3 Zcoordinate
    704716.075,               !- Vertex 4 Xcoordinate
    5711908.935,              !- Vertex 4 Ycoordinate
    9;                        !- Vertex 4 Zcoordinate

BUILDINGSURFACE:DETAILED,
    Block 5ff998a792035b20_whole Storey 2 Wall 0003,    !- Name
    wall,                     !- Surface Type
    EU_wall_Construction,     !- Construction Name
    5ff998a792035b20_F2_whole,    !- Zone Name
    ,                         !- Space Name
    outdoors,                 !- Outside Boundary Condition
    ,                         !- Outside Boundary Condition Object
    SunExposed,               !- Sun Exposure
    WindExposed,              !- Wind Exposure
    autocalculate,            !- View Factor to Ground
    autocalculate,            !- Number of Vertices
    704716.075,               !- Vertex 1 Xcoordinate
    5711908.935,              !- Vertex 1 Ycoordinate
    9,                        !- Vertex 1 Zcoordinate
    704716.075,               !- Vertex 2 Xcoordinate
    5711908.935,              !- Vertex 2 Ycoordinate
    6,                        !- Vertex 2 Zcoordinate
    704720.315,               !- Vertex 3 Xcoordinate
    5711898.405,              !- Vertex 3 Ycoordinate
    6,                        !- Vertex 3 Zcoordinate
    704720.315,               !- Vertex 4 Xcoordinate
    5711898.405,              !- Vertex 4 Ycoordinate
    9;                        !- Vertex 4 Zcoordinate

BUILDINGSURFACE:DETAILED,
    Block 5ff998a792035b20_whole Storey 2 Wall 0004,    !- Name
    wall,                     !- Surface Type
    EU_wall_Construction,     !- Construction Name
    5ff998a792035b20_F2_whole,    !- Zone Name
    ,                         !- Space Name
    Adiabatic,                !- Outside Boundary Condition
    ,                         !- Outside Boundary Condition Object
    NoSun,                    !- Sun Exposure
    NoWind,                   !- Wind Exposure
    autocalculate,            !- View Factor to Ground
    autocalculate,            !- Number of Vertices
    704720.315,               !- Vertex 1 Xcoordinate
    5711898.405,              !- Vertex 1 Ycoordinate
    9,                        !- Vertex 1 Zcoordinate
    704720.315,               !- Vertex 2 Xcoordinate
    5711898.405,              !- Vertex 2 Ycoordinate
    6,                        !- Vertex 2 Zcoordinate
    704713.29,                !- Vertex 3 Xcoordinate
    5711895.58,               !- Vertex 3 Ycoordinate
    6,                        !- Vertex 3 Zcoordinate
    704713.29,                !- Vertex 4 Xcoordinate
    5711895.58,               !- Vertex 4 Ycoordinate
    9;                        !- Vertex 4 Zcoordinate

BUILDINGSURFACE:DETAILED,
    Block 5ff998a792035b20_whole Storey 2 Roof 0001,    !- Name
    roof,                     !- Surface Type
    EU_roof_Construction,     !- Construction Name
    5ff998a792035b20_F2_whole,    !- Zone Name
    ,                         !- Space Name
    outdoors,                 !- Outside Boundary Condition
    ,                         !- Outside Boundary Condition Object
    NoSun,                    !- Sun Exposure
    WindExposed,              !- Wind Exposure
    autocalculate,            !- View Factor to Ground
    autocalculate,            !- Number of Vertices
    704716.075,               !- Vertex 1 Xcoordinate
    5711908.935,              !- Vertex 1 Ycoordinate
    9,                        !- Vertex 1 Zcoordinate
    704720.315,               !- Vertex 2 Xcoordinate
    5711898.405,              !- Vertex 2 Ycoordinate
    9,                        !- Vertex 2 Zcoordinate
    704713.29,                !- Vertex 3 Xcoordinate
    5711895.58,               !- Vertex 3 Ycoordinate
    9,                        !- Vertex 3 Zcoordinate
    704709.05,                !- Vertex 4 Xcoordinate
    5711906.105,              !- Vertex 4 Ycoordinate
    9;                        !- Vertex 4 Zcoordinate

BUILDINGSURFACE:DETAILED,
    Block 5ff998a792035b20_whole Storey 0 Ceiling 0001_1,    !- Name
    ceiling,                  !- Surface Type
    EU_floor_Construction,    !- Construction Name
    5ff998a792035b20_F0_whole,    !- Zone Name
    ,                         !- Space Name
    Surface,                  !- Outside Boundary Condition
    Block 5ff998a792035b20_whole Storey 1 Floor 0001_1,    !- Outside Boundary Condition Object
    NoSun,                    !- Sun Exposure
    NoWind,                   !- Wind Exposure
    autocalculate,            !- View Factor to Ground
    autocalculate,            !- Number of Vertices
    704716.0749999997,        !- Vertex 1 Xcoordinate
    5711908.935,              !- Vertex 1 Ycoordinate
    3,                        !- Vertex 1 Zcoordinate
    704720.315,               !- Vertex 2 Xcoordinate
    5711898.405,              !- Vertex 2 Ycoordinate
    3,                        !- Vertex 2 Zcoordinate
    704713.29,                !- Vertex 3 Xcoordinate
    5711895.58,               !- Vertex 3 Ycoordinate
    3,                        !- Vertex 3 Zcoordinate
    704709.0499999998,        !- Vertex 4 Xcoordinate
    5711906.105,              !- Vertex 4 Ycoordinate
    3;                        !- Vertex 4 Zcoordinate

BUILDINGSURFACE:DETAILED,
    Block 5ff998a792035b20_whole Storey 1 Floor 0001_1,    !- Name
    floor,                    !- Surface Type
    EU_floor_Construction,    !- Construction Name
    5ff998a792035b20_F1_whole,    !- Zone Name
    ,                         !- Space Name
    Surface,                  !- Outside Boundary Condition
    Block 5ff998a792035b20_whole Storey 0 Ceiling 0001_1,    !- Outside Boundary Condition Object
    NoSun,                    !- Sun Exposure
    NoWind,                   !- Wind Exposure
    autocalculate,            !- View Factor to Ground
    autocalculate,            !- Number of Vertices
    704720.315,               !- Vertex 1 Xcoordinate
    5711898.405,              !- Vertex 1 Ycoordinate
    3,                        !- Vertex 1 Zcoordinate
    704716.0749999997,        !- Vertex 2 Xcoordinate
    5711908.935,              !- Vertex 2 Ycoordinate
    3,                        !- Vertex 2 Zcoordinate
    704709.0499999998,        !- Vertex 3 Xcoordinate
    5711906.105,              !- Vertex 3 Ycoordinate
    3,                        !- Vertex 3 Zcoordinate
    704713.29,                !- Vertex 4 Xcoordinate
    5711895.58,               !- Vertex 4 Ycoordinate
    3;                        !- Vertex 4 Zcoordinate

BUILDINGSURFACE:DETAILED,
    Block 5ff998a792035b20_whole Storey 1 Ceiling 0001_1,    !- Name
    ceiling,                  !- Surface Type
    EU_floor_Construction,    !- Construction Name
    5ff998a792035b20_F1_whole,    !- Zone Name
    ,                         !- Space Name
    Surface,                  !- Outside Boundary Condition
    Block 5ff998a792035b20_whole Storey 2 Floor 0001_1,    !- Outside Boundary Condition Object
    NoSun,                    !- Sun Exposure
    NoWind,                   !- Wind Exposure
    autocalculate,            !- View Factor to Ground
    autocalculate,            !- Number of Vertices
    704716.0749999997,        !- Vertex 1 Xcoordinate
    5711908.935,              !- Vertex 1 Ycoordinate
    6,                        !- Vertex 1 Zcoordinate
    704720.315,               !- Vertex 2 Xcoordinate
    5711898.405,              !- Vertex 2 Ycoordinate
    6,                        !- Vertex 2 Zcoordinate
    704713.29,                !- Vertex 3 Xcoordinate
    5711895.58,               !- Vertex 3 Ycoordinate
    6,                        !- Vertex 3 Zcoordinate
    704709.0499999998,        !- Vertex 4 Xcoordinate
    5711906.105,              !- Vertex 4 Ycoordinate
    6;                        !- Vertex 4 Zcoordinate

BUILDINGSURFACE:DETAILED,
    Block 5ff998a792035b20_whole Storey 2 Floor 0001_1,    !- Name
    floor,                    !- Surface Type
    EU_floor_Construction,    !- Construction Name
    5ff998a792035b20_F2_whole,    !- Zone Name
    ,                         !- Space Name
    Surface,                  !- Outside Boundary Condition
    Block 5ff998a792035b20_whole Storey 1 Ceiling 0001_1,    !- Outside Boundary Condition Object
    NoSun,                    !- Sun Exposure
    NoWind,                   !- Wind Exposure
    autocalculate,            !- View Factor to Ground
    autocalculate,            !- Number of Vertices
    704720.315,               !- Vertex 1 Xcoordinate
    5711898.405,              !- Vertex 1 Ycoordinate
    6,                        !- Vertex 1 Zcoordinate
    704716.0749999997,        !- Vertex 2 Xcoordinate
    5711908.935,              !- Vertex 2 Ycoordinate
    6,                        !- Vertex 2 Zcoordinate
    704709.0499999998,        !- Vertex 3 Xcoordinate
    5711906.105,              !- Vertex 3 Ycoordinate
    6,                        !- Vertex 3 Zcoordinate
    704713.29,                !- Vertex 4 Xcoordinate
    5711895.58,               !- Vertex 4 Ycoordinate
    6;                        !- Vertex 4 Zcoordinate

INTERNALMASS,
    5ff998a792035b20_F0_whole_EU_InternalMass,    !- Name
    EU_InternalMass_Construction,    !- Construction Name
    5ff998a792035b20_F0_whole,    !- Zone or ZoneList Name
    ,                         !- Space or SpaceList Name
    85.94428749652484;        !- Surface Area

INTERNALMASS,
    5ff998a792035b20_F1_whole_EU_InternalMass,    !- Name
    EU_InternalMass_Construction,    !- Construction Name
    5ff998a792035b20_F1_whole,    !- Zone or ZoneList Name
    ,                         !- Space or SpaceList Name
    85.94428749652484;        !- Surface Area

INTERNALMASS,
    5ff998a792035b20_F2_whole_EU_InternalMass,    !- Name
    EU_InternalMass_Construction,    !- Construction Name
    5ff998a792035b20_F2_whole,    !- Zone or ZoneList Name
    ,                         !- Space or SpaceList Name
    85.94428749652484;        !- Surface Area

SHADING:SITE:DETAILED,
    shade_way/394682359_1,    !- Name
    ,                         !- Transmittance Schedule Name
    autocalculate,            !- Number of Vertices
    704712.8211567681,        !- Vertex 1 Xcoordinate
    5711889.659722079,        !- Vertex 1 Ycoordinate
    9,                        !- Vertex 1 Zcoordinate
    704712.8211567681,        !- Vertex 2 Xcoordinate
    5711889.659722079,        !- Vertex 2 Ycoordinate
    0,                        !- Vertex 2 Zcoordinate
    704718.699357121,         !- Vertex 3 Xcoordinate
    5711879.993308936,        !- Vertex 3 Ycoordinate
    0,                        !- Vertex 3 Zcoordinate
    704718.699357121,         !- Vertex 4 Xcoordinate
    5711879.993308936,        !- Vertex 4 Ycoordinate
    9;                        !- Vertex 4 Zcoordinate

SHADING:SITE:DETAILED,
    shade_way/394682359_2,    !- Name
    ,                         !- Transmittance Schedule Name
    autocalculate,            !- Number of Vertices
    704718.699357121,         !- Vertex 1 Xcoordinate
    5711879.993308936,        !- Vertex 1 Ycoordinate
    9,                        !- Vertex 1 Zcoordinate
    704718.699357121,         !- Vertex 2 Xcoordinate
    5711879.993308936,        !- Vertex 2 Ycoordinate
    0,                        !- Vertex 2 Zcoordinate
    704709.1983606493,        !- Vertex 3 Xcoordinate
    5711874.216167071,        !- Vertex 3 Ycoordinate
    0,                        !- Vertex 3 Zcoordinate
    704709.1983606493,        !- Vertex 4 Xcoordinate
    5711874.216167071,        !- Vertex 4 Ycoordinate
    9;                        !- Vertex 4 Zcoordinate

SHADING:SITE:DETAILED,
    shade_way/394682359_3,    !- Name
    ,                         !- Transmittance Schedule Name
    autocalculate,            !- Number of Vertices
    704709.1983606493,        !- Vertex 1 Xcoordinate
    5711874.216167071,        !- Vertex 1 Ycoordinate
    9,                        !- Vertex 1 Zcoordinate
    704709.1983606493,        !- Vertex 2 Xcoordinate
    5711874.216167071,        !- Vertex 2 Ycoordinate
    0,                        !- Vertex 2 Zcoordinate
    704703.3208238815,        !- Vertex 3 Xcoordinate
    5711883.882879399,        !- Vertex 3 Ycoordinate
    0,                        !- Vertex 3 Zcoordinate
    704703.3208238815,        !- Vertex 4 Xcoordinate
    5711883.882879399,        !- Vertex 4 Ycoordinate
    9;                        !- Vertex 4 Zcoordinate

SHADING:SITE:DETAILED,
    shade_way/394682359_4,    !- Name
    ,                         !- Transmittance Schedule Name
    autocalculate,            !- Number of Vertices
    704703.3208238815,        !- Vertex 1 Xcoordinate
    5711883.882879399,        !- Vertex 1 Ycoordinate
    9,                        !- Vertex 1 Zcoordinate
    704703.3208238815,        !- Vertex 2 Xcoordinate
    5711883.882879399,        !- Vertex 2 Ycoordinate
    0,                        !- Vertex 2 Zcoordinate
    704712.8211567681,        !- Vertex 3 Xcoordinate
    5711889.659722079,        !- Vertex 3 Ycoordinate
    0,                        !- Vertex 3 Zcoordinate
    704712.8211567681,        !- Vertex 4 Xcoordinate
    5711889.659722079,        !- Vertex 4 Ycoordinate
    9;                        !- Vertex 4 Zcoordinate

SHADING:SITE:DETAILED,
    shade_way/394682357_1,    !- Name
    ,                         !- Transmittance Schedule Name
    autocalculate,            !- Number of Vertices
    704707.825933427,         !- Vertex 1 Xcoordinate
    5711886.539996858,        !- Vertex 1 Ycoordinate
    9,                        !- Vertex 1 Zcoordinate
    704707.825933427,         !- Vertex 2 Xcoordinate
    5711886.539996858,        !- Vertex 2 Ycoordinate
    0,                        !- Vertex 2 Zcoordinate
    704703.1601983407,        !- Vertex 3 Xcoordinate
    5711883.787867956,        !- Vertex 3 Ycoordinate
    0,                        !- Vertex 3 Zcoordinate
    704703.1601983407,        !- Vertex 4 Xcoordinate
    5711883.787867956,        !- Vertex 4 Ycoordinate
    9;                        !- Vertex 4 Zcoordinate

SHADING:SITE:DETAILED,
    shade_way/394682357_2,    !- Name
    ,                         !- Transmittance Schedule Name
    autocalculate,            !- Number of Vertices
    704703.1601983407,        !- Vertex 1 Xcoordinate
    5711883.787867956,        !- Vertex 1 Ycoordinate
    9,                        !- Vertex 1 Zcoordinate
    704703.1601983407,        !- Vertex 2 Xcoordinate
    5711883.787867956,        !- Vertex 2 Ycoordinate
    0,                        !- Vertex 2 Zcoordinate
    704700.5625192074,        !- Vertex 3 Xcoordinate
    5711888.192630434,        !- Vertex 3 Ycoordinate
    0,                        !- Vertex 3 Zcoordinate
    704700.5625192074,        !- Vertex 4 Xcoordinate
    5711888.192630434,        !- Vertex 4 Ycoordinate
    9;                        !- Vertex 4 Zcoordinate

SHADING:SITE:DETAILED,
    shade_way/394682357_3,    !- Name
    ,                         !- Transmittance Schedule Name
    autocalculate,            !- Number of Vertices
    704700.5625192074,        !- Vertex 1 Xcoordinate
    5711888.192630434,        !- Vertex 1 Ycoordinate
    9,                        !- Vertex 1 Zcoordinate
    704700.5625192074,        !- Vertex 2 Xcoordinate
    5711888.192630434,        !- Vertex 2 Ycoordinate
    0,                        !- Vertex 2 Zcoordinate
    704705.227989967,         !- Vertex 3 Xcoordinate
    5711890.944338506,        !- Vertex 3 Ycoordinate
    0,                        !- Vertex 3 Zcoordinate
    704705.227989967,         !- Vertex 4 Xcoordinate
    5711890.944338506,        !- Vertex 4 Ycoordinate
    9;                        !- Vertex 4 Zcoordinate

SHADING:SITE:DETAILED,
    shade_way/394682357_4,    !- Name
    ,                         !- Transmittance Schedule Name
    autocalculate,            !- Number of Vertices
    704705.227989967,         !- Vertex 1 Xcoordinate
    5711890.944338506,        !- Vertex 1 Ycoordinate
    9,                        !- Vertex 1 Zcoordinate
    704705.227989967,         !- Vertex 2 Xcoordinate
    5711890.944338506,        !- Vertex 2 Ycoordinate
    0,                        !- Vertex 2 Zcoordinate
    704707.825933427,         !- Vertex 3 Xcoordinate
    5711886.539996858,        !- Vertex 3 Ycoordinate
    0,                        !- Vertex 3 Zcoordinate
    704707.825933427,         !- Vertex 4 Xcoordinate
    5711886.539996858,        !- Vertex 4 Ycoordinate
    9;                        !- Vertex 4 Zcoordinate

SHADING:SITE:DETAILED,
    shade_way/394093225_1,    !- Name
    ,                         !- Transmittance Schedule Name
    autocalculate,            !- Number of Vertices
    704759.8614486929,        !- Vertex 1 Xcoordinate
    5711888.175607292,        !- Vertex 1 Ycoordinate
    9,                        !- Vertex 1 Zcoordinate
    704759.8614486929,        !- Vertex 2 Xcoordinate
    5711888.175607292,        !- Vertex 2 Ycoordinate
    0,                        !- Vertex 2 Zcoordinate
    704724.3132364884,        !- Vertex 3 Xcoordinate
    5711867.688836205,        !- Vertex 3 Ycoordinate
    0,                        !- Vertex 3 Zcoordinate
    704724.3132364884,        !- Vertex 4 Xcoordinate
    5711867.688836205,        !- Vertex 4 Ycoordinate
    9;                        !- Vertex 4 Zcoordinate

SHADING:SITE:DETAILED,
    shade_way/394093225_2,    !- Name
    ,                         !- Transmittance Schedule Name
    autocalculate,            !- Number of Vertices
    704724.3132364884,        !- Vertex 1 Xcoordinate
    5711867.688836205,        !- Vertex 1 Ycoordinate
    9,                        !- Vertex 1 Zcoordinate
    704724.3132364884,        !- Vertex 2 Xcoordinate
    5711867.688836205,        !- Vertex 2 Ycoordinate
    0,                        !- Vertex 2 Zcoordinate
    704705.5409700817,        !- Vertex 3 Xcoordinate
    5711900.2620761255,       !- Vertex 3 Ycoordinate
    0,                        !- Vertex 3 Zcoordinate
    704705.5409700817,        !- Vertex 4 Xcoordinate
    5711900.2620761255,       !- Vertex 4 Ycoordinate
    9;                        !- Vertex 4 Zcoordinate

SHADING:SITE:DETAILED,
    shade_way/394093225_3,    !- Name
    ,                         !- Transmittance Schedule Name
    autocalculate,            !- Number of Vertices
    704705.5409700817,        !- Vertex 1 Xcoordinate
    5711900.2620761255,       !- Vertex 1 Ycoordinate
    9,                        !- Vertex 1 Zcoordinate
    704705.5409700817,        !- Vertex 2 Xcoordinate
    5711900.2620761255,       !- Vertex 2 Ycoordinate
    0,                        !- Vertex 2 Zcoordinate
    704741.089182286,         !- Vertex 3 Xcoordinate
    5711920.748847212,        !- Vertex 3 Ycoordinate
    0,                        !- Vertex 3 Zcoordinate
    704741.089182286,         !- Vertex 4 Xcoordinate
    5711920.748847212,        !- Vertex 4 Ycoordinate
    9;                        !- Vertex 4 Zcoordinate

SHADING:SITE:DETAILED,
    shade_way/394093225_4,    !- Name
    ,                         !- Transmittance Schedule Name
    autocalculate,            !- Number of Vertices
    704741.089182286,         !- Vertex 1 Xcoordinate
    5711920.748847212,        !- Vertex 1 Ycoordinate
    9,                        !- Vertex 1 Zcoordinate
    704741.089182286,         !- Vertex 2 Xcoordinate
    5711920.748847212,        !- Vertex 2 Ycoordinate
    0,                        !- Vertex 2 Zcoordinate
    704759.8614486929,        !- Vertex 3 Xcoordinate
    5711888.175607292,        !- Vertex 3 Ycoordinate
    0,                        !- Vertex 3 Zcoordinate
    704759.8614486929,        !- Vertex 4 Xcoordinate
    5711888.175607292,        !- Vertex 4 Ycoordinate
    9;                        !- Vertex 4 Zcoordinate

SHADING:SITE:DETAILED,
    shade_way/396524027_1,    !- Name
    ,                         !- Transmittance Schedule Name
    autocalculate,            !- Number of Vertices
    704696.9952216069,        !- Vertex 1 Xcoordinate
    5711894.1290259715,       !- Vertex 1 Ycoordinate
    12,                       !- Vertex 1 Zcoordinate
    704696.9952216069,        !- Vertex 2 Xcoordinate
    5711894.1290259715,       !- Vertex 2 Ycoordinate
    0,                        !- Vertex 2 Zcoordinate
    704711.4560126531,        !- Vertex 3 Xcoordinate
    5711900.069036917,        !- Vertex 3 Ycoordinate
    0,                        !- Vertex 3 Zcoordinate
    704711.4560126531,        !- Vertex 4 Xcoordinate
    5711900.069036917,        !- Vertex 4 Ycoordinate
    12;                       !- Vertex 4 Zcoordinate

SHADING:SITE:DETAILED,
    shade_way/396524027_2,    !- Name
    ,                         !- Transmittance Schedule Name
    autocalculate,            !- Number of Vertices
    704711.4560126531,        !- Vertex 1 Xcoordinate
    5711900.069036917,        !- Vertex 1 Ycoordinate
    12,                       !- Vertex 1 Zcoordinate
    704711.4560126531,        !- Vertex 2 Xcoordinate
    5711900.069036917,        !- Vertex 2 Ycoordinate
    0,                        !- Vertex 2 Zcoordinate
    704714.0580172942,        !- Vertex 3 Xcoordinate
    5711893.736366264,        !- Vertex 3 Ycoordinate
    0,                        !- Vertex 3 Zcoordinate
    704714.0580172942,        !- Vertex 4 Xcoordinate
    5711893.736366264,        !- Vertex 4 Ycoordinate
    12;                       !- Vertex 4 Zcoordinate

SHADING:SITE:DETAILED,
    shade_way/396524027_3,    !- Name
    ,                         !- Transmittance Schedule Name
    autocalculate,            !- Number of Vertices
    704714.0580172942,        !- Vertex 1 Xcoordinate
    5711893.736366264,        !- Vertex 1 Ycoordinate
    12,                       !- Vertex 1 Zcoordinate
    704714.0580172942,        !- Vertex 2 Xcoordinate
    5711893.736366264,        !- Vertex 2 Ycoordinate
    0,                        !- Vertex 2 Zcoordinate
    704699.5972262492,        !- Vertex 3 Xcoordinate
    5711887.796355314,        !- Vertex 3 Ycoordinate
    0,                        !- Vertex 3 Zcoordinate
    704699.5972262492,        !- Vertex 4 Xcoordinate
    5711887.796355314,        !- Vertex 4 Ycoordinate
    12;                       !- Vertex 4 Zcoordinate

SHADING:SITE:DETAILED,
    shade_way/396524027_4,    !- Name
    ,                         !- Transmittance Schedule Name
    autocalculate,            !- Number of Vertices
    704699.5972262492,        !- Vertex 1 Xcoordinate
    5711887.796355314,        !- Vertex 1 Ycoordinate
    12,                       !- Vertex 1 Zcoordinate
    704699.5972262492,        !- Vertex 2 Xcoordinate
    5711887.796355314,        !- Vertex 2 Ycoordinate
    0,                        !- Vertex 2 Zcoordinate
    704696.9952216069,        !- Vertex 3 Xcoordinate
    5711894.1290259715,       !- Vertex 3 Ycoordinate
    0,                        !- Vertex 3 Zcoordinate
    704696.9952216069,        !- Vertex 4 Xcoordinate
    5711894.1290259715,       !- Vertex 4 Ycoordinate
    12;                       !- Vertex 4 Zcoordinate

SHADING:SITE:DETAILED,
    shade_way/394093229_1,    !- Name
    ,                         !- Transmittance Schedule Name
    autocalculate,            !- Number of Vertices
    704711.5263077015,        !- Vertex 1 Xcoordinate
    5711900.098146834,        !- Vertex 1 Ycoordinate
    12,                       !- Vertex 1 Zcoordinate
    704711.5263077015,        !- Vertex 2 Xcoordinate
    5711900.098146834,        !- Vertex 2 Ycoordinate
    0,                        !- Vertex 2 Zcoordinate
    704696.3715684394,        !- Vertex 3 Xcoordinate
    5711893.873085088,        !- Vertex 3 Ycoordinate
    0,                        !- Vertex 3 Zcoordinate
    704696.3715684394,        !- Vertex 4 Xcoordinate
    5711893.873085088,        !- Vertex 4 Ycoordinate
    12;                       !- Vertex 4 Zcoordinate

SHADING:SITE:DETAILED,
    shade_way/394093229_2,    !- Name
    ,                         !- Transmittance Schedule Name
    autocalculate,            !- Number of Vertices
    704696.3715684394,        !- Vertex 1 Xcoordinate
    5711893.873085088,        !- Vertex 1 Ycoordinate
    12,                       !- Vertex 1 Zcoordinate
    704696.3715684394,        !- Vertex 2 Xcoordinate
    5711893.873085088,        !- Vertex 2 Ycoordinate
    0,                        !- Vertex 2 Zcoordinate
    704693.9971254047,        !- Vertex 3 Xcoordinate
    5711899.653600462,        !- Vertex 3 Ycoordinate
    0,                        !- Vertex 3 Zcoordinate
    704693.9971254047,        !- Vertex 4 Xcoordinate
    5711899.653600462,        !- Vertex 4 Ycoordinate
    12;                       !- Vertex 4 Zcoordinate

SHADING:SITE:DETAILED,
    shade_way/394093229_3,    !- Name
    ,                         !- Transmittance Schedule Name
    autocalculate,            !- Number of Vertices
    704693.9971254047,        !- Vertex 1 Xcoordinate
    5711899.653600462,        !- Vertex 1 Ycoordinate
    12,                       !- Vertex 1 Zcoordinate
    704693.9971254047,        !- Vertex 2 Xcoordinate
    5711899.653600462,        !- Vertex 2 Ycoordinate
    0,                        !- Vertex 2 Zcoordinate
    704709.1513016012,        !- Vertex 3 Xcoordinate
    5711905.878195865,        !- Vertex 3 Ycoordinate
    0,                        !- Vertex 3 Zcoordinate
    704709.1513016012,        !- Vertex 4 Xcoordinate
    5711905.878195865,        !- Vertex 4 Ycoordinate
    12;                       !- Vertex 4 Zcoordinate

SHADING:SITE:DETAILED,
    shade_way/394093229_4,    !- Name
    ,                         !- Transmittance Schedule Name
    autocalculate,            !- Number of Vertices
    704709.1513016012,        !- Vertex 1 Xcoordinate
    5711905.878195865,        !- Vertex 1 Ycoordinate
    12,                       !- Vertex 1 Zcoordinate
    704709.1513016012,        !- Vertex 2 Xcoordinate
    5711905.878195865,        !- Vertex 2 Ycoordinate
    0,                        !- Vertex 2 Zcoordinate
    704711.5263077015,        !- Vertex 3 Xcoordinate
    5711900.098146834,        !- Vertex 3 Ycoordinate
    0,                        !- Vertex 3 Zcoordinate
    704711.5263077015,        !- Vertex 4 Xcoordinate
    5711900.098146834,        !- Vertex 4 Ycoordinate
    12;                       !- Vertex 4 Zcoordinate

SHADING:SITE:DETAILED,
    shade_way/394093227_1,    !- Name
    ,                         !- Transmittance Schedule Name
    autocalculate,            !- Number of Vertices
    704719.8527597061,        !- Vertex 1 Xcoordinate
    5711899.676767423,        !- Vertex 1 Ycoordinate
    9,                        !- Vertex 1 Zcoordinate
    704719.8527597061,        !- Vertex 2 Xcoordinate
    5711899.676767423,        !- Vertex 2 Ycoordinate
    0,                        !- Vertex 2 Zcoordinate
    704716.0907965957,        !- Vertex 3 Xcoordinate
    5711908.997949921,        !- Vertex 3 Ycoordinate
    0,                        !- Vertex 3 Zcoordinate
    704716.0907965957,        !- Vertex 4 Xcoordinate
    5711908.997949921,        !- Vertex 4 Ycoordinate
    9;                        !- Vertex 4 Zcoordinate

SHADING:SITE:DETAILED,
    shade_way/394093227_2,    !- Name
    ,                         !- Transmittance Schedule Name
    autocalculate,            !- Number of Vertices
    704716.0907965957,        !- Vertex 1 Xcoordinate
    5711908.997949921,        !- Vertex 1 Ycoordinate
    9,                        !- Vertex 1 Zcoordinate
    704716.0907965957,        !- Vertex 2 Xcoordinate
    5711908.997949921,        !- Vertex 2 Ycoordinate
    0,                        !- Vertex 2 Zcoordinate
    704722.425285546,         !- Vertex 3 Xcoordinate
    5711911.554272412,        !- Vertex 3 Ycoordinate
    0,                        !- Vertex 3 Zcoordinate
    704722.425285546,         !- Vertex 4 Xcoordinate
    5711911.554272412,        !- Vertex 4 Ycoordinate
    9;                        !- Vertex 4 Zcoordinate

SHADING:SITE:DETAILED,
    shade_way/394093227_3,    !- Name
    ,                         !- Transmittance Schedule Name
    autocalculate,            !- Number of Vertices
    704722.425285546,         !- Vertex 1 Xcoordinate
    5711911.554272412,        !- Vertex 1 Ycoordinate
    9,                        !- Vertex 1 Zcoordinate
    704722.425285546,         !- Vertex 2 Xcoordinate
    5711911.554272412,        !- Vertex 2 Ycoordinate
    0,                        !- Vertex 2 Zcoordinate
    704726.1872364224,        !- Vertex 3 Xcoordinate
    5711902.23371184,         !- Vertex 3 Ycoordinate
    0,                        !- Vertex 3 Zcoordinate
    704726.1872364224,        !- Vertex 4 Xcoordinate
    5711902.23371184,         !- Vertex 4 Ycoordinate
    9;                        !- Vertex 4 Zcoordinate

SHADING:SITE:DETAILED,
    shade_way/394093227_4,    !- Name
    ,                         !- Transmittance Schedule Name
    autocalculate,            !- Number of Vertices
    704726.1872364224,        !- Vertex 1 Xcoordinate
    5711902.23371184,         !- Vertex 1 Ycoordinate
    9,                        !- Vertex 1 Zcoordinate
    704726.1872364224,        !- Vertex 2 Xcoordinate
    5711902.23371184,         !- Vertex 2 Ycoordinate
    0,                        !- Vertex 2 Zcoordinate
    704719.8527597061,        !- Vertex 3 Xcoordinate
    5711899.676767423,        !- Vertex 3 Ycoordinate
    0,                        !- Vertex 3 Zcoordinate
    704719.8527597061,        !- Vertex 4 Xcoordinate
    5711899.676767423,        !- Vertex 4 Ycoordinate
    9;                        !- Vertex 4 Zcoordinate

SHADING:SITE:DETAILED,
    shade_way/394093226_1,    !- Name
    ,                         !- Transmittance Schedule Name
    autocalculate,            !- Number of Vertices
    704726.1872364224,        !- Vertex 1 Xcoordinate
    5711902.23371184,         !- Vertex 1 Ycoordinate
    9,                        !- Vertex 1 Zcoordinate
    704726.1872364224,        !- Vertex 2 Xcoordinate
    5711902.23371184,         !- Vertex 2 Ycoordinate
    0,                        !- Vertex 2 Zcoordinate
    704722.4280301138,        !- Vertex 3 Xcoordinate
    5711911.547737631,        !- Vertex 3 Ycoordinate
    0,                        !- Vertex 3 Zcoordinate
    704722.4280301138,        !- Vertex 4 Xcoordinate
    5711911.547737631,        !- Vertex 4 Ycoordinate
    9;                        !- Vertex 4 Zcoordinate

SHADING:SITE:DETAILED,
    shade_way/394093226_2,    !- Name
    ,                         !- Transmittance Schedule Name
    autocalculate,            !- Number of Vertices
    704722.4280301138,        !- Vertex 1 Xcoordinate
    5711911.547737631,        !- Vertex 1 Ycoordinate
    9,                        !- Vertex 1 Zcoordinate
    704722.4280301138,        !- Vertex 2 Xcoordinate
    5711911.547737631,        !- Vertex 2 Ycoordinate
    0,                        !- Vertex 2 Zcoordinate
    704730.0931368188,        !- Vertex 3 Xcoordinate
    5711914.641385271,        !- Vertex 3 Ycoordinate
    0,                        !- Vertex 3 Zcoordinate
    704730.0931368188,        !- Vertex 4 Xcoordinate
    5711914.641385271,        !- Vertex 4 Ycoordinate
    9;                        !- Vertex 4 Zcoordinate

SHADING:SITE:DETAILED,
    shade_way/394093226_3,    !- Name
    ,                         !- Transmittance Schedule Name
    autocalculate,            !- Number of Vertices
    704730.0931368188,        !- Vertex 1 Xcoordinate
    5711914.641385271,        !- Vertex 1 Ycoordinate
    9,                        !- Vertex 1 Zcoordinate
    704730.0931368188,        !- Vertex 2 Xcoordinate
    5711914.641385271,        !- Vertex 2 Ycoordinate
    0,                        !- Vertex 2 Zcoordinate
    704733.8523431274,        !- Vertex 3 Xcoordinate
    5711905.327359479,        !- Vertex 3 Ycoordinate
    0,                        !- Vertex 3 Zcoordinate
    704733.8523431274,        !- Vertex 4 Xcoordinate
    5711905.327359479,        !- Vertex 4 Ycoordinate
    9;                        !- Vertex 4 Zcoordinate

SHADING:SITE:DETAILED,
    shade_way/394093226_4,    !- Name
    ,                         !- Transmittance Schedule Name
    autocalculate,            !- Number of Vertices
    704733.8523431274,        !- Vertex 1 Xcoordinate
    5711905.327359479,        !- Vertex 1 Ycoordinate
    9,                        !- Vertex 1 Zcoordinate
    704733.8523431274,        !- Vertex 2 Xcoordinate
    5711905.327359479,        !- Vertex 2 Ycoordinate
    0,                        !- Vertex 2 Zcoordinate
    704726.1872364224,        !- Vertex 3 Xcoordinate
    5711902.23371184,         !- Vertex 3 Ycoordinate
    0,                        !- Vertex 3 Zcoordinate
    704726.1872364224,        !- Vertex 4 Xcoordinate
    5711902.23371184,         !- Vertex 4 Ycoordinate
    9;                        !- Vertex 4 Zcoordinate

OTHEREQUIPMENT,
    EU_Step8_InternalGain_5ff998a792035b20_F0_whole_f000,    !- Name
    Electricity,              !- Fuel Type
    5ff998a792035b20_F0_whole,    !- Zone or ZoneList or Space or SpaceList Name
    EU_Step8_GainSchedule_5ff998a792035b20_F0_whole_f000,    !- Schedule Name
    Watts/Area,               !- Design Level Calculation Method
    ,                         !- Design Level
    1,                        !- Power per Zone Floor Area
    ,                         !- Power per Person
    0,                        !- Fraction Latent
    0,                        !- Fraction Radiant
    0,                        !- Fraction Lost
    0,                        !- Carbon Dioxide Generation Rate
    EU_Step8_InternalGains;    !- EndUse Subcategory

OTHEREQUIPMENT,
    EU_Step8_InternalGain_5ff998a792035b20_F1_whole_f000,    !- Name
    Electricity,              !- Fuel Type
    5ff998a792035b20_F1_whole,    !- Zone or ZoneList or Space or SpaceList Name
    EU_Step8_GainSchedule_5ff998a792035b20_F1_whole_f000,    !- Schedule Name
    Watts/Area,               !- Design Level Calculation Method
    ,                         !- Design Level
    1,                        !- Power per Zone Floor Area
    ,                         !- Power per Person
    0,                        !- Fraction Latent
    0,                        !- Fraction Radiant
    0,                        !- Fraction Lost
    0,                        !- Carbon Dioxide Generation Rate
    EU_Step8_InternalGains;    !- EndUse Subcategory

OTHEREQUIPMENT,
    EU_Step8_InternalGain_5ff998a792035b20_F2_whole_f000,    !- Name
    Electricity,              !- Fuel Type
    5ff998a792035b20_F2_whole,    !- Zone or ZoneList or Space or SpaceList Name
    EU_Step8_GainSchedule_5ff998a792035b20_F2_whole_f000,    !- Schedule Name
    Watts/Area,               !- Design Level Calculation Method
    ,                         !- Design Level
    1,                        !- Power per Zone Floor Area
    ,                         !- Power per Person
    0,                        !- Fraction Latent
    0,                        !- Fraction Radiant
    0,                        !- Fraction Lost
    0,                        !- Carbon Dioxide Generation Rate
    EU_Step8_InternalGains;    !- EndUse Subcategory

ZONEVENTILATION:DESIGNFLOWRATE,
    EU_ConstantAir_5ff998a792035b20_F0_whole,    !- Name
    5ff998a792035b20_F0_whole,    !- Zone or ZoneList or Space or SpaceList Name
    EU_AlwaysOn,              !- Schedule Name
    AirChanges/Hour,          !- Design Flow Rate Calculation Method
    ,                         !- Design Flow Rate
    ,                         !- Flow Rate per Floor Area
    ,                         !- Flow Rate per Person
    0.4630936234070926,       !- Air Changes per Hour
    Natural,                  !- Ventilation Type
    0,                        !- Fan Pressure Rise
    1,                        !- Fan Total Efficiency
    1,                        !- Constant Term Coefficient
    0,                        !- Temperature Term Coefficient
    0,                        !- Velocity Term Coefficient
    0,                        !- Velocity Squared Term Coefficient
    -100,                     !- Minimum Indoor Temperature
    ,                         !- Minimum Indoor Temperature Schedule Name
    100,                      !- Maximum Indoor Temperature
    ,                         !- Maximum Indoor Temperature Schedule Name
    -100,                     !- Delta Temperature
    ,                         !- Delta Temperature Schedule Name
    -100,                     !- Minimum Outdoor Temperature
    ,                         !- Minimum Outdoor Temperature Schedule Name
    100,                      !- Maximum Outdoor Temperature
    ,                         !- Maximum Outdoor Temperature Schedule Name
    40;                       !- Maximum Wind Speed

ZONEVENTILATION:DESIGNFLOWRATE,
    EU_ConstantAir_5ff998a792035b20_F1_whole,    !- Name
    5ff998a792035b20_F1_whole,    !- Zone or ZoneList or Space or SpaceList Name
    EU_AlwaysOn,              !- Schedule Name
    AirChanges/Hour,          !- Design Flow Rate Calculation Method
    ,                         !- Design Flow Rate
    ,                         !- Flow Rate per Floor Area
    ,                         !- Flow Rate per Person
    0.4630936234070926,       !- Air Changes per Hour
    Natural,                  !- Ventilation Type
    0,                        !- Fan Pressure Rise
    1,                        !- Fan Total Efficiency
    1,                        !- Constant Term Coefficient
    0,                        !- Temperature Term Coefficient
    0,                        !- Velocity Term Coefficient
    0,                        !- Velocity Squared Term Coefficient
    -100,                     !- Minimum Indoor Temperature
    ,                         !- Minimum Indoor Temperature Schedule Name
    100,                      !- Maximum Indoor Temperature
    ,                         !- Maximum Indoor Temperature Schedule Name
    -100,                     !- Delta Temperature
    ,                         !- Delta Temperature Schedule Name
    -100,                     !- Minimum Outdoor Temperature
    ,                         !- Minimum Outdoor Temperature Schedule Name
    100,                      !- Maximum Outdoor Temperature
    ,                         !- Maximum Outdoor Temperature Schedule Name
    40;                       !- Maximum Wind Speed

ZONEVENTILATION:DESIGNFLOWRATE,
    EU_ConstantAir_5ff998a792035b20_F2_whole,    !- Name
    5ff998a792035b20_F2_whole,    !- Zone or ZoneList or Space or SpaceList Name
    EU_AlwaysOn,              !- Schedule Name
    AirChanges/Hour,          !- Design Flow Rate Calculation Method
    ,                         !- Design Flow Rate
    ,                         !- Flow Rate per Floor Area
    ,                         !- Flow Rate per Person
    0.4630936234070926,       !- Air Changes per Hour
    Natural,                  !- Ventilation Type
    0,                        !- Fan Pressure Rise
    1,                        !- Fan Total Efficiency
    1,                        !- Constant Term Coefficient
    0,                        !- Temperature Term Coefficient
    0,                        !- Velocity Term Coefficient
    0,                        !- Velocity Squared Term Coefficient
    -100,                     !- Minimum Indoor Temperature
    ,                         !- Minimum Indoor Temperature Schedule Name
    100,                      !- Maximum Indoor Temperature
    ,                         !- Maximum Indoor Temperature Schedule Name
    -100,                     !- Delta Temperature
    ,                         !- Delta Temperature Schedule Name
    -100,                     !- Minimum Outdoor Temperature
    ,                         !- Minimum Outdoor Temperature Schedule Name
    100,                      !- Maximum Outdoor Temperature
    ,                         !- Maximum Outdoor Temperature Schedule Name
    40;                       !- Maximum Wind Speed

HVACTEMPLATE:THERMOSTAT,
    EU_HeatOnly_5ff998a792035b20_F0_whole,    !- Name
    ,                         !- Heating Setpoint Schedule Name
    20,                       !- Constant Heating Setpoint
    ,                         !- Cooling Setpoint Schedule Name
    50;                       !- Constant Cooling Setpoint

HVACTEMPLATE:THERMOSTAT,
    EU_HeatOnly_5ff998a792035b20_F1_whole,    !- Name
    ,                         !- Heating Setpoint Schedule Name
    20,                       !- Constant Heating Setpoint
    ,                         !- Cooling Setpoint Schedule Name
    50;                       !- Constant Cooling Setpoint

HVACTEMPLATE:THERMOSTAT,
    EU_HeatOnly_5ff998a792035b20_F2_whole,    !- Name
    ,                         !- Heating Setpoint Schedule Name
    20,                       !- Constant Heating Setpoint
    ,                         !- Cooling Setpoint Schedule Name
    50;                       !- Constant Cooling Setpoint

HVACTEMPLATE:ZONE:IDEALLOADSAIRSYSTEM,
    5ff998a792035b20_F0_whole,    !- Zone Name
    EU_HeatOnly_5ff998a792035b20_F0_whole,    !- Template Thermostat Name
    EU_AlwaysOn,              !- System Availability Schedule Name
    50,                       !- Maximum Heating Supply Air Temperature
    13,                       !- Minimum Cooling Supply Air Temperature
    0.0156,                   !- Maximum Heating Supply Air Humidity Ratio
    0.0077,                   !- Minimum Cooling Supply Air Humidity Ratio
    NoLimit,                  !- Heating Limit
    ,                         !- Maximum Heating Air Flow Rate
    ,                         !- Maximum Sensible Heating Capacity
    NoLimit,                  !- Cooling Limit
    ,                         !- Maximum Cooling Air Flow Rate
    ,                         !- Maximum Total Cooling Capacity
    EU_AlwaysOn,              !- Heating Availability Schedule Name
    EU_CoolingOff,            !- Cooling Availability Schedule Name
    ConstantSensibleHeatRatio,    !- Dehumidification Control Type
    0.7,                      !- Cooling Sensible Heat Ratio
    60,                       !- Dehumidification Setpoint
    None,                     !- Humidification Control Type
    30,                       !- Humidification Setpoint
    None,                     !- Outdoor Air Method
    0.00944,                  !- Outdoor Air Flow Rate per Person
    0.0,                      !- Outdoor Air Flow Rate per Zone Floor Area
    0,                        !- Outdoor Air Flow Rate per Zone
    ,                         !- Design Specification Outdoor Air Object Name
    None,                     !- Demand Controlled Ventilation Type
    NoEconomizer,             !- Outdoor Air Economizer Type
    None,                     !- Heat Recovery Type
    0.70,                     !- Sensible Heat Recovery Effectiveness
    0.65;                     !- Latent Heat Recovery Effectiveness

HVACTEMPLATE:ZONE:IDEALLOADSAIRSYSTEM,
    5ff998a792035b20_F1_whole,    !- Zone Name
    EU_HeatOnly_5ff998a792035b20_F1_whole,    !- Template Thermostat Name
    EU_AlwaysOn,              !- System Availability Schedule Name
    50,                       !- Maximum Heating Supply Air Temperature
    13,                       !- Minimum Cooling Supply Air Temperature
    0.0156,                   !- Maximum Heating Supply Air Humidity Ratio
    0.0077,                   !- Minimum Cooling Supply Air Humidity Ratio
    NoLimit,                  !- Heating Limit
    ,                         !- Maximum Heating Air Flow Rate
    ,                         !- Maximum Sensible Heating Capacity
    NoLimit,                  !- Cooling Limit
    ,                         !- Maximum Cooling Air Flow Rate
    ,                         !- Maximum Total Cooling Capacity
    EU_AlwaysOn,              !- Heating Availability Schedule Name
    EU_CoolingOff,            !- Cooling Availability Schedule Name
    ConstantSensibleHeatRatio,    !- Dehumidification Control Type
    0.7,                      !- Cooling Sensible Heat Ratio
    60,                       !- Dehumidification Setpoint
    None,                     !- Humidification Control Type
    30,                       !- Humidification Setpoint
    None,                     !- Outdoor Air Method
    0.00944,                  !- Outdoor Air Flow Rate per Person
    0.0,                      !- Outdoor Air Flow Rate per Zone Floor Area
    0,                        !- Outdoor Air Flow Rate per Zone
    ,                         !- Design Specification Outdoor Air Object Name
    None,                     !- Demand Controlled Ventilation Type
    NoEconomizer,             !- Outdoor Air Economizer Type
    None,                     !- Heat Recovery Type
    0.70,                     !- Sensible Heat Recovery Effectiveness
    0.65;                     !- Latent Heat Recovery Effectiveness

HVACTEMPLATE:ZONE:IDEALLOADSAIRSYSTEM,
    5ff998a792035b20_F2_whole,    !- Zone Name
    EU_HeatOnly_5ff998a792035b20_F2_whole,    !- Template Thermostat Name
    EU_AlwaysOn,              !- System Availability Schedule Name
    50,                       !- Maximum Heating Supply Air Temperature
    13,                       !- Minimum Cooling Supply Air Temperature
    0.0156,                   !- Maximum Heating Supply Air Humidity Ratio
    0.0077,                   !- Minimum Cooling Supply Air Humidity Ratio
    NoLimit,                  !- Heating Limit
    ,                         !- Maximum Heating Air Flow Rate
    ,                         !- Maximum Sensible Heating Capacity
    NoLimit,                  !- Cooling Limit
    ,                         !- Maximum Cooling Air Flow Rate
    ,                         !- Maximum Total Cooling Capacity
    EU_AlwaysOn,              !- Heating Availability Schedule Name
    EU_CoolingOff,            !- Cooling Availability Schedule Name
    ConstantSensibleHeatRatio,    !- Dehumidification Control Type
    0.7,                      !- Cooling Sensible Heat Ratio
    60,                       !- Dehumidification Setpoint
    None,                     !- Humidification Control Type
    30,                       !- Humidification Setpoint
    None,                     !- Outdoor Air Method
    0.00944,                  !- Outdoor Air Flow Rate per Person
    0.0,                      !- Outdoor Air Flow Rate per Zone Floor Area
    0,                        !- Outdoor Air Flow Rate per Zone
    ,                         !- Design Specification Outdoor Air Object Name
    None,                     !- Demand Controlled Ventilation Type
    NoEconomizer,             !- Outdoor Air Economizer Type
    None,                     !- Heat Recovery Type
    0.70,                     !- Sensible Heat Recovery Effectiveness
    0.65;                     !- Latent Heat Recovery Effectiveness

SIZING:ZONE,
    5ff998a792035b20_F0_whole,    !- Zone or ZoneList Name
    SupplyAirTemperature,     !- Zone Cooling Design Supply Air Temperature Input Method
    13,                       !- Zone Cooling Design Supply Air Temperature
    ,                         !- Zone Cooling Design Supply Air Temperature Difference
    SupplyAirTemperature,     !- Zone Heating Design Supply Air Temperature Input Method
    50,                       !- Zone Heating Design Supply Air Temperature
    ,                         !- Zone Heating Design Supply Air Temperature Difference
    0.008,                    !- Zone Cooling Design Supply Air Humidity Ratio
    0.008,                    !- Zone Heating Design Supply Air Humidity Ratio
    ,                         !- Design Specification Outdoor Air Object Name
    ,                         !- Zone Heating Sizing Factor
    ,                         !- Zone Cooling Sizing Factor
    DesignDay,                !- Cooling Design Air Flow Method
    0,                        !- Cooling Design Air Flow Rate
    0.000762,                 !- Cooling Minimum Air Flow per Zone Floor Area
    0,                        !- Cooling Minimum Air Flow
    0.2,                      !- Cooling Minimum Air Flow Fraction
    DesignDay,                !- Heating Design Air Flow Method
    0,                        !- Heating Design Air Flow Rate
    0.002032,                 !- Heating Maximum Air Flow per Zone Floor Area
    0.1415762,                !- Heating Maximum Air Flow
    0.3,                      !- Heating Maximum Air Flow Fraction
    ,                         !- Design Specification Zone Air Distribution Object Name
    No,                       !- Account for Dedicated Outdoor Air System
    NeutralSupplyAir,         !- Dedicated Outdoor Air System Control Strategy
    autosize,                 !- Dedicated Outdoor Air Low Setpoint Temperature for Design
    autosize,                 !- Dedicated Outdoor Air High Setpoint Temperature for Design
    Sensible Load Only No Latent Load,    !- Zone Load Sizing Method
    HumidityRatioDifference,    !- Zone Latent Cooling Design Supply Air Humidity Ratio Input Method
    ,                         !- Zone Dehumidification Design Supply Air Humidity Ratio
    0.005,                    !- Zone Cooling Design Supply Air Humidity Ratio Difference
    HumidityRatioDifference,    !- Zone Latent Heating Design Supply Air Humidity Ratio Input Method
    ,                         !- Zone Humidification Design Supply Air Humidity Ratio
    0.005;                    !- Zone Humidification Design Supply Air Humidity Ratio Difference

SIZING:ZONE,
    5ff998a792035b20_F1_whole,    !- Zone or ZoneList Name
    SupplyAirTemperature,     !- Zone Cooling Design Supply Air Temperature Input Method
    13,                       !- Zone Cooling Design Supply Air Temperature
    ,                         !- Zone Cooling Design Supply Air Temperature Difference
    SupplyAirTemperature,     !- Zone Heating Design Supply Air Temperature Input Method
    50,                       !- Zone Heating Design Supply Air Temperature
    ,                         !- Zone Heating Design Supply Air Temperature Difference
    0.008,                    !- Zone Cooling Design Supply Air Humidity Ratio
    0.008,                    !- Zone Heating Design Supply Air Humidity Ratio
    ,                         !- Design Specification Outdoor Air Object Name
    ,                         !- Zone Heating Sizing Factor
    ,                         !- Zone Cooling Sizing Factor
    DesignDay,                !- Cooling Design Air Flow Method
    0,                        !- Cooling Design Air Flow Rate
    0.000762,                 !- Cooling Minimum Air Flow per Zone Floor Area
    0,                        !- Cooling Minimum Air Flow
    0.2,                      !- Cooling Minimum Air Flow Fraction
    DesignDay,                !- Heating Design Air Flow Method
    0,                        !- Heating Design Air Flow Rate
    0.002032,                 !- Heating Maximum Air Flow per Zone Floor Area
    0.1415762,                !- Heating Maximum Air Flow
    0.3,                      !- Heating Maximum Air Flow Fraction
    ,                         !- Design Specification Zone Air Distribution Object Name
    No,                       !- Account for Dedicated Outdoor Air System
    NeutralSupplyAir,         !- Dedicated Outdoor Air System Control Strategy
    autosize,                 !- Dedicated Outdoor Air Low Setpoint Temperature for Design
    autosize,                 !- Dedicated Outdoor Air High Setpoint Temperature for Design
    Sensible Load Only No Latent Load,    !- Zone Load Sizing Method
    HumidityRatioDifference,    !- Zone Latent Cooling Design Supply Air Humidity Ratio Input Method
    ,                         !- Zone Dehumidification Design Supply Air Humidity Ratio
    0.005,                    !- Zone Cooling Design Supply Air Humidity Ratio Difference
    HumidityRatioDifference,    !- Zone Latent Heating Design Supply Air Humidity Ratio Input Method
    ,                         !- Zone Humidification Design Supply Air Humidity Ratio
    0.005;                    !- Zone Humidification Design Supply Air Humidity Ratio Difference

SIZING:ZONE,
    5ff998a792035b20_F2_whole,    !- Zone or ZoneList Name
    SupplyAirTemperature,     !- Zone Cooling Design Supply Air Temperature Input Method
    13,                       !- Zone Cooling Design Supply Air Temperature
    ,                         !- Zone Cooling Design Supply Air Temperature Difference
    SupplyAirTemperature,     !- Zone Heating Design Supply Air Temperature Input Method
    50,                       !- Zone Heating Design Supply Air Temperature
    ,                         !- Zone Heating Design Supply Air Temperature Difference
    0.008,                    !- Zone Cooling Design Supply Air Humidity Ratio
    0.008,                    !- Zone Heating Design Supply Air Humidity Ratio
    ,                         !- Design Specification Outdoor Air Object Name
    ,                         !- Zone Heating Sizing Factor
    ,                         !- Zone Cooling Sizing Factor
    DesignDay,                !- Cooling Design Air Flow Method
    0,                        !- Cooling Design Air Flow Rate
    0.000762,                 !- Cooling Minimum Air Flow per Zone Floor Area
    0,                        !- Cooling Minimum Air Flow
    0.2,                      !- Cooling Minimum Air Flow Fraction
    DesignDay,                !- Heating Design Air Flow Method
    0,                        !- Heating Design Air Flow Rate
    0.002032,                 !- Heating Maximum Air Flow per Zone Floor Area
    0.1415762,                !- Heating Maximum Air Flow
    0.3,                      !- Heating Maximum Air Flow Fraction
    ,                         !- Design Specification Zone Air Distribution Object Name
    No,                       !- Account for Dedicated Outdoor Air System
    NeutralSupplyAir,         !- Dedicated Outdoor Air System Control Strategy
    autosize,                 !- Dedicated Outdoor Air Low Setpoint Temperature for Design
    autosize,                 !- Dedicated Outdoor Air High Setpoint Temperature for Design
    Sensible Load Only No Latent Load,    !- Zone Load Sizing Method
    HumidityRatioDifference,    !- Zone Latent Cooling Design Supply Air Humidity Ratio Input Method
    ,                         !- Zone Dehumidification Design Supply Air Humidity Ratio
    0.005,                    !- Zone Cooling Design Supply Air Humidity Ratio Difference
    HumidityRatioDifference,    !- Zone Latent Heating Design Supply Air Humidity Ratio Input Method
    ,                         !- Zone Humidification Design Supply Air Humidity Ratio
    0.005;                    !- Zone Humidification Design Supply Air Humidity Ratio Difference

OUTPUT:VARIABLE,
    *,                        !- Key Value
    Zone Ideal Loads Zone Total Heating Energy,    !- Variable Name
    Hourly;                   !- Reporting Frequency

OUTPUT:SQLITE,
    SimpleAndTabular,         !- Option Type
    UseOutputControlTableStyle;    !- Unit Conversion for Tabular Data