!- Windows Line endings 

Version,
    23.1;                     !- Version Identifier

SimulationControl,
    Yes,                      !- Do Zone Sizing Calculation
    Yes,                      !- Do System Sizing Calculation
    Yes,                      !- Do Plant Sizing Calculation
    No,                       !- Run Simulation for Sizing Periods
    Yes,                      !- Run Simulation for Weather File Run Periods
    No,                       !- Do HVAC Sizing Simulation for Sizing Periods
    1;                        !- Maximum Number of HVAC Sizing Simulation Passes

Building,
    EU S2 Campaign,           !- Name
    0,                        !- North Axis
    City,                     !- Terrain
    ,                         !- Loads Convergence Tolerance Value
    ,                         !- Temperature Convergence Tolerance Value
    FullExterior,             !- Solar Distribution
    ,                         !- Maximum Number of Warmup Days
    ;                         !- Minimum Number of Warmup Days

ShadowCalculation,
    PolygonClipping,          !- Shading Calculation Method
    Periodic,                 !- Shading Calculation Update Frequency Method
    1;                        !- Shading Calculation Update Frequency

HeatBalanceAlgorithm,
    ConductionTransferFunction,    !- Algorithm
    200,                      !- Surface Temperature Upper Limit
    0.1,                      !- Minimum Surface Convection Heat Transfer Coefficient Value
    10000000;                 !- Maximum Surface Convection Heat Transfer Coefficient Value

Timestep,
    12;                       !- Number of Timesteps per Hour

Site:Location,
    Bologna,                  !- Name
    44.5,                     !- Latitude
    11.25,                    !- Longitude
    1,                        !- Time Zone
    37;                       !- Elevation

SizingPeriod:WeatherFileDays,
    AnnualSizingPeriod,       !- Name
    1,                        !- Begin Month
    1,                        !- Begin Day of Month
    12,                       !- End Month
    31,                       !- End Day of Month
    Monday,                   !- Day of Week for Start Day
    No,                       !- Use Weather File Daylight Saving Period
    No;                       !- Use Weather File Rain and Snow Indicators

RunPeriod,
    RunPeriod1,               !- Name
    1,                        !- Begin Month
    1,                        !- Begin Day of Month
    ,                         !- Begin Year
    12,                       !- End Month
    31,                       !- End Day of Month
    ,                         !- End Year
    Sunday,                   !- Day of Week for Start Day
    No,                       !- Use Weather File Holidays and Special Days
    No,                       !- Use Weather File Daylight Saving Period
    No,                       !- Apply Weekend Holiday Rule
    Yes,                      !- Use Weather File Rain Indicators
    Yes;                      !- Use Weather File Snow Indicators

ScheduleTypeLimits,
    Any Number;               !- Name

SCHEDULETYPELIMITS,
    EU_Step8_AnyNumber_Wm2,    !- Name
    ,                         !- Lower Limit Value
    ,                         !- Upper Limit Value
    Continuous,               !- Numeric Type
    Dimensionless;            !- Unit Type

SCHEDULE:CONSTANT,
    EU_AlwaysOn,              !- Name
    ,                         !- Schedule Type Limits Name
    1;                        !- Hourly Value

SCHEDULE:CONSTANT,
    EU_CoolingOff,            !- Name
    ,                         !- Schedule Type Limits Name
    0;                        !- Hourly Value

SCHEDULE:FILE,
    EU_Step8_GainSchedule_731dccf8c2d02b03_F0_dwelling_0_f000,    !- Name
    EU_Step8_AnyNumber_Wm2,    !- Schedule Type Limits Name
    ../../schedules/731dccf8c2d02b03/731dccf8c2d02b03_F0_dwelling_0_f000_gain.csv,    !- File Name
    1,                        !- Column Number
    0,                        !- Rows to Skip at Top
    8760,                     !- Number of Hours of Data
    Comma,                    !- Column Separator
    No,                       !- Interpolate to Timestep
    60,                       !- Minutes per Item
    Yes;                      !- Adjust Schedule for Daylight Savings

MATERIAL,
    EU_InternalMass_Material,    !- Name
    MediumRough,              !- Roughness
    0.1,                      !- Thickness
    1,                        !- Conductivity
    1800,                     !- Density
    900,                      !- Specific Heat
    0.9,                      !- Thermal Absorptance
    0.7,                      !- Solar Absorptance
    0.7;                      !- Visible Absorptance

MATERIAL:NOMASS,
    EU_wall_NoMass,           !- Name
    MediumRough,              !- Roughness
    0.5785677809647076,       !- Thermal Resistance
    0.9,                      !- Thermal Absorptance
    0.7,                      !- Solar Absorptance
    0.7;                      !- Visible Absorptance

MATERIAL:NOMASS,
    EU_roof_NoMass,           !- Name
    MediumRough,              !- Roughness
    4.731698e-01,             !- Thermal Resistance
    0.9,                      !- Thermal Absorptance
    0.7,                      !- Solar Absorptance
    0.7;                      !- Visible Absorptance

MATERIAL:NOMASS,
    EU_floor_NoMass,          !- Name
    MediumRough,              !- Roughness
    0.5813228656359681,       !- Thermal Resistance
    0.9,                      !- Thermal Absorptance
    0.7,                      !- Solar Absorptance
    0.7;                      !- Visible Absorptance

CONSTRUCTION,
    EU_wall_Construction,     !- Name
    EU_wall_NoMass;           !- Outside Layer

CONSTRUCTION,
    EU_roof_Construction,     !- Name
    EU_roof_NoMass;           !- Outside Layer

CONSTRUCTION,
    EU_floor_Construction,    !- Name
    EU_floor_NoMass;          !- Outside Layer

CONSTRUCTION,
    EU_InternalMass_Construction,    !- Name
    EU_InternalMass_Material;    !- Outside Layer

GlobalGeometryRules,
    UpperLeftCorner,          !- Starting Vertex Position
    CounterClockWise,         !- Vertex Entry Direction
    World;                    !- Coordinate System

ZONE,
    731dccf8c2d02b03_F0_dwelling_0,    !- Name
    0,                        !- Direction of Relative North
    0,                        !- X Origin
    0,                        !- Y Origin
    0,                        !- Z Origin
    1,                        !- Type
    1,                        !- Multiplier
    autocalculate,            !- Ceiling Height
    119.62353515625,          !- Volume
    autocalculate,            !- Floor Area
    ,                         !- Zone Inside Convection Algorithm
    ,                         !- Zone Outside Convection Algorithm
    Yes;                      !- Part of Total Floor Area

BUILDINGSURFACE:DETAILED,
    Block 731dccf8c2d02b03_0 Storey 0 Wall 0001,    !- Name
    wall,                     !- Surface Type
    EU_wall_Construction,     !- Construction Name
    731dccf8c2d02b03_F0_dwelling_0,    !- Zone Name
    ,                         !- Space Name
    Adiabatic,                !- Outside Boundary Condition
    ,                         !- Outside Boundary Condition Object
    NoSun,                    !- Sun Exposure
    NoWind,                   !- Wind Exposure
    autocalculate,            !- View Factor to Ground
    autocalculate,            !- Number of Vertices
    686958.285,               !- Vertex 1 Xcoordinate
    4928619.949,              !- Vertex 1 Ycoordinate
    3,                        !- Vertex 1 Zcoordinate
    686958.285,               !- Vertex 2 Xcoordinate
    4928619.949,              !- Vertex 2 Ycoordinate
    0,                        !- Vertex 2 Zcoordinate
    686951.946,               !- Vertex 3 Xcoordinate
    4928624.379,              !- Vertex 3 Ycoordinate
    0,                        !- Vertex 3 Zcoordinate
    686951.946,               !- Vertex 4 Xcoordinate
    4928624.379,              !- Vertex 4 Ycoordinate
    3;                        !- Vertex 4 Zcoordinate

BUILDINGSURFACE:DETAILED,
    Block 731dccf8c2d02b03_0 Storey 0 Wall 0002,    !- Name
    wall,                     !- Surface Type
    EU_wall_Construction,     !- Construction Name
    731dccf8c2d02b03_F0_dwelling_0,    !- Zone Name
    ,                         !- Space Name
    Adiabatic,                !- Outside Boundary Condition
    ,                         !- Outside Boundary Condition Object
    NoSun,                    !- Sun Exposure
    NoWind,                   !- Wind Exposure
    autocalculate,            !- View Factor to Ground
    autocalculate,            !- Number of Vertices
    686951.946,               !- Vertex 1 Xcoordinate
    4928624.379,              !- Vertex 1 Ycoordinate
    3,                        !- Vertex 1 Zcoordinate
    686951.946,               !- Vertex 2 Xcoordinate
    4928624.379,              !- Vertex 2 Ycoordinate
    0,                        !- Vertex 2 Zcoordinate
    686951.066,               !- Vertex 3 Xcoordinate
    4928624.989,              !- Vertex 3 Ycoordinate
    0,                        !- Vertex 3 Zcoordinate
    686951.066,               !- Vertex 4 Xcoordinate
    4928624.989,              !- Vertex 4 Ycoordinate
    3;                        !- Vertex 4 Zcoordinate

BUILDINGSURFACE:DETAILED,
    Block 731dccf8c2d02b03_0 Storey 0 Wall 0003,    !- Name
    wall,                     !- Surface Type
    EU_wall_Construction,     !- Construction Name
    731dccf8c2d02b03_F0_dwelling_0,    !- Zone Name
    ,                         !- Space Name
    Adiabatic,                !- Outside Boundary Condition
    ,                         !- Outside Boundary Condition Object
    NoSun,                    !- Sun Exposure
    NoWind,                   !- Wind Exposure
    autocalculate,            !- View Factor to Ground
    autocalculate,            !- Number of Vertices
    686951.066,               !- Vertex 1 Xcoordinate
    4928624.989,              !- Vertex 1 Ycoordinate
    3,                        !- Vertex 1 Zcoordinate
    686951.066,               !- Vertex 2 Xcoordinate
    4928624.989,              !- Vertex 2 Ycoordinate
    0,                        !- Vertex 2 Zcoordinate
    686953.806,               !- Vertex 3 Xcoordinate
    4928629.029,              !- Vertex 3 Ycoordinate
    0,                        !- Vertex 3 Zcoordinate
    686953.806,               !- Vertex 4 Xcoordinate
    4928629.029,              !- Vertex 4 Ycoordinate
    3;                        !- Vertex 4 Zcoordinate

BUILDINGSURFACE:DETAILED,
    Block 731dccf8c2d02b03_0 Storey 0 Wall 0004,    !- Name
    wall,                     !- Surface Type
    EU_wall_Construction,     !- Construction Name
    731dccf8c2d02b03_F0_dwelling_0,    !- Zone Name
    ,                         !- Space Name
    Adiabatic,                !- Outside Boundary Condition
    ,                         !- Outside Boundary Condition Object
    NoSun,                    !- Sun Exposure
    NoWind,                   !- Wind Exposure
    autocalculate,            !- View Factor to Ground
    autocalculate,            !- Number of Vertices
    686953.806,               !- Vertex 1 Xcoordinate
    4928629.029,              !- Vertex 1 Ycoordinate
    3,                        !- Vertex 1 Zcoordinate
    686953.806,               !- Vertex 2 Xcoordinate
    4928629.029,              !- Vertex 2 Ycoordinate
    0,                        !- Vertex 2 Zcoordinate
    686960.395,               !- Vertex 3 Xcoordinate
    4928623.889,              !- Vertex 3 Ycoordinate
    0,                        !- Vertex 3 Zcoordinate
    686960.395,               !- Vertex 4 Xcoordinate
    4928623.889,              !- Vertex 4 Ycoordinate
    3;                        !- Vertex 4 Zcoordinate

BUILDINGSURFACE:DETAILED,
    Block 731dccf8c2d02b03_0 Storey 0 Wall 0005,    !- Name
    wall,                     !- Surface Type
    EU_wall_Construction,     !- Construction Name
    731dccf8c2d02b03_F0_dwelling_0,    !- Zone Name
    ,                         !- Space Name
    Adiabatic,                !- Outside Boundary Condition
    ,                         !- Outside Boundary Condition Object
    NoSun,                    !- Sun Exposure
    NoWind,                   !- Wind Exposure
    autocalculate,            !- View Factor to Ground
    autocalculate,            !- Number of Vertices
    686960.395,               !- Vertex 1 Xcoordinate
    4928623.889,              !- Vertex 1 Ycoordinate
    3,                        !- Vertex 1 Zcoordinate
    686960.395,               !- Vertex 2 Xcoordinate
    4928623.889,              !- Vertex 2 Ycoordinate
    0,                        !- Vertex 2 Zcoordinate
    686958.285,               !- Vertex 3 Xcoordinate
    4928619.949,              !- Vertex 3 Ycoordinate
    0,                        !- Vertex 3 Zcoordinate
    686958.285,               !- Vertex 4 Xcoordinate
    4928619.949,              !- Vertex 4 Ycoordinate
    3;                        !- Vertex 4 Zcoordinate

BUILDINGSURFACE:DETAILED,
    Block 731dccf8c2d02b03_0 Storey 0 Floor 0001,    !- Name
    floor,                    !- Surface Type
    EU_floor_Construction,    !- Construction Name
    731dccf8c2d02b03_F0_dwelling_0,    !- Zone Name
    ,                         !- Space Name
    ground,                   !- Outside Boundary Condition
    ,                         !- Outside Boundary Condition Object
    NoSun,                    !- Sun Exposure
    NoWind,                   !- Wind Exposure
    autocalculate,            !- View Factor to Ground
    autocalculate,            !- Number of Vertices
    686958.285,               !- Vertex 1 Xcoordinate
    4928619.949,              !- Vertex 1 Ycoordinate
    0,                        !- Vertex 1 Zcoordinate
    686960.395,               !- Vertex 2 Xcoordinate
    4928623.889,              !- Vertex 2 Ycoordinate
    0,                        !- Vertex 2 Zcoordinate
    686953.806,               !- Vertex 3 Xcoordinate
    4928629.029,              !- Vertex 3 Ycoordinate
    0,                        !- Vertex 3 Zcoordinate
    686951.066,               !- Vertex 4 Xcoordinate
    4928624.989,              !- Vertex 4 Ycoordinate
    0,                        !- Vertex 4 Zcoordinate
    686951.946,               !- Vertex 5 Xcoordinate
    4928624.379,              !- Vertex 5 Ycoordinate
    0;                        !- Vertex 5 Zcoordinate

BUILDINGSURFACE:DETAILED,
    Block 731dccf8c2d02b03_0 Storey 0 Roof 0001,    !- Name
    roof,                     !- Surface Type
    EU_roof_Construction,     !- Construction Name
    731dccf8c2d02b03_F0_dwelling_0,    !- Zone Name
    ,                         !- Space Name
    outdoors,                 !- Outside Boundary Condition
    ,                         !- Outside Boundary Condition Object
    NoSun,                    !- Sun Exposure
    WindExposed,              !- Wind Exposure
    autocalculate,            !- View Factor to Ground
    autocalculate,            !- Number of Vertices
    686960.395,               !- Vertex 1 Xcoordinate
    4928623.889,              !- Vertex 1 Ycoordinate
    3,                        !- Vertex 1 Zcoordinate
    686958.285,               !- Vertex 2 Xcoordinate
    4928619.949,              !- Vertex 2 Ycoordinate
    3,                        !- Vertex 2 Zcoordinate
    686951.946,               !- Vertex 3 Xcoordinate
    4928624.379,              !- Vertex 3 Ycoordinate
    3,                        !- Vertex 3 Zcoordinate
    686951.066,               !- Vertex 4 Xcoordinate
    4928624.989,              !- Vertex 4 Ycoordinate
    3,                        !- Vertex 4 Zcoordinate
    686953.806,               !- Vertex 5 Xcoordinate
    4928629.029,              !- Vertex 5 Ycoordinate
    3;                        !- Vertex 5 Zcoordinate

INTERNALMASS,
    731dccf8c2d02b03_F0_dwelling_0_EU_InternalMass,    !- Name
    EU_InternalMass_Construction,    !- Construction Name
    731dccf8c2d02b03_F0_dwelling_0,    !- Zone or ZoneList Name
    ,                         !- Space or SpaceList Name
    39.87440500038563;        !- Surface Area

SHADING:SITE:DETAILED,
    shade_32355_1,            !- Name
    ,                         !- Transmittance Schedule Name
    autocalculate,            !- Number of Vertices
    686985.0151583648,        !- Vertex 1 Xcoordinate
    4928558.777115374,        !- Vertex 1 Ycoordinate
    15,                       !- Vertex 1 Zcoordinate
    686985.0151583648,        !- Vertex 2 Xcoordinate
    4928558.777115374,        !- Vertex 2 Ycoordinate
    0,                        !- Vertex 2 Zcoordinate
    686927.465998491,         !- Vertex 3 Xcoordinate
    4928584.961119188,        !- Vertex 3 Ycoordinate
    0,                        !- Vertex 3 Zcoordinate
    686927.465998491,         !- Vertex 4 Xcoordinate
    4928584.961119188,        !- Vertex 4 Ycoordinate
    15;                       !- Vertex 4 Zcoordinate

SHADING:SITE:DETAILED,
    shade_32355_2,            !- Name
    ,                         !- Transmittance Schedule Name
    autocalculate,            !- Number of Vertices
    686927.465998491,         !- Vertex 1 Xcoordinate
    4928584.961119188,        !- Vertex 1 Ycoordinate
    15,                       !- Vertex 1 Zcoordinate
    686927.465998491,         !- Vertex 2 Xcoordinate
    4928584.961119188,        !- Vertex 2 Ycoordinate
    0,                        !- Vertex 2 Zcoordinate
    686953.880659343,         !- Vertex 3 Xcoordinate
    4928643.01815179,         !- Vertex 3 Ycoordinate
    0,                        !- Vertex 3 Zcoordinate
    686953.880659343,         !- Vertex 4 Xcoordinate
    4928643.01815179,         !- Vertex 4 Ycoordinate
    15;                       !- Vertex 4 Zcoordinate

SHADING:SITE:DETAILED,
    shade_32355_3,            !- Name
    ,                         !- Transmittance Schedule Name
    autocalculate,            !- Number of Vertices
    686953.880659343,         !- Vertex 1 Xcoordinate
    4928643.01815179,         !- Vertex 1 Ycoordinate
    15,                       !- Vertex 1 Zcoordinate
    686953.880659343,         !- Vertex 2 Xcoordinate
    4928643.01815179,         !- Vertex 2 Ycoordinate
    0,                        !- Vertex 2 Zcoordinate
    687011.430196117,         !- Vertex 3 Xcoordinate
    4928616.8339087935,       !- Vertex 3 Ycoordinate
    0,                        !- Vertex 3 Zcoordinate
    687011.430196117,         !- Vertex 4 Xcoordinate
    4928616.8339087935,       !- Vertex 4 Ycoordinate
    15;                       !- Vertex 4 Zcoordinate

SHADING:SITE:DETAILED,
    shade_32355_4,            !- Name
    ,                         !- Transmittance Schedule Name
    autocalculate,            !- Number of Vertices
    687011.430196117,         !- Vertex 1 Xcoordinate
    4928616.8339087935,       !- Vertex 1 Ycoordinate
    15,                       !- Vertex 1 Zcoordinate
    687011.430196117,         !- Vertex 2 Xcoordinate
    4928616.8339087935,       !- Vertex 2 Ycoordinate
    0,                        !- Vertex 2 Zcoordinate
    686985.0151583648,        !- Vertex 3 Xcoordinate
    4928558.777115374,        !- Vertex 3 Ycoordinate
    0,                        !- Vertex 3 Zcoordinate
    686985.0151583648,        !- Vertex 4 Xcoordinate
    4928558.777115374,        !- Vertex 4 Ycoordinate
    15;                       !- Vertex 4 Zcoordinate

SHADING:SITE:DETAILED,
    shade_87566_1,            !- Name
    ,                         !- Transmittance Schedule Name
    autocalculate,            !- Number of Vertices
    686953.4470190489,        !- Vertex 1 Xcoordinate
    4928623.696363966,        !- Vertex 1 Ycoordinate
    15,                       !- Vertex 1 Zcoordinate
    686953.4470190489,        !- Vertex 2 Xcoordinate
    4928623.696363966,        !- Vertex 2 Ycoordinate
    0,                        !- Vertex 2 Zcoordinate
    686924.9805588045,        !- Vertex 3 Xcoordinate
    4928581.254326241,        !- Vertex 3 Ycoordinate
    0,                        !- Vertex 3 Zcoordinate
    686924.9805588045,        !- Vertex 4 Xcoordinate
    4928581.254326241,        !- Vertex 4 Ycoordinate
    15;                       !- Vertex 4 Zcoordinate

SHADING:SITE:DETAILED,
    shade_87566_2,            !- Name
    ,                         !- Transmittance Schedule Name
    autocalculate,            !- Number of Vertices
    686924.9805588045,        !- Vertex 1 Xcoordinate
    4928581.254326241,        !- Vertex 1 Ycoordinate
    15,                       !- Vertex 1 Zcoordinate
    686924.9805588045,        !- Vertex 2 Xcoordinate
    4928581.254326241,        !- Vertex 2 Ycoordinate
    0,                        !- Vertex 2 Zcoordinate
    686895.5086664197,        !- Vertex 3 Xcoordinate
    4928601.021531066,        !- Vertex 3 Ycoordinate
    0,                        !- Vertex 3 Zcoordinate
    686895.5086664197,        !- Vertex 4 Xcoordinate
    4928601.021531066,        !- Vertex 4 Ycoordinate
    15;                       !- Vertex 4 Zcoordinate

SHADING:SITE:DETAILED,
    shade_87566_3,            !- Name
    ,                         !- Transmittance Schedule Name
    autocalculate,            !- Number of Vertices
    686895.5086664197,        !- Vertex 1 Xcoordinate
    4928601.021531066,        !- Vertex 1 Ycoordinate
    15,                       !- Vertex 1 Zcoordinate
    686895.5086664197,        !- Vertex 2 Xcoordinate
    4928601.021531066,        !- Vertex 2 Ycoordinate
    0,                        !- Vertex 2 Zcoordinate
    686923.975126664,         !- Vertex 3 Xcoordinate
    4928643.463568791,        !- Vertex 3 Ycoordinate
    0,                        !- Vertex 3 Zcoordinate
    686923.975126664,         !- Vertex 4 Xcoordinate
    4928643.463568791,        !- Vertex 4 Ycoordinate
    15;                       !- Vertex 4 Zcoordinate

SHADING:SITE:DETAILED,
    shade_87566_4,            !- Name
    ,                         !- Transmittance Schedule Name
    autocalculate,            !- Number of Vertices
    686923.975126664,         !- Vertex 1 Xcoordinate
    4928643.463568791,        !- Vertex 1 Ycoordinate
    15,                       !- Vertex 1 Zcoordinate
    686923.975126664,         !- Vertex 2 Xcoordinate
    4928643.463568791,        !- Vertex 2 Ycoordinate
    0,                        !- Vertex 2 Zcoordinate
    686953.4470190489,        !- Vertex 3 Xcoordinate
    4928623.696363966,        !- Vertex 3 Ycoordinate
    0,                        !- Vertex 3 Zcoordinate
    686953.4470190489,        !- Vertex 4 Xcoordinate
    4928623.696363966,        !- Vertex 4 Ycoordinate
    15;                       !- Vertex 4 Zcoordinate

SHADING:SITE:DETAILED,
    shade_32343_1,            !- Name
    ,                         !- Transmittance Schedule Name
    autocalculate,            !- Number of Vertices
    686965.1449984908,        !- Vertex 1 Xcoordinate
    4928618.569119189,        !- Vertex 1 Ycoordinate
    15,                       !- Vertex 1 Zcoordinate
    686965.1449984908,        !- Vertex 2 Xcoordinate
    4928618.569119189,        !- Vertex 2 Ycoordinate
    0,                        !- Vertex 2 Zcoordinate
    686974.8249984906,        !- Vertex 3 Xcoordinate
    4928634.0891191885,       !- Vertex 3 Ycoordinate
    0,                        !- Vertex 3 Zcoordinate
    686974.8249984906,        !- Vertex 4 Xcoordinate
    4928634.0891191885,       !- Vertex 4 Ycoordinate
    15;                       !- Vertex 4 Zcoordinate

SHADING:SITE:DETAILED,
    shade_32343_2,            !- Name
    ,                         !- Transmittance Schedule Name
    autocalculate,            !- Number of Vertices
    686974.8249984906,        !- Vertex 1 Xcoordinate
    4928634.0891191885,       !- Vertex 1 Ycoordinate
    15,                       !- Vertex 1 Zcoordinate
    686974.8249984906,        !- Vertex 2 Xcoordinate
    4928634.0891191885,       !- Vertex 2 Ycoordinate
    0,                        !- Vertex 2 Zcoordinate
    686977.0740524139,        !- Vertex 3 Xcoordinate
    4928632.686415821,        !- Vertex 3 Ycoordinate
    0,                        !- Vertex 3 Zcoordinate
    686977.0740524139,        !- Vertex 4 Xcoordinate
    4928632.686415821,        !- Vertex 4 Ycoordinate
    15;                       !- Vertex 4 Zcoordinate

SHADING:SITE:DETAILED,
    shade_32343_3,            !- Name
    ,                         !- Transmittance Schedule Name
    autocalculate,            !- Number of Vertices
    686977.0740524139,        !- Vertex 1 Xcoordinate
    4928632.686415821,        !- Vertex 1 Ycoordinate
    15,                       !- Vertex 1 Zcoordinate
    686977.0740524139,        !- Vertex 2 Xcoordinate
    4928632.686415821,        !- Vertex 2 Ycoordinate
    0,                        !- Vertex 2 Zcoordinate
    686967.3940524152,        !- Vertex 3 Xcoordinate
    4928617.166415821,        !- Vertex 3 Ycoordinate
    0,                        !- Vertex 3 Zcoordinate
    686967.3940524152,        !- Vertex 4 Xcoordinate
    4928617.166415821,        !- Vertex 4 Ycoordinate
    15;                       !- Vertex 4 Zcoordinate

SHADING:SITE:DETAILED,
    shade_32343_4,            !- Name
    ,                         !- Transmittance Schedule Name
    autocalculate,            !- Number of Vertices
    686967.3940524152,        !- Vertex 1 Xcoordinate
    4928617.166415821,        !- Vertex 1 Ycoordinate
    15,                       !- Vertex 1 Zcoordinate
    686967.3940524152,        !- Vertex 2 Xcoordinate
    4928617.166415821,        !- Vertex 2 Ycoordinate
    0,                        !- Vertex 2 Zcoordinate
    686965.1449984908,        !- Vertex 3 Xcoordinate
    4928618.569119189,        !- Vertex 3 Ycoordinate
    0,                        !- Vertex 3 Zcoordinate
    686965.1449984908,        !- Vertex 4 Xcoordinate
    4928618.569119189,        !- Vertex 4 Ycoordinate
    15;                       !- Vertex 4 Zcoordinate

SHADING:SITE:DETAILED,
    shade_32289_1,            !- Name
    ,                         !- Transmittance Schedule Name
    autocalculate,            !- Number of Vertices
    686926.818224831,         !- Vertex 1 Xcoordinate
    4928641.964903562,        !- Vertex 1 Ycoordinate
    15,                       !- Vertex 1 Zcoordinate
    686926.818224831,         !- Vertex 2 Xcoordinate
    4928641.964903562,        !- Vertex 2 Ycoordinate
    0,                        !- Vertex 2 Zcoordinate
    686940.6808741203,        !- Vertex 3 Xcoordinate
    4928632.256995658,        !- Vertex 3 Ycoordinate
    0,                        !- Vertex 3 Zcoordinate
    686940.6808741203,        !- Vertex 4 Xcoordinate
    4928632.256995658,        !- Vertex 4 Ycoordinate
    15;                       !- Vertex 4 Zcoordinate

SHADING:SITE:DETAILED,
    shade_32289_2,            !- Name
    ,                         !- Transmittance Schedule Name
    autocalculate,            !- Number of Vertices
    686940.6808741203,        !- Vertex 1 Xcoordinate
    4928632.256995658,        !- Vertex 1 Ycoordinate
    15,                       !- Vertex 1 Zcoordinate
    686940.6808741203,        !- Vertex 2 Xcoordinate
    4928632.256995658,        !- Vertex 2 Ycoordinate
    0,                        !- Vertex 2 Zcoordinate
    686935.1335892397,        !- Vertex 3 Xcoordinate
    4928624.335611822,        !- Vertex 3 Ycoordinate
    0,                        !- Vertex 3 Zcoordinate
    686935.1335892397,        !- Vertex 4 Xcoordinate
    4928624.335611822,        !- Vertex 4 Ycoordinate
    15;                       !- Vertex 4 Zcoordinate

SHADING:SITE:DETAILED,
    shade_32289_3,            !- Name
    ,                         !- Transmittance Schedule Name
    autocalculate,            !- Number of Vertices
    686935.1335892397,        !- Vertex 1 Xcoordinate
    4928624.335611822,        !- Vertex 1 Ycoordinate
    15,                       !- Vertex 1 Zcoordinate
    686935.1335892397,        !- Vertex 2 Xcoordinate
    4928624.335611822,        !- Vertex 2 Ycoordinate
    0,                        !- Vertex 2 Zcoordinate
    686921.2709399504,        !- Vertex 3 Xcoordinate
    4928634.043519725,        !- Vertex 3 Ycoordinate
    0,                        !- Vertex 3 Zcoordinate
    686921.2709399504,        !- Vertex 4 Xcoordinate
    4928634.043519725,        !- Vertex 4 Ycoordinate
    15;                       !- Vertex 4 Zcoordinate

SHADING:SITE:DETAILED,
    shade_32289_4,            !- Name
    ,                         !- Transmittance Schedule Name
    autocalculate,            !- Number of Vertices
    686921.2709399504,        !- Vertex 1 Xcoordinate
    4928634.043519725,        !- Vertex 1 Ycoordinate
    15,                       !- Vertex 1 Zcoordinate
    686921.2709399504,        !- Vertex 2 Xcoordinate
    4928634.043519725,        !- Vertex 2 Ycoordinate
    0,                        !- Vertex 2 Zcoordinate
    686926.818224831,         !- Vertex 3 Xcoordinate
    4928641.964903562,        !- Vertex 3 Ycoordinate
    0,                        !- Vertex 3 Zcoordinate
    686926.818224831,         !- Vertex 4 Xcoordinate
    4928641.964903562,        !- Vertex 4 Ycoordinate
    15;                       !- Vertex 4 Zcoordinate

SHADING:SITE:DETAILED,
    shade_32208_1,            !- Name
    ,                         !- Transmittance Schedule Name
    autocalculate,            !- Number of Vertices
    686949.4354227842,        !- Vertex 1 Xcoordinate
    4928652.885419615,        !- Vertex 1 Ycoordinate
    15,                       !- Vertex 1 Zcoordinate
    686949.4354227842,        !- Vertex 2 Xcoordinate
    4928652.885419615,        !- Vertex 2 Ycoordinate
    0,                        !- Vertex 2 Zcoordinate
    686965.6190991654,        !- Vertex 3 Xcoordinate
    4928640.5569370445,       !- Vertex 3 Ycoordinate
    0,                        !- Vertex 3 Zcoordinate
    686965.6190991654,        !- Vertex 4 Xcoordinate
    4928640.5569370445,       !- Vertex 4 Ycoordinate
    15;                       !- Vertex 4 Zcoordinate

SHADING:SITE:DETAILED,
    shade_32208_2,            !- Name
    ,                         !- Transmittance Schedule Name
    autocalculate,            !- Number of Vertices
    686965.6190991654,        !- Vertex 1 Xcoordinate
    4928640.5569370445,       !- Vertex 1 Ycoordinate
    15,                       !- Vertex 1 Zcoordinate
    686965.6190991654,        !- Vertex 2 Xcoordinate
    4928640.5569370445,       !- Vertex 2 Ycoordinate
    0,                        !- Vertex 2 Zcoordinate
    686952.2903971318,        !- Vertex 3 Xcoordinate
    4928623.060266311,        !- Vertex 3 Ycoordinate
    0,                        !- Vertex 3 Zcoordinate
    686952.2903971318,        !- Vertex 4 Xcoordinate
    4928623.060266311,        !- Vertex 4 Ycoordinate
    15;                       !- Vertex 4 Zcoordinate

SHADING:SITE:DETAILED,
    shade_32208_3,            !- Name
    ,                         !- Transmittance Schedule Name
    autocalculate,            !- Number of Vertices
    686952.2903971318,        !- Vertex 1 Xcoordinate
    4928623.060266311,        !- Vertex 1 Ycoordinate
    15,                       !- Vertex 1 Zcoordinate
    686952.2903971318,        !- Vertex 2 Xcoordinate
    4928623.060266311,        !- Vertex 2 Ycoordinate
    0,                        !- Vertex 2 Zcoordinate
    686936.105998491,         !- Vertex 3 Xcoordinate
    4928635.38911919,         !- Vertex 3 Ycoordinate
    0,                        !- Vertex 3 Zcoordinate
    686936.105998491,         !- Vertex 4 Xcoordinate
    4928635.38911919,         !- Vertex 4 Ycoordinate
    15;                       !- Vertex 4 Zcoordinate

SHADING:SITE:DETAILED,
    shade_32208_4,            !- Name
    ,                         !- Transmittance Schedule Name
    autocalculate,            !- Number of Vertices
    686936.105998491,         !- Vertex 1 Xcoordinate
    4928635.38911919,         !- Vertex 1 Ycoordinate
    15,                       !- Vertex 1 Zcoordinate
    686936.105998491,         !- Vertex 2 Xcoordinate
    4928635.38911919,         !- Vertex 2 Ycoordinate
    0,                        !- Vertex 2 Zcoordinate
    686949.4354227842,        !- Vertex 3 Xcoordinate
    4928652.885419615,        !- Vertex 3 Ycoordinate
    0,                        !- Vertex 3 Zcoordinate
    686949.4354227842,        !- Vertex 4 Xcoordinate
    4928652.885419615,        !- Vertex 4 Ycoordinate
    15;                       !- Vertex 4 Zcoordinate

SHADING:SITE:DETAILED,
    shade_81093_1,            !- Name
    ,                         !- Transmittance Schedule Name
    autocalculate,            !- Number of Vertices
    686975.2649984908,        !- Vertex 1 Xcoordinate
    4928645.46811919,         !- Vertex 1 Ycoordinate
    15,                       !- Vertex 1 Zcoordinate
    686975.2649984908,        !- Vertex 2 Xcoordinate
    4928645.46811919,         !- Vertex 2 Ycoordinate
    0,                        !- Vertex 2 Zcoordinate
    686970.5249984909,        !- Vertex 3 Xcoordinate
    4928636.60911919,         !- Vertex 3 Ycoordinate
    0,                        !- Vertex 3 Zcoordinate
    686970.5249984909,        !- Vertex 4 Xcoordinate
    4928636.60911919,         !- Vertex 4 Ycoordinate
    15;                       !- Vertex 4 Zcoordinate

SHADING:SITE:DETAILED,
    shade_81093_2,            !- Name
    ,                         !- Transmittance Schedule Name
    autocalculate,            !- Number of Vertices
    686970.5249984909,        !- Vertex 1 Xcoordinate
    4928636.60911919,         !- Vertex 1 Ycoordinate
    15,                       !- Vertex 1 Zcoordinate
    686970.5249984909,        !- Vertex 2 Xcoordinate
    4928636.60911919,         !- Vertex 2 Ycoordinate
    0,                        !- Vertex 2 Zcoordinate
    686967.9210870896,        !- Vertex 3 Xcoordinate
    4928638.002555262,        !- Vertex 3 Ycoordinate
    0,                        !- Vertex 3 Zcoordinate
    686967.9210870896,        !- Vertex 4 Xcoordinate
    4928638.002555262,        !- Vertex 4 Ycoordinate
    15;                       !- Vertex 4 Zcoordinate

SHADING:SITE:DETAILED,
    shade_81093_3,            !- Name
    ,                         !- Transmittance Schedule Name
    autocalculate,            !- Number of Vertices
    686967.9210870896,        !- Vertex 1 Xcoordinate
    4928638.002555262,        !- Vertex 1 Ycoordinate
    15,                       !- Vertex 1 Zcoordinate
    686967.9210870896,        !- Vertex 2 Xcoordinate
    4928638.002555262,        !- Vertex 2 Ycoordinate
    0,                        !- Vertex 2 Zcoordinate
    686972.6610870892,        !- Vertex 3 Xcoordinate
    4928646.861555263,        !- Vertex 3 Ycoordinate
    0,                        !- Vertex 3 Zcoordinate
    686972.6610870892,        !- Vertex 4 Xcoordinate
    4928646.861555263,        !- Vertex 4 Ycoordinate
    15;                       !- Vertex 4 Zcoordinate

SHADING:SITE:DETAILED,
    shade_81093_4,            !- Name
    ,                         !- Transmittance Schedule Name
    autocalculate,            !- Number of Vertices
    686972.6610870892,        !- Vertex 1 Xcoordinate
    4928646.861555263,        !- Vertex 1 Ycoordinate
    15,                       !- Vertex 1 Zcoordinate
    686972.6610870892,        !- Vertex 2 Xcoordinate
    4928646.861555263,        !- Vertex 2 Ycoordinate
    0,                        !- Vertex 2 Zcoordinate
    686975.2649984908,        !- Vertex 3 Xcoordinate
    4928645.46811919,         !- Vertex 3 Ycoordinate
    0,                        !- Vertex 3 Zcoordinate
    686975.2649984908,        !- Vertex 4 Xcoordinate
    4928645.46811919,         !- Vertex 4 Ycoordinate
    15;                       !- Vertex 4 Zcoordinate

OTHEREQUIPMENT,
    EU_Step8_InternalGain_731dccf8c2d02b03_F0_dwelling_0_f000,    !- Name
    Electricity,              !- Fuel Type
    731dccf8c2d02b03_F0_dwelling_0,    !- Zone or ZoneList or Space or SpaceList Name
    EU_Step8_GainSchedule_731dccf8c2d02b03_F0_dwelling_0_f000,    !- Schedule Name
    Watts/Area,               !- Design Level Calculation Method
    ,                         !- Design Level
    1,                        !- Power per Zone Floor Area
    ,                         !- Power per Person
    0,                        !- Fraction Latent
    0,                        !- Fraction Radiant
    0,                        !- Fraction Lost
    0,                        !- Carbon Dioxide Generation Rate
    EU_Step8_InternalGains;    !- EndUse Subcategory

ZONEVENTILATION:DESIGNFLOWRATE,
    EU_ConstantAir_731dccf8c2d02b03_F0_dwelling_0,    !- Name
    731dccf8c2d02b03_F0_dwelling_0,    !- Zone or ZoneList or Space or SpaceList Name
    EU_AlwaysOn,              !- Schedule Name
    AirChanges/Hour,          !- Design Flow Rate Calculation Method
    ,                         !- Design Flow Rate
    ,                         !- Flow Rate per Floor Area
    ,                         !- Flow Rate per Person
    0.6553197946817704,       !- Air Changes per Hour
    Natural,                  !- Ventilation Type
    0,                        !- Fan Pressure Rise
    1,                        !- Fan Total Efficiency
    1,                        !- Constant Term Coefficient
    0,                        !- Temperature Term Coefficient
    0,                        !- Velocity Term Coefficient
    0,                        !- Velocity Squared Term Coefficient
    -100,                     !- Minimum Indoor Temperature
    ,                         !- Minimum Indoor Temperature Schedule Name
    100,                      !- Maximum Indoor Temperature
    ,                         !- Maximum Indoor Temperature Schedule Name
    -100,                     !- Delta Temperature
    ,                         !- Delta Temperature Schedule Name
    -100,                     !- Minimum Outdoor Temperature
    ,                         !- Minimum Outdoor Temperature Schedule Name
    100,                      !- Maximum Outdoor Temperature
    ,                         !- Maximum Outdoor Temperature Schedule Name
    40;                       !- Maximum Wind Speed

HVACTEMPLATE:THERMOSTAT,
    EU_HeatOnly_731dccf8c2d02b03_F0_dwelling_0,    !- Name
    ,                         !- Heating Setpoint Schedule Name
    20,                       !- Constant Heating Setpoint
    ,                         !- Cooling Setpoint Schedule Name
    50;                       !- Constant Cooling Setpoint

HVACTEMPLATE:ZONE:IDEALLOADSAIRSYSTEM,
    731dccf8c2d02b03_F0_dwelling_0,    !- Zone Name
    EU_HeatOnly_731dccf8c2d02b03_F0_dwelling_0,    !- Template Thermostat Name
    EU_AlwaysOn,              !- System Availability Schedule Name
    50,                       !- Maximum Heating Supply Air Temperature
    13,                       !- Minimum Cooling Supply Air Temperature
    0.0156,                   !- Maximum Heating Supply Air Humidity Ratio
    0.0077,                   !- Minimum Cooling Supply Air Humidity Ratio
    NoLimit,                  !- Heating Limit
    ,                         !- Maximum Heating Air Flow Rate
    ,                         !- Maximum Sensible Heating Capacity
    NoLimit,                  !- Cooling Limit
    ,                         !- Maximum Cooling Air Flow Rate
    ,                         !- Maximum Total Cooling Capacity
    EU_AlwaysOn,              !- Heating Availability Schedule Name
    EU_CoolingOff,            !- Cooling Availability Schedule Name
    ConstantSensibleHeatRatio,    !- Dehumidification Control Type
    0.7,                      !- Cooling Sensible Heat Ratio
    60,                       !- Dehumidification Setpoint
    None,                     !- Humidification Control Type
    30,                       !- Humidification Setpoint
    None,                     !- Outdoor Air Method
    0.00944,                  !- Outdoor Air Flow Rate per Person
    0.0,                      !- Outdoor Air Flow Rate per Zone Floor Area
    0,                        !- Outdoor Air Flow Rate per Zone
    ,                         !- Design Specification Outdoor Air Object Name
    None,                     !- Demand Controlled Ventilation Type
    NoEconomizer,             !- Outdoor Air Economizer Type
    None,                     !- Heat Recovery Type
    0.70,                     !- Sensible Heat Recovery Effectiveness
    0.65;                     !- Latent Heat Recovery Effectiveness

SIZING:ZONE,
    731dccf8c2d02b03_F0_dwelling_0,    !- Zone or ZoneList Name
    SupplyAirTemperature,     !- Zone Cooling Design Supply Air Temperature Input Method
    13,                       !- Zone Cooling Design Supply Air Temperature
    ,                         !- Zone Cooling Design Supply Air Temperature Difference
    SupplyAirTemperature,     !- Zone Heating Design Supply Air Temperature Input Method
    50,                       !- Zone Heating Design Supply Air Temperature
    ,                         !- Zone Heating Design Supply Air Temperature Difference
    0.008,                    !- Zone Cooling Design Supply Air Humidity Ratio
    0.008,                    !- Zone Heating Design Supply Air Humidity Ratio
    ,                         !- Design Specification Outdoor Air Object Name
    ,                         !- Zone Heating Sizing Factor
    ,                         !- Zone Cooling Sizing Factor
    DesignDay,                !- Cooling Design Air Flow Method
    0,                        !- Cooling Design Air Flow Rate
    0.000762,                 !- Cooling Minimum Air Flow per Zone Floor Area
    0,                        !- Cooling Minimum Air Flow
    0.2,                      !- Cooling Minimum Air Flow Fraction
    DesignDay,                !- Heating Design Air Flow Method
    0,                        !- Heating Design Air Flow Rate
    0.002032,                 !- Heating Maximum Air Flow per Zone Floor Area
    0.1415762,                !- Heating Maximum Air Flow
    0.3,                      !- Heating Maximum Air Flow Fraction
    ,                         !- Design Specification Zone Air Distribution Object Name
    No,                       !- Account for Dedicated Outdoor Air System
    NeutralSupplyAir,         !- Dedicated Outdoor Air System Control Strategy
    autosize,                 !- Dedicated Outdoor Air Low Setpoint Temperature for Design
    autosize,                 !- Dedicated Outdoor Air High Setpoint Temperature for Design
    Sensible Load Only No Latent Load,    !- Zone Load Sizing Method
    HumidityRatioDifference,    !- Zone Latent Cooling Design Supply Air Humidity Ratio Input Method
    ,                         !- Zone Dehumidification Design Supply Air Humidity Ratio
    0.005,                    !- Zone Cooling Design Supply Air Humidity Ratio Difference
    HumidityRatioDifference,    !- Zone Latent Heating Design Supply Air Humidity Ratio Input Method
    ,                         !- Zone Humidification Design Supply Air Humidity Ratio
    0.005;                    !- Zone Humidification Design Supply Air Humidity Ratio Difference

OUTPUT:VARIABLE,
    *,                        !- Key Value
    Zone Ideal Loads Zone Total Heating Energy,    !- Variable Name
    Hourly;                   !- Reporting Frequency

OUTPUT:SQLITE,
    SimpleAndTabular,         !- Option Type
    UseOutputControlTableStyle;    !- Unit Conversion for Tabular Data