!- Windows Line endings 

Version,
    23.1;                     !- Version Identifier

SimulationControl,
    Yes,                      !- Do Zone Sizing Calculation
    Yes,                      !- Do System Sizing Calculation
    Yes,                      !- Do Plant Sizing Calculation
    No,                       !- Run Simulation for Sizing Periods
    Yes,                      !- Run Simulation for Weather File Run Periods
    No,                       !- Do HVAC Sizing Simulation for Sizing Periods
    1;                        !- Maximum Number of HVAC Sizing Simulation Passes

Building,
    EU S2 Campaign,           !- Name
    0,                        !- North Axis
    City,                     !- Terrain
    ,                         !- Loads Convergence Tolerance Value
    ,                         !- Temperature Convergence Tolerance Value
    FullExterior,             !- Solar Distribution
    ,                         !- Maximum Number of Warmup Days
    ;                         !- Minimum Number of Warmup Days

ShadowCalculation,
    PolygonClipping,          !- Shading Calculation Method
    Periodic,                 !- Shading Calculation Update Frequency Method
    1;                        !- Shading Calculation Update Frequency

HeatBalanceAlgorithm,
    ConductionTransferFunction,    !- Algorithm
    200,                      !- Surface Temperature Upper Limit
    0.1,                      !- Minimum Surface Convection Heat Transfer Coefficient Value
    10000000;                 !- Maximum Surface Convection Heat Transfer Coefficient Value

Timestep,
    12;                       !- Number of Timesteps per Hour

Site:Location,
    Madrid,                   !- Name
    40.5,                     !- Latitude
    -3.5,                     !- Longitude
    1,                        !- Time Zone
    609;                      !- Elevation

SizingPeriod:WeatherFileDays,
    AnnualSizingPeriod,       !- Name
    1,                        !- Begin Month
    1,                        !- Begin Day of Month
    12,                       !- End Month
    31,                       !- End Day of Month
    Monday,                   !- Day of Week for Start Day
    No,                       !- Use Weather File Daylight Saving Period
    No;                       !- Use Weather File Rain and Snow Indicators

RunPeriod,
    RunPeriod1,               !- Name
    1,                        !- Begin Month
    1,                        !- Begin Day of Month
    ,                         !- Begin Year
    12,                       !- End Month
    31,                       !- End Day of Month
    ,                         !- End Year
    Sunday,                   !- Day of Week for Start Day
    No,                       !- Use Weather File Holidays and Special Days
    No,                       !- Use Weather File Daylight Saving Period
    No,                       !- Apply Weekend Holiday Rule
    Yes,                      !- Use Weather File Rain Indicators
    Yes;                      !- Use Weather File Snow Indicators

ScheduleTypeLimits,
    Any Number;               !- Name

SCHEDULETYPELIMITS,
    EU_Step8_AnyNumber_Wm2,    !- Name
    ,                         !- Lower Limit Value
    ,                         !- Upper Limit Value
    Continuous,               !- Numeric Type
    Dimensionless;            !- Unit Type

SCHEDULE:CONSTANT,
    EU_AlwaysOn,              !- Name
    ,                         !- Schedule Type Limits Name
    1;                        !- Hourly Value

SCHEDULE:CONSTANT,
    EU_CoolingOff,            !- Name
    ,                         !- Schedule Type Limits Name
    0;                        !- Hourly Value

SCHEDULE:FILE,
    EU_Step8_GainSchedule_c9646de4bb5077ce_F0_whole_f000,    !- Name
    EU_Step8_AnyNumber_Wm2,    !- Schedule Type Limits Name
    ../../schedules/c9646de4bb5077ce/c9646de4bb5077ce_F0_whole_f000_gain.csv,    !- File Name
    1,                        !- Column Number
    0,                        !- Rows to Skip at Top
    8760,                     !- Number of Hours of Data
    Comma,                    !- Column Separator
    No,                       !- Interpolate to Timestep
    60,                       !- Minutes per Item
    Yes;                      !- Adjust Schedule for Daylight Savings

MATERIAL,
    EU_InternalMass_Material,    !- Name
    MediumRough,              !- Roughness
    0.1,                      !- Thickness
    1,                        !- Conductivity
    1800,                     !- Density
    900,                      !- Specific Heat
    0.9,                      !- Thermal Absorptance
    0.7,                      !- Solar Absorptance
    0.7;                      !- Visible Absorptance

MATERIAL:NOMASS,
    EU_wall_NoMass,           !- Name
    MediumRough,              !- Roughness
    4.197386e-01,             !- Thermal Resistance
    0.9,                      !- Thermal Absorptance
    0.7,                      !- Solar Absorptance
    0.7;                      !- Visible Absorptance

MATERIAL:NOMASS,
    EU_roof_NoMass,           !- Name
    MediumRough,              !- Roughness
    0.3521646044882231,       !- Thermal Resistance
    0.9,                      !- Thermal Absorptance
    0.7,                      !- Solar Absorptance
    0.7;                      !- Visible Absorptance

MATERIAL:NOMASS,
    EU_floor_NoMass,          !- Name
    MediumRough,              !- Roughness
    0.6082843168432945,       !- Thermal Resistance
    0.9,                      !- Thermal Absorptance
    0.7,                      !- Solar Absorptance
    0.7;                      !- Visible Absorptance

CONSTRUCTION,
    EU_wall_Construction,     !- Name
    EU_wall_NoMass;           !- Outside Layer

CONSTRUCTION,
    EU_roof_Construction,     !- Name
    EU_roof_NoMass;           !- Outside Layer

CONSTRUCTION,
    EU_floor_Construction,    !- Name
    EU_floor_NoMass;          !- Outside Layer

CONSTRUCTION,
    EU_InternalMass_Construction,    !- Name
    EU_InternalMass_Material;    !- Outside Layer

GlobalGeometryRules,
    UpperLeftCorner,          !- Starting Vertex Position
    CounterClockWise,         !- Vertex Entry Direction
    World;                    !- Coordinate System

ZONE,
    c9646de4bb5077ce_F0_whole,    !- Name
    0,                        !- Direction of Relative North
    0,                        !- X Origin
    0,                        !- Y Origin
    0,                        !- Z Origin
    1,                        !- Type
    1,                        !- Multiplier
    autocalculate,            !- Ceiling Height
    1215.1669921875,          !- Volume
    autocalculate,            !- Floor Area
    ,                         !- Zone Inside Convection Algorithm
    ,                         !- Zone Outside Convection Algorithm
    Yes;                      !- Part of Total Floor Area

BUILDINGSURFACE:DETAILED,
    Block c9646de4bb5077ce_whole Storey 0 Wall 0001,    !- Name
    wall,                     !- Surface Type
    EU_wall_Construction,     !- Construction Name
    c9646de4bb5077ce_F0_whole,    !- Zone Name
    ,                         !- Space Name
    outdoors,                 !- Outside Boundary Condition
    ,                         !- Outside Boundary Condition Object
    SunExposed,               !- Sun Exposure
    WindExposed,              !- Wind Exposure
    autocalculate,            !- View Factor to Ground
    autocalculate,            !- Number of Vertices
    440120.155,               !- Vertex 1 Xcoordinate
    4478979.37,               !- Vertex 1 Ycoordinate
    12,                       !- Vertex 1 Zcoordinate
    440120.155,               !- Vertex 2 Xcoordinate
    4478979.37,               !- Vertex 2 Ycoordinate
    0,                        !- Vertex 2 Zcoordinate
    440120.95,                !- Vertex 3 Xcoordinate
    4478982.94,               !- Vertex 3 Ycoordinate
    0,                        !- Vertex 3 Zcoordinate
    440120.95,                !- Vertex 4 Xcoordinate
    4478982.94,               !- Vertex 4 Ycoordinate
    12;                       !- Vertex 4 Zcoordinate

BUILDINGSURFACE:DETAILED,
    Block c9646de4bb5077ce_whole Storey 0 Wall 0002,    !- Name
    wall,                     !- Surface Type
    EU_wall_Construction,     !- Construction Name
    c9646de4bb5077ce_F0_whole,    !- Zone Name
    ,                         !- Space Name
    outdoors,                 !- Outside Boundary Condition
    ,                         !- Outside Boundary Condition Object
    SunExposed,               !- Sun Exposure
    WindExposed,              !- Wind Exposure
    autocalculate,            !- View Factor to Ground
    autocalculate,            !- Number of Vertices
    440120.95,                !- Vertex 1 Xcoordinate
    4478982.94,               !- Vertex 1 Ycoordinate
    12,                       !- Vertex 1 Zcoordinate
    440120.95,                !- Vertex 2 Xcoordinate
    4478982.94,               !- Vertex 2 Ycoordinate
    0,                        !- Vertex 2 Zcoordinate
    440124.47,                !- Vertex 3 Xcoordinate
    4478983.265,              !- Vertex 3 Ycoordinate
    0,                        !- Vertex 3 Zcoordinate
    440124.47,                !- Vertex 4 Xcoordinate
    4478983.265,              !- Vertex 4 Ycoordinate
    12;                       !- Vertex 4 Zcoordinate

BUILDINGSURFACE:DETAILED,
    Block c9646de4bb5077ce_whole Storey 0 Wall 0003,    !- Name
    wall,                     !- Surface Type
    EU_wall_Construction,     !- Construction Name
    c9646de4bb5077ce_F0_whole,    !- Zone Name
    ,                         !- Space Name
    Adiabatic,                !- Outside Boundary Condition
    ,                         !- Outside Boundary Condition Object
    NoSun,                    !- Sun Exposure
    NoWind,                   !- Wind Exposure
    autocalculate,            !- View Factor to Ground
    autocalculate,            !- Number of Vertices
    440124.47,                !- Vertex 1 Xcoordinate
    4478983.265,              !- Vertex 1 Ycoordinate
    12,                       !- Vertex 1 Zcoordinate
    440124.47,                !- Vertex 2 Xcoordinate
    4478983.265,              !- Vertex 2 Ycoordinate
    0,                        !- Vertex 2 Zcoordinate
    440125.645,               !- Vertex 3 Xcoordinate
    4478964.575,              !- Vertex 3 Ycoordinate
    0,                        !- Vertex 3 Zcoordinate
    440125.645,               !- Vertex 4 Xcoordinate
    4478964.575,              !- Vertex 4 Ycoordinate
    12;                       !- Vertex 4 Zcoordinate

BUILDINGSURFACE:DETAILED,
    Block c9646de4bb5077ce_whole Storey 0 Wall 0004,    !- Name
    wall,                     !- Surface Type
    EU_wall_Construction,     !- Construction Name
    c9646de4bb5077ce_F0_whole,    !- Zone Name
    ,                         !- Space Name
    outdoors,                 !- Outside Boundary Condition
    ,                         !- Outside Boundary Condition Object
    SunExposed,               !- Sun Exposure
    WindExposed,              !- Wind Exposure
    autocalculate,            !- View Factor to Ground
    autocalculate,            !- Number of Vertices
    440125.645,               !- Vertex 1 Xcoordinate
    4478964.575,              !- Vertex 1 Ycoordinate
    12,                       !- Vertex 1 Zcoordinate
    440125.645,               !- Vertex 2 Xcoordinate
    4478964.575,              !- Vertex 2 Ycoordinate
    0,                        !- Vertex 2 Zcoordinate
    440116.485,               !- Vertex 3 Xcoordinate
    4478962.65,               !- Vertex 3 Ycoordinate
    0,                        !- Vertex 3 Zcoordinate
    440116.485,               !- Vertex 4 Xcoordinate
    4478962.65,               !- Vertex 4 Ycoordinate
    12;                       !- Vertex 4 Zcoordinate

BUILDINGSURFACE:DETAILED,
    Block c9646de4bb5077ce_whole Storey 0 Wall 0005,    !- Name
    wall,                     !- Surface Type
    EU_wall_Construction,     !- Construction Name
    c9646de4bb5077ce_F0_whole,    !- Zone Name
    ,                         !- Space Name
    Adiabatic,                !- Outside Boundary Condition
    ,                         !- Outside Boundary Condition Object
    NoSun,                    !- Sun Exposure
    NoWind,                   !- Wind Exposure
    autocalculate,            !- View Factor to Ground
    autocalculate,            !- Number of Vertices
    440116.485,               !- Vertex 1 Xcoordinate
    4478962.65,               !- Vertex 1 Ycoordinate
    12,                       !- Vertex 1 Zcoordinate
    440116.485,               !- Vertex 2 Xcoordinate
    4478962.65,               !- Vertex 2 Ycoordinate
    0,                        !- Vertex 2 Zcoordinate
    440118.67,                !- Vertex 3 Xcoordinate
    4478972.58,               !- Vertex 3 Ycoordinate
    0,                        !- Vertex 3 Zcoordinate
    440118.67,                !- Vertex 4 Xcoordinate
    4478972.58,               !- Vertex 4 Ycoordinate
    12;                       !- Vertex 4 Zcoordinate

BUILDINGSURFACE:DETAILED,
    Block c9646de4bb5077ce_whole Storey 0 Wall 0006,    !- Name
    wall,                     !- Surface Type
    EU_wall_Construction,     !- Construction Name
    c9646de4bb5077ce_F0_whole,    !- Zone Name
    ,                         !- Space Name
    outdoors,                 !- Outside Boundary Condition
    ,                         !- Outside Boundary Condition Object
    SunExposed,               !- Sun Exposure
    WindExposed,              !- Wind Exposure
    autocalculate,            !- View Factor to Ground
    autocalculate,            !- Number of Vertices
    440118.67,                !- Vertex 1 Xcoordinate
    4478972.58,               !- Vertex 1 Ycoordinate
    12,                       !- Vertex 1 Zcoordinate
    440118.67,                !- Vertex 2 Xcoordinate
    4478972.58,               !- Vertex 2 Ycoordinate
    0,                        !- Vertex 2 Zcoordinate
    440122.665,               !- Vertex 3 Xcoordinate
    4478972.89,               !- Vertex 3 Ycoordinate
    0,                        !- Vertex 3 Zcoordinate
    440122.665,               !- Vertex 4 Xcoordinate
    4478972.89,               !- Vertex 4 Ycoordinate
    12;                       !- Vertex 4 Zcoordinate

BUILDINGSURFACE:DETAILED,
    Block c9646de4bb5077ce_whole Storey 0 Wall 0007,    !- Name
    wall,                     !- Surface Type
    EU_wall_Construction,     !- Construction Name
    c9646de4bb5077ce_F0_whole,    !- Zone Name
    ,                         !- Space Name
    outdoors,                 !- Outside Boundary Condition
    ,                         !- Outside Boundary Condition Object
    SunExposed,               !- Sun Exposure
    WindExposed,              !- Wind Exposure
    autocalculate,            !- View Factor to Ground
    autocalculate,            !- Number of Vertices
    440122.665,               !- Vertex 1 Xcoordinate
    4478972.89,               !- Vertex 1 Ycoordinate
    12,                       !- Vertex 1 Zcoordinate
    440122.665,               !- Vertex 2 Xcoordinate
    4478972.89,               !- Vertex 2 Ycoordinate
    0,                        !- Vertex 2 Zcoordinate
    440122.36,                !- Vertex 3 Xcoordinate
    4478979.39,               !- Vertex 3 Ycoordinate
    0,                        !- Vertex 3 Zcoordinate
    440122.36,                !- Vertex 4 Xcoordinate
    4478979.39,               !- Vertex 4 Ycoordinate
    12;                       !- Vertex 4 Zcoordinate

BUILDINGSURFACE:DETAILED,
    Block c9646de4bb5077ce_whole Storey 0 Wall 0008,    !- Name
    wall,                     !- Surface Type
    EU_wall_Construction,     !- Construction Name
    c9646de4bb5077ce_F0_whole,    !- Zone Name
    ,                         !- Space Name
    outdoors,                 !- Outside Boundary Condition
    ,                         !- Outside Boundary Condition Object
    SunExposed,               !- Sun Exposure
    WindExposed,              !- Wind Exposure
    autocalculate,            !- View Factor to Ground
    autocalculate,            !- Number of Vertices
    440122.36,                !- Vertex 1 Xcoordinate
    4478979.39,               !- Vertex 1 Ycoordinate
    12,                       !- Vertex 1 Zcoordinate
    440122.36,                !- Vertex 2 Xcoordinate
    4478979.39,               !- Vertex 2 Ycoordinate
    0,                        !- Vertex 2 Zcoordinate
    440120.155,               !- Vertex 3 Xcoordinate
    4478979.37,               !- Vertex 3 Ycoordinate
    0,                        !- Vertex 3 Zcoordinate
    440120.155,               !- Vertex 4 Xcoordinate
    4478979.37,               !- Vertex 4 Ycoordinate
    12;                       !- Vertex 4 Zcoordinate

BUILDINGSURFACE:DETAILED,
    Block c9646de4bb5077ce_whole Storey 0 Floor 0001,    !- Name
    floor,                    !- Surface Type
    EU_floor_Construction,    !- Construction Name
    c9646de4bb5077ce_F0_whole,    !- Zone Name
    ,                         !- Space Name
    ground,                   !- Outside Boundary Condition
    ,                         !- Outside Boundary Condition Object
    NoSun,                    !- Sun Exposure
    NoWind,                   !- Wind Exposure
    autocalculate,            !- View Factor to Ground
    autocalculate,            !- Number of Vertices
    440125.645,               !- Vertex 1 Xcoordinate
    4478964.575,              !- Vertex 1 Ycoordinate
    0,                        !- Vertex 1 Zcoordinate
    440124.47,                !- Vertex 2 Xcoordinate
    4478983.265,              !- Vertex 2 Ycoordinate
    0,                        !- Vertex 2 Zcoordinate
    440120.95,                !- Vertex 3 Xcoordinate
    4478982.94,               !- Vertex 3 Ycoordinate
    0,                        !- Vertex 3 Zcoordinate
    440120.155,               !- Vertex 4 Xcoordinate
    4478979.37,               !- Vertex 4 Ycoordinate
    0,                        !- Vertex 4 Zcoordinate
    440122.36,                !- Vertex 5 Xcoordinate
    4478979.39,               !- Vertex 5 Ycoordinate
    0,                        !- Vertex 5 Zcoordinate
    440122.665,               !- Vertex 6 Xcoordinate
    4478972.89,               !- Vertex 6 Ycoordinate
    0,                        !- Vertex 6 Zcoordinate
    440118.67,                !- Vertex 7 Xcoordinate
    4478972.58,               !- Vertex 7 Ycoordinate
    0,                        !- Vertex 7 Zcoordinate
    440116.485,               !- Vertex 8 Xcoordinate
    4478962.65,               !- Vertex 8 Ycoordinate
    0;                        !- Vertex 8 Zcoordinate

BUILDINGSURFACE:DETAILED,
    Block c9646de4bb5077ce_whole Storey 0 Roof 0001,    !- Name
    roof,                     !- Surface Type
    EU_roof_Construction,     !- Construction Name
    c9646de4bb5077ce_F0_whole,    !- Zone Name
    ,                         !- Space Name
    outdoors,                 !- Outside Boundary Condition
    ,                         !- Outside Boundary Condition Object
    NoSun,                    !- Sun Exposure
    WindExposed,              !- Wind Exposure
    autocalculate,            !- View Factor to Ground
    autocalculate,            !- Number of Vertices
    440124.47,                !- Vertex 1 Xcoordinate
    4478983.265,              !- Vertex 1 Ycoordinate
    12,                       !- Vertex 1 Zcoordinate
    440125.645,               !- Vertex 2 Xcoordinate
    4478964.575,              !- Vertex 2 Ycoordinate
    12,                       !- Vertex 2 Zcoordinate
    440116.485,               !- Vertex 3 Xcoordinate
    4478962.65,               !- Vertex 3 Ycoordinate
    12,                       !- Vertex 3 Zcoordinate
    440118.67,                !- Vertex 4 Xcoordinate
    4478972.58,               !- Vertex 4 Ycoordinate
    12,                       !- Vertex 4 Zcoordinate
    440122.665,               !- Vertex 5 Xcoordinate
    4478972.89,               !- Vertex 5 Ycoordinate
    12,                       !- Vertex 5 Zcoordinate
    440122.36,                !- Vertex 6 Xcoordinate
    4478979.39,               !- Vertex 6 Ycoordinate
    12,                       !- Vertex 6 Zcoordinate
    440120.155,               !- Vertex 7 Xcoordinate
    4478979.37,               !- Vertex 7 Ycoordinate
    12,                       !- Vertex 7 Zcoordinate
    440120.95,                !- Vertex 8 Xcoordinate
    4478982.94,               !- Vertex 8 Ycoordinate
    12;                       !- Vertex 8 Zcoordinate

INTERNALMASS,
    c9646de4bb5077ce_F0_whole_EU_InternalMass,    !- Name
    EU_InternalMass_Construction,    !- Construction Name
    c9646de4bb5077ce_F0_whole,    !- Zone or ZoneList Name
    ,                         !- Space or SpaceList Name
    101.26402499812694;       !- Surface Area

SHADING:SITE:DETAILED,
    shade_way/957114523_1,    !- Name
    ,                         !- Transmittance Schedule Name
    autocalculate,            !- Number of Vertices
    440115.0457136992,        !- Vertex 1 Xcoordinate
    4478954.170166992,        !- Vertex 1 Ycoordinate
    12,                       !- Vertex 1 Zcoordinate
    440115.0457136992,        !- Vertex 2 Xcoordinate
    4478954.170166992,        !- Vertex 2 Ycoordinate
    0,                        !- Vertex 2 Zcoordinate
    440118.45476709446,       !- Vertex 3 Xcoordinate
    4478929.843354247,        !- Vertex 3 Ycoordinate
    0,                        !- Vertex 3 Zcoordinate
    440118.45476709446,       !- Vertex 4 Xcoordinate
    4478929.843354247,        !- Vertex 4 Ycoordinate
    12;                       !- Vertex 4 Zcoordinate

SHADING:SITE:DETAILED,
    shade_way/957114523_2,    !- Name
    ,                         !- Transmittance Schedule Name
    autocalculate,            !- Number of Vertices
    440118.45476709446,       !- Vertex 1 Xcoordinate
    4478929.843354247,        !- Vertex 1 Ycoordinate
    12,                       !- Vertex 1 Zcoordinate
    440118.45476709446,       !- Vertex 2 Xcoordinate
    4478929.843354247,        !- Vertex 2 Ycoordinate
    0,                        !- Vertex 2 Zcoordinate
    440096.58497186686,       !- Vertex 3 Xcoordinate
    4478926.778509304,        !- Vertex 3 Ycoordinate
    0,                        !- Vertex 3 Zcoordinate
    440096.58497186686,       !- Vertex 4 Xcoordinate
    4478926.778509304,        !- Vertex 4 Ycoordinate
    12;                       !- Vertex 4 Zcoordinate

SHADING:SITE:DETAILED,
    shade_way/957114523_3,    !- Name
    ,                         !- Transmittance Schedule Name
    autocalculate,            !- Number of Vertices
    440096.58497186686,       !- Vertex 1 Xcoordinate
    4478926.778509304,        !- Vertex 1 Ycoordinate
    12,                       !- Vertex 1 Zcoordinate
    440096.58497186686,       !- Vertex 2 Xcoordinate
    4478926.778509304,        !- Vertex 2 Ycoordinate
    0,                        !- Vertex 2 Zcoordinate
    440093.17591847177,       !- Vertex 3 Xcoordinate
    4478951.105322049,        !- Vertex 3 Ycoordinate
    0,                        !- Vertex 3 Zcoordinate
    440093.17591847177,       !- Vertex 4 Xcoordinate
    4478951.105322049,        !- Vertex 4 Ycoordinate
    12;                       !- Vertex 4 Zcoordinate

SHADING:SITE:DETAILED,
    shade_way/957114523_4,    !- Name
    ,                         !- Transmittance Schedule Name
    autocalculate,            !- Number of Vertices
    440093.17591847177,       !- Vertex 1 Xcoordinate
    4478951.105322049,        !- Vertex 1 Ycoordinate
    12,                       !- Vertex 1 Zcoordinate
    440093.17591847177,       !- Vertex 2 Xcoordinate
    4478951.105322049,        !- Vertex 2 Ycoordinate
    0,                        !- Vertex 2 Zcoordinate
    440115.0457136992,        !- Vertex 3 Xcoordinate
    4478954.170166992,        !- Vertex 3 Ycoordinate
    0,                        !- Vertex 3 Zcoordinate
    440115.0457136992,        !- Vertex 4 Xcoordinate
    4478954.170166992,        !- Vertex 4 Ycoordinate
    12;                       !- Vertex 4 Zcoordinate

SHADING:SITE:DETAILED,
    shade_way/333138109_1,    !- Name
    ,                         !- Transmittance Schedule Name
    autocalculate,            !- Number of Vertices
    440087.6567108039,        !- Vertex 1 Xcoordinate
    4478948.982573133,        !- Vertex 1 Ycoordinate
    6,                        !- Vertex 1 Zcoordinate
    440087.6567108039,        !- Vertex 2 Xcoordinate
    4478948.982573133,        !- Vertex 2 Ycoordinate
    0,                        !- Vertex 2 Zcoordinate
    440103.49971108016,       !- Vertex 3 Xcoordinate
    4478951.98360181,         !- Vertex 3 Ycoordinate
    0,                        !- Vertex 3 Zcoordinate
    440103.49971108016,       !- Vertex 4 Xcoordinate
    4478951.98360181,         !- Vertex 4 Ycoordinate
    6;                        !- Vertex 4 Zcoordinate

SHADING:SITE:DETAILED,
    shade_way/333138109_2,    !- Name
    ,                         !- Transmittance Schedule Name
    autocalculate,            !- Number of Vertices
    440103.49971108016,       !- Vertex 1 Xcoordinate
    4478951.98360181,         !- Vertex 1 Ycoordinate
    6,                        !- Vertex 1 Zcoordinate
    440103.49971108016,       !- Vertex 2 Xcoordinate
    4478951.98360181,         !- Vertex 2 Ycoordinate
    0,                        !- Vertex 2 Zcoordinate
    440105.9849739537,        !- Vertex 3 Xcoordinate
    4478938.863427173,        !- Vertex 3 Ycoordinate
    0,                        !- Vertex 3 Zcoordinate
    440105.9849739537,        !- Vertex 4 Xcoordinate
    4478938.863427173,        !- Vertex 4 Ycoordinate
    6;                        !- Vertex 4 Zcoordinate

SHADING:SITE:DETAILED,
    shade_way/333138109_3,    !- Name
    ,                         !- Transmittance Schedule Name
    autocalculate,            !- Number of Vertices
    440105.9849739537,        !- Vertex 1 Xcoordinate
    4478938.863427173,        !- Vertex 1 Ycoordinate
    6,                        !- Vertex 1 Zcoordinate
    440105.9849739537,        !- Vertex 2 Xcoordinate
    4478938.863427173,        !- Vertex 2 Ycoordinate
    0,                        !- Vertex 2 Zcoordinate
    440090.1419736774,        !- Vertex 3 Xcoordinate
    4478935.862398496,        !- Vertex 3 Ycoordinate
    0,                        !- Vertex 3 Zcoordinate
    440090.1419736774,        !- Vertex 4 Xcoordinate
    4478935.862398496,        !- Vertex 4 Ycoordinate
    6;                        !- Vertex 4 Zcoordinate

SHADING:SITE:DETAILED,
    shade_way/333138109_4,    !- Name
    ,                         !- Transmittance Schedule Name
    autocalculate,            !- Number of Vertices
    440090.1419736774,        !- Vertex 1 Xcoordinate
    4478935.862398496,        !- Vertex 1 Ycoordinate
    6,                        !- Vertex 1 Zcoordinate
    440090.1419736774,        !- Vertex 2 Xcoordinate
    4478935.862398496,        !- Vertex 2 Ycoordinate
    0,                        !- Vertex 2 Zcoordinate
    440087.6567108039,        !- Vertex 3 Xcoordinate
    4478948.982573133,        !- Vertex 3 Ycoordinate
    0,                        !- Vertex 3 Zcoordinate
    440087.6567108039,        !- Vertex 4 Xcoordinate
    4478948.982573133,        !- Vertex 4 Ycoordinate
    6;                        !- Vertex 4 Zcoordinate

SHADING:SITE:DETAILED,
    shade_way/333138119_1,    !- Name
    ,                         !- Transmittance Schedule Name
    autocalculate,            !- Number of Vertices
    440143.8254201299,        !- Vertex 1 Xcoordinate
    4478959.645777355,        !- Vertex 1 Ycoordinate
    6,                        !- Vertex 1 Zcoordinate
    440143.8254201299,        !- Vertex 2 Xcoordinate
    4478959.645777355,        !- Vertex 2 Ycoordinate
    0,                        !- Vertex 2 Zcoordinate
    440145.14972177637,       !- Vertex 3 Xcoordinate
    4478944.993299839,        !- Vertex 3 Ycoordinate
    0,                        !- Vertex 3 Zcoordinate
    440145.14972177637,       !- Vertex 4 Xcoordinate
    4478944.993299839,        !- Vertex 4 Ycoordinate
    6;                        !- Vertex 4 Zcoordinate

SHADING:SITE:DETAILED,
    shade_way/333138119_2,    !- Name
    ,                         !- Transmittance Schedule Name
    autocalculate,            !- Number of Vertices
    440145.14972177637,       !- Vertex 1 Xcoordinate
    4478944.993299839,        !- Vertex 1 Ycoordinate
    6,                        !- Vertex 1 Zcoordinate
    440145.14972177637,       !- Vertex 2 Xcoordinate
    4478944.993299839,        !- Vertex 2 Ycoordinate
    0,                        !- Vertex 2 Zcoordinate
    440116.1123228603,        !- Vertex 3 Xcoordinate
    4478942.368776887,        !- Vertex 3 Ycoordinate
    0,                        !- Vertex 3 Zcoordinate
    440116.1123228603,        !- Vertex 4 Xcoordinate
    4478942.368776887,        !- Vertex 4 Ycoordinate
    6;                        !- Vertex 4 Zcoordinate

SHADING:SITE:DETAILED,
    shade_way/333138119_3,    !- Name
    ,                         !- Transmittance Schedule Name
    autocalculate,            !- Number of Vertices
    440116.1123228603,        !- Vertex 1 Xcoordinate
    4478942.368776887,        !- Vertex 1 Ycoordinate
    6,                        !- Vertex 1 Zcoordinate
    440116.1123228603,        !- Vertex 2 Xcoordinate
    4478942.368776887,        !- Vertex 2 Ycoordinate
    0,                        !- Vertex 2 Zcoordinate
    440114.78802121367,       !- Vertex 3 Xcoordinate
    4478957.0212544035,       !- Vertex 3 Ycoordinate
    0,                        !- Vertex 3 Zcoordinate
    440114.78802121367,       !- Vertex 4 Xcoordinate
    4478957.0212544035,       !- Vertex 4 Ycoordinate
    6;                        !- Vertex 4 Zcoordinate

SHADING:SITE:DETAILED,
    shade_way/333138119_4,    !- Name
    ,                         !- Transmittance Schedule Name
    autocalculate,            !- Number of Vertices
    440114.78802121367,       !- Vertex 1 Xcoordinate
    4478957.0212544035,       !- Vertex 1 Ycoordinate
    6,                        !- Vertex 1 Zcoordinate
    440114.78802121367,       !- Vertex 2 Xcoordinate
    4478957.0212544035,       !- Vertex 2 Ycoordinate
    0,                        !- Vertex 2 Zcoordinate
    440143.8254201299,        !- Vertex 3 Xcoordinate
    4478959.645777355,        !- Vertex 3 Ycoordinate
    0,                        !- Vertex 3 Zcoordinate
    440143.8254201299,        !- Vertex 4 Xcoordinate
    4478959.645777355,        !- Vertex 4 Ycoordinate
    6;                        !- Vertex 4 Zcoordinate

SHADING:SITE:DETAILED,
    shade_way/956615879_1,    !- Name
    ,                         !- Transmittance Schedule Name
    autocalculate,            !- Number of Vertices
    440096.06354138965,       !- Vertex 1 Xcoordinate
    4478974.49599686,         !- Vertex 1 Ycoordinate
    12,                       !- Vertex 1 Zcoordinate
    440096.06354138965,       !- Vertex 2 Xcoordinate
    4478974.49599686,         !- Vertex 2 Ycoordinate
    0,                        !- Vertex 2 Zcoordinate
    440118.98844786227,       !- Vertex 3 Xcoordinate
    4478975.62109933,         !- Vertex 3 Ycoordinate
    0,                        !- Vertex 3 Zcoordinate
    440118.98844786227,       !- Vertex 4 Xcoordinate
    4478975.62109933,         !- Vertex 4 Ycoordinate
    12;                       !- Vertex 4 Zcoordinate

SHADING:SITE:DETAILED,
    shade_way/956615879_2,    !- Name
    ,                         !- Transmittance Schedule Name
    autocalculate,            !- Number of Vertices
    440118.98844786227,       !- Vertex 1 Xcoordinate
    4478975.62109933,         !- Vertex 1 Ycoordinate
    12,                       !- Vertex 1 Zcoordinate
    440118.98844786227,       !- Vertex 2 Xcoordinate
    4478975.62109933,         !- Vertex 2 Ycoordinate
    0,                        !- Vertex 2 Zcoordinate
    440119.7511886236,        !- Vertex 3 Xcoordinate
    4478960.0796165895,       !- Vertex 3 Ycoordinate
    0,                        !- Vertex 3 Zcoordinate
    440119.7511886236,        !- Vertex 4 Xcoordinate
    4478960.0796165895,       !- Vertex 4 Ycoordinate
    12;                       !- Vertex 4 Zcoordinate

SHADING:SITE:DETAILED,
    shade_way/956615879_3,    !- Name
    ,                         !- Transmittance Schedule Name
    autocalculate,            !- Number of Vertices
    440119.7511886236,        !- Vertex 1 Xcoordinate
    4478960.0796165895,       !- Vertex 1 Ycoordinate
    12,                       !- Vertex 1 Zcoordinate
    440119.7511886236,        !- Vertex 2 Xcoordinate
    4478960.0796165895,       !- Vertex 2 Ycoordinate
    0,                        !- Vertex 2 Zcoordinate
    440096.826282151,         !- Vertex 3 Xcoordinate
    4478958.954514119,        !- Vertex 3 Ycoordinate
    0,                        !- Vertex 3 Zcoordinate
    440096.826282151,         !- Vertex 4 Xcoordinate
    4478958.954514119,        !- Vertex 4 Ycoordinate
    12;                       !- Vertex 4 Zcoordinate

SHADING:SITE:DETAILED,
    shade_way/956615879_4,    !- Name
    ,                         !- Transmittance Schedule Name
    autocalculate,            !- Number of Vertices
    440096.826282151,         !- Vertex 1 Xcoordinate
    4478958.954514119,        !- Vertex 1 Ycoordinate
    12,                       !- Vertex 1 Zcoordinate
    440096.826282151,         !- Vertex 2 Xcoordinate
    4478958.954514119,        !- Vertex 2 Ycoordinate
    0,                        !- Vertex 2 Zcoordinate
    440096.06354138965,       !- Vertex 3 Xcoordinate
    4478974.49599686,         !- Vertex 3 Ycoordinate
    0,                        !- Vertex 3 Zcoordinate
    440096.06354138965,       !- Vertex 4 Xcoordinate
    4478974.49599686,         !- Vertex 4 Ycoordinate
    12;                       !- Vertex 4 Zcoordinate

SHADING:SITE:DETAILED,
    shade_way/434584674_1,    !- Name
    ,                         !- Transmittance Schedule Name
    autocalculate,            !- Number of Vertices
    440123.9347742354,        !- Vertex 1 Xcoordinate
    4478983.218498928,        !- Vertex 1 Ycoordinate
    12,                       !- Vertex 1 Zcoordinate
    440123.9347742354,        !- Vertex 2 Xcoordinate
    4478983.218498928,        !- Vertex 2 Ycoordinate
    0,                        !- Vertex 2 Zcoordinate
    440130.4163602968,        !- Vertex 3 Xcoordinate
    4478983.812356958,        !- Vertex 3 Ycoordinate
    0,                        !- Vertex 3 Zcoordinate
    440130.4163602968,        !- Vertex 4 Xcoordinate
    4478983.812356958,        !- Vertex 4 Ycoordinate
    12;                       !- Vertex 4 Zcoordinate

SHADING:SITE:DETAILED,
    shade_way/434584674_2,    !- Name
    ,                         !- Transmittance Schedule Name
    autocalculate,            !- Number of Vertices
    440130.4163602968,        !- Vertex 1 Xcoordinate
    4478983.812356958,        !- Vertex 1 Ycoordinate
    12,                       !- Vertex 1 Zcoordinate
    440130.4163602968,        !- Vertex 2 Xcoordinate
    4478983.812356958,        !- Vertex 2 Ycoordinate
    0,                        !- Vertex 2 Zcoordinate
    440132.12447005406,       !- Vertex 3 Xcoordinate
    4478965.169415705,        !- Vertex 3 Ycoordinate
    0,                        !- Vertex 3 Zcoordinate
    440132.12447005406,       !- Vertex 4 Xcoordinate
    4478965.169415705,        !- Vertex 4 Ycoordinate
    12;                       !- Vertex 4 Zcoordinate

SHADING:SITE:DETAILED,
    shade_way/434584674_3,    !- Name
    ,                         !- Transmittance Schedule Name
    autocalculate,            !- Number of Vertices
    440132.12447005406,       !- Vertex 1 Xcoordinate
    4478965.169415705,        !- Vertex 1 Ycoordinate
    12,                       !- Vertex 1 Zcoordinate
    440132.12447005406,       !- Vertex 2 Xcoordinate
    4478965.169415705,        !- Vertex 2 Ycoordinate
    0,                        !- Vertex 2 Zcoordinate
    440125.64311731886,       !- Vertex 3 Xcoordinate
    4478964.575606918,        !- Vertex 3 Ycoordinate
    0,                        !- Vertex 3 Zcoordinate
    440125.64311731886,       !- Vertex 4 Xcoordinate
    4478964.575606918,        !- Vertex 4 Ycoordinate
    12;                       !- Vertex 4 Zcoordinate

SHADING:SITE:DETAILED,
    shade_way/434584674_4,    !- Name
    ,                         !- Transmittance Schedule Name
    autocalculate,            !- Number of Vertices
    440125.64311731886,       !- Vertex 1 Xcoordinate
    4478964.575606918,        !- Vertex 1 Ycoordinate
    12,                       !- Vertex 1 Zcoordinate
    440125.64311731886,       !- Vertex 2 Xcoordinate
    4478964.575606918,        !- Vertex 2 Ycoordinate
    0,                        !- Vertex 2 Zcoordinate
    440123.9347742354,        !- Vertex 3 Xcoordinate
    4478983.218498928,        !- Vertex 3 Ycoordinate
    0,                        !- Vertex 3 Zcoordinate
    440123.9347742354,        !- Vertex 4 Xcoordinate
    4478983.218498928,        !- Vertex 4 Ycoordinate
    12;                       !- Vertex 4 Zcoordinate

SHADING:SITE:DETAILED,
    shade_way/956615885_1,    !- Name
    ,                         !- Transmittance Schedule Name
    autocalculate,            !- Number of Vertices
    440132.0556614242,        !- Vertex 1 Xcoordinate
    4478965.923014378,        !- Vertex 1 Ycoordinate
    12,                       !- Vertex 1 Zcoordinate
    440132.0556614242,        !- Vertex 2 Xcoordinate
    4478965.923014378,        !- Vertex 2 Ycoordinate
    0,                        !- Vertex 2 Zcoordinate
    440130.3756867385,        !- Vertex 3 Xcoordinate
    4478983.808658218,        !- Vertex 3 Ycoordinate
    0,                        !- Vertex 3 Zcoordinate
    440130.3756867385,        !- Vertex 4 Xcoordinate
    4478983.808658218,        !- Vertex 4 Ycoordinate
    12;                       !- Vertex 4 Zcoordinate

SHADING:SITE:DETAILED,
    shade_way/956615885_2,    !- Name
    ,                         !- Transmittance Schedule Name
    autocalculate,            !- Number of Vertices
    440130.3756867385,        !- Vertex 1 Xcoordinate
    4478983.808658218,        !- Vertex 1 Ycoordinate
    12,                       !- Vertex 1 Zcoordinate
    440130.3756867385,        !- Vertex 2 Xcoordinate
    4478983.808658218,        !- Vertex 2 Ycoordinate
    0,                        !- Vertex 2 Zcoordinate
    440141.71747782466,       !- Vertex 3 Xcoordinate
    4478984.873850007,        !- Vertex 3 Ycoordinate
    0,                        !- Vertex 3 Zcoordinate
    440141.71747782466,       !- Vertex 4 Xcoordinate
    4478984.873850007,        !- Vertex 4 Ycoordinate
    12;                       !- Vertex 4 Zcoordinate

SHADING:SITE:DETAILED,
    shade_way/956615885_3,    !- Name
    ,                         !- Transmittance Schedule Name
    autocalculate,            !- Number of Vertices
    440141.71747782466,       !- Vertex 1 Xcoordinate
    4478984.873850007,        !- Vertex 1 Ycoordinate
    12,                       !- Vertex 1 Zcoordinate
    440141.71747782466,       !- Vertex 2 Xcoordinate
    4478984.873850007,        !- Vertex 2 Ycoordinate
    0,                        !- Vertex 2 Zcoordinate
    440143.3974525093,        !- Vertex 3 Xcoordinate
    4478966.988206167,        !- Vertex 3 Ycoordinate
    0,                        !- Vertex 3 Zcoordinate
    440143.3974525093,        !- Vertex 4 Xcoordinate
    4478966.988206167,        !- Vertex 4 Ycoordinate
    12;                       !- Vertex 4 Zcoordinate

SHADING:SITE:DETAILED,
    shade_way/956615885_4,    !- Name
    ,                         !- Transmittance Schedule Name
    autocalculate,            !- Number of Vertices
    440143.3974525093,        !- Vertex 1 Xcoordinate
    4478966.988206167,        !- Vertex 1 Ycoordinate
    12,                       !- Vertex 1 Zcoordinate
    440143.3974525093,        !- Vertex 2 Xcoordinate
    4478966.988206167,        !- Vertex 2 Ycoordinate
    0,                        !- Vertex 2 Zcoordinate
    440132.0556614242,        !- Vertex 3 Xcoordinate
    4478965.923014378,        !- Vertex 3 Ycoordinate
    0,                        !- Vertex 3 Zcoordinate
    440132.0556614242,        !- Vertex 4 Xcoordinate
    4478965.923014378,        !- Vertex 4 Ycoordinate
    12;                       !- Vertex 4 Zcoordinate

SHADING:SITE:DETAILED,
    shade_way/956615880_1,    !- Name
    ,                         !- Transmittance Schedule Name
    autocalculate,            !- Number of Vertices
    440113.795407539,         !- Vertex 1 Xcoordinate
    4478970.207595482,        !- Vertex 1 Ycoordinate
    15,                       !- Vertex 1 Zcoordinate
    440113.795407539,         !- Vertex 2 Xcoordinate
    4478970.207595482,        !- Vertex 2 Ycoordinate
    0,                        !- Vertex 2 Zcoordinate
    440101.63538016065,       !- Vertex 3 Xcoordinate
    4478974.769444526,        !- Vertex 3 Ycoordinate
    0,                        !- Vertex 3 Zcoordinate
    440101.63538016065,       !- Vertex 4 Xcoordinate
    4478974.769444526,        !- Vertex 4 Ycoordinate
    15;                       !- Vertex 4 Zcoordinate

SHADING:SITE:DETAILED,
    shade_way/956615880_2,    !- Name
    ,                         !- Transmittance Schedule Name
    autocalculate,            !- Number of Vertices
    440101.63538016065,       !- Vertex 1 Xcoordinate
    4478974.769444526,        !- Vertex 1 Ycoordinate
    15,                       !- Vertex 1 Zcoordinate
    440101.63538016065,       !- Vertex 2 Xcoordinate
    4478974.769444526,        !- Vertex 2 Ycoordinate
    0,                        !- Vertex 2 Zcoordinate
    440106.7221507741,        !- Vertex 3 Xcoordinate
    4478988.329071869,        !- Vertex 3 Ycoordinate
    0,                        !- Vertex 3 Zcoordinate
    440106.7221507741,        !- Vertex 4 Xcoordinate
    4478988.329071869,        !- Vertex 4 Ycoordinate
    15;                       !- Vertex 4 Zcoordinate

SHADING:SITE:DETAILED,
    shade_way/956615880_3,    !- Name
    ,                         !- Transmittance Schedule Name
    autocalculate,            !- Number of Vertices
    440106.7221507741,        !- Vertex 1 Xcoordinate
    4478988.329071869,        !- Vertex 1 Ycoordinate
    15,                       !- Vertex 1 Zcoordinate
    440106.7221507741,        !- Vertex 2 Xcoordinate
    4478988.329071869,        !- Vertex 2 Ycoordinate
    0,                        !- Vertex 2 Zcoordinate
    440118.8822363068,        !- Vertex 3 Xcoordinate
    4478983.767300631,        !- Vertex 3 Ycoordinate
    0,                        !- Vertex 3 Zcoordinate
    440118.8822363068,        !- Vertex 4 Xcoordinate
    4478983.767300631,        !- Vertex 4 Ycoordinate
    15;                       !- Vertex 4 Zcoordinate

SHADING:SITE:DETAILED,
    shade_way/956615880_4,    !- Name
    ,                         !- Transmittance Schedule Name
    autocalculate,            !- Number of Vertices
    440118.8822363068,        !- Vertex 1 Xcoordinate
    4478983.767300631,        !- Vertex 1 Ycoordinate
    15,                       !- Vertex 1 Zcoordinate
    440118.8822363068,        !- Vertex 2 Xcoordinate
    4478983.767300631,        !- Vertex 2 Ycoordinate
    0,                        !- Vertex 2 Zcoordinate
    440113.795407539,         !- Vertex 3 Xcoordinate
    4478970.207595482,        !- Vertex 3 Ycoordinate
    0,                        !- Vertex 3 Zcoordinate
    440113.795407539,         !- Vertex 4 Xcoordinate
    4478970.207595482,        !- Vertex 4 Ycoordinate
    15;                       !- Vertex 4 Zcoordinate

SHADING:SITE:DETAILED,
    shade_way/434584678_1,    !- Name
    ,                         !- Transmittance Schedule Name
    autocalculate,            !- Number of Vertices
    440139.97402501386,       !- Vertex 1 Xcoordinate
    4479003.591528651,        !- Vertex 1 Ycoordinate
    12,                       !- Vertex 1 Zcoordinate
    440139.97402501386,       !- Vertex 2 Xcoordinate
    4479003.591528651,        !- Vertex 2 Ycoordinate
    0,                        !- Vertex 2 Zcoordinate
    440141.7517898979,        !- Vertex 3 Xcoordinate
    4478984.505836652,        !- Vertex 3 Ycoordinate
    0,                        !- Vertex 3 Zcoordinate
    440141.7517898979,        !- Vertex 4 Xcoordinate
    4478984.505836652,        !- Vertex 4 Ycoordinate
    12;                       !- Vertex 4 Zcoordinate

SHADING:SITE:DETAILED,
    shade_way/434584678_2,    !- Name
    ,                         !- Transmittance Schedule Name
    autocalculate,            !- Number of Vertices
    440141.7517898979,        !- Vertex 1 Xcoordinate
    4478984.505836652,        !- Vertex 1 Ycoordinate
    12,                       !- Vertex 1 Zcoordinate
    440141.7517898979,        !- Vertex 2 Xcoordinate
    4478984.505836652,        !- Vertex 2 Ycoordinate
    0,                        !- Vertex 2 Zcoordinate
    440131.29053234495,       !- Vertex 3 Xcoordinate
    4478983.5314775985,       !- Vertex 3 Ycoordinate
    0,                        !- Vertex 3 Zcoordinate
    440131.29053234495,       !- Vertex 4 Xcoordinate
    4478983.5314775985,       !- Vertex 4 Ycoordinate
    12;                       !- Vertex 4 Zcoordinate

SHADING:SITE:DETAILED,
    shade_way/434584678_3,    !- Name
    ,                         !- Transmittance Schedule Name
    autocalculate,            !- Number of Vertices
    440131.29053234495,       !- Vertex 1 Xcoordinate
    4478983.5314775985,       !- Vertex 1 Ycoordinate
    12,                       !- Vertex 1 Zcoordinate
    440131.29053234495,       !- Vertex 2 Xcoordinate
    4478983.5314775985,       !- Vertex 2 Ycoordinate
    0,                        !- Vertex 2 Zcoordinate
    440129.5127269442,        !- Vertex 3 Xcoordinate
    4479002.617068253,        !- Vertex 3 Ycoordinate
    0,                        !- Vertex 3 Zcoordinate
    440129.5127269442,        !- Vertex 4 Xcoordinate
    4479002.617068253,        !- Vertex 4 Ycoordinate
    12;                       !- Vertex 4 Zcoordinate

SHADING:SITE:DETAILED,
    shade_way/434584678_4,    !- Name
    ,                         !- Transmittance Schedule Name
    autocalculate,            !- Number of Vertices
    440129.5127269442,        !- Vertex 1 Xcoordinate
    4479002.617068253,        !- Vertex 1 Ycoordinate
    12,                       !- Vertex 1 Zcoordinate
    440129.5127269442,        !- Vertex 2 Xcoordinate
    4479002.617068253,        !- Vertex 2 Ycoordinate
    0,                        !- Vertex 2 Zcoordinate
    440139.97402501386,       !- Vertex 3 Xcoordinate
    4479003.591528651,        !- Vertex 3 Ycoordinate
    0,                        !- Vertex 3 Zcoordinate
    440139.97402501386,       !- Vertex 4 Xcoordinate
    4479003.591528651,        !- Vertex 4 Ycoordinate
    12;                       !- Vertex 4 Zcoordinate

SHADING:SITE:DETAILED,
    shade_way/434584670_1,    !- Name
    ,                         !- Transmittance Schedule Name
    autocalculate,            !- Number of Vertices
    440106.7441763361,        !- Vertex 1 Xcoordinate
    4478987.787342365,        !- Vertex 1 Ycoordinate
    12,                       !- Vertex 1 Zcoordinate
    440106.7441763361,        !- Vertex 2 Xcoordinate
    4478987.787342365,        !- Vertex 2 Ycoordinate
    0,                        !- Vertex 2 Zcoordinate
    440115.5207836323,        !- Vertex 3 Xcoordinate
    4479010.249844529,        !- Vertex 3 Ycoordinate
    0,                        !- Vertex 3 Zcoordinate
    440115.5207836323,        !- Vertex 4 Xcoordinate
    4479010.249844529,        !- Vertex 4 Ycoordinate
    12;                       !- Vertex 4 Zcoordinate

SHADING:SITE:DETAILED,
    shade_way/434584670_2,    !- Name
    ,                         !- Transmittance Schedule Name
    autocalculate,            !- Number of Vertices
    440115.5207836323,        !- Vertex 1 Xcoordinate
    4479010.249844529,        !- Vertex 1 Ycoordinate
    12,                       !- Vertex 1 Zcoordinate
    440115.5207836323,        !- Vertex 2 Xcoordinate
    4479010.249844529,        !- Vertex 2 Ycoordinate
    0,                        !- Vertex 2 Zcoordinate
    440128.03287867125,       !- Vertex 3 Xcoordinate
    4479005.361086203,        !- Vertex 3 Ycoordinate
    0,                        !- Vertex 3 Zcoordinate
    440128.03287867125,       !- Vertex 4 Xcoordinate
    4479005.361086203,        !- Vertex 4 Ycoordinate
    12;                       !- Vertex 4 Zcoordinate

SHADING:SITE:DETAILED,
    shade_way/434584670_3,    !- Name
    ,                         !- Transmittance Schedule Name
    autocalculate,            !- Number of Vertices
    440128.03287867125,       !- Vertex 1 Xcoordinate
    4479005.361086203,        !- Vertex 1 Ycoordinate
    12,                       !- Vertex 1 Zcoordinate
    440128.03287867125,       !- Vertex 2 Xcoordinate
    4479005.361086203,        !- Vertex 2 Ycoordinate
    0,                        !- Vertex 2 Zcoordinate
    440119.25627137505,       !- Vertex 3 Xcoordinate
    4478982.898584039,        !- Vertex 3 Ycoordinate
    0,                        !- Vertex 3 Zcoordinate
    440119.25627137505,       !- Vertex 4 Xcoordinate
    4478982.898584039,        !- Vertex 4 Ycoordinate
    12;                       !- Vertex 4 Zcoordinate

SHADING:SITE:DETAILED,
    shade_way/434584670_4,    !- Name
    ,                         !- Transmittance Schedule Name
    autocalculate,            !- Number of Vertices
    440119.25627137505,       !- Vertex 1 Xcoordinate
    4478982.898584039,        !- Vertex 1 Ycoordinate
    12,                       !- Vertex 1 Zcoordinate
    440119.25627137505,       !- Vertex 2 Xcoordinate
    4478982.898584039,        !- Vertex 2 Ycoordinate
    0,                        !- Vertex 2 Zcoordinate
    440106.7441763361,        !- Vertex 3 Xcoordinate
    4478987.787342365,        !- Vertex 3 Ycoordinate
    0,                        !- Vertex 3 Zcoordinate
    440106.7441763361,        !- Vertex 4 Xcoordinate
    4478987.787342365,        !- Vertex 4 Ycoordinate
    12;                       !- Vertex 4 Zcoordinate

SHADING:SITE:DETAILED,
    shade_way/434584676_1,    !- Name
    ,                         !- Transmittance Schedule Name
    autocalculate,            !- Number of Vertices
    440142.05600562517,       !- Vertex 1 Xcoordinate
    4479004.572948737,        !- Vertex 1 Ycoordinate
    12,                       !- Vertex 1 Zcoordinate
    440142.05600562517,       !- Vertex 2 Xcoordinate
    4479004.572948737,        !- Vertex 2 Ycoordinate
    0,                        !- Vertex 2 Zcoordinate
    440125.6936888189,        !- Vertex 3 Xcoordinate
    4478996.868036536,        !- Vertex 3 Ycoordinate
    0,                        !- Vertex 3 Zcoordinate
    440125.6936888189,        !- Vertex 4 Xcoordinate
    4478996.868036536,        !- Vertex 4 Ycoordinate
    12;                       !- Vertex 4 Zcoordinate

SHADING:SITE:DETAILED,
    shade_way/434584676_2,    !- Name
    ,                         !- Transmittance Schedule Name
    autocalculate,            !- Number of Vertices
    440125.6936888189,        !- Vertex 1 Xcoordinate
    4478996.868036536,        !- Vertex 1 Ycoordinate
    12,                       !- Vertex 1 Zcoordinate
    440125.6936888189,        !- Vertex 2 Xcoordinate
    4478996.868036536,        !- Vertex 2 Ycoordinate
    0,                        !- Vertex 2 Zcoordinate
    440122.14775731205,       !- Vertex 3 Xcoordinate
    4479004.398252738,        !- Vertex 3 Ycoordinate
    0,                        !- Vertex 3 Zcoordinate
    440122.14775731205,       !- Vertex 4 Xcoordinate
    4479004.398252738,        !- Vertex 4 Ycoordinate
    12;                       !- Vertex 4 Zcoordinate

SHADING:SITE:DETAILED,
    shade_way/434584676_3,    !- Name
    ,                         !- Transmittance Schedule Name
    autocalculate,            !- Number of Vertices
    440122.14775731205,       !- Vertex 1 Xcoordinate
    4479004.398252738,        !- Vertex 1 Ycoordinate
    12,                       !- Vertex 1 Zcoordinate
    440122.14775731205,       !- Vertex 2 Xcoordinate
    4479004.398252738,        !- Vertex 2 Ycoordinate
    0,                        !- Vertex 2 Zcoordinate
    440138.5100741183,        !- Vertex 3 Xcoordinate
    4479012.103164938,        !- Vertex 3 Ycoordinate
    0,                        !- Vertex 3 Zcoordinate
    440138.5100741183,        !- Vertex 4 Xcoordinate
    4479012.103164938,        !- Vertex 4 Ycoordinate
    12;                       !- Vertex 4 Zcoordinate

SHADING:SITE:DETAILED,
    shade_way/434584676_4,    !- Name
    ,                         !- Transmittance Schedule Name
    autocalculate,            !- Number of Vertices
    440138.5100741183,        !- Vertex 1 Xcoordinate
    4479012.103164938,        !- Vertex 1 Ycoordinate
    12,                       !- Vertex 1 Zcoordinate
    440138.5100741183,        !- Vertex 2 Xcoordinate
    4479012.103164938,        !- Vertex 2 Ycoordinate
    0,                        !- Vertex 2 Zcoordinate
    440142.05600562517,       !- Vertex 3 Xcoordinate
    4479004.572948737,        !- Vertex 3 Ycoordinate
    0,                        !- Vertex 3 Zcoordinate
    440142.05600562517,       !- Vertex 4 Xcoordinate
    4479004.572948737,        !- Vertex 4 Ycoordinate
    12;                       !- Vertex 4 Zcoordinate

OTHEREQUIPMENT,
    EU_Step8_InternalGain_c9646de4bb5077ce_F0_whole_f000,    !- Name
    Electricity,              !- Fuel Type
    c9646de4bb5077ce_F0_whole,    !- Zone or ZoneList or Space or SpaceList Name
    EU_Step8_GainSchedule_c9646de4bb5077ce_F0_whole_f000,    !- Schedule Name
    Watts/Area,               !- Design Level Calculation Method
    ,                         !- Design Level
    1,                        !- Power per Zone Floor Area
    ,                         !- Power per Person
    0,                        !- Fraction Latent
    0,                        !- Fraction Radiant
    0,                        !- Fraction Lost
    0,                        !- Carbon Dioxide Generation Rate
    EU_Step8_InternalGains;    !- EndUse Subcategory

ZONEVENTILATION:DESIGNFLOWRATE,
    EU_ConstantAir_c9646de4bb5077ce_F0_whole,    !- Name
    c9646de4bb5077ce_F0_whole,    !- Zone or ZoneList or Space or SpaceList Name
    EU_AlwaysOn,              !- Schedule Name
    AirChanges/Hour,          !- Design Flow Rate Calculation Method
    ,                         !- Design Flow Rate
    ,                         !- Flow Rate per Floor Area
    ,                         !- Flow Rate per Person
    0.7033018520864271,       !- Air Changes per Hour
    Natural,                  !- Ventilation Type
    0,                        !- Fan Pressure Rise
    1,                        !- Fan Total Efficiency
    1,                        !- Constant Term Coefficient
    0,                        !- Temperature Term Coefficient
    0,                        !- Velocity Term Coefficient
    0,                        !- Velocity Squared Term Coefficient
    -100,                     !- Minimum Indoor Temperature
    ,                         !- Minimum Indoor Temperature Schedule Name
    100,                      !- Maximum Indoor Temperature
    ,                         !- Maximum Indoor Temperature Schedule Name
    -100,                     !- Delta Temperature
    ,                         !- Delta Temperature Schedule Name
    -100,                     !- Minimum Outdoor Temperature
    ,                         !- Minimum Outdoor Temperature Schedule Name
    100,                      !- Maximum Outdoor Temperature
    ,                         !- Maximum Outdoor Temperature Schedule Name
    40;                       !- Maximum Wind Speed

HVACTEMPLATE:THERMOSTAT,
    EU_HeatOnly_c9646de4bb5077ce_F0_whole,    !- Name
    ,                         !- Heating Setpoint Schedule Name
    20,                       !- Constant Heating Setpoint
    ,                         !- Cooling Setpoint Schedule Name
    50;                       !- Constant Cooling Setpoint

HVACTEMPLATE:ZONE:IDEALLOADSAIRSYSTEM,
    c9646de4bb5077ce_F0_whole,    !- Zone Name
    EU_HeatOnly_c9646de4bb5077ce_F0_whole,    !- Template Thermostat Name
    EU_AlwaysOn,              !- System Availability Schedule Name
    50,                       !- Maximum Heating Supply Air Temperature
    13,                       !- Minimum Cooling Supply Air Temperature
    0.0156,                   !- Maximum Heating Supply Air Humidity Ratio
    0.0077,                   !- Minimum Cooling Supply Air Humidity Ratio
    NoLimit,                  !- Heating Limit
    ,                         !- Maximum Heating Air Flow Rate
    ,                         !- Maximum Sensible Heating Capacity
    NoLimit,                  !- Cooling Limit
    ,                         !- Maximum Cooling Air Flow Rate
    ,                         !- Maximum Total Cooling Capacity
    EU_AlwaysOn,              !- Heating Availability Schedule Name
    EU_CoolingOff,            !- Cooling Availability Schedule Name
    ConstantSensibleHeatRatio,    !- Dehumidification Control Type
    0.7,                      !- Cooling Sensible Heat Ratio
    60,                       !- Dehumidification Setpoint
    None,                     !- Humidification Control Type
    30,                       !- Humidification Setpoint
    None,                     !- Outdoor Air Method
    0.00944,                  !- Outdoor Air Flow Rate per Person
    0.0,                      !- Outdoor Air Flow Rate per Zone Floor Area
    0,                        !- Outdoor Air Flow Rate per Zone
    ,                         !- Design Specification Outdoor Air Object Name
    None,                     !- Demand Controlled Ventilation Type
    NoEconomizer,             !- Outdoor Air Economizer Type
    None,                     !- Heat Recovery Type
    0.70,                     !- Sensible Heat Recovery Effectiveness
    0.65;                     !- Latent Heat Recovery Effectiveness

SIZING:ZONE,
    c9646de4bb5077ce_F0_whole,    !- Zone or ZoneList Name
    SupplyAirTemperature,     !- Zone Cooling Design Supply Air Temperature Input Method
    13,                       !- Zone Cooling Design Supply Air Temperature
    ,                         !- Zone Cooling Design Supply Air Temperature Difference
    SupplyAirTemperature,     !- Zone Heating Design Supply Air Temperature Input Method
    50,                       !- Zone Heating Design Supply Air Temperature
    ,                         !- Zone Heating Design Supply Air Temperature Difference
    0.008,                    !- Zone Cooling Design Supply Air Humidity Ratio
    0.008,                    !- Zone Heating Design Supply Air Humidity Ratio
    ,                         !- Design Specification Outdoor Air Object Name
    ,                         !- Zone Heating Sizing Factor
    ,                         !- Zone Cooling Sizing Factor
    DesignDay,                !- Cooling Design Air Flow Method
    0,                        !- Cooling Design Air Flow Rate
    0.000762,                 !- Cooling Minimum Air Flow per Zone Floor Area
    0,                        !- Cooling Minimum Air Flow
    0.2,                      !- Cooling Minimum Air Flow Fraction
    DesignDay,                !- Heating Design Air Flow Method
    0,                        !- Heating Design Air Flow Rate
    0.002032,                 !- Heating Maximum Air Flow per Zone Floor Area
    0.1415762,                !- Heating Maximum Air Flow
    0.3,                      !- Heating Maximum Air Flow Fraction
    ,                         !- Design Specification Zone Air Distribution Object Name
    No,                       !- Account for Dedicated Outdoor Air System
    NeutralSupplyAir,         !- Dedicated Outdoor Air System Control Strategy
    autosize,                 !- Dedicated Outdoor Air Low Setpoint Temperature for Design
    autosize,                 !- Dedicated Outdoor Air High Setpoint Temperature for Design
    Sensible Load Only No Latent Load,    !- Zone Load Sizing Method
    HumidityRatioDifference,    !- Zone Latent Cooling Design Supply Air Humidity Ratio Input Method
    ,                         !- Zone Dehumidification Design Supply Air Humidity Ratio
    0.005,                    !- Zone Cooling Design Supply Air Humidity Ratio Difference
    HumidityRatioDifference,    !- Zone Latent Heating Design Supply Air Humidity Ratio Input Method
    ,                         !- Zone Humidification Design Supply Air Humidity Ratio
    0.005;                    !- Zone Humidification Design Supply Air Humidity Ratio Difference

OUTPUT:VARIABLE,
    *,                        !- Key Value
    Zone Ideal Loads Zone Total Heating Energy,    !- Variable Name
    Hourly;                   !- Reporting Frequency

OUTPUT:SQLITE,
    SimpleAndTabular,         !- Option Type
    UseOutputControlTableStyle;    !- Unit Conversion for Tabular Data