!- Windows Line endings 

Version,
    23.1;                     !- Version Identifier

SimulationControl,
    Yes,                      !- Do Zone Sizing Calculation
    Yes,                      !- Do System Sizing Calculation
    Yes,                      !- Do Plant Sizing Calculation
    No,                       !- Run Simulation for Sizing Periods
    Yes,                      !- Run Simulation for Weather File Run Periods
    No,                       !- Do HVAC Sizing Simulation for Sizing Periods
    1;                        !- Maximum Number of HVAC Sizing Simulation Passes

Building,
    EU S2 Campaign,           !- Name
    0,                        !- North Axis
    City,                     !- Terrain
    ,                         !- Loads Convergence Tolerance Value
    ,                         !- Temperature Convergence Tolerance Value
    FullExterior,             !- Solar Distribution
    ,                         !- Maximum Number of Warmup Days
    ;                         !- Minimum Number of Warmup Days

ShadowCalculation,
    PolygonClipping,          !- Shading Calculation Method
    Periodic,                 !- Shading Calculation Update Frequency Method
    1;                        !- Shading Calculation Update Frequency

HeatBalanceAlgorithm,
    ConductionTransferFunction,    !- Algorithm
    200,                      !- Surface Temperature Upper Limit
    0.1,                      !- Minimum Surface Convection Heat Transfer Coefficient Value
    10000000;                 !- Maximum Surface Convection Heat Transfer Coefficient Value

Timestep,
    12;                       !- Number of Timesteps per Hour

Site:Location,
    Madrid,                   !- Name
    40.5,                     !- Latitude
    -3.5,                     !- Longitude
    1,                        !- Time Zone
    609;                      !- Elevation

SizingPeriod:WeatherFileDays,
    AnnualSizingPeriod,       !- Name
    1,                        !- Begin Month
    1,                        !- Begin Day of Month
    12,                       !- End Month
    31,                       !- End Day of Month
    Monday,                   !- Day of Week for Start Day
    No,                       !- Use Weather File Daylight Saving Period
    No;                       !- Use Weather File Rain and Snow Indicators

RunPeriod,
    RunPeriod1,               !- Name
    1,                        !- Begin Month
    1,                        !- Begin Day of Month
    ,                         !- Begin Year
    12,                       !- End Month
    31,                       !- End Day of Month
    ,                         !- End Year
    Sunday,                   !- Day of Week for Start Day
    No,                       !- Use Weather File Holidays and Special Days
    No,                       !- Use Weather File Daylight Saving Period
    No,                       !- Apply Weekend Holiday Rule
    Yes,                      !- Use Weather File Rain Indicators
    Yes;                      !- Use Weather File Snow Indicators

ScheduleTypeLimits,
    Any Number;               !- Name

SCHEDULETYPELIMITS,
    EU_Step8_AnyNumber_Wm2,    !- Name
    ,                         !- Lower Limit Value
    ,                         !- Upper Limit Value
    Continuous,               !- Numeric Type
    Dimensionless;            !- Unit Type

SCHEDULE:CONSTANT,
    EU_AlwaysOn,              !- Name
    ,                         !- Schedule Type Limits Name
    1;                        !- Hourly Value

SCHEDULE:CONSTANT,
    EU_CoolingOff,            !- Name
    ,                         !- Schedule Type Limits Name
    0;                        !- Hourly Value

SCHEDULE:FILE,
    EU_Step8_GainSchedule_e3d105b6be1b4480_F0_dwelling_0_f000,    !- Name
    EU_Step8_AnyNumber_Wm2,    !- Schedule Type Limits Name
    ../../schedules/e3d105b6be1b4480/e3d105b6be1b4480_F0_dwelling_0_f000_gain.csv,    !- File Name
    1,                        !- Column Number
    0,                        !- Rows to Skip at Top
    8760,                     !- Number of Hours of Data
    Comma,                    !- Column Separator
    No,                       !- Interpolate to Timestep
    60,                       !- Minutes per Item
    Yes;                      !- Adjust Schedule for Daylight Savings

SCHEDULE:FILE,
    EU_Step8_GainSchedule_e3d105b6be1b4480_F1_dwelling_0_f000,    !- Name
    EU_Step8_AnyNumber_Wm2,    !- Schedule Type Limits Name
    ../../schedules/e3d105b6be1b4480/e3d105b6be1b4480_F1_dwelling_0_f000_gain.csv,    !- File Name
    1,                        !- Column Number
    0,                        !- Rows to Skip at Top
    8760,                     !- Number of Hours of Data
    Comma,                    !- Column Separator
    No,                       !- Interpolate to Timestep
    60,                       !- Minutes per Item
    Yes;                      !- Adjust Schedule for Daylight Savings

MATERIAL,
    EU_InternalMass_Material,    !- Name
    MediumRough,              !- Roughness
    0.1,                      !- Thickness
    1,                        !- Conductivity
    1800,                     !- Density
    900,                      !- Specific Heat
    0.9,                      !- Thermal Absorptance
    0.7,                      !- Solar Absorptance
    0.7;                      !- Visible Absorptance

MATERIAL:NOMASS,
    EU_wall_NoMass,           !- Name
    MediumRough,              !- Roughness
    1.6002158098852093,       !- Thermal Resistance
    0.9,                      !- Thermal Absorptance
    0.7,                      !- Solar Absorptance
    0.7;                      !- Visible Absorptance

MATERIAL:NOMASS,
    EU_roof_NoMass,           !- Name
    MediumRough,              !- Roughness
    1.5759701157960397,       !- Thermal Resistance
    0.9,                      !- Thermal Absorptance
    0.7,                      !- Solar Absorptance
    0.7;                      !- Visible Absorptance

MATERIAL:NOMASS,
    EU_floor_NoMass,          !- Name
    MediumRough,              !- Roughness
    0.4706517087897675,       !- Thermal Resistance
    0.9,                      !- Thermal Absorptance
    0.7,                      !- Solar Absorptance
    0.7;                      !- Visible Absorptance

CONSTRUCTION,
    EU_wall_Construction,     !- Name
    EU_wall_NoMass;           !- Outside Layer

CONSTRUCTION,
    EU_roof_Construction,     !- Name
    EU_roof_NoMass;           !- Outside Layer

CONSTRUCTION,
    EU_floor_Construction,    !- Name
    EU_floor_NoMass;          !- Outside Layer

CONSTRUCTION,
    EU_InternalMass_Construction,    !- Name
    EU_InternalMass_Material;    !- Outside Layer

GlobalGeometryRules,
    UpperLeftCorner,          !- Starting Vertex Position
    CounterClockWise,         !- Vertex Entry Direction
    World;                    !- Coordinate System

ZONE,
    e3d105b6be1b4480_F0_dwelling_0,    !- Name
    0,                        !- Direction of Relative North
    0,                        !- X Origin
    0,                        !- Y Origin
    0,                        !- Z Origin
    1,                        !- Type
    1,                        !- Multiplier
    autocalculate,            !- Ceiling Height
    282.6866455078125,        !- Volume
    autocalculate,            !- Floor Area
    ,                         !- Zone Inside Convection Algorithm
    ,                         !- Zone Outside Convection Algorithm
    Yes;                      !- Part of Total Floor Area

ZONE,
    e3d105b6be1b4480_F1_dwelling_0,    !- Name
    0,                        !- Direction of Relative North
    0,                        !- X Origin
    0,                        !- Y Origin
    0,                        !- Z Origin
    1,                        !- Type
    1,                        !- Multiplier
    autocalculate,            !- Ceiling Height
    565.374755859375,         !- Volume
    autocalculate,            !- Floor Area
    ,                         !- Zone Inside Convection Algorithm
    ,                         !- Zone Outside Convection Algorithm
    Yes;                      !- Part of Total Floor Area

BUILDINGSURFACE:DETAILED,
    Block e3d105b6be1b4480_0 Storey 0 Wall 0001,    !- Name
    wall,                     !- Surface Type
    EU_wall_Construction,     !- Construction Name
    e3d105b6be1b4480_F0_dwelling_0,    !- Zone Name
    ,                         !- Space Name
    outdoors,                 !- Outside Boundary Condition
    ,                         !- Outside Boundary Condition Object
    SunExposed,               !- Sun Exposure
    WindExposed,              !- Wind Exposure
    autocalculate,            !- View Factor to Ground
    autocalculate,            !- Number of Vertices
    440597.626,               !- Vertex 1 Xcoordinate
    4479009.359,              !- Vertex 1 Ycoordinate
    3,                        !- Vertex 1 Zcoordinate
    440597.626,               !- Vertex 2 Xcoordinate
    4479009.359,              !- Vertex 2 Ycoordinate
    0,                        !- Vertex 2 Zcoordinate
    440598.712,               !- Vertex 3 Xcoordinate
    4478997.695,              !- Vertex 3 Ycoordinate
    0,                        !- Vertex 3 Zcoordinate
    440598.712,               !- Vertex 4 Xcoordinate
    4478997.695,              !- Vertex 4 Ycoordinate
    3;                        !- Vertex 4 Zcoordinate

BUILDINGSURFACE:DETAILED,
    Block e3d105b6be1b4480_0 Storey 0 Wall 0002,    !- Name
    wall,                     !- Surface Type
    EU_wall_Construction,     !- Construction Name
    e3d105b6be1b4480_F0_dwelling_0,    !- Zone Name
    ,                         !- Space Name
    outdoors,                 !- Outside Boundary Condition
    ,                         !- Outside Boundary Condition Object
    SunExposed,               !- Sun Exposure
    WindExposed,              !- Wind Exposure
    autocalculate,            !- View Factor to Ground
    autocalculate,            !- Number of Vertices
    440598.712,               !- Vertex 1 Xcoordinate
    4478997.695,              !- Vertex 1 Ycoordinate
    3,                        !- Vertex 1 Zcoordinate
    440598.712,               !- Vertex 2 Xcoordinate
    4478997.695,              !- Vertex 2 Ycoordinate
    0,                        !- Vertex 2 Zcoordinate
    440597.224,               !- Vertex 3 Xcoordinate
    4478996.086,              !- Vertex 3 Ycoordinate
    0,                        !- Vertex 3 Zcoordinate
    440597.224,               !- Vertex 4 Xcoordinate
    4478996.086,              !- Vertex 4 Ycoordinate
    3;                        !- Vertex 4 Zcoordinate

BUILDINGSURFACE:DETAILED,
    Block e3d105b6be1b4480_0 Storey 0 Wall 0003,    !- Name
    wall,                     !- Surface Type
    EU_wall_Construction,     !- Construction Name
    e3d105b6be1b4480_F0_dwelling_0,    !- Zone Name
    ,                         !- Space Name
    outdoors,                 !- Outside Boundary Condition
    ,                         !- Outside Boundary Condition Object
    SunExposed,               !- Sun Exposure
    WindExposed,              !- Wind Exposure
    autocalculate,            !- View Factor to Ground
    autocalculate,            !- Number of Vertices
    440597.224,               !- Vertex 1 Xcoordinate
    4478996.086,              !- Vertex 1 Ycoordinate
    3,                        !- Vertex 1 Zcoordinate
    440597.224,               !- Vertex 2 Xcoordinate
    4478996.086,              !- Vertex 2 Ycoordinate
    0,                        !- Vertex 2 Zcoordinate
    440596.523,               !- Vertex 3 Xcoordinate
    4478995.325,              !- Vertex 3 Ycoordinate
    0,                        !- Vertex 3 Zcoordinate
    440596.523,               !- Vertex 4 Xcoordinate
    4478995.325,              !- Vertex 4 Ycoordinate
    3;                        !- Vertex 4 Zcoordinate

BUILDINGSURFACE:DETAILED,
    Block e3d105b6be1b4480_0 Storey 0 Wall 0004,    !- Name
    wall,                     !- Surface Type
    EU_wall_Construction,     !- Construction Name
    e3d105b6be1b4480_F0_dwelling_0,    !- Zone Name
    ,                         !- Space Name
    Adiabatic,                !- Outside Boundary Condition
    ,                         !- Outside Boundary Condition Object
    NoSun,                    !- Sun Exposure
    NoWind,                   !- Wind Exposure
    autocalculate,            !- View Factor to Ground
    autocalculate,            !- Number of Vertices
    440596.523,               !- Vertex 1 Xcoordinate
    4478995.325,              !- Vertex 1 Ycoordinate
    3,                        !- Vertex 1 Zcoordinate
    440596.523,               !- Vertex 2 Xcoordinate
    4478995.325,              !- Vertex 2 Ycoordinate
    0,                        !- Vertex 2 Zcoordinate
    440588.751,               !- Vertex 3 Xcoordinate
    4479001.115,              !- Vertex 3 Ycoordinate
    0,                        !- Vertex 3 Zcoordinate
    440588.751,               !- Vertex 4 Xcoordinate
    4479001.115,              !- Vertex 4 Ycoordinate
    3;                        !- Vertex 4 Zcoordinate

BUILDINGSURFACE:DETAILED,
    Block e3d105b6be1b4480_0 Storey 0 Wall 0005,    !- Name
    wall,                     !- Surface Type
    EU_wall_Construction,     !- Construction Name
    e3d105b6be1b4480_F0_dwelling_0,    !- Zone Name
    ,                         !- Space Name
    Adiabatic,                !- Outside Boundary Condition
    ,                         !- Outside Boundary Condition Object
    NoSun,                    !- Sun Exposure
    NoWind,                   !- Wind Exposure
    autocalculate,            !- View Factor to Ground
    autocalculate,            !- Number of Vertices
    440588.751,               !- Vertex 1 Xcoordinate
    4479001.115,              !- Vertex 1 Ycoordinate
    3,                        !- Vertex 1 Zcoordinate
    440588.751,               !- Vertex 2 Xcoordinate
    4479001.115,              !- Vertex 2 Ycoordinate
    0,                        !- Vertex 2 Zcoordinate
    440594.643,               !- Vertex 3 Xcoordinate
    4479011.647,              !- Vertex 3 Ycoordinate
    0,                        !- Vertex 3 Zcoordinate
    440594.643,               !- Vertex 4 Xcoordinate
    4479011.647,              !- Vertex 4 Ycoordinate
    3;                        !- Vertex 4 Zcoordinate

BUILDINGSURFACE:DETAILED,
    Block e3d105b6be1b4480_0 Storey 0 Wall 0006,    !- Name
    wall,                     !- Surface Type
    EU_wall_Construction,     !- Construction Name
    e3d105b6be1b4480_F0_dwelling_0,    !- Zone Name
    ,                         !- Space Name
    outdoors,                 !- Outside Boundary Condition
    ,                         !- Outside Boundary Condition Object
    SunExposed,               !- Sun Exposure
    WindExposed,              !- Wind Exposure
    autocalculate,            !- View Factor to Ground
    autocalculate,            !- Number of Vertices
    440594.643,               !- Vertex 1 Xcoordinate
    4479011.647,              !- Vertex 1 Ycoordinate
    3,                        !- Vertex 1 Zcoordinate
    440594.643,               !- Vertex 2 Xcoordinate
    4479011.647,              !- Vertex 2 Ycoordinate
    0,                        !- Vertex 2 Zcoordinate
    440597.626,               !- Vertex 3 Xcoordinate
    4479009.359,              !- Vertex 3 Ycoordinate
    0,                        !- Vertex 3 Zcoordinate
    440597.626,               !- Vertex 4 Xcoordinate
    4479009.359,              !- Vertex 4 Ycoordinate
    3;                        !- Vertex 4 Zcoordinate

BUILDINGSURFACE:DETAILED,
    Block e3d105b6be1b4480_0 Storey 0 Floor 0001,    !- Name
    floor,                    !- Surface Type
    EU_floor_Construction,    !- Construction Name
    e3d105b6be1b4480_F0_dwelling_0,    !- Zone Name
    ,                         !- Space Name
    ground,                   !- Outside Boundary Condition
    ,                         !- Outside Boundary Condition Object
    NoSun,                    !- Sun Exposure
    NoWind,                   !- Wind Exposure
    autocalculate,            !- View Factor to Ground
    autocalculate,            !- Number of Vertices
    440597.224,               !- Vertex 1 Xcoordinate
    4478996.086,              !- Vertex 1 Ycoordinate
    0,                        !- Vertex 1 Zcoordinate
    440598.712,               !- Vertex 2 Xcoordinate
    4478997.695,              !- Vertex 2 Ycoordinate
    0,                        !- Vertex 2 Zcoordinate
    440597.626,               !- Vertex 3 Xcoordinate
    4479009.359,              !- Vertex 3 Ycoordinate
    0,                        !- Vertex 3 Zcoordinate
    440594.643,               !- Vertex 4 Xcoordinate
    4479011.647,              !- Vertex 4 Ycoordinate
    0,                        !- Vertex 4 Zcoordinate
    440588.751,               !- Vertex 5 Xcoordinate
    4479001.115,              !- Vertex 5 Ycoordinate
    0,                        !- Vertex 5 Zcoordinate
    440596.523,               !- Vertex 6 Xcoordinate
    4478995.325,              !- Vertex 6 Ycoordinate
    0;                        !- Vertex 6 Zcoordinate

BUILDINGSURFACE:DETAILED,
    Block e3d105b6be1b4480_0 Storey 1 Wall 0001,    !- Name
    wall,                     !- Surface Type
    EU_wall_Construction,     !- Construction Name
    e3d105b6be1b4480_F1_dwelling_0,    !- Zone Name
    ,                         !- Space Name
    outdoors,                 !- Outside Boundary Condition
    ,                         !- Outside Boundary Condition Object
    SunExposed,               !- Sun Exposure
    WindExposed,              !- Wind Exposure
    autocalculate,            !- View Factor to Ground
    autocalculate,            !- Number of Vertices
    440597.626,               !- Vertex 1 Xcoordinate
    4479009.359,              !- Vertex 1 Ycoordinate
    6,                        !- Vertex 1 Zcoordinate
    440597.626,               !- Vertex 2 Xcoordinate
    4479009.359,              !- Vertex 2 Ycoordinate
    3,                        !- Vertex 2 Zcoordinate
    440598.712,               !- Vertex 3 Xcoordinate
    4478997.695,              !- Vertex 3 Ycoordinate
    3,                        !- Vertex 3 Zcoordinate
    440598.712,               !- Vertex 4 Xcoordinate
    4478997.695,              !- Vertex 4 Ycoordinate
    6;                        !- Vertex 4 Zcoordinate

BUILDINGSURFACE:DETAILED,
    Block e3d105b6be1b4480_0 Storey 1 Wall 0002,    !- Name
    wall,                     !- Surface Type
    EU_wall_Construction,     !- Construction Name
    e3d105b6be1b4480_F1_dwelling_0,    !- Zone Name
    ,                         !- Space Name
    outdoors,                 !- Outside Boundary Condition
    ,                         !- Outside Boundary Condition Object
    SunExposed,               !- Sun Exposure
    WindExposed,              !- Wind Exposure
    autocalculate,            !- View Factor to Ground
    autocalculate,            !- Number of Vertices
    440598.712,               !- Vertex 1 Xcoordinate
    4478997.695,              !- Vertex 1 Ycoordinate
    6,                        !- Vertex 1 Zcoordinate
    440598.712,               !- Vertex 2 Xcoordinate
    4478997.695,              !- Vertex 2 Ycoordinate
    3,                        !- Vertex 2 Zcoordinate
    440597.224,               !- Vertex 3 Xcoordinate
    4478996.086,              !- Vertex 3 Ycoordinate
    3,                        !- Vertex 3 Zcoordinate
    440597.224,               !- Vertex 4 Xcoordinate
    4478996.086,              !- Vertex 4 Ycoordinate
    6;                        !- Vertex 4 Zcoordinate

BUILDINGSURFACE:DETAILED,
    Block e3d105b6be1b4480_0 Storey 1 Wall 0003,    !- Name
    wall,                     !- Surface Type
    EU_wall_Construction,     !- Construction Name
    e3d105b6be1b4480_F1_dwelling_0,    !- Zone Name
    ,                         !- Space Name
    outdoors,                 !- Outside Boundary Condition
    ,                         !- Outside Boundary Condition Object
    SunExposed,               !- Sun Exposure
    WindExposed,              !- Wind Exposure
    autocalculate,            !- View Factor to Ground
    autocalculate,            !- Number of Vertices
    440597.224,               !- Vertex 1 Xcoordinate
    4478996.086,              !- Vertex 1 Ycoordinate
    6,                        !- Vertex 1 Zcoordinate
    440597.224,               !- Vertex 2 Xcoordinate
    4478996.086,              !- Vertex 2 Ycoordinate
    3,                        !- Vertex 2 Zcoordinate
    440596.523,               !- Vertex 3 Xcoordinate
    4478995.325,              !- Vertex 3 Ycoordinate
    3,                        !- Vertex 3 Zcoordinate
    440596.523,               !- Vertex 4 Xcoordinate
    4478995.325,              !- Vertex 4 Ycoordinate
    6;                        !- Vertex 4 Zcoordinate

BUILDINGSURFACE:DETAILED,
    Block e3d105b6be1b4480_0 Storey 1 Wall 0004,    !- Name
    wall,                     !- Surface Type
    EU_wall_Construction,     !- Construction Name
    e3d105b6be1b4480_F1_dwelling_0,    !- Zone Name
    ,                         !- Space Name
    Adiabatic,                !- Outside Boundary Condition
    ,                         !- Outside Boundary Condition Object
    NoSun,                    !- Sun Exposure
    NoWind,                   !- Wind Exposure
    autocalculate,            !- View Factor to Ground
    autocalculate,            !- Number of Vertices
    440596.523,               !- Vertex 1 Xcoordinate
    4478995.325,              !- Vertex 1 Ycoordinate
    6,                        !- Vertex 1 Zcoordinate
    440596.523,               !- Vertex 2 Xcoordinate
    4478995.325,              !- Vertex 2 Ycoordinate
    3,                        !- Vertex 2 Zcoordinate
    440588.751,               !- Vertex 3 Xcoordinate
    4479001.115,              !- Vertex 3 Ycoordinate
    3,                        !- Vertex 3 Zcoordinate
    440588.751,               !- Vertex 4 Xcoordinate
    4479001.115,              !- Vertex 4 Ycoordinate
    6;                        !- Vertex 4 Zcoordinate

BUILDINGSURFACE:DETAILED,
    Block e3d105b6be1b4480_0 Storey 1 Wall 0005,    !- Name
    wall,                     !- Surface Type
    EU_wall_Construction,     !- Construction Name
    e3d105b6be1b4480_F1_dwelling_0,    !- Zone Name
    ,                         !- Space Name
    Adiabatic,                !- Outside Boundary Condition
    ,                         !- Outside Boundary Condition Object
    NoSun,                    !- Sun Exposure
    NoWind,                   !- Wind Exposure
    autocalculate,            !- View Factor to Ground
    autocalculate,            !- Number of Vertices
    440588.751,               !- Vertex 1 Xcoordinate
    4479001.115,              !- Vertex 1 Ycoordinate
    6,                        !- Vertex 1 Zcoordinate
    440588.751,               !- Vertex 2 Xcoordinate
    4479001.115,              !- Vertex 2 Ycoordinate
    3,                        !- Vertex 2 Zcoordinate
    440594.643,               !- Vertex 3 Xcoordinate
    4479011.647,              !- Vertex 3 Ycoordinate
    3,                        !- Vertex 3 Zcoordinate
    440594.643,               !- Vertex 4 Xcoordinate
    4479011.647,              !- Vertex 4 Ycoordinate
    6;                        !- Vertex 4 Zcoordinate

BUILDINGSURFACE:DETAILED,
    Block e3d105b6be1b4480_0 Storey 1 Wall 0006,    !- Name
    wall,                     !- Surface Type
    EU_wall_Construction,     !- Construction Name
    e3d105b6be1b4480_F1_dwelling_0,    !- Zone Name
    ,                         !- Space Name
    outdoors,                 !- Outside Boundary Condition
    ,                         !- Outside Boundary Condition Object
    SunExposed,               !- Sun Exposure
    WindExposed,              !- Wind Exposure
    autocalculate,            !- View Factor to Ground
    autocalculate,            !- Number of Vertices
    440594.643,               !- Vertex 1 Xcoordinate
    4479011.647,              !- Vertex 1 Ycoordinate
    6,                        !- Vertex 1 Zcoordinate
    440594.643,               !- Vertex 2 Xcoordinate
    4479011.647,              !- Vertex 2 Ycoordinate
    3,                        !- Vertex 2 Zcoordinate
    440597.626,               !- Vertex 3 Xcoordinate
    4479009.359,              !- Vertex 3 Ycoordinate
    3,                        !- Vertex 3 Zcoordinate
    440597.626,               !- Vertex 4 Xcoordinate
    4479009.359,              !- Vertex 4 Ycoordinate
    6;                        !- Vertex 4 Zcoordinate

BUILDINGSURFACE:DETAILED,
    Block e3d105b6be1b4480_0 Storey 1 Roof 0001,    !- Name
    roof,                     !- Surface Type
    EU_roof_Construction,     !- Construction Name
    e3d105b6be1b4480_F1_dwelling_0,    !- Zone Name
    ,                         !- Space Name
    outdoors,                 !- Outside Boundary Condition
    ,                         !- Outside Boundary Condition Object
    NoSun,                    !- Sun Exposure
    WindExposed,              !- Wind Exposure
    autocalculate,            !- View Factor to Ground
    autocalculate,            !- Number of Vertices
    440597.626,               !- Vertex 1 Xcoordinate
    4479009.359,              !- Vertex 1 Ycoordinate
    6,                        !- Vertex 1 Zcoordinate
    440598.712,               !- Vertex 2 Xcoordinate
    4478997.695,              !- Vertex 2 Ycoordinate
    6,                        !- Vertex 2 Zcoordinate
    440597.224,               !- Vertex 3 Xcoordinate
    4478996.086,              !- Vertex 3 Ycoordinate
    6,                        !- Vertex 3 Zcoordinate
    440596.523,               !- Vertex 4 Xcoordinate
    4478995.325,              !- Vertex 4 Ycoordinate
    6,                        !- Vertex 4 Zcoordinate
    440588.751,               !- Vertex 5 Xcoordinate
    4479001.115,              !- Vertex 5 Ycoordinate
    6,                        !- Vertex 5 Zcoordinate
    440594.643,               !- Vertex 6 Xcoordinate
    4479011.647,              !- Vertex 6 Ycoordinate
    6;                        !- Vertex 6 Zcoordinate

BUILDINGSURFACE:DETAILED,
    Block e3d105b6be1b4480_0 Storey 0 Ceiling 0001_1,    !- Name
    ceiling,                  !- Surface Type
    EU_floor_Construction,    !- Construction Name
    e3d105b6be1b4480_F0_dwelling_0,    !- Zone Name
    ,                         !- Space Name
    Surface,                  !- Outside Boundary Condition
    Block e3d105b6be1b4480_0 Storey 1 Floor 0001_1,    !- Outside Boundary Condition Object
    NoSun,                    !- Sun Exposure
    NoWind,                   !- Wind Exposure
    autocalculate,            !- View Factor to Ground
    autocalculate,            !- Number of Vertices
    440597.6259999997,        !- Vertex 1 Xcoordinate
    4479009.359,              !- Vertex 1 Ycoordinate
    3,                        !- Vertex 1 Zcoordinate
    440598.7119999998,        !- Vertex 2 Xcoordinate
    4478997.695,              !- Vertex 2 Ycoordinate
    3,                        !- Vertex 2 Zcoordinate
    440597.22399999993,       !- Vertex 3 Xcoordinate
    4478996.086,              !- Vertex 3 Ycoordinate
    3,                        !- Vertex 3 Zcoordinate
    440596.5229999996,        !- Vertex 4 Xcoordinate
    4478995.325,              !- Vertex 4 Ycoordinate
    3,                        !- Vertex 4 Zcoordinate
    440588.7509999997,        !- Vertex 5 Xcoordinate
    4479001.115,              !- Vertex 5 Ycoordinate
    3,                        !- Vertex 5 Zcoordinate
    440594.6429999997,        !- Vertex 6 Xcoordinate
    4479011.647,              !- Vertex 6 Ycoordinate
    3;                        !- Vertex 6 Zcoordinate

BUILDINGSURFACE:DETAILED,
    Block e3d105b6be1b4480_0 Storey 1 Floor 0001_1,    !- Name
    floor,                    !- Surface Type
    EU_floor_Construction,    !- Construction Name
    e3d105b6be1b4480_F1_dwelling_0,    !- Zone Name
    ,                         !- Space Name
    Surface,                  !- Outside Boundary Condition
    Block e3d105b6be1b4480_0 Storey 0 Ceiling 0001_1,    !- Outside Boundary Condition Object
    NoSun,                    !- Sun Exposure
    NoWind,                   !- Wind Exposure
    autocalculate,            !- View Factor to Ground
    autocalculate,            !- Number of Vertices
    440597.22399999993,       !- Vertex 1 Xcoordinate
    4478996.086,              !- Vertex 1 Ycoordinate
    3,                        !- Vertex 1 Zcoordinate
    440598.7119999998,        !- Vertex 2 Xcoordinate
    4478997.695,              !- Vertex 2 Ycoordinate
    3,                        !- Vertex 2 Zcoordinate
    440597.6259999997,        !- Vertex 3 Xcoordinate
    4479009.359,              !- Vertex 3 Ycoordinate
    3,                        !- Vertex 3 Zcoordinate
    440594.6429999997,        !- Vertex 4 Xcoordinate
    4479011.647,              !- Vertex 4 Ycoordinate
    3,                        !- Vertex 4 Zcoordinate
    440588.7509999997,        !- Vertex 5 Xcoordinate
    4479001.115,              !- Vertex 5 Ycoordinate
    3,                        !- Vertex 5 Zcoordinate
    440596.5229999996,        !- Vertex 6 Xcoordinate
    4478995.325,              !- Vertex 6 Ycoordinate
    3;                        !- Vertex 6 Zcoordinate

INTERNALMASS,
    e3d105b6be1b4480_F0_dwelling_0_EU_InternalMass,    !- Name
    EU_InternalMass_Construction,    !- Construction Name
    e3d105b6be1b4480_F0_dwelling_0,    !- Zone or ZoneList Name
    ,                         !- Space or SpaceList Name
    94.23393913376306;        !- Surface Area

INTERNALMASS,
    e3d105b6be1b4480_F1_dwelling_0_EU_InternalMass,    !- Name
    EU_InternalMass_Construction,    !- Construction Name
    e3d105b6be1b4480_F1_dwelling_0,    !- Zone or ZoneList Name
    ,                         !- Space or SpaceList Name
    94.23393913376306;        !- Surface Area

SHADING:SITE:DETAILED,
    shade_way/289510897_1,    !- Name
    ,                         !- Transmittance Schedule Name
    autocalculate,            !- Number of Vertices
    440595.2723792862,        !- Vertex 1 Xcoordinate
    4478982.0142847905,       !- Vertex 1 Ycoordinate
    9,                        !- Vertex 1 Zcoordinate
    440595.2723792862,        !- Vertex 2 Xcoordinate
    4478982.0142847905,       !- Vertex 2 Ycoordinate
    0,                        !- Vertex 2 Zcoordinate
    440605.05464252655,       !- Vertex 3 Xcoordinate
    4478974.199448631,        !- Vertex 3 Ycoordinate
    0,                        !- Vertex 3 Zcoordinate
    440605.05464252655,       !- Vertex 4 Xcoordinate
    4478974.199448631,        !- Vertex 4 Ycoordinate
    9;                        !- Vertex 4 Zcoordinate

SHADING:SITE:DETAILED,
    shade_way/289510897_2,    !- Name
    ,                         !- Transmittance Schedule Name
    autocalculate,            !- Number of Vertices
    440605.05464252655,       !- Vertex 1 Xcoordinate
    4478974.199448631,        !- Vertex 1 Ycoordinate
    9,                        !- Vertex 1 Zcoordinate
    440605.05464252655,       !- Vertex 2 Xcoordinate
    4478974.199448631,        !- Vertex 2 Ycoordinate
    0,                        !- Vertex 2 Zcoordinate
    440590.6748674172,        !- Vertex 3 Xcoordinate
    4478956.198859748,        !- Vertex 3 Ycoordinate
    0,                        !- Vertex 3 Zcoordinate
    440590.6748674172,        !- Vertex 4 Xcoordinate
    4478956.198859748,        !- Vertex 4 Ycoordinate
    9;                        !- Vertex 4 Zcoordinate

SHADING:SITE:DETAILED,
    shade_way/289510897_3,    !- Name
    ,                         !- Transmittance Schedule Name
    autocalculate,            !- Number of Vertices
    440590.6748674172,        !- Vertex 1 Xcoordinate
    4478956.198859748,        !- Vertex 1 Ycoordinate
    9,                        !- Vertex 1 Zcoordinate
    440590.6748674172,        !- Vertex 2 Xcoordinate
    4478956.198859748,        !- Vertex 2 Ycoordinate
    0,                        !- Vertex 2 Zcoordinate
    440580.8926041775,        !- Vertex 3 Xcoordinate
    4478964.013695908,        !- Vertex 3 Ycoordinate
    0,                        !- Vertex 3 Zcoordinate
    440580.8926041775,        !- Vertex 4 Xcoordinate
    4478964.013695908,        !- Vertex 4 Ycoordinate
    9;                        !- Vertex 4 Zcoordinate

SHADING:SITE:DETAILED,
    shade_way/289510897_4,    !- Name
    ,                         !- Transmittance Schedule Name
    autocalculate,            !- Number of Vertices
    440580.8926041775,        !- Vertex 1 Xcoordinate
    4478964.013695908,        !- Vertex 1 Ycoordinate
    9,                        !- Vertex 1 Zcoordinate
    440580.8926041775,        !- Vertex 2 Xcoordinate
    4478964.013695908,        !- Vertex 2 Ycoordinate
    0,                        !- Vertex 2 Zcoordinate
    440595.2723792862,        !- Vertex 3 Xcoordinate
    4478982.0142847905,       !- Vertex 3 Ycoordinate
    0,                        !- Vertex 3 Zcoordinate
    440595.2723792862,        !- Vertex 4 Xcoordinate
    4478982.0142847905,       !- Vertex 4 Ycoordinate
    9;                        !- Vertex 4 Zcoordinate

SHADING:SITE:DETAILED,
    shade_way/289387277_1,    !- Name
    ,                         !- Transmittance Schedule Name
    autocalculate,            !- Number of Vertices
    440627.92794660036,       !- Vertex 1 Xcoordinate
    4478985.529462762,        !- Vertex 1 Ycoordinate
    15,                       !- Vertex 1 Zcoordinate
    440627.92794660036,       !- Vertex 2 Xcoordinate
    4478985.529462762,        !- Vertex 2 Ycoordinate
    0,                        !- Vertex 2 Zcoordinate
    440612.48316160217,       !- Vertex 3 Xcoordinate
    4478967.373193743,        !- Vertex 3 Ycoordinate
    0,                        !- Vertex 3 Zcoordinate
    440612.48316160217,       !- Vertex 4 Xcoordinate
    4478967.373193743,        !- Vertex 4 Ycoordinate
    15;                       !- Vertex 4 Zcoordinate

SHADING:SITE:DETAILED,
    shade_way/289387277_2,    !- Name
    ,                         !- Transmittance Schedule Name
    autocalculate,            !- Number of Vertices
    440612.48316160217,       !- Vertex 1 Xcoordinate
    4478967.373193743,        !- Vertex 1 Ycoordinate
    15,                       !- Vertex 1 Zcoordinate
    440612.48316160217,       !- Vertex 2 Xcoordinate
    4478967.373193743,        !- Vertex 2 Ycoordinate
    0,                        !- Vertex 2 Zcoordinate
    440595.2723792862,        !- Vertex 3 Xcoordinate
    4478982.0142847905,       !- Vertex 3 Ycoordinate
    0,                        !- Vertex 3 Zcoordinate
    440595.2723792862,        !- Vertex 4 Xcoordinate
    4478982.0142847905,       !- Vertex 4 Ycoordinate
    15;                       !- Vertex 4 Zcoordinate

SHADING:SITE:DETAILED,
    shade_way/289387277_3,    !- Name
    ,                         !- Transmittance Schedule Name
    autocalculate,            !- Number of Vertices
    440595.2723792862,        !- Vertex 1 Xcoordinate
    4478982.0142847905,       !- Vertex 1 Ycoordinate
    15,                       !- Vertex 1 Zcoordinate
    440595.2723792862,        !- Vertex 2 Xcoordinate
    4478982.0142847905,       !- Vertex 2 Ycoordinate
    0,                        !- Vertex 2 Zcoordinate
    440610.71776623593,       !- Vertex 3 Xcoordinate
    4479000.169930345,        !- Vertex 3 Ycoordinate
    0,                        !- Vertex 3 Zcoordinate
    440610.71776623593,       !- Vertex 4 Xcoordinate
    4479000.169930345,        !- Vertex 4 Ycoordinate
    15;                       !- Vertex 4 Zcoordinate

SHADING:SITE:DETAILED,
    shade_way/289387277_4,    !- Name
    ,                         !- Transmittance Schedule Name
    autocalculate,            !- Number of Vertices
    440610.71776623593,       !- Vertex 1 Xcoordinate
    4479000.169930345,        !- Vertex 1 Ycoordinate
    15,                       !- Vertex 1 Zcoordinate
    440610.71776623593,       !- Vertex 2 Xcoordinate
    4479000.169930345,        !- Vertex 2 Ycoordinate
    0,                        !- Vertex 2 Zcoordinate
    440627.92794660036,       !- Vertex 3 Xcoordinate
    4478985.529462762,        !- Vertex 3 Ycoordinate
    0,                        !- Vertex 3 Zcoordinate
    440627.92794660036,       !- Vertex 4 Xcoordinate
    4478985.529462762,        !- Vertex 4 Ycoordinate
    15;                       !- Vertex 4 Zcoordinate

SHADING:SITE:DETAILED,
    shade_way/289595788_1,    !- Name
    ,                         !- Transmittance Schedule Name
    autocalculate,            !- Number of Vertices
    440588.75089796516,       !- Vertex 1 Xcoordinate
    4479001.114906019,        !- Vertex 1 Ycoordinate
    12,                       !- Vertex 1 Zcoordinate
    440588.75089796516,       !- Vertex 2 Xcoordinate
    4479001.114906019,        !- Vertex 2 Ycoordinate
    0,                        !- Vertex 2 Zcoordinate
    440596.5226911905,        !- Vertex 3 Xcoordinate
    4478995.325247888,        !- Vertex 3 Ycoordinate
    0,                        !- Vertex 3 Zcoordinate
    440596.5226911905,        !- Vertex 4 Xcoordinate
    4478995.325247888,        !- Vertex 4 Ycoordinate
    12;                       !- Vertex 4 Zcoordinate

SHADING:SITE:DETAILED,
    shade_way/289595788_2,    !- Name
    ,                         !- Transmittance Schedule Name
    autocalculate,            !- Number of Vertices
    440596.5226911905,        !- Vertex 1 Xcoordinate
    4478995.325247888,        !- Vertex 1 Ycoordinate
    12,                       !- Vertex 1 Zcoordinate
    440596.5226911905,        !- Vertex 2 Xcoordinate
    4478995.325247888,        !- Vertex 2 Ycoordinate
    0,                        !- Vertex 2 Zcoordinate
    440589.79656117706,       !- Vertex 3 Xcoordinate
    4478986.295136991,        !- Vertex 3 Ycoordinate
    0,                        !- Vertex 3 Zcoordinate
    440589.79656117706,       !- Vertex 4 Xcoordinate
    4478986.295136991,        !- Vertex 4 Ycoordinate
    12;                       !- Vertex 4 Zcoordinate

SHADING:SITE:DETAILED,
    shade_way/289595788_3,    !- Name
    ,                         !- Transmittance Schedule Name
    autocalculate,            !- Number of Vertices
    440589.79656117706,       !- Vertex 1 Xcoordinate
    4478986.295136991,        !- Vertex 1 Ycoordinate
    12,                       !- Vertex 1 Zcoordinate
    440589.79656117706,       !- Vertex 2 Xcoordinate
    4478986.295136991,        !- Vertex 2 Ycoordinate
    0,                        !- Vertex 2 Zcoordinate
    440582.0247679518,        !- Vertex 3 Xcoordinate
    4478992.084795118,        !- Vertex 3 Ycoordinate
    0,                        !- Vertex 3 Zcoordinate
    440582.0247679518,        !- Vertex 4 Xcoordinate
    4478992.084795118,        !- Vertex 4 Ycoordinate
    12;                       !- Vertex 4 Zcoordinate

SHADING:SITE:DETAILED,
    shade_way/289595788_4,    !- Name
    ,                         !- Transmittance Schedule Name
    autocalculate,            !- Number of Vertices
    440582.0247679518,        !- Vertex 1 Xcoordinate
    4478992.084795118,        !- Vertex 1 Ycoordinate
    12,                       !- Vertex 1 Zcoordinate
    440582.0247679518,        !- Vertex 2 Xcoordinate
    4478992.084795118,        !- Vertex 2 Ycoordinate
    0,                        !- Vertex 2 Zcoordinate
    440588.75089796516,       !- Vertex 3 Xcoordinate
    4479001.114906019,        !- Vertex 3 Ycoordinate
    0,                        !- Vertex 3 Zcoordinate
    440588.75089796516,       !- Vertex 4 Xcoordinate
    4479001.114906019,        !- Vertex 4 Ycoordinate
    12;                       !- Vertex 4 Zcoordinate

SHADING:SITE:DETAILED,
    shade_relation/13033800_1,    !- Name
    ,                         !- Transmittance Schedule Name
    autocalculate,            !- Number of Vertices
    440595.2294664634,        !- Vertex 1 Xcoordinate
    4479012.703183487,        !- Vertex 1 Ycoordinate
    9,                        !- Vertex 1 Zcoordinate
    440595.2294664634,        !- Vertex 2 Xcoordinate
    4479012.703183487,        !- Vertex 2 Ycoordinate
    0,                        !- Vertex 2 Zcoordinate
    440584.99131429713,       !- Vertex 3 Xcoordinate
    4478994.284489124,        !- Vertex 3 Ycoordinate
    0,                        !- Vertex 3 Zcoordinate
    440584.99131429713,       !- Vertex 4 Xcoordinate
    4478994.284489124,        !- Vertex 4 Ycoordinate
    9;                        !- Vertex 4 Zcoordinate

SHADING:SITE:DETAILED,
    shade_relation/13033800_2,    !- Name
    ,                         !- Transmittance Schedule Name
    autocalculate,            !- Number of Vertices
    440584.99131429713,       !- Vertex 1 Xcoordinate
    4478994.284489124,        !- Vertex 1 Ycoordinate
    9,                        !- Vertex 1 Zcoordinate
    440584.99131429713,       !- Vertex 2 Xcoordinate
    4478994.284489124,        !- Vertex 2 Ycoordinate
    0,                        !- Vertex 2 Zcoordinate
    440578.4382064726,        !- Vertex 3 Xcoordinate
    4478997.92707323,         !- Vertex 3 Ycoordinate
    0,                        !- Vertex 3 Zcoordinate
    440578.4382064726,        !- Vertex 4 Xcoordinate
    4478997.92707323,         !- Vertex 4 Ycoordinate
    9;                        !- Vertex 4 Zcoordinate

SHADING:SITE:DETAILED,
    shade_relation/13033800_3,    !- Name
    ,                         !- Transmittance Schedule Name
    autocalculate,            !- Number of Vertices
    440578.4382064726,        !- Vertex 1 Xcoordinate
    4478997.92707323,         !- Vertex 1 Ycoordinate
    9,                        !- Vertex 1 Zcoordinate
    440578.4382064726,        !- Vertex 2 Xcoordinate
    4478997.92707323,         !- Vertex 2 Ycoordinate
    0,                        !- Vertex 2 Zcoordinate
    440588.67675961624,       !- Vertex 3 Xcoordinate
    4479016.345707117,        !- Vertex 3 Ycoordinate
    0,                        !- Vertex 3 Zcoordinate
    440588.67675961624,       !- Vertex 4 Xcoordinate
    4479016.345707117,        !- Vertex 4 Ycoordinate
    9;                        !- Vertex 4 Zcoordinate

SHADING:SITE:DETAILED,
    shade_relation/13033800_4,    !- Name
    ,                         !- Transmittance Schedule Name
    autocalculate,            !- Number of Vertices
    440588.67675961624,       !- Vertex 1 Xcoordinate
    4479016.345707117,        !- Vertex 1 Ycoordinate
    9,                        !- Vertex 1 Zcoordinate
    440588.67675961624,       !- Vertex 2 Xcoordinate
    4479016.345707117,        !- Vertex 2 Ycoordinate
    0,                        !- Vertex 2 Zcoordinate
    440595.2294664634,        !- Vertex 3 Xcoordinate
    4479012.703183487,        !- Vertex 3 Ycoordinate
    0,                        !- Vertex 3 Zcoordinate
    440595.2294664634,        !- Vertex 4 Xcoordinate
    4479012.703183487,        !- Vertex 4 Ycoordinate
    9;                        !- Vertex 4 Zcoordinate

SHADING:SITE:DETAILED,
    shade_way/289387281_1,    !- Name
    ,                         !- Transmittance Schedule Name
    autocalculate,            !- Number of Vertices
    440638.0611332571,        !- Vertex 1 Xcoordinate
    4479017.558219633,        !- Vertex 1 Ycoordinate
    9,                        !- Vertex 1 Zcoordinate
    440638.0611332571,        !- Vertex 2 Xcoordinate
    4479017.558219633,        !- Vertex 2 Ycoordinate
    0,                        !- Vertex 2 Zcoordinate
    440625.06336133933,       !- Vertex 3 Xcoordinate
    4478998.528944562,        !- Vertex 3 Ycoordinate
    0,                        !- Vertex 3 Zcoordinate
    440625.06336133933,       !- Vertex 4 Xcoordinate
    4478998.528944562,        !- Vertex 4 Ycoordinate
    9;                        !- Vertex 4 Zcoordinate

SHADING:SITE:DETAILED,
    shade_way/289387281_2,    !- Name
    ,                         !- Transmittance Schedule Name
    autocalculate,            !- Number of Vertices
    440625.06336133933,       !- Vertex 1 Xcoordinate
    4478998.528944562,        !- Vertex 1 Ycoordinate
    9,                        !- Vertex 1 Zcoordinate
    440625.06336133933,       !- Vertex 2 Xcoordinate
    4478998.528944562,        !- Vertex 2 Ycoordinate
    0,                        !- Vertex 2 Zcoordinate
    440615.6496050732,        !- Vertex 3 Xcoordinate
    4479004.959423731,        !- Vertex 3 Ycoordinate
    0,                        !- Vertex 3 Zcoordinate
    440615.6496050732,        !- Vertex 4 Xcoordinate
    4479004.959423731,        !- Vertex 4 Ycoordinate
    9;                        !- Vertex 4 Zcoordinate

SHADING:SITE:DETAILED,
    shade_way/289387281_3,    !- Name
    ,                         !- Transmittance Schedule Name
    autocalculate,            !- Number of Vertices
    440615.6496050732,        !- Vertex 1 Xcoordinate
    4479004.959423731,        !- Vertex 1 Ycoordinate
    9,                        !- Vertex 1 Zcoordinate
    440615.6496050732,        !- Vertex 2 Xcoordinate
    4479004.959423731,        !- Vertex 2 Ycoordinate
    0,                        !- Vertex 2 Zcoordinate
    440628.64844777907,       !- Vertex 3 Xcoordinate
    4479023.987801741,        !- Vertex 3 Ycoordinate
    0,                        !- Vertex 3 Zcoordinate
    440628.64844777907,       !- Vertex 4 Xcoordinate
    4479023.987801741,        !- Vertex 4 Ycoordinate
    9;                        !- Vertex 4 Zcoordinate

SHADING:SITE:DETAILED,
    shade_way/289387281_4,    !- Name
    ,                         !- Transmittance Schedule Name
    autocalculate,            !- Number of Vertices
    440628.64844777907,       !- Vertex 1 Xcoordinate
    4479023.987801741,        !- Vertex 1 Ycoordinate
    9,                        !- Vertex 1 Zcoordinate
    440628.64844777907,       !- Vertex 2 Xcoordinate
    4479023.987801741,        !- Vertex 2 Ycoordinate
    0,                        !- Vertex 2 Zcoordinate
    440638.0611332571,        !- Vertex 3 Xcoordinate
    4479017.558219633,        !- Vertex 3 Ycoordinate
    0,                        !- Vertex 3 Zcoordinate
    440638.0611332571,        !- Vertex 4 Xcoordinate
    4479017.558219633,        !- Vertex 4 Ycoordinate
    9;                        !- Vertex 4 Zcoordinate

SHADING:SITE:DETAILED,
    shade_way/289387274_1,    !- Name
    ,                         !- Transmittance Schedule Name
    autocalculate,            !- Number of Vertices
    440588.925695866,         !- Vertex 1 Xcoordinate
    4478987.081982164,        !- Vertex 1 Ycoordinate
    9,                        !- Vertex 1 Zcoordinate
    440588.925695866,         !- Vertex 2 Xcoordinate
    4478987.081982164,        !- Vertex 2 Ycoordinate
    0,                        !- Vertex 2 Zcoordinate
    440575.5320952027,        !- Vertex 3 Xcoordinate
    4478968.880519313,        !- Vertex 3 Ycoordinate
    0,                        !- Vertex 3 Zcoordinate
    440575.5320952027,        !- Vertex 4 Xcoordinate
    4478968.880519313,        !- Vertex 4 Ycoordinate
    9;                        !- Vertex 4 Zcoordinate

SHADING:SITE:DETAILED,
    shade_way/289387274_2,    !- Name
    ,                         !- Transmittance Schedule Name
    autocalculate,            !- Number of Vertices
    440575.5320952027,        !- Vertex 1 Xcoordinate
    4478968.880519313,        !- Vertex 1 Ycoordinate
    9,                        !- Vertex 1 Zcoordinate
    440575.5320952027,        !- Vertex 2 Xcoordinate
    4478968.880519313,        !- Vertex 2 Ycoordinate
    0,                        !- Vertex 2 Zcoordinate
    440563.85081026907,       !- Vertex 3 Xcoordinate
    4478977.476227631,        !- Vertex 3 Ycoordinate
    0,                        !- Vertex 3 Zcoordinate
    440563.85081026907,       !- Vertex 4 Xcoordinate
    4478977.476227631,        !- Vertex 4 Ycoordinate
    9;                        !- Vertex 4 Zcoordinate

SHADING:SITE:DETAILED,
    shade_way/289387274_3,    !- Name
    ,                         !- Transmittance Schedule Name
    autocalculate,            !- Number of Vertices
    440563.85081026907,       !- Vertex 1 Xcoordinate
    4478977.476227631,        !- Vertex 1 Ycoordinate
    9,                        !- Vertex 1 Zcoordinate
    440563.85081026907,       !- Vertex 2 Xcoordinate
    4478977.476227631,        !- Vertex 2 Ycoordinate
    0,                        !- Vertex 2 Zcoordinate
    440577.2439857962,        !- Vertex 3 Xcoordinate
    4478995.678072812,        !- Vertex 3 Ycoordinate
    0,                        !- Vertex 3 Zcoordinate
    440577.2439857962,        !- Vertex 4 Xcoordinate
    4478995.678072812,        !- Vertex 4 Ycoordinate
    9;                        !- Vertex 4 Zcoordinate

SHADING:SITE:DETAILED,
    shade_way/289387274_4,    !- Name
    ,                         !- Transmittance Schedule Name
    autocalculate,            !- Number of Vertices
    440577.2439857962,        !- Vertex 1 Xcoordinate
    4478995.678072812,        !- Vertex 1 Ycoordinate
    9,                        !- Vertex 1 Zcoordinate
    440577.2439857962,        !- Vertex 2 Xcoordinate
    4478995.678072812,        !- Vertex 2 Ycoordinate
    0,                        !- Vertex 2 Zcoordinate
    440588.925695866,         !- Vertex 3 Xcoordinate
    4478987.081982164,        !- Vertex 3 Ycoordinate
    0,                        !- Vertex 3 Zcoordinate
    440588.925695866,         !- Vertex 4 Xcoordinate
    4478987.081982164,        !- Vertex 4 Ycoordinate
    9;                        !- Vertex 4 Zcoordinate

SHADING:SITE:DETAILED,
    shade_way/968494368_1,    !- Name
    ,                         !- Transmittance Schedule Name
    autocalculate,            !- Number of Vertices
    440579.03299444425,       !- Vertex 1 Xcoordinate
    4478998.871985015,        !- Vertex 1 Ycoordinate
    12,                       !- Vertex 1 Zcoordinate
    440579.03299444425,       !- Vertex 2 Xcoordinate
    4478998.871985015,        !- Vertex 2 Ycoordinate
    0,                        !- Vertex 2 Zcoordinate
    440571.4991716387,        !- Vertex 3 Xcoordinate
    4479004.663941242,        !- Vertex 3 Ycoordinate
    0,                        !- Vertex 3 Zcoordinate
    440571.4991716387,        !- Vertex 4 Xcoordinate
    4479004.663941242,        !- Vertex 4 Ycoordinate
    12;                       !- Vertex 4 Zcoordinate

SHADING:SITE:DETAILED,
    shade_way/968494368_2,    !- Name
    ,                         !- Transmittance Schedule Name
    autocalculate,            !- Number of Vertices
    440571.4991716387,        !- Vertex 1 Xcoordinate
    4479004.663941242,        !- Vertex 1 Ycoordinate
    12,                       !- Vertex 1 Zcoordinate
    440571.4991716387,        !- Vertex 2 Xcoordinate
    4479004.663941242,        !- Vertex 2 Ycoordinate
    0,                        !- Vertex 2 Zcoordinate
    440575.439734383,         !- Vertex 3 Xcoordinate
    4479009.790333115,        !- Vertex 3 Ycoordinate
    0,                        !- Vertex 3 Zcoordinate
    440575.439734383,         !- Vertex 4 Xcoordinate
    4479009.790333115,        !- Vertex 4 Ycoordinate
    12;                       !- Vertex 4 Zcoordinate

SHADING:SITE:DETAILED,
    shade_way/968494368_3,    !- Name
    ,                         !- Transmittance Schedule Name
    autocalculate,            !- Number of Vertices
    440575.439734383,         !- Vertex 1 Xcoordinate
    4479009.790333115,        !- Vertex 1 Ycoordinate
    12,                       !- Vertex 1 Zcoordinate
    440575.439734383,         !- Vertex 2 Xcoordinate
    4479009.790333115,        !- Vertex 2 Ycoordinate
    0,                        !- Vertex 2 Zcoordinate
    440582.9742738918,        !- Vertex 3 Xcoordinate
    4479003.997704542,        !- Vertex 3 Ycoordinate
    0,                        !- Vertex 3 Zcoordinate
    440582.9742738918,        !- Vertex 4 Xcoordinate
    4479003.997704542,        !- Vertex 4 Ycoordinate
    12;                       !- Vertex 4 Zcoordinate

SHADING:SITE:DETAILED,
    shade_way/968494368_4,    !- Name
    ,                         !- Transmittance Schedule Name
    autocalculate,            !- Number of Vertices
    440582.9742738918,        !- Vertex 1 Xcoordinate
    4479003.997704542,        !- Vertex 1 Ycoordinate
    12,                       !- Vertex 1 Zcoordinate
    440582.9742738918,        !- Vertex 2 Xcoordinate
    4479003.997704542,        !- Vertex 2 Ycoordinate
    0,                        !- Vertex 2 Zcoordinate
    440579.03299444425,       !- Vertex 3 Xcoordinate
    4478998.871985015,        !- Vertex 3 Ycoordinate
    0,                        !- Vertex 3 Zcoordinate
    440579.03299444425,       !- Vertex 4 Xcoordinate
    4478998.871985015,        !- Vertex 4 Ycoordinate
    12;                       !- Vertex 4 Zcoordinate

SHADING:SITE:DETAILED,
    shade_way/289434329_1,    !- Name
    ,                         !- Transmittance Schedule Name
    autocalculate,            !- Number of Vertices
    440572.29525836953,       !- Vertex 1 Xcoordinate
    4479004.14524114,         !- Vertex 1 Ycoordinate
    12,                       !- Vertex 1 Zcoordinate
    440572.29525836953,       !- Vertex 2 Xcoordinate
    4479004.14524114,         !- Vertex 2 Ycoordinate
    0,                        !- Vertex 2 Zcoordinate
    440553.12945375685,       !- Vertex 3 Xcoordinate
    4479014.677724345,        !- Vertex 3 Ycoordinate
    0,                        !- Vertex 3 Zcoordinate
    440553.12945375685,       !- Vertex 4 Xcoordinate
    4479014.677724345,        !- Vertex 4 Ycoordinate
    12;                       !- Vertex 4 Zcoordinate

SHADING:SITE:DETAILED,
    shade_way/289434329_2,    !- Name
    ,                         !- Transmittance Schedule Name
    autocalculate,            !- Number of Vertices
    440553.12945375685,       !- Vertex 1 Xcoordinate
    4479014.677724345,        !- Vertex 1 Ycoordinate
    12,                       !- Vertex 1 Zcoordinate
    440553.12945375685,       !- Vertex 2 Xcoordinate
    4479014.677724345,        !- Vertex 2 Ycoordinate
    0,                        !- Vertex 2 Zcoordinate
    440556.0735286501,        !- Vertex 3 Xcoordinate
    4479020.035014084,        !- Vertex 3 Ycoordinate
    0,                        !- Vertex 3 Zcoordinate
    440556.0735286501,        !- Vertex 4 Xcoordinate
    4479020.035014084,        !- Vertex 4 Ycoordinate
    12;                       !- Vertex 4 Zcoordinate

SHADING:SITE:DETAILED,
    shade_way/289434329_3,    !- Name
    ,                         !- Transmittance Schedule Name
    autocalculate,            !- Number of Vertices
    440556.0735286501,        !- Vertex 1 Xcoordinate
    4479020.035014084,        !- Vertex 1 Ycoordinate
    12,                       !- Vertex 1 Zcoordinate
    440556.0735286501,        !- Vertex 2 Xcoordinate
    4479020.035014084,        !- Vertex 2 Ycoordinate
    0,                        !- Vertex 2 Zcoordinate
    440575.2393332628,        !- Vertex 3 Xcoordinate
    4479009.502530879,        !- Vertex 3 Ycoordinate
    0,                        !- Vertex 3 Zcoordinate
    440575.2393332628,        !- Vertex 4 Xcoordinate
    4479009.502530879,        !- Vertex 4 Ycoordinate
    12;                       !- Vertex 4 Zcoordinate

SHADING:SITE:DETAILED,
    shade_way/289434329_4,    !- Name
    ,                         !- Transmittance Schedule Name
    autocalculate,            !- Number of Vertices
    440575.2393332628,        !- Vertex 1 Xcoordinate
    4479009.502530879,        !- Vertex 1 Ycoordinate
    12,                       !- Vertex 1 Zcoordinate
    440575.2393332628,        !- Vertex 2 Xcoordinate
    4479009.502530879,        !- Vertex 2 Ycoordinate
    0,                        !- Vertex 2 Zcoordinate
    440572.29525836953,       !- Vertex 3 Xcoordinate
    4479004.14524114,         !- Vertex 3 Ycoordinate
    0,                        !- Vertex 3 Zcoordinate
    440572.29525836953,       !- Vertex 4 Xcoordinate
    4479004.14524114,         !- Vertex 4 Ycoordinate
    12;                       !- Vertex 4 Zcoordinate

SHADING:SITE:DETAILED,
    shade_relation/13033801_1,    !- Name
    ,                         !- Transmittance Schedule Name
    autocalculate,            !- Number of Vertices
    440576.204157275,         !- Vertex 1 Xcoordinate
    4479008.959873582,        !- Vertex 1 Ycoordinate
    12,                       !- Vertex 1 Zcoordinate
    440576.204157275,         !- Vertex 2 Xcoordinate
    4479008.959873582,        !- Vertex 2 Ycoordinate
    0,                        !- Vertex 2 Zcoordinate
    440555.58925545256,       !- Vertex 3 Xcoordinate
    4479020.271665506,        !- Vertex 3 Ycoordinate
    0,                        !- Vertex 3 Zcoordinate
    440555.58925545256,       !- Vertex 4 Xcoordinate
    4479020.271665506,        !- Vertex 4 Ycoordinate
    12;                       !- Vertex 4 Zcoordinate

SHADING:SITE:DETAILED,
    shade_relation/13033801_2,    !- Name
    ,                         !- Transmittance Schedule Name
    autocalculate,            !- Number of Vertices
    440555.58925545256,       !- Vertex 1 Xcoordinate
    4479020.271665506,        !- Vertex 1 Ycoordinate
    12,                       !- Vertex 1 Zcoordinate
    440555.58925545256,       !- Vertex 2 Xcoordinate
    4479020.271665506,        !- Vertex 2 Ycoordinate
    0,                        !- Vertex 2 Zcoordinate
    440564.0803246185,        !- Vertex 3 Xcoordinate
    4479035.745239096,        !- Vertex 3 Ycoordinate
    0,                        !- Vertex 3 Zcoordinate
    440564.0803246185,        !- Vertex 4 Xcoordinate
    4479035.745239096,        !- Vertex 4 Ycoordinate
    12;                       !- Vertex 4 Zcoordinate

SHADING:SITE:DETAILED,
    shade_relation/13033801_3,    !- Name
    ,                         !- Transmittance Schedule Name
    autocalculate,            !- Number of Vertices
    440564.0803246185,        !- Vertex 1 Xcoordinate
    4479035.745239096,        !- Vertex 1 Ycoordinate
    12,                       !- Vertex 1 Zcoordinate
    440564.0803246185,        !- Vertex 2 Xcoordinate
    4479035.745239096,        !- Vertex 2 Ycoordinate
    0,                        !- Vertex 2 Zcoordinate
    440584.69491914666,       !- Vertex 3 Xcoordinate
    4479024.43365736,         !- Vertex 3 Ycoordinate
    0,                        !- Vertex 3 Zcoordinate
    440584.69491914666,       !- Vertex 4 Xcoordinate
    4479024.43365736,         !- Vertex 4 Ycoordinate
    12;                       !- Vertex 4 Zcoordinate

SHADING:SITE:DETAILED,
    shade_relation/13033801_4,    !- Name
    ,                         !- Transmittance Schedule Name
    autocalculate,            !- Number of Vertices
    440584.69491914666,       !- Vertex 1 Xcoordinate
    4479024.43365736,         !- Vertex 1 Ycoordinate
    12,                       !- Vertex 1 Zcoordinate
    440584.69491914666,       !- Vertex 2 Xcoordinate
    4479024.43365736,         !- Vertex 2 Ycoordinate
    0,                        !- Vertex 2 Zcoordinate
    440576.204157275,         !- Vertex 3 Xcoordinate
    4479008.959873582,        !- Vertex 3 Ycoordinate
    0,                        !- Vertex 3 Zcoordinate
    440576.204157275,         !- Vertex 4 Xcoordinate
    4479008.959873582,        !- Vertex 4 Ycoordinate
    12;                       !- Vertex 4 Zcoordinate

SHADING:SITE:DETAILED,
    shade_way/289434331_1,    !- Name
    ,                         !- Transmittance Schedule Name
    autocalculate,            !- Number of Vertices
    440576.82446727395,       !- Vertex 1 Xcoordinate
    4479011.9141501775,       !- Vertex 1 Ycoordinate
    12,                       !- Vertex 1 Zcoordinate
    440576.82446727395,       !- Vertex 2 Xcoordinate
    4479011.9141501775,       !- Vertex 2 Ycoordinate
    0,                        !- Vertex 2 Zcoordinate
    440582.7864601036,        !- Vertex 3 Xcoordinate
    4479020.954862092,        !- Vertex 3 Ycoordinate
    0,                        !- Vertex 3 Zcoordinate
    440582.7864601036,        !- Vertex 4 Xcoordinate
    4479020.954862092,        !- Vertex 4 Ycoordinate
    12;                       !- Vertex 4 Zcoordinate

SHADING:SITE:DETAILED,
    shade_way/289434331_2,    !- Name
    ,                         !- Transmittance Schedule Name
    autocalculate,            !- Number of Vertices
    440582.7864601036,        !- Vertex 1 Xcoordinate
    4479020.954862092,        !- Vertex 1 Ycoordinate
    12,                       !- Vertex 1 Zcoordinate
    440582.7864601036,        !- Vertex 2 Xcoordinate
    4479020.954862092,        !- Vertex 2 Ycoordinate
    0,                        !- Vertex 2 Zcoordinate
    440589.69230651105,       !- Vertex 3 Xcoordinate
    4479016.4004955245,       !- Vertex 3 Ycoordinate
    0,                        !- Vertex 3 Zcoordinate
    440589.69230651105,       !- Vertex 4 Xcoordinate
    4479016.4004955245,       !- Vertex 4 Ycoordinate
    12;                       !- Vertex 4 Zcoordinate

SHADING:SITE:DETAILED,
    shade_way/289434331_3,    !- Name
    ,                         !- Transmittance Schedule Name
    autocalculate,            !- Number of Vertices
    440589.69230651105,       !- Vertex 1 Xcoordinate
    4479016.4004955245,       !- Vertex 1 Ycoordinate
    12,                       !- Vertex 1 Zcoordinate
    440589.69230651105,       !- Vertex 2 Xcoordinate
    4479016.4004955245,       !- Vertex 2 Ycoordinate
    0,                        !- Vertex 2 Zcoordinate
    440583.72996099497,       !- Vertex 3 Xcoordinate
    4479007.360069439,        !- Vertex 3 Ycoordinate
    0,                        !- Vertex 3 Zcoordinate
    440583.72996099497,       !- Vertex 4 Xcoordinate
    4479007.360069439,        !- Vertex 4 Ycoordinate
    12;                       !- Vertex 4 Zcoordinate

SHADING:SITE:DETAILED,
    shade_way/289434331_4,    !- Name
    ,                         !- Transmittance Schedule Name
    autocalculate,            !- Number of Vertices
    440583.72996099497,       !- Vertex 1 Xcoordinate
    4479007.360069439,        !- Vertex 1 Ycoordinate
    12,                       !- Vertex 1 Zcoordinate
    440583.72996099497,       !- Vertex 2 Xcoordinate
    4479007.360069439,        !- Vertex 2 Ycoordinate
    0,                        !- Vertex 2 Zcoordinate
    440576.82446727395,       !- Vertex 3 Xcoordinate
    4479011.9141501775,       !- Vertex 3 Ycoordinate
    0,                        !- Vertex 3 Zcoordinate
    440576.82446727395,       !- Vertex 4 Xcoordinate
    4479011.9141501775,       !- Vertex 4 Ycoordinate
    12;                       !- Vertex 4 Zcoordinate

SHADING:SITE:DETAILED,
    shade_way/289434339_1,    !- Name
    ,                         !- Transmittance Schedule Name
    autocalculate,            !- Number of Vertices
    440602.7070216406,        !- Vertex 1 Xcoordinate
    4479015.803268662,        !- Vertex 1 Ycoordinate
    9,                        !- Vertex 1 Zcoordinate
    440602.7070216406,        !- Vertex 2 Xcoordinate
    4479015.803268662,        !- Vertex 2 Ycoordinate
    0,                        !- Vertex 2 Zcoordinate
    440615.34934461664,       !- Vertex 3 Xcoordinate
    4479034.18386352,         !- Vertex 3 Ycoordinate
    0,                        !- Vertex 3 Zcoordinate
    440615.34934461664,       !- Vertex 4 Xcoordinate
    4479034.18386352,         !- Vertex 4 Ycoordinate
    9;                        !- Vertex 4 Zcoordinate

SHADING:SITE:DETAILED,
    shade_way/289434339_2,    !- Name
    ,                         !- Transmittance Schedule Name
    autocalculate,            !- Number of Vertices
    440615.34934461664,       !- Vertex 1 Xcoordinate
    4479034.18386352,         !- Vertex 1 Ycoordinate
    9,                        !- Vertex 1 Zcoordinate
    440615.34934461664,       !- Vertex 2 Xcoordinate
    4479034.18386352,         !- Vertex 2 Ycoordinate
    0,                        !- Vertex 2 Zcoordinate
    440622.6340714865,        !- Vertex 3 Xcoordinate
    4479029.173564309,        !- Vertex 3 Ycoordinate
    0,                        !- Vertex 3 Zcoordinate
    440622.6340714865,        !- Vertex 4 Xcoordinate
    4479029.173564309,        !- Vertex 4 Ycoordinate
    9;                        !- Vertex 4 Zcoordinate

SHADING:SITE:DETAILED,
    shade_way/289434339_3,    !- Name
    ,                         !- Transmittance Schedule Name
    autocalculate,            !- Number of Vertices
    440622.6340714865,        !- Vertex 1 Xcoordinate
    4479029.173564309,        !- Vertex 1 Ycoordinate
    9,                        !- Vertex 1 Zcoordinate
    440622.6340714865,        !- Vertex 2 Xcoordinate
    4479029.173564309,        !- Vertex 2 Ycoordinate
    0,                        !- Vertex 2 Zcoordinate
    440609.9915316621,        !- Vertex 3 Xcoordinate
    4479010.792712173,        !- Vertex 3 Ycoordinate
    0,                        !- Vertex 3 Zcoordinate
    440609.9915316621,        !- Vertex 4 Xcoordinate
    4479010.792712173,        !- Vertex 4 Ycoordinate
    9;                        !- Vertex 4 Zcoordinate

SHADING:SITE:DETAILED,
    shade_way/289434339_4,    !- Name
    ,                         !- Transmittance Schedule Name
    autocalculate,            !- Number of Vertices
    440609.9915316621,        !- Vertex 1 Xcoordinate
    4479010.792712173,        !- Vertex 1 Ycoordinate
    9,                        !- Vertex 1 Zcoordinate
    440609.9915316621,        !- Vertex 2 Xcoordinate
    4479010.792712173,        !- Vertex 2 Ycoordinate
    0,                        !- Vertex 2 Zcoordinate
    440602.7070216406,        !- Vertex 3 Xcoordinate
    4479015.803268662,        !- Vertex 3 Ycoordinate
    0,                        !- Vertex 3 Zcoordinate
    440602.7070216406,        !- Vertex 4 Xcoordinate
    4479015.803268662,        !- Vertex 4 Ycoordinate
    9;                        !- Vertex 4 Zcoordinate

SHADING:SITE:DETAILED,
    shade_way/289434338_1,    !- Name
    ,                         !- Transmittance Schedule Name
    autocalculate,            !- Number of Vertices
    440596.9089419278,        !- Vertex 1 Xcoordinate
    4479021.047710153,        !- Vertex 1 Ycoordinate
    12,                       !- Vertex 1 Zcoordinate
    440596.9089419278,        !- Vertex 2 Xcoordinate
    4479021.047710153,        !- Vertex 2 Ycoordinate
    0,                        !- Vertex 2 Zcoordinate
    440602.97857216344,       !- Vertex 3 Xcoordinate
    4479028.864852319,        !- Vertex 3 Ycoordinate
    0,                        !- Vertex 3 Zcoordinate
    440602.97857216344,       !- Vertex 4 Xcoordinate
    4479028.864852319,        !- Vertex 4 Ycoordinate
    12;                       !- Vertex 4 Zcoordinate

SHADING:SITE:DETAILED,
    shade_way/289434338_2,    !- Name
    ,                         !- Transmittance Schedule Name
    autocalculate,            !- Number of Vertices
    440602.97857216344,       !- Vertex 1 Xcoordinate
    4479028.864852319,        !- Vertex 1 Ycoordinate
    12,                       !- Vertex 1 Zcoordinate
    440602.97857216344,       !- Vertex 2 Xcoordinate
    4479028.864852319,        !- Vertex 2 Ycoordinate
    0,                        !- Vertex 2 Zcoordinate
    440609.1096891081,        !- Vertex 3 Xcoordinate
    4479024.104197449,        !- Vertex 3 Ycoordinate
    0,                        !- Vertex 3 Zcoordinate
    440609.1096891081,        !- Vertex 4 Xcoordinate
    4479024.104197449,        !- Vertex 4 Ycoordinate
    12;                       !- Vertex 4 Zcoordinate

SHADING:SITE:DETAILED,
    shade_way/289434338_3,    !- Name
    ,                         !- Transmittance Schedule Name
    autocalculate,            !- Number of Vertices
    440609.1096891081,        !- Vertex 1 Xcoordinate
    4479024.104197449,        !- Vertex 1 Ycoordinate
    12,                       !- Vertex 1 Zcoordinate
    440609.1096891081,        !- Vertex 2 Xcoordinate
    4479024.104197449,        !- Vertex 2 Ycoordinate
    0,                        !- Vertex 2 Zcoordinate
    440603.0398746324,        !- Vertex 3 Xcoordinate
    4479016.287229794,        !- Vertex 3 Ycoordinate
    0,                        !- Vertex 3 Zcoordinate
    440603.0398746324,        !- Vertex 4 Xcoordinate
    4479016.287229794,        !- Vertex 4 Ycoordinate
    12;                       !- Vertex 4 Zcoordinate

SHADING:SITE:DETAILED,
    shade_way/289434338_4,    !- Name
    ,                         !- Transmittance Schedule Name
    autocalculate,            !- Number of Vertices
    440603.0398746324,        !- Vertex 1 Xcoordinate
    4479016.287229794,        !- Vertex 1 Ycoordinate
    12,                       !- Vertex 1 Zcoordinate
    440603.0398746324,        !- Vertex 2 Xcoordinate
    4479016.287229794,        !- Vertex 2 Ycoordinate
    0,                        !- Vertex 2 Zcoordinate
    440596.9089419278,        !- Vertex 3 Xcoordinate
    4479021.047710153,        !- Vertex 3 Ycoordinate
    0,                        !- Vertex 3 Zcoordinate
    440596.9089419278,        !- Vertex 4 Xcoordinate
    4479021.047710153,        !- Vertex 4 Ycoordinate
    12;                       !- Vertex 4 Zcoordinate

SHADING:SITE:DETAILED,
    shade_way/289434336_1,    !- Name
    ,                         !- Transmittance Schedule Name
    autocalculate,            !- Number of Vertices
    440592.7877423976,        !- Vertex 1 Xcoordinate
    4479039.081744618,        !- Vertex 1 Ycoordinate
    6,                        !- Vertex 1 Zcoordinate
    440592.7877423976,        !- Vertex 2 Xcoordinate
    4479039.081744618,        !- Vertex 2 Ycoordinate
    0,                        !- Vertex 2 Zcoordinate
    440586.6924379932,        !- Vertex 3 Xcoordinate
    4479029.138406131,        !- Vertex 3 Ycoordinate
    0,                        !- Vertex 3 Zcoordinate
    440586.6924379932,        !- Vertex 4 Xcoordinate
    4479029.138406131,        !- Vertex 4 Ycoordinate
    6;                        !- Vertex 4 Zcoordinate

SHADING:SITE:DETAILED,
    shade_way/289434336_2,    !- Name
    ,                         !- Transmittance Schedule Name
    autocalculate,            !- Number of Vertices
    440586.6924379932,        !- Vertex 1 Xcoordinate
    4479029.138406131,        !- Vertex 1 Ycoordinate
    6,                        !- Vertex 1 Zcoordinate
    440586.6924379932,        !- Vertex 2 Xcoordinate
    4479029.138406131,        !- Vertex 2 Ycoordinate
    0,                        !- Vertex 2 Zcoordinate
    440578.94123433274,       !- Vertex 3 Xcoordinate
    4479033.889983347,        !- Vertex 3 Ycoordinate
    0,                        !- Vertex 3 Zcoordinate
    440578.94123433274,       !- Vertex 4 Xcoordinate
    4479033.889983347,        !- Vertex 4 Ycoordinate
    6;                        !- Vertex 4 Zcoordinate

SHADING:SITE:DETAILED,
    shade_way/289434336_3,    !- Name
    ,                         !- Transmittance Schedule Name
    autocalculate,            !- Number of Vertices
    440578.94123433274,       !- Vertex 1 Xcoordinate
    4479033.889983347,        !- Vertex 1 Ycoordinate
    6,                        !- Vertex 1 Zcoordinate
    440578.94123433274,       !- Vertex 2 Xcoordinate
    4479033.889983347,        !- Vertex 2 Ycoordinate
    0,                        !- Vertex 2 Zcoordinate
    440585.0368363078,        !- Vertex 3 Xcoordinate
    4479043.833314885,        !- Vertex 3 Ycoordinate
    0,                        !- Vertex 3 Zcoordinate
    440585.0368363078,        !- Vertex 4 Xcoordinate
    4479043.833314885,        !- Vertex 4 Ycoordinate
    6;                        !- Vertex 4 Zcoordinate

SHADING:SITE:DETAILED,
    shade_way/289434336_4,    !- Name
    ,                         !- Transmittance Schedule Name
    autocalculate,            !- Number of Vertices
    440585.0368363078,        !- Vertex 1 Xcoordinate
    4479043.833314885,        !- Vertex 1 Ycoordinate
    6,                        !- Vertex 1 Zcoordinate
    440585.0368363078,        !- Vertex 2 Xcoordinate
    4479043.833314885,        !- Vertex 2 Ycoordinate
    0,                        !- Vertex 2 Zcoordinate
    440592.7877423976,        !- Vertex 3 Xcoordinate
    4479039.081744618,        !- Vertex 3 Ycoordinate
    0,                        !- Vertex 3 Zcoordinate
    440592.7877423976,        !- Vertex 4 Xcoordinate
    4479039.081744618,        !- Vertex 4 Ycoordinate
    6;                        !- Vertex 4 Zcoordinate

SHADING:SITE:DETAILED,
    shade_way/289434337_1,    !- Name
    ,                         !- Transmittance Schedule Name
    autocalculate,            !- Number of Vertices
    440600.40237760334,       !- Vertex 1 Xcoordinate
    4479051.486397497,        !- Vertex 1 Ycoordinate
    12,                       !- Vertex 1 Zcoordinate
    440600.40237760334,       !- Vertex 2 Xcoordinate
    4479051.486397497,        !- Vertex 2 Ycoordinate
    0,                        !- Vertex 2 Zcoordinate
    440613.5475730008,        !- Vertex 3 Xcoordinate
    4479043.303725559,        !- Vertex 3 Ycoordinate
    0,                        !- Vertex 3 Zcoordinate
    440613.5475730008,        !- Vertex 4 Xcoordinate
    4479043.303725559,        !- Vertex 4 Ycoordinate
    12;                       !- Vertex 4 Zcoordinate

SHADING:SITE:DETAILED,
    shade_way/289434337_2,    !- Name
    ,                         !- Transmittance Schedule Name
    autocalculate,            !- Number of Vertices
    440613.5475730008,        !- Vertex 1 Xcoordinate
    4479043.303725559,        !- Vertex 1 Ycoordinate
    12,                       !- Vertex 1 Zcoordinate
    440613.5475730008,        !- Vertex 2 Xcoordinate
    4479043.303725559,        !- Vertex 2 Ycoordinate
    0,                        !- Vertex 2 Zcoordinate
    440598.9490405194,        !- Vertex 3 Xcoordinate
    4479019.852094646,        !- Vertex 3 Ycoordinate
    0,                        !- Vertex 3 Zcoordinate
    440598.9490405194,        !- Vertex 4 Xcoordinate
    4479019.852094646,        !- Vertex 4 Ycoordinate
    12;                       !- Vertex 4 Zcoordinate

SHADING:SITE:DETAILED,
    shade_way/289434337_3,    !- Name
    ,                         !- Transmittance Schedule Name
    autocalculate,            !- Number of Vertices
    440598.9490405194,        !- Vertex 1 Xcoordinate
    4479019.852094646,        !- Vertex 1 Ycoordinate
    12,                       !- Vertex 1 Zcoordinate
    440598.9490405194,        !- Vertex 2 Xcoordinate
    4479019.852094646,        !- Vertex 2 Ycoordinate
    0,                        !- Vertex 2 Zcoordinate
    440585.8043043467,        !- Vertex 3 Xcoordinate
    4479028.034632506,        !- Vertex 3 Ycoordinate
    0,                        !- Vertex 3 Zcoordinate
    440585.8043043467,        !- Vertex 4 Xcoordinate
    4479028.034632506,        !- Vertex 4 Ycoordinate
    12;                       !- Vertex 4 Zcoordinate

SHADING:SITE:DETAILED,
    shade_way/289434337_4,    !- Name
    ,                         !- Transmittance Schedule Name
    autocalculate,            !- Number of Vertices
    440585.8043043467,        !- Vertex 1 Xcoordinate
    4479028.034632506,        !- Vertex 1 Ycoordinate
    12,                       !- Vertex 1 Zcoordinate
    440585.8043043467,        !- Vertex 2 Xcoordinate
    4479028.034632506,        !- Vertex 2 Ycoordinate
    0,                        !- Vertex 2 Zcoordinate
    440600.40237760334,       !- Vertex 3 Xcoordinate
    4479051.486397497,        !- Vertex 3 Ycoordinate
    0,                        !- Vertex 3 Zcoordinate
    440600.40237760334,       !- Vertex 4 Xcoordinate
    4479051.486397497,        !- Vertex 4 Ycoordinate
    12;                       !- Vertex 4 Zcoordinate

OTHEREQUIPMENT,
    EU_Step8_InternalGain_e3d105b6be1b4480_F0_dwelling_0_f000,    !- Name
    Electricity,              !- Fuel Type
    e3d105b6be1b4480_F0_dwelling_0,    !- Zone or ZoneList or Space or SpaceList Name
    EU_Step8_GainSchedule_e3d105b6be1b4480_F0_dwelling_0_f000,    !- Schedule Name
    Watts/Area,               !- Design Level Calculation Method
    ,                         !- Design Level
    1,                        !- Power per Zone Floor Area
    ,                         !- Power per Person
    0,                        !- Fraction Latent
    0,                        !- Fraction Radiant
    0,                        !- Fraction Lost
    0,                        !- Carbon Dioxide Generation Rate
    EU_Step8_InternalGains;    !- EndUse Subcategory

OTHEREQUIPMENT,
    EU_Step8_InternalGain_e3d105b6be1b4480_F1_dwelling_0_f000,    !- Name
    Electricity,              !- Fuel Type
    e3d105b6be1b4480_F1_dwelling_0,    !- Zone or ZoneList or Space or SpaceList Name
    EU_Step8_GainSchedule_e3d105b6be1b4480_F1_dwelling_0_f000,    !- Schedule Name
    Watts/Area,               !- Design Level Calculation Method
    ,                         !- Design Level
    1,                        !- Power per Zone Floor Area
    ,                         !- Power per Person
    0,                        !- Fraction Latent
    0,                        !- Fraction Radiant
    0,                        !- Fraction Lost
    0,                        !- Carbon Dioxide Generation Rate
    EU_Step8_InternalGains;    !- EndUse Subcategory

ZONEVENTILATION:DESIGNFLOWRATE,
    EU_ConstantAir_e3d105b6be1b4480_F0_dwelling_0,    !- Name
    e3d105b6be1b4480_F0_dwelling_0,    !- Zone or ZoneList or Space or SpaceList Name
    EU_AlwaysOn,              !- Schedule Name
    AirChanges/Hour,          !- Design Flow Rate Calculation Method
    ,                         !- Design Flow Rate
    ,                         !- Flow Rate per Floor Area
    ,                         !- Flow Rate per Person
    0.4807043927943379,       !- Air Changes per Hour
    Natural,                  !- Ventilation Type
    0,                        !- Fan Pressure Rise
    1,                        !- Fan Total Efficiency
    1,                        !- Constant Term Coefficient
    0,                        !- Temperature Term Coefficient
    0,                        !- Velocity Term Coefficient
    0,                        !- Velocity Squared Term Coefficient
    -100,                     !- Minimum Indoor Temperature
    ,                         !- Minimum Indoor Temperature Schedule Name
    100,                      !- Maximum Indoor Temperature
    ,                         !- Maximum Indoor Temperature Schedule Name
    -100,                     !- Delta Temperature
    ,                         !- Delta Temperature Schedule Name
    -100,                     !- Minimum Outdoor Temperature
    ,                         !- Minimum Outdoor Temperature Schedule Name
    100,                      !- Maximum Outdoor Temperature
    ,                         !- Maximum Outdoor Temperature Schedule Name
    40;                       !- Maximum Wind Speed

ZONEVENTILATION:DESIGNFLOWRATE,
    EU_ConstantAir_e3d105b6be1b4480_F1_dwelling_0,    !- Name
    e3d105b6be1b4480_F1_dwelling_0,    !- Zone or ZoneList or Space or SpaceList Name
    EU_AlwaysOn,              !- Schedule Name
    AirChanges/Hour,          !- Design Flow Rate Calculation Method
    ,                         !- Design Flow Rate
    ,                         !- Flow Rate per Floor Area
    ,                         !- Flow Rate per Person
    0.4807043927943379,       !- Air Changes per Hour
    Natural,                  !- Ventilation Type
    0,                        !- Fan Pressure Rise
    1,                        !- Fan Total Efficiency
    1,                        !- Constant Term Coefficient
    0,                        !- Temperature Term Coefficient
    0,                        !- Velocity Term Coefficient
    0,                        !- Velocity Squared Term Coefficient
    -100,                     !- Minimum Indoor Temperature
    ,                         !- Minimum Indoor Temperature Schedule Name
    100,                      !- Maximum Indoor Temperature
    ,                         !- Maximum Indoor Temperature Schedule Name
    -100,                     !- Delta Temperature
    ,                         !- Delta Temperature Schedule Name
    -100,                     !- Minimum Outdoor Temperature
    ,                         !- Minimum Outdoor Temperature Schedule Name
    100,                      !- Maximum Outdoor Temperature
    ,                         !- Maximum Outdoor Temperature Schedule Name
    40;                       !- Maximum Wind Speed

HVACTEMPLATE:THERMOSTAT,
    EU_HeatOnly_e3d105b6be1b4480_F0_dwelling_0,    !- Name
    ,                         !- Heating Setpoint Schedule Name
    20,                       !- Constant Heating Setpoint
    ,                         !- Cooling Setpoint Schedule Name
    50;                       !- Constant Cooling Setpoint

HVACTEMPLATE:THERMOSTAT,
    EU_HeatOnly_e3d105b6be1b4480_F1_dwelling_0,    !- Name
    ,                         !- Heating Setpoint Schedule Name
    20,                       !- Constant Heating Setpoint
    ,                         !- Cooling Setpoint Schedule Name
    50;                       !- Constant Cooling Setpoint

HVACTEMPLATE:ZONE:IDEALLOADSAIRSYSTEM,
    e3d105b6be1b4480_F0_dwelling_0,    !- Zone Name
    EU_HeatOnly_e3d105b6be1b4480_F0_dwelling_0,    !- Template Thermostat Name
    EU_AlwaysOn,              !- System Availability Schedule Name
    50,                       !- Maximum Heating Supply Air Temperature
    13,                       !- Minimum Cooling Supply Air Temperature
    0.0156,                   !- Maximum Heating Supply Air Humidity Ratio
    0.0077,                   !- Minimum Cooling Supply Air Humidity Ratio
    NoLimit,                  !- Heating Limit
    ,                         !- Maximum Heating Air Flow Rate
    ,                         !- Maximum Sensible Heating Capacity
    NoLimit,                  !- Cooling Limit
    ,                         !- Maximum Cooling Air Flow Rate
    ,                         !- Maximum Total Cooling Capacity
    EU_AlwaysOn,              !- Heating Availability Schedule Name
    EU_CoolingOff,            !- Cooling Availability Schedule Name
    ConstantSensibleHeatRatio,    !- Dehumidification Control Type
    0.7,                      !- Cooling Sensible Heat Ratio
    60,                       !- Dehumidification Setpoint
    None,                     !- Humidification Control Type
    30,                       !- Humidification Setpoint
    None,                     !- Outdoor Air Method
    0.00944,                  !- Outdoor Air Flow Rate per Person
    0.0,                      !- Outdoor Air Flow Rate per Zone Floor Area
    0,                        !- Outdoor Air Flow Rate per Zone
    ,                         !- Design Specification Outdoor Air Object Name
    None,                     !- Demand Controlled Ventilation Type
    NoEconomizer,             !- Outdoor Air Economizer Type
    None,                     !- Heat Recovery Type
    0.70,                     !- Sensible Heat Recovery Effectiveness
    0.65;                     !- Latent Heat Recovery Effectiveness

HVACTEMPLATE:ZONE:IDEALLOADSAIRSYSTEM,
    e3d105b6be1b4480_F1_dwelling_0,    !- Zone Name
    EU_HeatOnly_e3d105b6be1b4480_F1_dwelling_0,    !- Template Thermostat Name
    EU_AlwaysOn,              !- System Availability Schedule Name
    50,                       !- Maximum Heating Supply Air Temperature
    13,                       !- Minimum Cooling Supply Air Temperature
    0.0156,                   !- Maximum Heating Supply Air Humidity Ratio
    0.0077,                   !- Minimum Cooling Supply Air Humidity Ratio
    NoLimit,                  !- Heating Limit
    ,                         !- Maximum Heating Air Flow Rate
    ,                         !- Maximum Sensible Heating Capacity
    NoLimit,                  !- Cooling Limit
    ,                         !- Maximum Cooling Air Flow Rate
    ,                         !- Maximum Total Cooling Capacity
    EU_AlwaysOn,              !- Heating Availability Schedule Name
    EU_CoolingOff,            !- Cooling Availability Schedule Name
    ConstantSensibleHeatRatio,    !- Dehumidification Control Type
    0.7,                      !- Cooling Sensible Heat Ratio
    60,                       !- Dehumidification Setpoint
    None,                     !- Humidification Control Type
    30,                       !- Humidification Setpoint
    None,                     !- Outdoor Air Method
    0.00944,                  !- Outdoor Air Flow Rate per Person
    0.0,                      !- Outdoor Air Flow Rate per Zone Floor Area
    0,                        !- Outdoor Air Flow Rate per Zone
    ,                         !- Design Specification Outdoor Air Object Name
    None,                     !- Demand Controlled Ventilation Type
    NoEconomizer,             !- Outdoor Air Economizer Type
    None,                     !- Heat Recovery Type
    0.70,                     !- Sensible Heat Recovery Effectiveness
    0.65;                     !- Latent Heat Recovery Effectiveness

SIZING:ZONE,
    e3d105b6be1b4480_F0_dwelling_0,    !- Zone or ZoneList Name
    SupplyAirTemperature,     !- Zone Cooling Design Supply Air Temperature Input Method
    13,                       !- Zone Cooling Design Supply Air Temperature
    ,                         !- Zone Cooling Design Supply Air Temperature Difference
    SupplyAirTemperature,     !- Zone Heating Design Supply Air Temperature Input Method
    50,                       !- Zone Heating Design Supply Air Temperature
    ,                         !- Zone Heating Design Supply Air Temperature Difference
    0.008,                    !- Zone Cooling Design Supply Air Humidity Ratio
    0.008,                    !- Zone Heating Design Supply Air Humidity Ratio
    ,                         !- Design Specification Outdoor Air Object Name
    ,                         !- Zone Heating Sizing Factor
    ,                         !- Zone Cooling Sizing Factor
    DesignDay,                !- Cooling Design Air Flow Method
    0,                        !- Cooling Design Air Flow Rate
    0.000762,                 !- Cooling Minimum Air Flow per Zone Floor Area
    0,                        !- Cooling Minimum Air Flow
    0.2,                      !- Cooling Minimum Air Flow Fraction
    DesignDay,                !- Heating Design Air Flow Method
    0,                        !- Heating Design Air Flow Rate
    0.002032,                 !- Heating Maximum Air Flow per Zone Floor Area
    0.1415762,                !- Heating Maximum Air Flow
    0.3,                      !- Heating Maximum Air Flow Fraction
    ,                         !- Design Specification Zone Air Distribution Object Name
    No,                       !- Account for Dedicated Outdoor Air System
    NeutralSupplyAir,         !- Dedicated Outdoor Air System Control Strategy
    autosize,                 !- Dedicated Outdoor Air Low Setpoint Temperature for Design
    autosize,                 !- Dedicated Outdoor Air High Setpoint Temperature for Design
    Sensible Load Only No Latent Load,    !- Zone Load Sizing Method
    HumidityRatioDifference,    !- Zone Latent Cooling Design Supply Air Humidity Ratio Input Method
    ,                         !- Zone Dehumidification Design Supply Air Humidity Ratio
    0.005,                    !- Zone Cooling Design Supply Air Humidity Ratio Difference
    HumidityRatioDifference,    !- Zone Latent Heating Design Supply Air Humidity Ratio Input Method
    ,                         !- Zone Humidification Design Supply Air Humidity Ratio
    0.005;                    !- Zone Humidification Design Supply Air Humidity Ratio Difference

SIZING:ZONE,
    e3d105b6be1b4480_F1_dwelling_0,    !- Zone or ZoneList Name
    SupplyAirTemperature,     !- Zone Cooling Design Supply Air Temperature Input Method
    13,                       !- Zone Cooling Design Supply Air Temperature
    ,                         !- Zone Cooling Design Supply Air Temperature Difference
    SupplyAirTemperature,     !- Zone Heating Design Supply Air Temperature Input Method
    50,                       !- Zone Heating Design Supply Air Temperature
    ,                         !- Zone Heating Design Supply Air Temperature Difference
    0.008,                    !- Zone Cooling Design Supply Air Humidity Ratio
    0.008,                    !- Zone Heating Design Supply Air Humidity Ratio
    ,                         !- Design Specification Outdoor Air Object Name
    ,                         !- Zone Heating Sizing Factor
    ,                         !- Zone Cooling Sizing Factor
    DesignDay,                !- Cooling Design Air Flow Method
    0,                        !- Cooling Design Air Flow Rate
    0.000762,                 !- Cooling Minimum Air Flow per Zone Floor Area
    0,                        !- Cooling Minimum Air Flow
    0.2,                      !- Cooling Minimum Air Flow Fraction
    DesignDay,                !- Heating Design Air Flow Method
    0,                        !- Heating Design Air Flow Rate
    0.002032,                 !- Heating Maximum Air Flow per Zone Floor Area
    0.1415762,                !- Heating Maximum Air Flow
    0.3,                      !- Heating Maximum Air Flow Fraction
    ,                         !- Design Specification Zone Air Distribution Object Name
    No,                       !- Account for Dedicated Outdoor Air System
    NeutralSupplyAir,         !- Dedicated Outdoor Air System Control Strategy
    autosize,                 !- Dedicated Outdoor Air Low Setpoint Temperature for Design
    autosize,                 !- Dedicated Outdoor Air High Setpoint Temperature for Design
    Sensible Load Only No Latent Load,    !- Zone Load Sizing Method
    HumidityRatioDifference,    !- Zone Latent Cooling Design Supply Air Humidity Ratio Input Method
    ,                         !- Zone Dehumidification Design Supply Air Humidity Ratio
    0.005,                    !- Zone Cooling Design Supply Air Humidity Ratio Difference
    HumidityRatioDifference,    !- Zone Latent Heating Design Supply Air Humidity Ratio Input Method
    ,                         !- Zone Humidification Design Supply Air Humidity Ratio
    0.005;                    !- Zone Humidification Design Supply Air Humidity Ratio Difference

OUTPUT:VARIABLE,
    *,                        !- Key Value
    Zone Ideal Loads Zone Total Heating Energy,    !- Variable Name
    Hourly;                   !- Reporting Frequency

OUTPUT:SQLITE,
    SimpleAndTabular,         !- Option Type
    UseOutputControlTableStyle;    !- Unit Conversion for Tabular Data