!- Windows Line endings 

Version,
    23.1;                     !- Version Identifier

SimulationControl,
    Yes,                      !- Do Zone Sizing Calculation
    Yes,                      !- Do System Sizing Calculation
    Yes,                      !- Do Plant Sizing Calculation
    No,                       !- Run Simulation for Sizing Periods
    Yes,                      !- Run Simulation for Weather File Run Periods
    No,                       !- Do HVAC Sizing Simulation for Sizing Periods
    1;                        !- Maximum Number of HVAC Sizing Simulation Passes

Building,
    EU S2 Campaign,           !- Name
    0,                        !- North Axis
    City,                     !- Terrain
    ,                         !- Loads Convergence Tolerance Value
    ,                         !- Temperature Convergence Tolerance Value
    FullExterior,             !- Solar Distribution
    ,                         !- Maximum Number of Warmup Days
    ;                         !- Minimum Number of Warmup Days

ShadowCalculation,
    PolygonClipping,          !- Shading Calculation Method
    Periodic,                 !- Shading Calculation Update Frequency Method
    1;                        !- Shading Calculation Update Frequency

HeatBalanceAlgorithm,
    ConductionTransferFunction,    !- Algorithm
    200,                      !- Surface Temperature Upper Limit
    0.1,                      !- Minimum Surface Convection Heat Transfer Coefficient Value
    10000000;                 !- Maximum Surface Convection Heat Transfer Coefficient Value

Timestep,
    12;                       !- Number of Timesteps per Hour

Site:Location,
    Madrid,                   !- Name
    40.5,                     !- Latitude
    -3.5,                     !- Longitude
    1,                        !- Time Zone
    609;                      !- Elevation

SizingPeriod:WeatherFileDays,
    AnnualSizingPeriod,       !- Name
    1,                        !- Begin Month
    1,                        !- Begin Day of Month
    12,                       !- End Month
    31,                       !- End Day of Month
    Monday,                   !- Day of Week for Start Day
    No,                       !- Use Weather File Daylight Saving Period
    No;                       !- Use Weather File Rain and Snow Indicators

RunPeriod,
    RunPeriod1,               !- Name
    1,                        !- Begin Month
    1,                        !- Begin Day of Month
    ,                         !- Begin Year
    12,                       !- End Month
    31,                       !- End Day of Month
    ,                         !- End Year
    Sunday,                   !- Day of Week for Start Day
    No,                       !- Use Weather File Holidays and Special Days
    No,                       !- Use Weather File Daylight Saving Period
    No,                       !- Apply Weekend Holiday Rule
    Yes,                      !- Use Weather File Rain Indicators
    Yes;                      !- Use Weather File Snow Indicators

ScheduleTypeLimits,
    Any Number;               !- Name

SCHEDULETYPELIMITS,
    EU_Step8_AnyNumber_Wm2,    !- Name
    ,                         !- Lower Limit Value
    ,                         !- Upper Limit Value
    Continuous,               !- Numeric Type
    Dimensionless;            !- Unit Type

SCHEDULE:CONSTANT,
    EU_AlwaysOn,              !- Name
    ,                         !- Schedule Type Limits Name
    1;                        !- Hourly Value

SCHEDULE:CONSTANT,
    EU_CoolingOff,            !- Name
    ,                         !- Schedule Type Limits Name
    0;                        !- Hourly Value

SCHEDULE:FILE,
    EU_Step8_GainSchedule_f2632fe0955c7e33_F0_whole_f000,    !- Name
    EU_Step8_AnyNumber_Wm2,    !- Schedule Type Limits Name
    ../../schedules/f2632fe0955c7e33/f2632fe0955c7e33_F0_whole_f000_gain.csv,    !- File Name
    1,                        !- Column Number
    0,                        !- Rows to Skip at Top
    8760,                     !- Number of Hours of Data
    Comma,                    !- Column Separator
    No,                       !- Interpolate to Timestep
    60,                       !- Minutes per Item
    Yes;                      !- Adjust Schedule for Daylight Savings

SCHEDULE:FILE,
    EU_Step8_GainSchedule_f2632fe0955c7e33_F1_whole_f000,    !- Name
    EU_Step8_AnyNumber_Wm2,    !- Schedule Type Limits Name
    ../../schedules/f2632fe0955c7e33/f2632fe0955c7e33_F1_whole_f000_gain.csv,    !- File Name
    1,                        !- Column Number
    0,                        !- Rows to Skip at Top
    8760,                     !- Number of Hours of Data
    Comma,                    !- Column Separator
    No,                       !- Interpolate to Timestep
    60,                       !- Minutes per Item
    Yes;                      !- Adjust Schedule for Daylight Savings

MATERIAL,
    EU_InternalMass_Material,    !- Name
    MediumRough,              !- Roughness
    0.1,                      !- Thickness
    1,                        !- Conductivity
    1800,                     !- Density
    900,                      !- Specific Heat
    0.9,                      !- Thermal Absorptance
    0.7,                      !- Solar Absorptance
    0.7;                      !- Visible Absorptance

MATERIAL:NOMASS,
    EU_wall_NoMass,           !- Name
    MediumRough,              !- Roughness
    4.197386e-01,             !- Thermal Resistance
    0.9,                      !- Thermal Absorptance
    0.7,                      !- Solar Absorptance
    0.7;                      !- Visible Absorptance

MATERIAL:NOMASS,
    EU_roof_NoMass,           !- Name
    MediumRough,              !- Roughness
    0.3521646044882231,       !- Thermal Resistance
    0.9,                      !- Thermal Absorptance
    0.7,                      !- Solar Absorptance
    0.7;                      !- Visible Absorptance

MATERIAL:NOMASS,
    EU_floor_NoMass,          !- Name
    MediumRough,              !- Roughness
    0.6082843168432945,       !- Thermal Resistance
    0.9,                      !- Thermal Absorptance
    0.7,                      !- Solar Absorptance
    0.7;                      !- Visible Absorptance

CONSTRUCTION,
    EU_wall_Construction,     !- Name
    EU_wall_NoMass;           !- Outside Layer

CONSTRUCTION,
    EU_roof_Construction,     !- Name
    EU_roof_NoMass;           !- Outside Layer

CONSTRUCTION,
    EU_floor_Construction,    !- Name
    EU_floor_NoMass;          !- Outside Layer

CONSTRUCTION,
    EU_InternalMass_Construction,    !- Name
    EU_InternalMass_Material;    !- Outside Layer

GlobalGeometryRules,
    UpperLeftCorner,          !- Starting Vertex Position
    CounterClockWise,         !- Vertex Entry Direction
    World;                    !- Coordinate System

ZONE,
    f2632fe0955c7e33_F0_whole,    !- Name
    0,                        !- Direction of Relative North
    0,                        !- X Origin
    0,                        !- Y Origin
    0,                        !- Z Origin
    1,                        !- Type
    1,                        !- Multiplier
    autocalculate,            !- Ceiling Height
    1006.546142578125,        !- Volume
    autocalculate,            !- Floor Area
    ,                         !- Zone Inside Convection Algorithm
    ,                         !- Zone Outside Convection Algorithm
    Yes;                      !- Part of Total Floor Area

ZONE,
    f2632fe0955c7e33_F1_whole,    !- Name
    0,                        !- Direction of Relative North
    0,                        !- X Origin
    0,                        !- Y Origin
    0,                        !- Z Origin
    1,                        !- Type
    1,                        !- Multiplier
    autocalculate,            !- Ceiling Height
    1006.546142578125,        !- Volume
    autocalculate,            !- Floor Area
    ,                         !- Zone Inside Convection Algorithm
    ,                         !- Zone Outside Convection Algorithm
    Yes;                      !- Part of Total Floor Area

BUILDINGSURFACE:DETAILED,
    Block f2632fe0955c7e33_whole Storey 0 Wall 0001,    !- Name
    wall,                     !- Surface Type
    EU_wall_Construction,     !- Construction Name
    f2632fe0955c7e33_F0_whole,    !- Zone Name
    ,                         !- Space Name
    outdoors,                 !- Outside Boundary Condition
    ,                         !- Outside Boundary Condition Object
    SunExposed,               !- Sun Exposure
    WindExposed,              !- Wind Exposure
    autocalculate,            !- View Factor to Ground
    autocalculate,            !- Number of Vertices
    440206.472,               !- Vertex 1 Xcoordinate
    4479118.152,              !- Vertex 1 Ycoordinate
    3,                        !- Vertex 1 Zcoordinate
    440206.472,               !- Vertex 2 Xcoordinate
    4479118.152,              !- Vertex 2 Ycoordinate
    0,                        !- Vertex 2 Zcoordinate
    440191.833,               !- Vertex 3 Xcoordinate
    4479114.373,              !- Vertex 3 Ycoordinate
    0,                        !- Vertex 3 Zcoordinate
    440191.833,               !- Vertex 4 Xcoordinate
    4479114.373,              !- Vertex 4 Ycoordinate
    3;                        !- Vertex 4 Zcoordinate

BUILDINGSURFACE:DETAILED,
    Block f2632fe0955c7e33_whole Storey 0 Wall 0002,    !- Name
    wall,                     !- Surface Type
    EU_wall_Construction,     !- Construction Name
    f2632fe0955c7e33_F0_whole,    !- Zone Name
    ,                         !- Space Name
    Adiabatic,                !- Outside Boundary Condition
    ,                         !- Outside Boundary Condition Object
    NoSun,                    !- Sun Exposure
    NoWind,                   !- Wind Exposure
    autocalculate,            !- View Factor to Ground
    autocalculate,            !- Number of Vertices
    440191.833,               !- Vertex 1 Xcoordinate
    4479114.373,              !- Vertex 1 Ycoordinate
    3,                        !- Vertex 1 Zcoordinate
    440191.833,               !- Vertex 2 Xcoordinate
    4479114.373,              !- Vertex 2 Ycoordinate
    0,                        !- Vertex 2 Zcoordinate
    440188.773,               !- Vertex 3 Xcoordinate
    4479124.122,              !- Vertex 3 Ycoordinate
    0,                        !- Vertex 3 Zcoordinate
    440188.773,               !- Vertex 4 Xcoordinate
    4479124.122,              !- Vertex 4 Ycoordinate
    3;                        !- Vertex 4 Zcoordinate

BUILDINGSURFACE:DETAILED,
    Block f2632fe0955c7e33_whole Storey 0 Wall 0003,    !- Name
    wall,                     !- Surface Type
    EU_wall_Construction,     !- Construction Name
    f2632fe0955c7e33_F0_whole,    !- Zone Name
    ,                         !- Space Name
    Adiabatic,                !- Outside Boundary Condition
    ,                         !- Outside Boundary Condition Object
    NoSun,                    !- Sun Exposure
    NoWind,                   !- Wind Exposure
    autocalculate,            !- View Factor to Ground
    autocalculate,            !- Number of Vertices
    440188.773,               !- Vertex 1 Xcoordinate
    4479124.122,              !- Vertex 1 Ycoordinate
    3,                        !- Vertex 1 Zcoordinate
    440188.773,               !- Vertex 2 Xcoordinate
    4479124.122,              !- Vertex 2 Ycoordinate
    0,                        !- Vertex 2 Zcoordinate
    440187.74,                !- Vertex 3 Xcoordinate
    4479127.427,              !- Vertex 3 Ycoordinate
    0,                        !- Vertex 3 Zcoordinate
    440187.74,                !- Vertex 4 Xcoordinate
    4479127.427,              !- Vertex 4 Ycoordinate
    3;                        !- Vertex 4 Zcoordinate

BUILDINGSURFACE:DETAILED,
    Block f2632fe0955c7e33_whole Storey 0 Wall 0004,    !- Name
    wall,                     !- Surface Type
    EU_wall_Construction,     !- Construction Name
    f2632fe0955c7e33_F0_whole,    !- Zone Name
    ,                         !- Space Name
    Adiabatic,                !- Outside Boundary Condition
    ,                         !- Outside Boundary Condition Object
    NoSun,                    !- Sun Exposure
    NoWind,                   !- Wind Exposure
    autocalculate,            !- View Factor to Ground
    autocalculate,            !- Number of Vertices
    440187.74,                !- Vertex 1 Xcoordinate
    4479127.427,              !- Vertex 1 Ycoordinate
    3,                        !- Vertex 1 Zcoordinate
    440187.74,                !- Vertex 2 Xcoordinate
    4479127.427,              !- Vertex 2 Ycoordinate
    0,                        !- Vertex 2 Zcoordinate
    440199.025,               !- Vertex 3 Xcoordinate
    4479130.522,              !- Vertex 3 Ycoordinate
    0,                        !- Vertex 3 Zcoordinate
    440199.025,               !- Vertex 4 Xcoordinate
    4479130.522,              !- Vertex 4 Ycoordinate
    3;                        !- Vertex 4 Zcoordinate

BUILDINGSURFACE:DETAILED,
    Block f2632fe0955c7e33_whole Storey 0 Wall 0005,    !- Name
    wall,                     !- Surface Type
    EU_wall_Construction,     !- Construction Name
    f2632fe0955c7e33_F0_whole,    !- Zone Name
    ,                         !- Space Name
    outdoors,                 !- Outside Boundary Condition
    ,                         !- Outside Boundary Condition Object
    SunExposed,               !- Sun Exposure
    WindExposed,              !- Wind Exposure
    autocalculate,            !- View Factor to Ground
    autocalculate,            !- Number of Vertices
    440199.025,               !- Vertex 1 Xcoordinate
    4479130.522,              !- Vertex 1 Ycoordinate
    3,                        !- Vertex 1 Zcoordinate
    440199.025,               !- Vertex 2 Xcoordinate
    4479130.522,              !- Vertex 2 Ycoordinate
    0,                        !- Vertex 2 Zcoordinate
    440201.081,               !- Vertex 3 Xcoordinate
    4479131.083,              !- Vertex 3 Ycoordinate
    0,                        !- Vertex 3 Zcoordinate
    440201.081,               !- Vertex 4 Xcoordinate
    4479131.083,              !- Vertex 4 Ycoordinate
    3;                        !- Vertex 4 Zcoordinate

BUILDINGSURFACE:DETAILED,
    Block f2632fe0955c7e33_whole Storey 0 Wall 0006,    !- Name
    wall,                     !- Surface Type
    EU_wall_Construction,     !- Construction Name
    f2632fe0955c7e33_F0_whole,    !- Zone Name
    ,                         !- Space Name
    outdoors,                 !- Outside Boundary Condition
    ,                         !- Outside Boundary Condition Object
    SunExposed,               !- Sun Exposure
    WindExposed,              !- Wind Exposure
    autocalculate,            !- View Factor to Ground
    autocalculate,            !- Number of Vertices
    440201.081,               !- Vertex 1 Xcoordinate
    4479131.083,              !- Vertex 1 Ycoordinate
    3,                        !- Vertex 1 Zcoordinate
    440201.081,               !- Vertex 2 Xcoordinate
    4479131.083,              !- Vertex 2 Ycoordinate
    0,                        !- Vertex 2 Zcoordinate
    440202.588,               !- Vertex 3 Xcoordinate
    4479125.465,              !- Vertex 3 Ycoordinate
    0,                        !- Vertex 3 Zcoordinate
    440202.588,               !- Vertex 4 Xcoordinate
    4479125.465,              !- Vertex 4 Ycoordinate
    3;                        !- Vertex 4 Zcoordinate

BUILDINGSURFACE:DETAILED,
    Block f2632fe0955c7e33_whole Storey 0 Wall 0007,    !- Name
    wall,                     !- Surface Type
    EU_wall_Construction,     !- Construction Name
    f2632fe0955c7e33_F0_whole,    !- Zone Name
    ,                         !- Space Name
    outdoors,                 !- Outside Boundary Condition
    ,                         !- Outside Boundary Condition Object
    SunExposed,               !- Sun Exposure
    WindExposed,              !- Wind Exposure
    autocalculate,            !- View Factor to Ground
    autocalculate,            !- Number of Vertices
    440202.588,               !- Vertex 1 Xcoordinate
    4479125.465,              !- Vertex 1 Ycoordinate
    3,                        !- Vertex 1 Zcoordinate
    440202.588,               !- Vertex 2 Xcoordinate
    4479125.465,              !- Vertex 2 Ycoordinate
    0,                        !- Vertex 2 Zcoordinate
    440210.176,               !- Vertex 3 Xcoordinate
    4479127.492,              !- Vertex 3 Ycoordinate
    0,                        !- Vertex 3 Zcoordinate
    440210.176,               !- Vertex 4 Xcoordinate
    4479127.492,              !- Vertex 4 Ycoordinate
    3;                        !- Vertex 4 Zcoordinate

BUILDINGSURFACE:DETAILED,
    Block f2632fe0955c7e33_whole Storey 0 Wall 0008,    !- Name
    wall,                     !- Surface Type
    EU_wall_Construction,     !- Construction Name
    f2632fe0955c7e33_F0_whole,    !- Zone Name
    ,                         !- Space Name
    outdoors,                 !- Outside Boundary Condition
    ,                         !- Outside Boundary Condition Object
    SunExposed,               !- Sun Exposure
    WindExposed,              !- Wind Exposure
    autocalculate,            !- View Factor to Ground
    autocalculate,            !- Number of Vertices
    440210.176,               !- Vertex 1 Xcoordinate
    4479127.492,              !- Vertex 1 Ycoordinate
    3,                        !- Vertex 1 Zcoordinate
    440210.176,               !- Vertex 2 Xcoordinate
    4479127.492,              !- Vertex 2 Ycoordinate
    0,                        !- Vertex 2 Zcoordinate
    440209.699,               !- Vertex 3 Xcoordinate
    4479129.36,               !- Vertex 3 Ycoordinate
    0,                        !- Vertex 3 Zcoordinate
    440209.699,               !- Vertex 4 Xcoordinate
    4479129.36,               !- Vertex 4 Ycoordinate
    3;                        !- Vertex 4 Zcoordinate

BUILDINGSURFACE:DETAILED,
    Block f2632fe0955c7e33_whole Storey 0 Wall 0009,    !- Name
    wall,                     !- Surface Type
    EU_wall_Construction,     !- Construction Name
    f2632fe0955c7e33_F0_whole,    !- Zone Name
    ,                         !- Space Name
    outdoors,                 !- Outside Boundary Condition
    ,                         !- Outside Boundary Condition Object
    SunExposed,               !- Sun Exposure
    WindExposed,              !- Wind Exposure
    autocalculate,            !- View Factor to Ground
    autocalculate,            !- Number of Vertices
    440209.699,               !- Vertex 1 Xcoordinate
    4479129.36,               !- Vertex 1 Ycoordinate
    3,                        !- Vertex 1 Zcoordinate
    440209.699,               !- Vertex 2 Xcoordinate
    4479129.36,               !- Vertex 2 Ycoordinate
    0,                        !- Vertex 2 Zcoordinate
    440217.695,               !- Vertex 3 Xcoordinate
    4479131.472,              !- Vertex 3 Ycoordinate
    0,                        !- Vertex 3 Zcoordinate
    440217.695,               !- Vertex 4 Xcoordinate
    4479131.472,              !- Vertex 4 Ycoordinate
    3;                        !- Vertex 4 Zcoordinate

BUILDINGSURFACE:DETAILED,
    Block f2632fe0955c7e33_whole Storey 0 Wall 0010,    !- Name
    wall,                     !- Surface Type
    EU_wall_Construction,     !- Construction Name
    f2632fe0955c7e33_F0_whole,    !- Zone Name
    ,                         !- Space Name
    Adiabatic,                !- Outside Boundary Condition
    ,                         !- Outside Boundary Condition Object
    NoSun,                    !- Sun Exposure
    NoWind,                   !- Wind Exposure
    autocalculate,            !- View Factor to Ground
    autocalculate,            !- Number of Vertices
    440217.695,               !- Vertex 1 Xcoordinate
    4479131.472,              !- Vertex 1 Ycoordinate
    3,                        !- Vertex 1 Zcoordinate
    440217.695,               !- Vertex 2 Xcoordinate
    4479131.472,              !- Vertex 2 Ycoordinate
    0,                        !- Vertex 2 Zcoordinate
    440217.728,               !- Vertex 3 Xcoordinate
    4479131.372,              !- Vertex 3 Ycoordinate
    0,                        !- Vertex 3 Zcoordinate
    440217.728,               !- Vertex 4 Xcoordinate
    4479131.372,              !- Vertex 4 Ycoordinate
    3;                        !- Vertex 4 Zcoordinate

BUILDINGSURFACE:DETAILED,
    Block f2632fe0955c7e33_whole Storey 0 Wall 0011,    !- Name
    wall,                     !- Surface Type
    EU_wall_Construction,     !- Construction Name
    f2632fe0955c7e33_F0_whole,    !- Zone Name
    ,                         !- Space Name
    Adiabatic,                !- Outside Boundary Condition
    ,                         !- Outside Boundary Condition Object
    NoSun,                    !- Sun Exposure
    NoWind,                   !- Wind Exposure
    autocalculate,            !- View Factor to Ground
    autocalculate,            !- Number of Vertices
    440217.728,               !- Vertex 1 Xcoordinate
    4479131.372,              !- Vertex 1 Ycoordinate
    3,                        !- Vertex 1 Zcoordinate
    440217.728,               !- Vertex 2 Xcoordinate
    4479131.372,              !- Vertex 2 Ycoordinate
    0,                        !- Vertex 2 Zcoordinate
    440220.67,                !- Vertex 3 Xcoordinate
    4479121.802,              !- Vertex 3 Ycoordinate
    0,                        !- Vertex 3 Zcoordinate
    440220.67,                !- Vertex 4 Xcoordinate
    4479121.802,              !- Vertex 4 Ycoordinate
    3;                        !- Vertex 4 Zcoordinate

BUILDINGSURFACE:DETAILED,
    Block f2632fe0955c7e33_whole Storey 0 Wall 0012,    !- Name
    wall,                     !- Surface Type
    EU_wall_Construction,     !- Construction Name
    f2632fe0955c7e33_F0_whole,    !- Zone Name
    ,                         !- Space Name
    outdoors,                 !- Outside Boundary Condition
    ,                         !- Outside Boundary Condition Object
    SunExposed,               !- Sun Exposure
    WindExposed,              !- Wind Exposure
    autocalculate,            !- View Factor to Ground
    autocalculate,            !- Number of Vertices
    440220.67,                !- Vertex 1 Xcoordinate
    4479121.802,              !- Vertex 1 Ycoordinate
    3,                        !- Vertex 1 Zcoordinate
    440220.67,                !- Vertex 2 Xcoordinate
    4479121.802,              !- Vertex 2 Ycoordinate
    0,                        !- Vertex 2 Zcoordinate
    440206.472,               !- Vertex 3 Xcoordinate
    4479118.152,              !- Vertex 3 Ycoordinate
    0,                        !- Vertex 3 Zcoordinate
    440206.472,               !- Vertex 4 Xcoordinate
    4479118.152,              !- Vertex 4 Ycoordinate
    3;                        !- Vertex 4 Zcoordinate

BUILDINGSURFACE:DETAILED,
    Block f2632fe0955c7e33_whole Storey 0 Floor 0001,    !- Name
    floor,                    !- Surface Type
    EU_floor_Construction,    !- Construction Name
    f2632fe0955c7e33_F0_whole,    !- Zone Name
    ,                         !- Space Name
    ground,                   !- Outside Boundary Condition
    ,                         !- Outside Boundary Condition Object
    NoSun,                    !- Sun Exposure
    NoWind,                   !- Wind Exposure
    autocalculate,            !- View Factor to Ground
    autocalculate,            !- Number of Vertices
    440220.67,                !- Vertex 1 Xcoordinate
    4479121.802,              !- Vertex 1 Ycoordinate
    0,                        !- Vertex 1 Zcoordinate
    440217.728,               !- Vertex 2 Xcoordinate
    4479131.372,              !- Vertex 2 Ycoordinate
    0,                        !- Vertex 2 Zcoordinate
    440217.695,               !- Vertex 3 Xcoordinate
    4479131.472,              !- Vertex 3 Ycoordinate
    0,                        !- Vertex 3 Zcoordinate
    440209.699,               !- Vertex 4 Xcoordinate
    4479129.36,               !- Vertex 4 Ycoordinate
    0,                        !- Vertex 4 Zcoordinate
    440210.176,               !- Vertex 5 Xcoordinate
    4479127.492,              !- Vertex 5 Ycoordinate
    0,                        !- Vertex 5 Zcoordinate
    440202.588,               !- Vertex 6 Xcoordinate
    4479125.465,              !- Vertex 6 Ycoordinate
    0,                        !- Vertex 6 Zcoordinate
    440201.081,               !- Vertex 7 Xcoordinate
    4479131.083,              !- Vertex 7 Ycoordinate
    0,                        !- Vertex 7 Zcoordinate
    440199.025,               !- Vertex 8 Xcoordinate
    4479130.522,              !- Vertex 8 Ycoordinate
    0,                        !- Vertex 8 Zcoordinate
    440187.74,                !- Vertex 9 Xcoordinate
    4479127.427,              !- Vertex 9 Ycoordinate
    0,                        !- Vertex 9 Zcoordinate
    440188.773,               !- Vertex 10 Xcoordinate
    4479124.122,              !- Vertex 10 Ycoordinate
    0,                        !- Vertex 10 Zcoordinate
    440191.833,               !- Vertex 11 Xcoordinate
    4479114.373,              !- Vertex 11 Ycoordinate
    0,                        !- Vertex 11 Zcoordinate
    440206.472,               !- Vertex 12 Xcoordinate
    4479118.152,              !- Vertex 12 Ycoordinate
    0;                        !- Vertex 12 Zcoordinate

BUILDINGSURFACE:DETAILED,
    Block f2632fe0955c7e33_whole Storey 1 Wall 0001,    !- Name
    wall,                     !- Surface Type
    EU_wall_Construction,     !- Construction Name
    f2632fe0955c7e33_F1_whole,    !- Zone Name
    ,                         !- Space Name
    outdoors,                 !- Outside Boundary Condition
    ,                         !- Outside Boundary Condition Object
    SunExposed,               !- Sun Exposure
    WindExposed,              !- Wind Exposure
    autocalculate,            !- View Factor to Ground
    autocalculate,            !- Number of Vertices
    440206.472,               !- Vertex 1 Xcoordinate
    4479118.152,              !- Vertex 1 Ycoordinate
    6,                        !- Vertex 1 Zcoordinate
    440206.472,               !- Vertex 2 Xcoordinate
    4479118.152,              !- Vertex 2 Ycoordinate
    3,                        !- Vertex 2 Zcoordinate
    440191.833,               !- Vertex 3 Xcoordinate
    4479114.373,              !- Vertex 3 Ycoordinate
    3,                        !- Vertex 3 Zcoordinate
    440191.833,               !- Vertex 4 Xcoordinate
    4479114.373,              !- Vertex 4 Ycoordinate
    6;                        !- Vertex 4 Zcoordinate

BUILDINGSURFACE:DETAILED,
    Block f2632fe0955c7e33_whole Storey 1 Wall 0002,    !- Name
    wall,                     !- Surface Type
    EU_wall_Construction,     !- Construction Name
    f2632fe0955c7e33_F1_whole,    !- Zone Name
    ,                         !- Space Name
    Adiabatic,                !- Outside Boundary Condition
    ,                         !- Outside Boundary Condition Object
    NoSun,                    !- Sun Exposure
    NoWind,                   !- Wind Exposure
    autocalculate,            !- View Factor to Ground
    autocalculate,            !- Number of Vertices
    440191.833,               !- Vertex 1 Xcoordinate
    4479114.373,              !- Vertex 1 Ycoordinate
    6,                        !- Vertex 1 Zcoordinate
    440191.833,               !- Vertex 2 Xcoordinate
    4479114.373,              !- Vertex 2 Ycoordinate
    3,                        !- Vertex 2 Zcoordinate
    440188.773,               !- Vertex 3 Xcoordinate
    4479124.122,              !- Vertex 3 Ycoordinate
    3,                        !- Vertex 3 Zcoordinate
    440188.773,               !- Vertex 4 Xcoordinate
    4479124.122,              !- Vertex 4 Ycoordinate
    6;                        !- Vertex 4 Zcoordinate

BUILDINGSURFACE:DETAILED,
    Block f2632fe0955c7e33_whole Storey 1 Wall 0003,    !- Name
    wall,                     !- Surface Type
    EU_wall_Construction,     !- Construction Name
    f2632fe0955c7e33_F1_whole,    !- Zone Name
    ,                         !- Space Name
    Adiabatic,                !- Outside Boundary Condition
    ,                         !- Outside Boundary Condition Object
    NoSun,                    !- Sun Exposure
    NoWind,                   !- Wind Exposure
    autocalculate,            !- View Factor to Ground
    autocalculate,            !- Number of Vertices
    440188.773,               !- Vertex 1 Xcoordinate
    4479124.122,              !- Vertex 1 Ycoordinate
    6,                        !- Vertex 1 Zcoordinate
    440188.773,               !- Vertex 2 Xcoordinate
    4479124.122,              !- Vertex 2 Ycoordinate
    3,                        !- Vertex 2 Zcoordinate
    440187.74,                !- Vertex 3 Xcoordinate
    4479127.427,              !- Vertex 3 Ycoordinate
    3,                        !- Vertex 3 Zcoordinate
    440187.74,                !- Vertex 4 Xcoordinate
    4479127.427,              !- Vertex 4 Ycoordinate
    6;                        !- Vertex 4 Zcoordinate

BUILDINGSURFACE:DETAILED,
    Block f2632fe0955c7e33_whole Storey 1 Wall 0004,    !- Name
    wall,                     !- Surface Type
    EU_wall_Construction,     !- Construction Name
    f2632fe0955c7e33_F1_whole,    !- Zone Name
    ,                         !- Space Name
    Adiabatic,                !- Outside Boundary Condition
    ,                         !- Outside Boundary Condition Object
    NoSun,                    !- Sun Exposure
    NoWind,                   !- Wind Exposure
    autocalculate,            !- View Factor to Ground
    autocalculate,            !- Number of Vertices
    440187.74,                !- Vertex 1 Xcoordinate
    4479127.427,              !- Vertex 1 Ycoordinate
    6,                        !- Vertex 1 Zcoordinate
    440187.74,                !- Vertex 2 Xcoordinate
    4479127.427,              !- Vertex 2 Ycoordinate
    3,                        !- Vertex 2 Zcoordinate
    440199.025,               !- Vertex 3 Xcoordinate
    4479130.522,              !- Vertex 3 Ycoordinate
    3,                        !- Vertex 3 Zcoordinate
    440199.025,               !- Vertex 4 Xcoordinate
    4479130.522,              !- Vertex 4 Ycoordinate
    6;                        !- Vertex 4 Zcoordinate

BUILDINGSURFACE:DETAILED,
    Block f2632fe0955c7e33_whole Storey 1 Wall 0005,    !- Name
    wall,                     !- Surface Type
    EU_wall_Construction,     !- Construction Name
    f2632fe0955c7e33_F1_whole,    !- Zone Name
    ,                         !- Space Name
    outdoors,                 !- Outside Boundary Condition
    ,                         !- Outside Boundary Condition Object
    SunExposed,               !- Sun Exposure
    WindExposed,              !- Wind Exposure
    autocalculate,            !- View Factor to Ground
    autocalculate,            !- Number of Vertices
    440199.025,               !- Vertex 1 Xcoordinate
    4479130.522,              !- Vertex 1 Ycoordinate
    6,                        !- Vertex 1 Zcoordinate
    440199.025,               !- Vertex 2 Xcoordinate
    4479130.522,              !- Vertex 2 Ycoordinate
    3,                        !- Vertex 2 Zcoordinate
    440201.081,               !- Vertex 3 Xcoordinate
    4479131.083,              !- Vertex 3 Ycoordinate
    3,                        !- Vertex 3 Zcoordinate
    440201.081,               !- Vertex 4 Xcoordinate
    4479131.083,              !- Vertex 4 Ycoordinate
    6;                        !- Vertex 4 Zcoordinate

BUILDINGSURFACE:DETAILED,
    Block f2632fe0955c7e33_whole Storey 1 Wall 0006,    !- Name
    wall,                     !- Surface Type
    EU_wall_Construction,     !- Construction Name
    f2632fe0955c7e33_F1_whole,    !- Zone Name
    ,                         !- Space Name
    outdoors,                 !- Outside Boundary Condition
    ,                         !- Outside Boundary Condition Object
    SunExposed,               !- Sun Exposure
    WindExposed,              !- Wind Exposure
    autocalculate,            !- View Factor to Ground
    autocalculate,            !- Number of Vertices
    440201.081,               !- Vertex 1 Xcoordinate
    4479131.083,              !- Vertex 1 Ycoordinate
    6,                        !- Vertex 1 Zcoordinate
    440201.081,               !- Vertex 2 Xcoordinate
    4479131.083,              !- Vertex 2 Ycoordinate
    3,                        !- Vertex 2 Zcoordinate
    440202.588,               !- Vertex 3 Xcoordinate
    4479125.465,              !- Vertex 3 Ycoordinate
    3,                        !- Vertex 3 Zcoordinate
    440202.588,               !- Vertex 4 Xcoordinate
    4479125.465,              !- Vertex 4 Ycoordinate
    6;                        !- Vertex 4 Zcoordinate

BUILDINGSURFACE:DETAILED,
    Block f2632fe0955c7e33_whole Storey 1 Wall 0007,    !- Name
    wall,                     !- Surface Type
    EU_wall_Construction,     !- Construction Name
    f2632fe0955c7e33_F1_whole,    !- Zone Name
    ,                         !- Space Name
    outdoors,                 !- Outside Boundary Condition
    ,                         !- Outside Boundary Condition Object
    SunExposed,               !- Sun Exposure
    WindExposed,              !- Wind Exposure
    autocalculate,            !- View Factor to Ground
    autocalculate,            !- Number of Vertices
    440202.588,               !- Vertex 1 Xcoordinate
    4479125.465,              !- Vertex 1 Ycoordinate
    6,                        !- Vertex 1 Zcoordinate
    440202.588,               !- Vertex 2 Xcoordinate
    4479125.465,              !- Vertex 2 Ycoordinate
    3,                        !- Vertex 2 Zcoordinate
    440210.176,               !- Vertex 3 Xcoordinate
    4479127.492,              !- Vertex 3 Ycoordinate
    3,                        !- Vertex 3 Zcoordinate
    440210.176,               !- Vertex 4 Xcoordinate
    4479127.492,              !- Vertex 4 Ycoordinate
    6;                        !- Vertex 4 Zcoordinate

BUILDINGSURFACE:DETAILED,
    Block f2632fe0955c7e33_whole Storey 1 Wall 0008,    !- Name
    wall,                     !- Surface Type
    EU_wall_Construction,     !- Construction Name
    f2632fe0955c7e33_F1_whole,    !- Zone Name
    ,                         !- Space Name
    outdoors,                 !- Outside Boundary Condition
    ,                         !- Outside Boundary Condition Object
    SunExposed,               !- Sun Exposure
    WindExposed,              !- Wind Exposure
    autocalculate,            !- View Factor to Ground
    autocalculate,            !- Number of Vertices
    440210.176,               !- Vertex 1 Xcoordinate
    4479127.492,              !- Vertex 1 Ycoordinate
    6,                        !- Vertex 1 Zcoordinate
    440210.176,               !- Vertex 2 Xcoordinate
    4479127.492,              !- Vertex 2 Ycoordinate
    3,                        !- Vertex 2 Zcoordinate
    440209.699,               !- Vertex 3 Xcoordinate
    4479129.36,               !- Vertex 3 Ycoordinate
    3,                        !- Vertex 3 Zcoordinate
    440209.699,               !- Vertex 4 Xcoordinate
    4479129.36,               !- Vertex 4 Ycoordinate
    6;                        !- Vertex 4 Zcoordinate

BUILDINGSURFACE:DETAILED,
    Block f2632fe0955c7e33_whole Storey 1 Wall 0009,    !- Name
    wall,                     !- Surface Type
    EU_wall_Construction,     !- Construction Name
    f2632fe0955c7e33_F1_whole,    !- Zone Name
    ,                         !- Space Name
    outdoors,                 !- Outside Boundary Condition
    ,                         !- Outside Boundary Condition Object
    SunExposed,               !- Sun Exposure
    WindExposed,              !- Wind Exposure
    autocalculate,            !- View Factor to Ground
    autocalculate,            !- Number of Vertices
    440209.699,               !- Vertex 1 Xcoordinate
    4479129.36,               !- Vertex 1 Ycoordinate
    6,                        !- Vertex 1 Zcoordinate
    440209.699,               !- Vertex 2 Xcoordinate
    4479129.36,               !- Vertex 2 Ycoordinate
    3,                        !- Vertex 2 Zcoordinate
    440217.695,               !- Vertex 3 Xcoordinate
    4479131.472,              !- Vertex 3 Ycoordinate
    3,                        !- Vertex 3 Zcoordinate
    440217.695,               !- Vertex 4 Xcoordinate
    4479131.472,              !- Vertex 4 Ycoordinate
    6;                        !- Vertex 4 Zcoordinate

BUILDINGSURFACE:DETAILED,
    Block f2632fe0955c7e33_whole Storey 1 Wall 0010,    !- Name
    wall,                     !- Surface Type
    EU_wall_Construction,     !- Construction Name
    f2632fe0955c7e33_F1_whole,    !- Zone Name
    ,                         !- Space Name
    Adiabatic,                !- Outside Boundary Condition
    ,                         !- Outside Boundary Condition Object
    NoSun,                    !- Sun Exposure
    NoWind,                   !- Wind Exposure
    autocalculate,            !- View Factor to Ground
    autocalculate,            !- Number of Vertices
    440217.695,               !- Vertex 1 Xcoordinate
    4479131.472,              !- Vertex 1 Ycoordinate
    6,                        !- Vertex 1 Zcoordinate
    440217.695,               !- Vertex 2 Xcoordinate
    4479131.472,              !- Vertex 2 Ycoordinate
    3,                        !- Vertex 2 Zcoordinate
    440217.728,               !- Vertex 3 Xcoordinate
    4479131.372,              !- Vertex 3 Ycoordinate
    3,                        !- Vertex 3 Zcoordinate
    440217.728,               !- Vertex 4 Xcoordinate
    4479131.372,              !- Vertex 4 Ycoordinate
    6;                        !- Vertex 4 Zcoordinate

BUILDINGSURFACE:DETAILED,
    Block f2632fe0955c7e33_whole Storey 1 Wall 0011,    !- Name
    wall,                     !- Surface Type
    EU_wall_Construction,     !- Construction Name
    f2632fe0955c7e33_F1_whole,    !- Zone Name
    ,                         !- Space Name
    Adiabatic,                !- Outside Boundary Condition
    ,                         !- Outside Boundary Condition Object
    NoSun,                    !- Sun Exposure
    NoWind,                   !- Wind Exposure
    autocalculate,            !- View Factor to Ground
    autocalculate,            !- Number of Vertices
    440217.728,               !- Vertex 1 Xcoordinate
    4479131.372,              !- Vertex 1 Ycoordinate
    6,                        !- Vertex 1 Zcoordinate
    440217.728,               !- Vertex 2 Xcoordinate
    4479131.372,              !- Vertex 2 Ycoordinate
    3,                        !- Vertex 2 Zcoordinate
    440220.67,                !- Vertex 3 Xcoordinate
    4479121.802,              !- Vertex 3 Ycoordinate
    3,                        !- Vertex 3 Zcoordinate
    440220.67,                !- Vertex 4 Xcoordinate
    4479121.802,              !- Vertex 4 Ycoordinate
    6;                        !- Vertex 4 Zcoordinate

BUILDINGSURFACE:DETAILED,
    Block f2632fe0955c7e33_whole Storey 1 Wall 0012,    !- Name
    wall,                     !- Surface Type
    EU_wall_Construction,     !- Construction Name
    f2632fe0955c7e33_F1_whole,    !- Zone Name
    ,                         !- Space Name
    outdoors,                 !- Outside Boundary Condition
    ,                         !- Outside Boundary Condition Object
    SunExposed,               !- Sun Exposure
    WindExposed,              !- Wind Exposure
    autocalculate,            !- View Factor to Ground
    autocalculate,            !- Number of Vertices
    440220.67,                !- Vertex 1 Xcoordinate
    4479121.802,              !- Vertex 1 Ycoordinate
    6,                        !- Vertex 1 Zcoordinate
    440220.67,                !- Vertex 2 Xcoordinate
    4479121.802,              !- Vertex 2 Ycoordinate
    3,                        !- Vertex 2 Zcoordinate
    440206.472,               !- Vertex 3 Xcoordinate
    4479118.152,              !- Vertex 3 Ycoordinate
    3,                        !- Vertex 3 Zcoordinate
    440206.472,               !- Vertex 4 Xcoordinate
    4479118.152,              !- Vertex 4 Ycoordinate
    6;                        !- Vertex 4 Zcoordinate

BUILDINGSURFACE:DETAILED,
    Block f2632fe0955c7e33_whole Storey 1 Roof 0001,    !- Name
    roof,                     !- Surface Type
    EU_roof_Construction,     !- Construction Name
    f2632fe0955c7e33_F1_whole,    !- Zone Name
    ,                         !- Space Name
    outdoors,                 !- Outside Boundary Condition
    ,                         !- Outside Boundary Condition Object
    NoSun,                    !- Sun Exposure
    WindExposed,              !- Wind Exposure
    autocalculate,            !- View Factor to Ground
    autocalculate,            !- Number of Vertices
    440217.728,               !- Vertex 1 Xcoordinate
    4479131.372,              !- Vertex 1 Ycoordinate
    6,                        !- Vertex 1 Zcoordinate
    440220.67,                !- Vertex 2 Xcoordinate
    4479121.802,              !- Vertex 2 Ycoordinate
    6,                        !- Vertex 2 Zcoordinate
    440206.472,               !- Vertex 3 Xcoordinate
    4479118.152,              !- Vertex 3 Ycoordinate
    6,                        !- Vertex 3 Zcoordinate
    440191.833,               !- Vertex 4 Xcoordinate
    4479114.373,              !- Vertex 4 Ycoordinate
    6,                        !- Vertex 4 Zcoordinate
    440188.773,               !- Vertex 5 Xcoordinate
    4479124.122,              !- Vertex 5 Ycoordinate
    6,                        !- Vertex 5 Zcoordinate
    440187.74,                !- Vertex 6 Xcoordinate
    4479127.427,              !- Vertex 6 Ycoordinate
    6,                        !- Vertex 6 Zcoordinate
    440199.025,               !- Vertex 7 Xcoordinate
    4479130.522,              !- Vertex 7 Ycoordinate
    6,                        !- Vertex 7 Zcoordinate
    440201.081,               !- Vertex 8 Xcoordinate
    4479131.083,              !- Vertex 8 Ycoordinate
    6,                        !- Vertex 8 Zcoordinate
    440202.588,               !- Vertex 9 Xcoordinate
    4479125.465,              !- Vertex 9 Ycoordinate
    6,                        !- Vertex 9 Zcoordinate
    440210.176,               !- Vertex 10 Xcoordinate
    4479127.492,              !- Vertex 10 Ycoordinate
    6,                        !- Vertex 10 Zcoordinate
    440209.699,               !- Vertex 11 Xcoordinate
    4479129.36,               !- Vertex 11 Ycoordinate
    6,                        !- Vertex 11 Zcoordinate
    440217.695,               !- Vertex 12 Xcoordinate
    4479131.472,              !- Vertex 12 Ycoordinate
    6;                        !- Vertex 12 Zcoordinate

BUILDINGSURFACE:DETAILED,
    Block f2632fe0955c7e33_whole Storey 0 Ceiling 0001_1,    !- Name
    ceiling,                  !- Surface Type
    EU_floor_Construction,    !- Construction Name
    f2632fe0955c7e33_F0_whole,    !- Zone Name
    ,                         !- Space Name
    Surface,                  !- Outside Boundary Condition
    Block f2632fe0955c7e33_whole Storey 1 Floor 0001_1,    !- Outside Boundary Condition Object
    NoSun,                    !- Sun Exposure
    NoWind,                   !- Wind Exposure
    autocalculate,            !- View Factor to Ground
    autocalculate,            !- Number of Vertices
    440217.72799999965,       !- Vertex 1 Xcoordinate
    4479131.372,              !- Vertex 1 Ycoordinate
    3,                        !- Vertex 1 Zcoordinate
    440220.6699999999,        !- Vertex 2 Xcoordinate
    4479121.802,              !- Vertex 2 Ycoordinate
    3,                        !- Vertex 2 Zcoordinate
    440206.4719999996,        !- Vertex 3 Xcoordinate
    4479118.152,              !- Vertex 3 Ycoordinate
    3,                        !- Vertex 3 Zcoordinate
    440191.83299999963,       !- Vertex 4 Xcoordinate
    4479114.373,              !- Vertex 4 Ycoordinate
    3,                        !- Vertex 4 Zcoordinate
    440188.7729999996,        !- Vertex 5 Xcoordinate
    4479124.122,              !- Vertex 5 Ycoordinate
    3,                        !- Vertex 5 Zcoordinate
    440187.73999999976,       !- Vertex 6 Xcoordinate
    4479127.427,              !- Vertex 6 Ycoordinate
    3,                        !- Vertex 6 Zcoordinate
    440199.0249999999,        !- Vertex 7 Xcoordinate
    4479130.522,              !- Vertex 7 Ycoordinate
    3,                        !- Vertex 7 Zcoordinate
    440201.0809999998,        !- Vertex 8 Xcoordinate
    4479131.083,              !- Vertex 8 Ycoordinate
    3,                        !- Vertex 8 Zcoordinate
    440202.588,               !- Vertex 9 Xcoordinate
    4479125.465,              !- Vertex 9 Ycoordinate
    3,                        !- Vertex 9 Zcoordinate
    440210.176,               !- Vertex 10 Xcoordinate
    4479127.492,              !- Vertex 10 Ycoordinate
    3,                        !- Vertex 10 Zcoordinate
    440209.699,               !- Vertex 11 Xcoordinate
    4479129.36,               !- Vertex 11 Ycoordinate
    3,                        !- Vertex 11 Zcoordinate
    440217.69499999983,       !- Vertex 12 Xcoordinate
    4479131.472,              !- Vertex 12 Ycoordinate
    3;                        !- Vertex 12 Zcoordinate

BUILDINGSURFACE:DETAILED,
    Block f2632fe0955c7e33_whole Storey 1 Floor 0001_1,    !- Name
    floor,                    !- Surface Type
    EU_floor_Construction,    !- Construction Name
    f2632fe0955c7e33_F1_whole,    !- Zone Name
    ,                         !- Space Name
    Surface,                  !- Outside Boundary Condition
    Block f2632fe0955c7e33_whole Storey 0 Ceiling 0001_1,    !- Outside Boundary Condition Object
    NoSun,                    !- Sun Exposure
    NoWind,                   !- Wind Exposure
    autocalculate,            !- View Factor to Ground
    autocalculate,            !- Number of Vertices
    440220.6699999999,        !- Vertex 1 Xcoordinate
    4479121.802,              !- Vertex 1 Ycoordinate
    3,                        !- Vertex 1 Zcoordinate
    440217.72799999965,       !- Vertex 2 Xcoordinate
    4479131.372,              !- Vertex 2 Ycoordinate
    3,                        !- Vertex 2 Zcoordinate
    440217.69499999983,       !- Vertex 3 Xcoordinate
    4479131.472,              !- Vertex 3 Ycoordinate
    3,                        !- Vertex 3 Zcoordinate
    440209.699,               !- Vertex 4 Xcoordinate
    4479129.36,               !- Vertex 4 Ycoordinate
    3,                        !- Vertex 4 Zcoordinate
    440210.176,               !- Vertex 5 Xcoordinate
    4479127.492,              !- Vertex 5 Ycoordinate
    3,                        !- Vertex 5 Zcoordinate
    440202.588,               !- Vertex 6 Xcoordinate
    4479125.465,              !- Vertex 6 Ycoordinate
    3,                        !- Vertex 6 Zcoordinate
    440201.0809999998,        !- Vertex 7 Xcoordinate
    4479131.083,              !- Vertex 7 Ycoordinate
    3,                        !- Vertex 7 Zcoordinate
    440199.0249999999,        !- Vertex 8 Xcoordinate
    4479130.522,              !- Vertex 8 Ycoordinate
    3,                        !- Vertex 8 Zcoordinate
    440187.73999999976,       !- Vertex 9 Xcoordinate
    4479127.427,              !- Vertex 9 Ycoordinate
    3,                        !- Vertex 9 Zcoordinate
    440188.7729999996,        !- Vertex 10 Xcoordinate
    4479124.122,              !- Vertex 10 Ycoordinate
    3,                        !- Vertex 10 Zcoordinate
    440191.83299999963,       !- Vertex 11 Xcoordinate
    4479114.373,              !- Vertex 11 Ycoordinate
    3,                        !- Vertex 11 Zcoordinate
    440206.4719999996,        !- Vertex 12 Xcoordinate
    4479118.152,              !- Vertex 12 Ycoordinate
    3;                        !- Vertex 12 Zcoordinate

INTERNALMASS,
    f2632fe0955c7e33_F0_whole_EU_InternalMass,    !- Name
    EU_InternalMass_Construction,    !- Construction Name
    f2632fe0955c7e33_F0_whole,    !- Zone or ZoneList Name
    ,                         !- Space or SpaceList Name
    335.5176414613845;        !- Surface Area

INTERNALMASS,
    f2632fe0955c7e33_F1_whole_EU_InternalMass,    !- Name
    EU_InternalMass_Construction,    !- Construction Name
    f2632fe0955c7e33_F1_whole,    !- Zone or ZoneList Name
    ,                         !- Space or SpaceList Name
    335.5176414613845;        !- Surface Area

SHADING:SITE:DETAILED,
    shade_way/435823583_1,    !- Name
    ,                         !- Transmittance Schedule Name
    autocalculate,            !- Number of Vertices
    440166.41766233154,       !- Vertex 1 Xcoordinate
    4479146.033337986,        !- Vertex 1 Ycoordinate
    3,                        !- Vertex 1 Zcoordinate
    440166.41766233154,       !- Vertex 2 Xcoordinate
    4479146.033337986,        !- Vertex 2 Ycoordinate
    0,                        !- Vertex 2 Zcoordinate
    440175.5717975459,        !- Vertex 3 Xcoordinate
    4479149.603362742,        !- Vertex 3 Ycoordinate
    0,                        !- Vertex 3 Zcoordinate
    440175.5717975459,        !- Vertex 4 Xcoordinate
    4479149.603362742,        !- Vertex 4 Ycoordinate
    3;                        !- Vertex 4 Zcoordinate

SHADING:SITE:DETAILED,
    shade_way/435823583_2,    !- Name
    ,                         !- Transmittance Schedule Name
    autocalculate,            !- Number of Vertices
    440175.5717975459,        !- Vertex 1 Xcoordinate
    4479149.603362742,        !- Vertex 1 Ycoordinate
    3,                        !- Vertex 1 Zcoordinate
    440175.5717975459,        !- Vertex 2 Xcoordinate
    4479149.603362742,        !- Vertex 2 Ycoordinate
    0,                        !- Vertex 2 Zcoordinate
    440177.64207522065,       !- Vertex 3 Xcoordinate
    4479144.293277674,        !- Vertex 3 Ycoordinate
    0,                        !- Vertex 3 Zcoordinate
    440177.64207522065,       !- Vertex 4 Xcoordinate
    4479144.293277674,        !- Vertex 4 Ycoordinate
    3;                        !- Vertex 4 Zcoordinate

SHADING:SITE:DETAILED,
    shade_way/435823583_3,    !- Name
    ,                         !- Transmittance Schedule Name
    autocalculate,            !- Number of Vertices
    440177.64207522065,       !- Vertex 1 Xcoordinate
    4479144.293277674,        !- Vertex 1 Ycoordinate
    3,                        !- Vertex 1 Zcoordinate
    440177.64207522065,       !- Vertex 2 Xcoordinate
    4479144.293277674,        !- Vertex 2 Ycoordinate
    0,                        !- Vertex 2 Zcoordinate
    440168.4887294031,        !- Vertex 3 Xcoordinate
    4479140.7238695,          !- Vertex 3 Ycoordinate
    0,                        !- Vertex 3 Zcoordinate
    440168.4887294031,        !- Vertex 4 Xcoordinate
    4479140.7238695,          !- Vertex 4 Ycoordinate
    3;                        !- Vertex 4 Zcoordinate

SHADING:SITE:DETAILED,
    shade_way/435823583_4,    !- Name
    ,                         !- Transmittance Schedule Name
    autocalculate,            !- Number of Vertices
    440168.4887294031,        !- Vertex 1 Xcoordinate
    4479140.7238695,          !- Vertex 1 Ycoordinate
    3,                        !- Vertex 1 Zcoordinate
    440168.4887294031,        !- Vertex 2 Xcoordinate
    4479140.7238695,          !- Vertex 2 Ycoordinate
    0,                        !- Vertex 2 Zcoordinate
    440166.41766233154,       !- Vertex 3 Xcoordinate
    4479146.033337986,        !- Vertex 3 Ycoordinate
    0,                        !- Vertex 3 Zcoordinate
    440166.41766233154,       !- Vertex 4 Xcoordinate
    4479146.033337986,        !- Vertex 4 Ycoordinate
    3;                        !- Vertex 4 Zcoordinate

SHADING:SITE:DETAILED,
    shade_way/957650446_1,    !- Name
    ,                         !- Transmittance Schedule Name
    autocalculate,            !- Number of Vertices
    440189.2783226843,        !- Vertex 1 Xcoordinate
    4479155.477135836,        !- Vertex 1 Ycoordinate
    12,                       !- Vertex 1 Zcoordinate
    440189.2783226843,        !- Vertex 2 Xcoordinate
    4479155.477135836,        !- Vertex 2 Ycoordinate
    0,                        !- Vertex 2 Zcoordinate
    440192.6981689018,        !- Vertex 3 Xcoordinate
    4479146.28058999,         !- Vertex 3 Ycoordinate
    0,                        !- Vertex 3 Zcoordinate
    440192.6981689018,        !- Vertex 4 Xcoordinate
    4479146.28058999,         !- Vertex 4 Ycoordinate
    12;                       !- Vertex 4 Zcoordinate

SHADING:SITE:DETAILED,
    shade_way/957650446_2,    !- Name
    ,                         !- Transmittance Schedule Name
    autocalculate,            !- Number of Vertices
    440192.6981689018,        !- Vertex 1 Xcoordinate
    4479146.28058999,         !- Vertex 1 Ycoordinate
    12,                       !- Vertex 1 Zcoordinate
    440192.6981689018,        !- Vertex 2 Xcoordinate
    4479146.28058999,         !- Vertex 2 Ycoordinate
    0,                        !- Vertex 2 Zcoordinate
    440188.55961434095,       !- Vertex 3 Xcoordinate
    4479144.741795504,        !- Vertex 3 Ycoordinate
    0,                        !- Vertex 3 Zcoordinate
    440188.55961434095,       !- Vertex 4 Xcoordinate
    4479144.741795504,        !- Vertex 4 Ycoordinate
    12;                       !- Vertex 4 Zcoordinate

SHADING:SITE:DETAILED,
    shade_way/957650446_3,    !- Name
    ,                         !- Transmittance Schedule Name
    autocalculate,            !- Number of Vertices
    440188.55961434095,       !- Vertex 1 Xcoordinate
    4479144.741795504,        !- Vertex 1 Ycoordinate
    12,                       !- Vertex 1 Zcoordinate
    440188.55961434095,       !- Vertex 2 Xcoordinate
    4479144.741795504,        !- Vertex 2 Ycoordinate
    0,                        !- Vertex 2 Zcoordinate
    440185.13976812456,       !- Vertex 3 Xcoordinate
    4479153.9383413475,       !- Vertex 3 Ycoordinate
    0,                        !- Vertex 3 Zcoordinate
    440185.13976812456,       !- Vertex 4 Xcoordinate
    4479153.9383413475,       !- Vertex 4 Ycoordinate
    12;                       !- Vertex 4 Zcoordinate

SHADING:SITE:DETAILED,
    shade_way/957650446_4,    !- Name
    ,                         !- Transmittance Schedule Name
    autocalculate,            !- Number of Vertices
    440185.13976812456,       !- Vertex 1 Xcoordinate
    4479153.9383413475,       !- Vertex 1 Ycoordinate
    12,                       !- Vertex 1 Zcoordinate
    440185.13976812456,       !- Vertex 2 Xcoordinate
    4479153.9383413475,       !- Vertex 2 Ycoordinate
    0,                        !- Vertex 2 Zcoordinate
    440189.2783226843,        !- Vertex 3 Xcoordinate
    4479155.477135836,        !- Vertex 3 Ycoordinate
    0,                        !- Vertex 3 Zcoordinate
    440189.2783226843,        !- Vertex 4 Xcoordinate
    4479155.477135836,        !- Vertex 4 Ycoordinate
    12;                       !- Vertex 4 Zcoordinate

SHADING:SITE:DETAILED,
    shade_way/432412737_1,    !- Name
    ,                         !- Transmittance Schedule Name
    autocalculate,            !- Number of Vertices
    440199.37557366857,       !- Vertex 1 Xcoordinate
    4479089.344465633,        !- Vertex 1 Ycoordinate
    15,                       !- Vertex 1 Zcoordinate
    440199.37557366857,       !- Vertex 2 Xcoordinate
    4479089.344465633,        !- Vertex 2 Ycoordinate
    0,                        !- Vertex 2 Zcoordinate
    440194.5093909887,        !- Vertex 3 Xcoordinate
    4479107.864630876,        !- Vertex 3 Ycoordinate
    0,                        !- Vertex 3 Zcoordinate
    440194.5093909887,        !- Vertex 4 Xcoordinate
    4479107.864630876,        !- Vertex 4 Ycoordinate
    15;                       !- Vertex 4 Zcoordinate

SHADING:SITE:DETAILED,
    shade_way/432412737_2,    !- Name
    ,                         !- Transmittance Schedule Name
    autocalculate,            !- Number of Vertices
    440194.5093909887,        !- Vertex 1 Xcoordinate
    4479107.864630876,        !- Vertex 1 Ycoordinate
    15,                       !- Vertex 1 Zcoordinate
    440194.5093909887,        !- Vertex 2 Xcoordinate
    4479107.864630876,        !- Vertex 2 Ycoordinate
    0,                        !- Vertex 2 Zcoordinate
    440208.90979182156,       !- Vertex 3 Xcoordinate
    4479111.648343394,        !- Vertex 3 Ycoordinate
    0,                        !- Vertex 3 Zcoordinate
    440208.90979182156,       !- Vertex 4 Xcoordinate
    4479111.648343394,        !- Vertex 4 Ycoordinate
    15;                       !- Vertex 4 Zcoordinate

SHADING:SITE:DETAILED,
    shade_way/432412737_3,    !- Name
    ,                         !- Transmittance Schedule Name
    autocalculate,            !- Number of Vertices
    440208.90979182156,       !- Vertex 1 Xcoordinate
    4479111.648343394,        !- Vertex 1 Ycoordinate
    15,                       !- Vertex 1 Zcoordinate
    440208.90979182156,       !- Vertex 2 Xcoordinate
    4479111.648343394,        !- Vertex 2 Ycoordinate
    0,                        !- Vertex 2 Zcoordinate
    440213.7762748073,        !- Vertex 3 Xcoordinate
    4479093.128326213,        !- Vertex 3 Ycoordinate
    0,                        !- Vertex 3 Zcoordinate
    440213.7762748073,        !- Vertex 4 Xcoordinate
    4479093.128326213,        !- Vertex 4 Ycoordinate
    15;                       !- Vertex 4 Zcoordinate

SHADING:SITE:DETAILED,
    shade_way/432412737_4,    !- Name
    ,                         !- Transmittance Schedule Name
    autocalculate,            !- Number of Vertices
    440213.7762748073,        !- Vertex 1 Xcoordinate
    4479093.128326213,        !- Vertex 1 Ycoordinate
    15,                       !- Vertex 1 Zcoordinate
    440213.7762748073,        !- Vertex 2 Xcoordinate
    4479093.128326213,        !- Vertex 2 Ycoordinate
    0,                        !- Vertex 2 Zcoordinate
    440199.37557366857,       !- Vertex 3 Xcoordinate
    4479089.344465633,        !- Vertex 3 Ycoordinate
    0,                        !- Vertex 3 Zcoordinate
    440199.37557366857,       !- Vertex 4 Xcoordinate
    4479089.344465633,        !- Vertex 4 Ycoordinate
    15;                       !- Vertex 4 Zcoordinate

SHADING:SITE:DETAILED,
    shade_way/432412738_1,    !- Name
    ,                         !- Transmittance Schedule Name
    autocalculate,            !- Number of Vertices
    440217.6265461168,        !- Vertex 1 Xcoordinate
    4479115.533790913,        !- Vertex 1 Ycoordinate
    3,                        !- Vertex 1 Zcoordinate
    440217.6265461168,        !- Vertex 2 Xcoordinate
    4479115.533790913,        !- Vertex 2 Ycoordinate
    0,                        !- Vertex 2 Zcoordinate
    440225.06089825014,       !- Vertex 3 Xcoordinate
    4479097.3135899715,       !- Vertex 3 Ycoordinate
    0,                        !- Vertex 3 Zcoordinate
    440225.06089825014,       !- Vertex 4 Xcoordinate
    4479097.3135899715,       !- Vertex 4 Ycoordinate
    3;                        !- Vertex 4 Zcoordinate

SHADING:SITE:DETAILED,
    shade_way/432412738_2,    !- Name
    ,                         !- Transmittance Schedule Name
    autocalculate,            !- Number of Vertices
    440225.06089825014,       !- Vertex 1 Xcoordinate
    4479097.3135899715,       !- Vertex 1 Ycoordinate
    3,                        !- Vertex 1 Zcoordinate
    440225.06089825014,       !- Vertex 2 Xcoordinate
    4479097.3135899715,       !- Vertex 2 Ycoordinate
    0,                        !- Vertex 2 Zcoordinate
    440213.636632817,         !- Vertex 3 Xcoordinate
    4479092.652169806,        !- Vertex 3 Ycoordinate
    0,                        !- Vertex 3 Zcoordinate
    440213.636632817,         !- Vertex 4 Xcoordinate
    4479092.652169806,        !- Vertex 4 Ycoordinate
    3;                        !- Vertex 4 Zcoordinate

SHADING:SITE:DETAILED,
    shade_way/432412738_3,    !- Name
    ,                         !- Transmittance Schedule Name
    autocalculate,            !- Number of Vertices
    440213.636632817,         !- Vertex 1 Xcoordinate
    4479092.652169806,        !- Vertex 1 Ycoordinate
    3,                        !- Vertex 1 Zcoordinate
    440213.636632817,         !- Vertex 2 Xcoordinate
    4479092.652169806,        !- Vertex 2 Ycoordinate
    0,                        !- Vertex 2 Zcoordinate
    440206.2021092031,        !- Vertex 3 Xcoordinate
    4479110.87231968,         !- Vertex 3 Ycoordinate
    0,                        !- Vertex 3 Zcoordinate
    440206.2021092031,        !- Vertex 4 Xcoordinate
    4479110.87231968,         !- Vertex 4 Ycoordinate
    3;                        !- Vertex 4 Zcoordinate

SHADING:SITE:DETAILED,
    shade_way/432412738_4,    !- Name
    ,                         !- Transmittance Schedule Name
    autocalculate,            !- Number of Vertices
    440206.2021092031,        !- Vertex 1 Xcoordinate
    4479110.87231968,         !- Vertex 1 Ycoordinate
    3,                        !- Vertex 1 Zcoordinate
    440206.2021092031,        !- Vertex 2 Xcoordinate
    4479110.87231968,         !- Vertex 2 Ycoordinate
    0,                        !- Vertex 2 Zcoordinate
    440217.6265461168,        !- Vertex 3 Xcoordinate
    4479115.533790913,        !- Vertex 3 Ycoordinate
    0,                        !- Vertex 3 Zcoordinate
    440217.6265461168,        !- Vertex 4 Xcoordinate
    4479115.533790913,        !- Vertex 4 Ycoordinate
    3;                        !- Vertex 4 Zcoordinate

SHADING:SITE:DETAILED,
    shade_way/435823582_1,    !- Name
    ,                         !- Transmittance Schedule Name
    autocalculate,            !- Number of Vertices
    440187.7434180385,        !- Vertex 1 Xcoordinate
    4479127.404533713,        !- Vertex 1 Ycoordinate
    15,                       !- Vertex 1 Zcoordinate
    440187.7434180385,        !- Vertex 2 Xcoordinate
    4479127.404533713,        !- Vertex 2 Ycoordinate
    0,                        !- Vertex 2 Zcoordinate
    440191.8327438558,        !- Vertex 3 Xcoordinate
    4479114.372844536,        !- Vertex 3 Ycoordinate
    0,                        !- Vertex 3 Zcoordinate
    440191.8327438558,        !- Vertex 4 Xcoordinate
    4479114.372844536,        !- Vertex 4 Ycoordinate
    15;                       !- Vertex 4 Zcoordinate

SHADING:SITE:DETAILED,
    shade_way/435823582_2,    !- Name
    ,                         !- Transmittance Schedule Name
    autocalculate,            !- Number of Vertices
    440191.8327438558,        !- Vertex 1 Xcoordinate
    4479114.372844536,        !- Vertex 1 Ycoordinate
    15,                       !- Vertex 1 Zcoordinate
    440191.8327438558,        !- Vertex 2 Xcoordinate
    4479114.372844536,        !- Vertex 2 Ycoordinate
    0,                        !- Vertex 2 Zcoordinate
    440178.967559642,         !- Vertex 3 Xcoordinate
    4479110.335576404,        !- Vertex 3 Ycoordinate
    0,                        !- Vertex 3 Zcoordinate
    440178.967559642,         !- Vertex 4 Xcoordinate
    4479110.335576404,        !- Vertex 4 Ycoordinate
    15;                       !- Vertex 4 Zcoordinate

SHADING:SITE:DETAILED,
    shade_way/435823582_3,    !- Name
    ,                         !- Transmittance Schedule Name
    autocalculate,            !- Number of Vertices
    440178.967559642,         !- Vertex 1 Xcoordinate
    4479110.335576404,        !- Vertex 1 Ycoordinate
    15,                       !- Vertex 1 Zcoordinate
    440178.967559642,         !- Vertex 2 Xcoordinate
    4479110.335576404,        !- Vertex 2 Ycoordinate
    0,                        !- Vertex 2 Zcoordinate
    440174.87800908985,       !- Vertex 3 Xcoordinate
    4479123.367119167,        !- Vertex 3 Ycoordinate
    0,                        !- Vertex 3 Zcoordinate
    440174.87800908985,       !- Vertex 4 Xcoordinate
    4479123.367119167,        !- Vertex 4 Ycoordinate
    15;                       !- Vertex 4 Zcoordinate

SHADING:SITE:DETAILED,
    shade_way/435823582_4,    !- Name
    ,                         !- Transmittance Schedule Name
    autocalculate,            !- Number of Vertices
    440174.87800908985,       !- Vertex 1 Xcoordinate
    4479123.367119167,        !- Vertex 1 Ycoordinate
    15,                       !- Vertex 1 Zcoordinate
    440174.87800908985,       !- Vertex 2 Xcoordinate
    4479123.367119167,        !- Vertex 2 Ycoordinate
    0,                        !- Vertex 2 Zcoordinate
    440187.7434180385,        !- Vertex 3 Xcoordinate
    4479127.404533713,        !- Vertex 3 Ycoordinate
    0,                        !- Vertex 3 Zcoordinate
    440187.7434180385,        !- Vertex 4 Xcoordinate
    4479127.404533713,        !- Vertex 4 Ycoordinate
    15;                       !- Vertex 4 Zcoordinate

SHADING:SITE:DETAILED,
    shade_way/957650445_1,    !- Name
    ,                         !- Transmittance Schedule Name
    autocalculate,            !- Number of Vertices
    440182.02073290176,       !- Vertex 1 Xcoordinate
    4479142.423421787,        !- Vertex 1 Ycoordinate
    12,                       !- Vertex 1 Zcoordinate
    440182.02073290176,       !- Vertex 2 Xcoordinate
    4479142.423421787,        !- Vertex 2 Ycoordinate
    0,                        !- Vertex 2 Zcoordinate
    440193.2513517594,        !- Vertex 3 Xcoordinate
    4479146.48510328,         !- Vertex 3 Ycoordinate
    0,                        !- Vertex 3 Zcoordinate
    440193.2513517594,        !- Vertex 4 Xcoordinate
    4479146.48510328,         !- Vertex 4 Ycoordinate
    12;                       !- Vertex 4 Zcoordinate

SHADING:SITE:DETAILED,
    shade_way/957650445_2,    !- Name
    ,                         !- Transmittance Schedule Name
    autocalculate,            !- Number of Vertices
    440193.2513517594,        !- Vertex 1 Xcoordinate
    4479146.48510328,         !- Vertex 1 Ycoordinate
    12,                       !- Vertex 1 Zcoordinate
    440193.2513517594,        !- Vertex 2 Xcoordinate
    4479146.48510328,         !- Vertex 2 Ycoordinate
    0,                        !- Vertex 2 Zcoordinate
    440199.02476263733,       !- Vertex 3 Xcoordinate
    4479130.522480996,        !- Vertex 3 Ycoordinate
    0,                        !- Vertex 3 Zcoordinate
    440199.02476263733,       !- Vertex 4 Xcoordinate
    4479130.522480996,        !- Vertex 4 Ycoordinate
    12;                       !- Vertex 4 Zcoordinate

SHADING:SITE:DETAILED,
    shade_way/957650445_3,    !- Name
    ,                         !- Transmittance Schedule Name
    autocalculate,            !- Number of Vertices
    440199.02476263733,       !- Vertex 1 Xcoordinate
    4479130.522480996,        !- Vertex 1 Ycoordinate
    12,                       !- Vertex 1 Zcoordinate
    440199.02476263733,       !- Vertex 2 Xcoordinate
    4479130.522480996,        !- Vertex 2 Ycoordinate
    0,                        !- Vertex 2 Zcoordinate
    440187.79385940084,       !- Vertex 3 Xcoordinate
    4479126.460628199,        !- Vertex 3 Ycoordinate
    0,                        !- Vertex 3 Zcoordinate
    440187.79385940084,       !- Vertex 4 Xcoordinate
    4479126.460628199,        !- Vertex 4 Ycoordinate
    12;                       !- Vertex 4 Zcoordinate

SHADING:SITE:DETAILED,
    shade_way/957650445_4,    !- Name
    ,                         !- Transmittance Schedule Name
    autocalculate,            !- Number of Vertices
    440187.79385940084,       !- Vertex 1 Xcoordinate
    4479126.460628199,        !- Vertex 1 Ycoordinate
    12,                       !- Vertex 1 Zcoordinate
    440187.79385940084,       !- Vertex 2 Xcoordinate
    4479126.460628199,        !- Vertex 2 Ycoordinate
    0,                        !- Vertex 2 Zcoordinate
    440182.02073290176,       !- Vertex 3 Xcoordinate
    4479142.423421787,        !- Vertex 3 Ycoordinate
    0,                        !- Vertex 3 Zcoordinate
    440182.02073290176,       !- Vertex 4 Xcoordinate
    4479142.423421787,        !- Vertex 4 Ycoordinate
    12;                       !- Vertex 4 Zcoordinate

SHADING:SITE:DETAILED,
    shade_way/432412736_1,    !- Name
    ,                         !- Transmittance Schedule Name
    autocalculate,            !- Number of Vertices
    440218.25865518895,       !- Vertex 1 Xcoordinate
    4479113.98413895,         !- Vertex 1 Ycoordinate
    18,                       !- Vertex 1 Zcoordinate
    440218.25865518895,       !- Vertex 2 Xcoordinate
    4479113.98413895,         !- Vertex 2 Ycoordinate
    0,                        !- Vertex 2 Zcoordinate
    440249.13628170127,       !- Vertex 3 Xcoordinate
    4479121.769039073,        !- Vertex 3 Ycoordinate
    0,                        !- Vertex 3 Zcoordinate
    440249.13628170127,       !- Vertex 4 Xcoordinate
    4479121.769039073,        !- Vertex 4 Ycoordinate
    18;                       !- Vertex 4 Zcoordinate

SHADING:SITE:DETAILED,
    shade_way/432412736_2,    !- Name
    ,                         !- Transmittance Schedule Name
    autocalculate,            !- Number of Vertices
    440249.13628170127,       !- Vertex 1 Xcoordinate
    4479121.769039073,        !- Vertex 1 Ycoordinate
    18,                       !- Vertex 1 Zcoordinate
    440249.13628170127,       !- Vertex 2 Xcoordinate
    4479121.769039073,        !- Vertex 2 Ycoordinate
    0,                        !- Vertex 2 Zcoordinate
    440253.4587591648,        !- Vertex 3 Xcoordinate
    4479104.624710387,        !- Vertex 3 Ycoordinate
    0,                        !- Vertex 3 Zcoordinate
    440253.4587591648,        !- Vertex 4 Xcoordinate
    4479104.624710387,        !- Vertex 4 Ycoordinate
    18;                       !- Vertex 4 Zcoordinate

SHADING:SITE:DETAILED,
    shade_way/432412736_3,    !- Name
    ,                         !- Transmittance Schedule Name
    autocalculate,            !- Number of Vertices
    440253.4587591648,        !- Vertex 1 Xcoordinate
    4479104.624710387,        !- Vertex 1 Ycoordinate
    18,                       !- Vertex 1 Zcoordinate
    440253.4587591648,        !- Vertex 2 Xcoordinate
    4479104.624710387,        !- Vertex 2 Ycoordinate
    0,                        !- Vertex 2 Zcoordinate
    440222.5806999796,        !- Vertex 3 Xcoordinate
    4479096.839645293,        !- Vertex 3 Ycoordinate
    0,                        !- Vertex 3 Zcoordinate
    440222.5806999796,        !- Vertex 4 Xcoordinate
    4479096.839645293,        !- Vertex 4 Ycoordinate
    18;                       !- Vertex 4 Zcoordinate

SHADING:SITE:DETAILED,
    shade_way/432412736_4,    !- Name
    ,                         !- Transmittance Schedule Name
    autocalculate,            !- Number of Vertices
    440222.5806999796,        !- Vertex 1 Xcoordinate
    4479096.839645293,        !- Vertex 1 Ycoordinate
    18,                       !- Vertex 1 Zcoordinate
    440222.5806999796,        !- Vertex 2 Xcoordinate
    4479096.839645293,        !- Vertex 2 Ycoordinate
    0,                        !- Vertex 2 Zcoordinate
    440218.25865518895,       !- Vertex 3 Xcoordinate
    4479113.98413895,         !- Vertex 3 Ycoordinate
    0,                        !- Vertex 3 Zcoordinate
    440218.25865518895,       !- Vertex 4 Xcoordinate
    4479113.98413895,         !- Vertex 4 Ycoordinate
    18;                       !- Vertex 4 Zcoordinate

SHADING:SITE:DETAILED,
    shade_way/435823577_1,    !- Name
    ,                         !- Transmittance Schedule Name
    autocalculate,            !- Number of Vertices
    440216.3862890046,        !- Vertex 1 Xcoordinate
    4479135.917913338,        !- Vertex 1 Ycoordinate
    12,                       !- Vertex 1 Zcoordinate
    440216.3862890046,        !- Vertex 2 Xcoordinate
    4479135.917913338,        !- Vertex 2 Ycoordinate
    0,                        !- Vertex 2 Zcoordinate
    440236.03927786066,       !- Vertex 3 Xcoordinate
    4479141.718252103,        !- Vertex 3 Ycoordinate
    0,                        !- Vertex 3 Zcoordinate
    440236.03927786066,       !- Vertex 4 Xcoordinate
    4479141.718252103,        !- Vertex 4 Ycoordinate
    12;                       !- Vertex 4 Zcoordinate

SHADING:SITE:DETAILED,
    shade_way/435823577_2,    !- Name
    ,                         !- Transmittance Schedule Name
    autocalculate,            !- Number of Vertices
    440236.03927786066,       !- Vertex 1 Xcoordinate
    4479141.718252103,        !- Vertex 1 Ycoordinate
    12,                       !- Vertex 1 Zcoordinate
    440236.03927786066,       !- Vertex 2 Xcoordinate
    4479141.718252103,        !- Vertex 2 Ycoordinate
    0,                        !- Vertex 2 Zcoordinate
    440240.4237961204,        !- Vertex 3 Xcoordinate
    4479126.86163469,         !- Vertex 3 Ycoordinate
    0,                        !- Vertex 3 Zcoordinate
    440240.4237961204,        !- Vertex 4 Xcoordinate
    4479126.86163469,         !- Vertex 4 Ycoordinate
    12;                       !- Vertex 4 Zcoordinate

SHADING:SITE:DETAILED,
    shade_way/435823577_3,    !- Name
    ,                         !- Transmittance Schedule Name
    autocalculate,            !- Number of Vertices
    440240.4237961204,        !- Vertex 1 Xcoordinate
    4479126.86163469,         !- Vertex 1 Ycoordinate
    12,                       !- Vertex 1 Zcoordinate
    440240.4237961204,        !- Vertex 2 Xcoordinate
    4479126.86163469,         !- Vertex 2 Ycoordinate
    0,                        !- Vertex 2 Zcoordinate
    440220.7710530549,        !- Vertex 3 Xcoordinate
    4479121.061243333,        !- Vertex 3 Ycoordinate
    0,                        !- Vertex 3 Zcoordinate
    440220.7710530549,        !- Vertex 4 Xcoordinate
    4479121.061243333,        !- Vertex 4 Ycoordinate
    12;                       !- Vertex 4 Zcoordinate

SHADING:SITE:DETAILED,
    shade_way/435823577_4,    !- Name
    ,                         !- Transmittance Schedule Name
    autocalculate,            !- Number of Vertices
    440220.7710530549,        !- Vertex 1 Xcoordinate
    4479121.061243333,        !- Vertex 1 Ycoordinate
    12,                       !- Vertex 1 Zcoordinate
    440220.7710530549,        !- Vertex 2 Xcoordinate
    4479121.061243333,        !- Vertex 2 Ycoordinate
    0,                        !- Vertex 2 Zcoordinate
    440216.3862890046,        !- Vertex 3 Xcoordinate
    4479135.917913338,        !- Vertex 3 Ycoordinate
    0,                        !- Vertex 3 Zcoordinate
    440216.3862890046,        !- Vertex 4 Xcoordinate
    4479135.917913338,        !- Vertex 4 Ycoordinate
    12;                       !- Vertex 4 Zcoordinate

OTHEREQUIPMENT,
    EU_Step8_InternalGain_f2632fe0955c7e33_F0_whole_f000,    !- Name
    Electricity,              !- Fuel Type
    f2632fe0955c7e33_F0_whole,    !- Zone or ZoneList or Space or SpaceList Name
    EU_Step8_GainSchedule_f2632fe0955c7e33_F0_whole_f000,    !- Schedule Name
    Watts/Area,               !- Design Level Calculation Method
    ,                         !- Design Level
    1,                        !- Power per Zone Floor Area
    ,                         !- Power per Person
    0,                        !- Fraction Latent
    0,                        !- Fraction Radiant
    0,                        !- Fraction Lost
    0,                        !- Carbon Dioxide Generation Rate
    EU_Step8_InternalGains;    !- EndUse Subcategory

OTHEREQUIPMENT,
    EU_Step8_InternalGain_f2632fe0955c7e33_F1_whole_f000,    !- Name
    Electricity,              !- Fuel Type
    f2632fe0955c7e33_F1_whole,    !- Zone or ZoneList or Space or SpaceList Name
    EU_Step8_GainSchedule_f2632fe0955c7e33_F1_whole_f000,    !- Schedule Name
    Watts/Area,               !- Design Level Calculation Method
    ,                         !- Design Level
    1,                        !- Power per Zone Floor Area
    ,                         !- Power per Person
    0,                        !- Fraction Latent
    0,                        !- Fraction Radiant
    0,                        !- Fraction Lost
    0,                        !- Carbon Dioxide Generation Rate
    EU_Step8_InternalGains;    !- EndUse Subcategory

ZONEVENTILATION:DESIGNFLOWRATE,
    EU_ConstantAir_f2632fe0955c7e33_F0_whole,    !- Name
    f2632fe0955c7e33_F0_whole,    !- Zone or ZoneList or Space or SpaceList Name
    EU_AlwaysOn,              !- Schedule Name
    AirChanges/Hour,          !- Design Flow Rate Calculation Method
    ,                         !- Design Flow Rate
    ,                         !- Flow Rate per Floor Area
    ,                         !- Flow Rate per Person
    0.7033018520864271,       !- Air Changes per Hour
    Natural,                  !- Ventilation Type
    0,                        !- Fan Pressure Rise
    1,                        !- Fan Total Efficiency
    1,                        !- Constant Term Coefficient
    0,                        !- Temperature Term Coefficient
    0,                        !- Velocity Term Coefficient
    0,                        !- Velocity Squared Term Coefficient
    -100,                     !- Minimum Indoor Temperature
    ,                         !- Minimum Indoor Temperature Schedule Name
    100,                      !- Maximum Indoor Temperature
    ,                         !- Maximum Indoor Temperature Schedule Name
    -100,                     !- Delta Temperature
    ,                         !- Delta Temperature Schedule Name
    -100,                     !- Minimum Outdoor Temperature
    ,                         !- Minimum Outdoor Temperature Schedule Name
    100,                      !- Maximum Outdoor Temperature
    ,                         !- Maximum Outdoor Temperature Schedule Name
    40;                       !- Maximum Wind Speed

ZONEVENTILATION:DESIGNFLOWRATE,
    EU_ConstantAir_f2632fe0955c7e33_F1_whole,    !- Name
    f2632fe0955c7e33_F1_whole,    !- Zone or ZoneList or Space or SpaceList Name
    EU_AlwaysOn,              !- Schedule Name
    AirChanges/Hour,          !- Design Flow Rate Calculation Method
    ,                         !- Design Flow Rate
    ,                         !- Flow Rate per Floor Area
    ,                         !- Flow Rate per Person
    0.7033018520864271,       !- Air Changes per Hour
    Natural,                  !- Ventilation Type
    0,                        !- Fan Pressure Rise
    1,                        !- Fan Total Efficiency
    1,                        !- Constant Term Coefficient
    0,                        !- Temperature Term Coefficient
    0,                        !- Velocity Term Coefficient
    0,                        !- Velocity Squared Term Coefficient
    -100,                     !- Minimum Indoor Temperature
    ,                         !- Minimum Indoor Temperature Schedule Name
    100,                      !- Maximum Indoor Temperature
    ,                         !- Maximum Indoor Temperature Schedule Name
    -100,                     !- Delta Temperature
    ,                         !- Delta Temperature Schedule Name
    -100,                     !- Minimum Outdoor Temperature
    ,                         !- Minimum Outdoor Temperature Schedule Name
    100,                      !- Maximum Outdoor Temperature
    ,                         !- Maximum Outdoor Temperature Schedule Name
    40;                       !- Maximum Wind Speed

HVACTEMPLATE:THERMOSTAT,
    EU_HeatOnly_f2632fe0955c7e33_F0_whole,    !- Name
    ,                         !- Heating Setpoint Schedule Name
    20,                       !- Constant Heating Setpoint
    ,                         !- Cooling Setpoint Schedule Name
    50;                       !- Constant Cooling Setpoint

HVACTEMPLATE:THERMOSTAT,
    EU_HeatOnly_f2632fe0955c7e33_F1_whole,    !- Name
    ,                         !- Heating Setpoint Schedule Name
    20,                       !- Constant Heating Setpoint
    ,                         !- Cooling Setpoint Schedule Name
    50;                       !- Constant Cooling Setpoint

HVACTEMPLATE:ZONE:IDEALLOADSAIRSYSTEM,
    f2632fe0955c7e33_F0_whole,    !- Zone Name
    EU_HeatOnly_f2632fe0955c7e33_F0_whole,    !- Template Thermostat Name
    EU_AlwaysOn,              !- System Availability Schedule Name
    50,                       !- Maximum Heating Supply Air Temperature
    13,                       !- Minimum Cooling Supply Air Temperature
    0.0156,                   !- Maximum Heating Supply Air Humidity Ratio
    0.0077,                   !- Minimum Cooling Supply Air Humidity Ratio
    NoLimit,                  !- Heating Limit
    ,                         !- Maximum Heating Air Flow Rate
    ,                         !- Maximum Sensible Heating Capacity
    NoLimit,                  !- Cooling Limit
    ,                         !- Maximum Cooling Air Flow Rate
    ,                         !- Maximum Total Cooling Capacity
    EU_AlwaysOn,              !- Heating Availability Schedule Name
    EU_CoolingOff,            !- Cooling Availability Schedule Name
    ConstantSensibleHeatRatio,    !- Dehumidification Control Type
    0.7,                      !- Cooling Sensible Heat Ratio
    60,                       !- Dehumidification Setpoint
    None,                     !- Humidification Control Type
    30,                       !- Humidification Setpoint
    None,                     !- Outdoor Air Method
    0.00944,                  !- Outdoor Air Flow Rate per Person
    0.0,                      !- Outdoor Air Flow Rate per Zone Floor Area
    0,                        !- Outdoor Air Flow Rate per Zone
    ,                         !- Design Specification Outdoor Air Object Name
    None,                     !- Demand Controlled Ventilation Type
    NoEconomizer,             !- Outdoor Air Economizer Type
    None,                     !- Heat Recovery Type
    0.70,                     !- Sensible Heat Recovery Effectiveness
    0.65;                     !- Latent Heat Recovery Effectiveness

HVACTEMPLATE:ZONE:IDEALLOADSAIRSYSTEM,
    f2632fe0955c7e33_F1_whole,    !- Zone Name
    EU_HeatOnly_f2632fe0955c7e33_F1_whole,    !- Template Thermostat Name
    EU_AlwaysOn,              !- System Availability Schedule Name
    50,                       !- Maximum Heating Supply Air Temperature
    13,                       !- Minimum Cooling Supply Air Temperature
    0.0156,                   !- Maximum Heating Supply Air Humidity Ratio
    0.0077,                   !- Minimum Cooling Supply Air Humidity Ratio
    NoLimit,                  !- Heating Limit
    ,                         !- Maximum Heating Air Flow Rate
    ,                         !- Maximum Sensible Heating Capacity
    NoLimit,                  !- Cooling Limit
    ,                         !- Maximum Cooling Air Flow Rate
    ,                         !- Maximum Total Cooling Capacity
    EU_AlwaysOn,              !- Heating Availability Schedule Name
    EU_CoolingOff,            !- Cooling Availability Schedule Name
    ConstantSensibleHeatRatio,    !- Dehumidification Control Type
    0.7,                      !- Cooling Sensible Heat Ratio
    60,                       !- Dehumidification Setpoint
    None,                     !- Humidification Control Type
    30,                       !- Humidification Setpoint
    None,                     !- Outdoor Air Method
    0.00944,                  !- Outdoor Air Flow Rate per Person
    0.0,                      !- Outdoor Air Flow Rate per Zone Floor Area
    0,                        !- Outdoor Air Flow Rate per Zone
    ,                         !- Design Specification Outdoor Air Object Name
    None,                     !- Demand Controlled Ventilation Type
    NoEconomizer,             !- Outdoor Air Economizer Type
    None,                     !- Heat Recovery Type
    0.70,                     !- Sensible Heat Recovery Effectiveness
    0.65;                     !- Latent Heat Recovery Effectiveness

SIZING:ZONE,
    f2632fe0955c7e33_F0_whole,    !- Zone or ZoneList Name
    SupplyAirTemperature,     !- Zone Cooling Design Supply Air Temperature Input Method
    13,                       !- Zone Cooling Design Supply Air Temperature
    ,                         !- Zone Cooling Design Supply Air Temperature Difference
    SupplyAirTemperature,     !- Zone Heating Design Supply Air Temperature Input Method
    50,                       !- Zone Heating Design Supply Air Temperature
    ,                         !- Zone Heating Design Supply Air Temperature Difference
    0.008,                    !- Zone Cooling Design Supply Air Humidity Ratio
    0.008,                    !- Zone Heating Design Supply Air Humidity Ratio
    ,                         !- Design Specification Outdoor Air Object Name
    ,                         !- Zone Heating Sizing Factor
    ,                         !- Zone Cooling Sizing Factor
    DesignDay,                !- Cooling Design Air Flow Method
    0,                        !- Cooling Design Air Flow Rate
    0.000762,                 !- Cooling Minimum Air Flow per Zone Floor Area
    0,                        !- Cooling Minimum Air Flow
    0.2,                      !- Cooling Minimum Air Flow Fraction
    DesignDay,                !- Heating Design Air Flow Method
    0,                        !- Heating Design Air Flow Rate
    0.002032,                 !- Heating Maximum Air Flow per Zone Floor Area
    0.1415762,                !- Heating Maximum Air Flow
    0.3,                      !- Heating Maximum Air Flow Fraction
    ,                         !- Design Specification Zone Air Distribution Object Name
    No,                       !- Account for Dedicated Outdoor Air System
    NeutralSupplyAir,         !- Dedicated Outdoor Air System Control Strategy
    autosize,                 !- Dedicated Outdoor Air Low Setpoint Temperature for Design
    autosize,                 !- Dedicated Outdoor Air High Setpoint Temperature for Design
    Sensible Load Only No Latent Load,    !- Zone Load Sizing Method
    HumidityRatioDifference,    !- Zone Latent Cooling Design Supply Air Humidity Ratio Input Method
    ,                         !- Zone Dehumidification Design Supply Air Humidity Ratio
    0.005,                    !- Zone Cooling Design Supply Air Humidity Ratio Difference
    HumidityRatioDifference,    !- Zone Latent Heating Design Supply Air Humidity Ratio Input Method
    ,                         !- Zone Humidification Design Supply Air Humidity Ratio
    0.005;                    !- Zone Humidification Design Supply Air Humidity Ratio Difference

SIZING:ZONE,
    f2632fe0955c7e33_F1_whole,    !- Zone or ZoneList Name
    SupplyAirTemperature,     !- Zone Cooling Design Supply Air Temperature Input Method
    13,                       !- Zone Cooling Design Supply Air Temperature
    ,                         !- Zone Cooling Design Supply Air Temperature Difference
    SupplyAirTemperature,     !- Zone Heating Design Supply Air Temperature Input Method
    50,                       !- Zone Heating Design Supply Air Temperature
    ,                         !- Zone Heating Design Supply Air Temperature Difference
    0.008,                    !- Zone Cooling Design Supply Air Humidity Ratio
    0.008,                    !- Zone Heating Design Supply Air Humidity Ratio
    ,                         !- Design Specification Outdoor Air Object Name
    ,                         !- Zone Heating Sizing Factor
    ,                         !- Zone Cooling Sizing Factor
    DesignDay,                !- Cooling Design Air Flow Method
    0,                        !- Cooling Design Air Flow Rate
    0.000762,                 !- Cooling Minimum Air Flow per Zone Floor Area
    0,                        !- Cooling Minimum Air Flow
    0.2,                      !- Cooling Minimum Air Flow Fraction
    DesignDay,                !- Heating Design Air Flow Method
    0,                        !- Heating Design Air Flow Rate
    0.002032,                 !- Heating Maximum Air Flow per Zone Floor Area
    0.1415762,                !- Heating Maximum Air Flow
    0.3,                      !- Heating Maximum Air Flow Fraction
    ,                         !- Design Specification Zone Air Distribution Object Name
    No,                       !- Account for Dedicated Outdoor Air System
    NeutralSupplyAir,         !- Dedicated Outdoor Air System Control Strategy
    autosize,                 !- Dedicated Outdoor Air Low Setpoint Temperature for Design
    autosize,                 !- Dedicated Outdoor Air High Setpoint Temperature for Design
    Sensible Load Only No Latent Load,    !- Zone Load Sizing Method
    HumidityRatioDifference,    !- Zone Latent Cooling Design Supply Air Humidity Ratio Input Method
    ,                         !- Zone Dehumidification Design Supply Air Humidity Ratio
    0.005,                    !- Zone Cooling Design Supply Air Humidity Ratio Difference
    HumidityRatioDifference,    !- Zone Latent Heating Design Supply Air Humidity Ratio Input Method
    ,                         !- Zone Humidification Design Supply Air Humidity Ratio
    0.005;                    !- Zone Humidification Design Supply Air Humidity Ratio Difference

OUTPUT:VARIABLE,
    *,                        !- Key Value
    Zone Ideal Loads Zone Total Heating Energy,    !- Variable Name
    Hourly;                   !- Reporting Frequency

OUTPUT:SQLITE,
    SimpleAndTabular,         !- Option Type
    UseOutputControlTableStyle;    !- Unit Conversion for Tabular Data