!- Windows Line endings 

Version,
    23.1;                     !- Version Identifier

SimulationControl,
    Yes,                      !- Do Zone Sizing Calculation
    Yes,                      !- Do System Sizing Calculation
    Yes,                      !- Do Plant Sizing Calculation
    No,                       !- Run Simulation for Sizing Periods
    Yes,                      !- Run Simulation for Weather File Run Periods
    No,                       !- Do HVAC Sizing Simulation for Sizing Periods
    1;                        !- Maximum Number of HVAC Sizing Simulation Passes

Building,
    EU S2 Campaign,           !- Name
    0,                        !- North Axis
    City,                     !- Terrain
    ,                         !- Loads Convergence Tolerance Value
    ,                         !- Temperature Convergence Tolerance Value
    FullExterior,             !- Solar Distribution
    ,                         !- Maximum Number of Warmup Days
    ;                         !- Minimum Number of Warmup Days

ShadowCalculation,
    PolygonClipping,          !- Shading Calculation Method
    Periodic,                 !- Shading Calculation Update Frequency Method
    1;                        !- Shading Calculation Update Frequency

HeatBalanceAlgorithm,
    ConductionTransferFunction,    !- Algorithm
    200,                      !- Surface Temperature Upper Limit
    0.1,                      !- Minimum Surface Convection Heat Transfer Coefficient Value
    10000000;                 !- Maximum Surface Convection Heat Transfer Coefficient Value

Timestep,
    12;                       !- Number of Timesteps per Hour

Site:Location,
    Madrid,                   !- Name
    40.5,                     !- Latitude
    -3.5,                     !- Longitude
    1,                        !- Time Zone
    609;                      !- Elevation

SizingPeriod:WeatherFileDays,
    AnnualSizingPeriod,       !- Name
    1,                        !- Begin Month
    1,                        !- Begin Day of Month
    12,                       !- End Month
    31,                       !- End Day of Month
    Monday,                   !- Day of Week for Start Day
    No,                       !- Use Weather File Daylight Saving Period
    No;                       !- Use Weather File Rain and Snow Indicators

RunPeriod,
    RunPeriod1,               !- Name
    1,                        !- Begin Month
    1,                        !- Begin Day of Month
    ,                         !- Begin Year
    12,                       !- End Month
    31,                       !- End Day of Month
    ,                         !- End Year
    Sunday,                   !- Day of Week for Start Day
    No,                       !- Use Weather File Holidays and Special Days
    No,                       !- Use Weather File Daylight Saving Period
    No,                       !- Apply Weekend Holiday Rule
    Yes,                      !- Use Weather File Rain Indicators
    Yes;                      !- Use Weather File Snow Indicators

ScheduleTypeLimits,
    Any Number;               !- Name

SCHEDULETYPELIMITS,
    EU_Step8_AnyNumber_Wm2,    !- Name
    ,                         !- Lower Limit Value
    ,                         !- Upper Limit Value
    Continuous,               !- Numeric Type
    Dimensionless;            !- Unit Type

SCHEDULE:CONSTANT,
    EU_AlwaysOn,              !- Name
    ,                         !- Schedule Type Limits Name
    1;                        !- Hourly Value

SCHEDULE:CONSTANT,
    EU_CoolingOff,            !- Name
    ,                         !- Schedule Type Limits Name
    0;                        !- Hourly Value

SCHEDULE:FILE,
    EU_Step8_GainSchedule_fffddece4488ebfc_F0_dwelling_0_f000,    !- Name
    EU_Step8_AnyNumber_Wm2,    !- Schedule Type Limits Name
    ../../schedules/fffddece4488ebfc/fffddece4488ebfc_F0_dwelling_0_f000_gain.csv,    !- File Name
    1,                        !- Column Number
    0,                        !- Rows to Skip at Top
    8760,                     !- Number of Hours of Data
    Comma,                    !- Column Separator
    No,                       !- Interpolate to Timestep
    60,                       !- Minutes per Item
    Yes;                      !- Adjust Schedule for Daylight Savings

SCHEDULE:FILE,
    EU_Step8_GainSchedule_fffddece4488ebfc_F1_dwelling_0_f000,    !- Name
    EU_Step8_AnyNumber_Wm2,    !- Schedule Type Limits Name
    ../../schedules/fffddece4488ebfc/fffddece4488ebfc_F1_dwelling_0_f000_gain.csv,    !- File Name
    1,                        !- Column Number
    0,                        !- Rows to Skip at Top
    8760,                     !- Number of Hours of Data
    Comma,                    !- Column Separator
    No,                       !- Interpolate to Timestep
    60,                       !- Minutes per Item
    Yes;                      !- Adjust Schedule for Daylight Savings

MATERIAL,
    EU_InternalMass_Material,    !- Name
    MediumRough,              !- Roughness
    0.1,                      !- Thickness
    1,                        !- Conductivity
    1800,                     !- Density
    900,                      !- Specific Heat
    0.9,                      !- Thermal Absorptance
    0.7,                      !- Solar Absorptance
    0.7;                      !- Visible Absorptance

MATERIAL:NOMASS,
    EU_wall_NoMass,           !- Name
    MediumRough,              !- Roughness
    1.6002158098852093,       !- Thermal Resistance
    0.9,                      !- Thermal Absorptance
    0.7,                      !- Solar Absorptance
    0.7;                      !- Visible Absorptance

MATERIAL:NOMASS,
    EU_roof_NoMass,           !- Name
    MediumRough,              !- Roughness
    1.5759701157960397,       !- Thermal Resistance
    0.9,                      !- Thermal Absorptance
    0.7,                      !- Solar Absorptance
    0.7;                      !- Visible Absorptance

MATERIAL:NOMASS,
    EU_floor_NoMass,          !- Name
    MediumRough,              !- Roughness
    0.4706517087897675,       !- Thermal Resistance
    0.9,                      !- Thermal Absorptance
    0.7,                      !- Solar Absorptance
    0.7;                      !- Visible Absorptance

CONSTRUCTION,
    EU_wall_Construction,     !- Name
    EU_wall_NoMass;           !- Outside Layer

CONSTRUCTION,
    EU_roof_Construction,     !- Name
    EU_roof_NoMass;           !- Outside Layer

CONSTRUCTION,
    EU_floor_Construction,    !- Name
    EU_floor_NoMass;          !- Outside Layer

CONSTRUCTION,
    EU_InternalMass_Construction,    !- Name
    EU_InternalMass_Material;    !- Outside Layer

GlobalGeometryRules,
    UpperLeftCorner,          !- Starting Vertex Position
    CounterClockWise,         !- Vertex Entry Direction
    World;                    !- Coordinate System

ZONE,
    fffddece4488ebfc_F0_dwelling_0,    !- Name
    0,                        !- Direction of Relative North
    0,                        !- X Origin
    0,                        !- Y Origin
    0,                        !- Z Origin
    1,                        !- Type
    1,                        !- Multiplier
    autocalculate,            !- Ceiling Height
    237.6976318359375,        !- Volume
    autocalculate,            !- Floor Area
    ,                         !- Zone Inside Convection Algorithm
    ,                         !- Zone Outside Convection Algorithm
    Yes;                      !- Part of Total Floor Area

ZONE,
    fffddece4488ebfc_F1_dwelling_0,    !- Name
    0,                        !- Direction of Relative North
    0,                        !- X Origin
    0,                        !- Y Origin
    0,                        !- Z Origin
    1,                        !- Type
    1,                        !- Multiplier
    autocalculate,            !- Ceiling Height
    475.39599609375,          !- Volume
    autocalculate,            !- Floor Area
    ,                         !- Zone Inside Convection Algorithm
    ,                         !- Zone Outside Convection Algorithm
    Yes;                      !- Part of Total Floor Area

BUILDINGSURFACE:DETAILED,
    Block fffddece4488ebfc_0 Storey 0 Wall 0001,    !- Name
    wall,                     !- Surface Type
    EU_wall_Construction,     !- Construction Name
    fffddece4488ebfc_F0_dwelling_0,    !- Zone Name
    ,                         !- Space Name
    Adiabatic,                !- Outside Boundary Condition
    ,                         !- Outside Boundary Condition Object
    NoSun,                    !- Sun Exposure
    NoWind,                   !- Wind Exposure
    autocalculate,            !- View Factor to Ground
    autocalculate,            !- Number of Vertices
    439843.224,               !- Vertex 1 Xcoordinate
    4478880.82,               !- Vertex 1 Ycoordinate
    3,                        !- Vertex 1 Zcoordinate
    439843.224,               !- Vertex 2 Xcoordinate
    4478880.82,               !- Vertex 2 Ycoordinate
    0,                        !- Vertex 2 Zcoordinate
    439843.294,               !- Vertex 3 Xcoordinate
    4478874.681,              !- Vertex 3 Ycoordinate
    0,                        !- Vertex 3 Zcoordinate
    439843.294,               !- Vertex 4 Xcoordinate
    4478874.681,              !- Vertex 4 Ycoordinate
    3;                        !- Vertex 4 Zcoordinate

BUILDINGSURFACE:DETAILED,
    Block fffddece4488ebfc_0 Storey 0 Wall 0002,    !- Name
    wall,                     !- Surface Type
    EU_wall_Construction,     !- Construction Name
    fffddece4488ebfc_F0_dwelling_0,    !- Zone Name
    ,                         !- Space Name
    outdoors,                 !- Outside Boundary Condition
    ,                         !- Outside Boundary Condition Object
    SunExposed,               !- Sun Exposure
    WindExposed,              !- Wind Exposure
    autocalculate,            !- View Factor to Ground
    autocalculate,            !- Number of Vertices
    439843.294,               !- Vertex 1 Xcoordinate
    4478874.681,              !- Vertex 1 Ycoordinate
    3,                        !- Vertex 1 Zcoordinate
    439843.294,               !- Vertex 2 Xcoordinate
    4478874.681,              !- Vertex 2 Ycoordinate
    0,                        !- Vertex 2 Zcoordinate
    439836.79,                !- Vertex 3 Xcoordinate
    4478875.754,              !- Vertex 3 Ycoordinate
    0,                        !- Vertex 3 Zcoordinate
    439836.79,                !- Vertex 4 Xcoordinate
    4478875.754,              !- Vertex 4 Ycoordinate
    3;                        !- Vertex 4 Zcoordinate

BUILDINGSURFACE:DETAILED,
    Block fffddece4488ebfc_0 Storey 0 Wall 0003,    !- Name
    wall,                     !- Surface Type
    EU_wall_Construction,     !- Construction Name
    fffddece4488ebfc_F0_dwelling_0,    !- Zone Name
    ,                         !- Space Name
    Adiabatic,                !- Outside Boundary Condition
    ,                         !- Outside Boundary Condition Object
    NoSun,                    !- Sun Exposure
    NoWind,                   !- Wind Exposure
    autocalculate,            !- View Factor to Ground
    autocalculate,            !- Number of Vertices
    439836.79,                !- Vertex 1 Xcoordinate
    4478875.754,              !- Vertex 1 Ycoordinate
    3,                        !- Vertex 1 Zcoordinate
    439836.79,                !- Vertex 2 Xcoordinate
    4478875.754,              !- Vertex 2 Ycoordinate
    0,                        !- Vertex 2 Zcoordinate
    439836.633,               !- Vertex 3 Xcoordinate
    4478887.9,                !- Vertex 3 Ycoordinate
    0,                        !- Vertex 3 Zcoordinate
    439836.633,               !- Vertex 4 Xcoordinate
    4478887.9,                !- Vertex 4 Ycoordinate
    3;                        !- Vertex 4 Zcoordinate

BUILDINGSURFACE:DETAILED,
    Block fffddece4488ebfc_0 Storey 0 Wall 0004,    !- Name
    wall,                     !- Surface Type
    EU_wall_Construction,     !- Construction Name
    fffddece4488ebfc_F0_dwelling_0,    !- Zone Name
    ,                         !- Space Name
    Adiabatic,                !- Outside Boundary Condition
    ,                         !- Outside Boundary Condition Object
    NoSun,                    !- Sun Exposure
    NoWind,                   !- Wind Exposure
    autocalculate,            !- View Factor to Ground
    autocalculate,            !- Number of Vertices
    439836.633,               !- Vertex 1 Xcoordinate
    4478887.9,                !- Vertex 1 Ycoordinate
    3,                        !- Vertex 1 Zcoordinate
    439836.633,               !- Vertex 2 Xcoordinate
    4478887.9,                !- Vertex 2 Ycoordinate
    0,                        !- Vertex 2 Zcoordinate
    439839.377,               !- Vertex 3 Xcoordinate
    4478887.478,              !- Vertex 3 Ycoordinate
    0,                        !- Vertex 3 Zcoordinate
    439839.377,               !- Vertex 4 Xcoordinate
    4478887.478,              !- Vertex 4 Ycoordinate
    3;                        !- Vertex 4 Zcoordinate

BUILDINGSURFACE:DETAILED,
    Block fffddece4488ebfc_0 Storey 0 Wall 0005,    !- Name
    wall,                     !- Surface Type
    EU_wall_Construction,     !- Construction Name
    fffddece4488ebfc_F0_dwelling_0,    !- Zone Name
    ,                         !- Space Name
    outdoors,                 !- Outside Boundary Condition
    ,                         !- Outside Boundary Condition Object
    SunExposed,               !- Sun Exposure
    WindExposed,              !- Wind Exposure
    autocalculate,            !- View Factor to Ground
    autocalculate,            !- Number of Vertices
    439839.377,               !- Vertex 1 Xcoordinate
    4478887.478,              !- Vertex 1 Ycoordinate
    3,                        !- Vertex 1 Zcoordinate
    439839.377,               !- Vertex 2 Xcoordinate
    4478887.478,              !- Vertex 2 Ycoordinate
    0,                        !- Vertex 2 Zcoordinate
    439843.18,                !- Vertex 3 Xcoordinate
    4478886.881,              !- Vertex 3 Ycoordinate
    0,                        !- Vertex 3 Zcoordinate
    439843.18,                !- Vertex 4 Xcoordinate
    4478886.881,              !- Vertex 4 Ycoordinate
    3;                        !- Vertex 4 Zcoordinate

BUILDINGSURFACE:DETAILED,
    Block fffddece4488ebfc_0 Storey 0 Wall 0006,    !- Name
    wall,                     !- Surface Type
    EU_wall_Construction,     !- Construction Name
    fffddece4488ebfc_F0_dwelling_0,    !- Zone Name
    ,                         !- Space Name
    Adiabatic,                !- Outside Boundary Condition
    ,                         !- Outside Boundary Condition Object
    NoSun,                    !- Sun Exposure
    NoWind,                   !- Wind Exposure
    autocalculate,            !- View Factor to Ground
    autocalculate,            !- Number of Vertices
    439843.18,                !- Vertex 1 Xcoordinate
    4478886.881,              !- Vertex 1 Ycoordinate
    3,                        !- Vertex 1 Zcoordinate
    439843.18,                !- Vertex 2 Xcoordinate
    4478886.881,              !- Vertex 2 Ycoordinate
    0,                        !- Vertex 2 Zcoordinate
    439843.224,               !- Vertex 3 Xcoordinate
    4478880.82,               !- Vertex 3 Ycoordinate
    0,                        !- Vertex 3 Zcoordinate
    439843.224,               !- Vertex 4 Xcoordinate
    4478880.82,               !- Vertex 4 Ycoordinate
    3;                        !- Vertex 4 Zcoordinate

BUILDINGSURFACE:DETAILED,
    Block fffddece4488ebfc_0 Storey 0 Floor 0001,    !- Name
    floor,                    !- Surface Type
    EU_floor_Construction,    !- Construction Name
    fffddece4488ebfc_F0_dwelling_0,    !- Zone Name
    ,                         !- Space Name
    ground,                   !- Outside Boundary Condition
    ,                         !- Outside Boundary Condition Object
    NoSun,                    !- Sun Exposure
    NoWind,                   !- Wind Exposure
    autocalculate,            !- View Factor to Ground
    autocalculate,            !- Number of Vertices
    439843.294,               !- Vertex 1 Xcoordinate
    4478874.681,              !- Vertex 1 Ycoordinate
    0,                        !- Vertex 1 Zcoordinate
    439843.224,               !- Vertex 2 Xcoordinate
    4478880.82,               !- Vertex 2 Ycoordinate
    0,                        !- Vertex 2 Zcoordinate
    439843.18,                !- Vertex 3 Xcoordinate
    4478886.881,              !- Vertex 3 Ycoordinate
    0,                        !- Vertex 3 Zcoordinate
    439839.377,               !- Vertex 4 Xcoordinate
    4478887.478,              !- Vertex 4 Ycoordinate
    0,                        !- Vertex 4 Zcoordinate
    439836.633,               !- Vertex 5 Xcoordinate
    4478887.9,                !- Vertex 5 Ycoordinate
    0,                        !- Vertex 5 Zcoordinate
    439836.79,                !- Vertex 6 Xcoordinate
    4478875.754,              !- Vertex 6 Ycoordinate
    0;                        !- Vertex 6 Zcoordinate

BUILDINGSURFACE:DETAILED,
    Block fffddece4488ebfc_0 Storey 1 Wall 0001,    !- Name
    wall,                     !- Surface Type
    EU_wall_Construction,     !- Construction Name
    fffddece4488ebfc_F1_dwelling_0,    !- Zone Name
    ,                         !- Space Name
    Adiabatic,                !- Outside Boundary Condition
    ,                         !- Outside Boundary Condition Object
    NoSun,                    !- Sun Exposure
    NoWind,                   !- Wind Exposure
    autocalculate,            !- View Factor to Ground
    autocalculate,            !- Number of Vertices
    439843.224,               !- Vertex 1 Xcoordinate
    4478880.82,               !- Vertex 1 Ycoordinate
    6,                        !- Vertex 1 Zcoordinate
    439843.224,               !- Vertex 2 Xcoordinate
    4478880.82,               !- Vertex 2 Ycoordinate
    3,                        !- Vertex 2 Zcoordinate
    439843.294,               !- Vertex 3 Xcoordinate
    4478874.681,              !- Vertex 3 Ycoordinate
    3,                        !- Vertex 3 Zcoordinate
    439843.294,               !- Vertex 4 Xcoordinate
    4478874.681,              !- Vertex 4 Ycoordinate
    6;                        !- Vertex 4 Zcoordinate

BUILDINGSURFACE:DETAILED,
    Block fffddece4488ebfc_0 Storey 1 Wall 0002,    !- Name
    wall,                     !- Surface Type
    EU_wall_Construction,     !- Construction Name
    fffddece4488ebfc_F1_dwelling_0,    !- Zone Name
    ,                         !- Space Name
    outdoors,                 !- Outside Boundary Condition
    ,                         !- Outside Boundary Condition Object
    SunExposed,               !- Sun Exposure
    WindExposed,              !- Wind Exposure
    autocalculate,            !- View Factor to Ground
    autocalculate,            !- Number of Vertices
    439843.294,               !- Vertex 1 Xcoordinate
    4478874.681,              !- Vertex 1 Ycoordinate
    6,                        !- Vertex 1 Zcoordinate
    439843.294,               !- Vertex 2 Xcoordinate
    4478874.681,              !- Vertex 2 Ycoordinate
    3,                        !- Vertex 2 Zcoordinate
    439836.79,                !- Vertex 3 Xcoordinate
    4478875.754,              !- Vertex 3 Ycoordinate
    3,                        !- Vertex 3 Zcoordinate
    439836.79,                !- Vertex 4 Xcoordinate
    4478875.754,              !- Vertex 4 Ycoordinate
    6;                        !- Vertex 4 Zcoordinate

BUILDINGSURFACE:DETAILED,
    Block fffddece4488ebfc_0 Storey 1 Wall 0003,    !- Name
    wall,                     !- Surface Type
    EU_wall_Construction,     !- Construction Name
    fffddece4488ebfc_F1_dwelling_0,    !- Zone Name
    ,                         !- Space Name
    Adiabatic,                !- Outside Boundary Condition
    ,                         !- Outside Boundary Condition Object
    NoSun,                    !- Sun Exposure
    NoWind,                   !- Wind Exposure
    autocalculate,            !- View Factor to Ground
    autocalculate,            !- Number of Vertices
    439836.79,                !- Vertex 1 Xcoordinate
    4478875.754,              !- Vertex 1 Ycoordinate
    6,                        !- Vertex 1 Zcoordinate
    439836.79,                !- Vertex 2 Xcoordinate
    4478875.754,              !- Vertex 2 Ycoordinate
    3,                        !- Vertex 2 Zcoordinate
    439836.633,               !- Vertex 3 Xcoordinate
    4478887.9,                !- Vertex 3 Ycoordinate
    3,                        !- Vertex 3 Zcoordinate
    439836.633,               !- Vertex 4 Xcoordinate
    4478887.9,                !- Vertex 4 Ycoordinate
    6;                        !- Vertex 4 Zcoordinate

BUILDINGSURFACE:DETAILED,
    Block fffddece4488ebfc_0 Storey 1 Wall 0004,    !- Name
    wall,                     !- Surface Type
    EU_wall_Construction,     !- Construction Name
    fffddece4488ebfc_F1_dwelling_0,    !- Zone Name
    ,                         !- Space Name
    Adiabatic,                !- Outside Boundary Condition
    ,                         !- Outside Boundary Condition Object
    NoSun,                    !- Sun Exposure
    NoWind,                   !- Wind Exposure
    autocalculate,            !- View Factor to Ground
    autocalculate,            !- Number of Vertices
    439836.633,               !- Vertex 1 Xcoordinate
    4478887.9,                !- Vertex 1 Ycoordinate
    6,                        !- Vertex 1 Zcoordinate
    439836.633,               !- Vertex 2 Xcoordinate
    4478887.9,                !- Vertex 2 Ycoordinate
    3,                        !- Vertex 2 Zcoordinate
    439839.377,               !- Vertex 3 Xcoordinate
    4478887.478,              !- Vertex 3 Ycoordinate
    3,                        !- Vertex 3 Zcoordinate
    439839.377,               !- Vertex 4 Xcoordinate
    4478887.478,              !- Vertex 4 Ycoordinate
    6;                        !- Vertex 4 Zcoordinate

BUILDINGSURFACE:DETAILED,
    Block fffddece4488ebfc_0 Storey 1 Wall 0005,    !- Name
    wall,                     !- Surface Type
    EU_wall_Construction,     !- Construction Name
    fffddece4488ebfc_F1_dwelling_0,    !- Zone Name
    ,                         !- Space Name
    outdoors,                 !- Outside Boundary Condition
    ,                         !- Outside Boundary Condition Object
    SunExposed,               !- Sun Exposure
    WindExposed,              !- Wind Exposure
    autocalculate,            !- View Factor to Ground
    autocalculate,            !- Number of Vertices
    439839.377,               !- Vertex 1 Xcoordinate
    4478887.478,              !- Vertex 1 Ycoordinate
    6,                        !- Vertex 1 Zcoordinate
    439839.377,               !- Vertex 2 Xcoordinate
    4478887.478,              !- Vertex 2 Ycoordinate
    3,                        !- Vertex 2 Zcoordinate
    439843.18,                !- Vertex 3 Xcoordinate
    4478886.881,              !- Vertex 3 Ycoordinate
    3,                        !- Vertex 3 Zcoordinate
    439843.18,                !- Vertex 4 Xcoordinate
    4478886.881,              !- Vertex 4 Ycoordinate
    6;                        !- Vertex 4 Zcoordinate

BUILDINGSURFACE:DETAILED,
    Block fffddece4488ebfc_0 Storey 1 Wall 0006,    !- Name
    wall,                     !- Surface Type
    EU_wall_Construction,     !- Construction Name
    fffddece4488ebfc_F1_dwelling_0,    !- Zone Name
    ,                         !- Space Name
    Adiabatic,                !- Outside Boundary Condition
    ,                         !- Outside Boundary Condition Object
    NoSun,                    !- Sun Exposure
    NoWind,                   !- Wind Exposure
    autocalculate,            !- View Factor to Ground
    autocalculate,            !- Number of Vertices
    439843.18,                !- Vertex 1 Xcoordinate
    4478886.881,              !- Vertex 1 Ycoordinate
    6,                        !- Vertex 1 Zcoordinate
    439843.18,                !- Vertex 2 Xcoordinate
    4478886.881,              !- Vertex 2 Ycoordinate
    3,                        !- Vertex 2 Zcoordinate
    439843.224,               !- Vertex 3 Xcoordinate
    4478880.82,               !- Vertex 3 Ycoordinate
    3,                        !- Vertex 3 Zcoordinate
    439843.224,               !- Vertex 4 Xcoordinate
    4478880.82,               !- Vertex 4 Ycoordinate
    6;                        !- Vertex 4 Zcoordinate

BUILDINGSURFACE:DETAILED,
    Block fffddece4488ebfc_0 Storey 1 Roof 0001,    !- Name
    roof,                     !- Surface Type
    EU_roof_Construction,     !- Construction Name
    fffddece4488ebfc_F1_dwelling_0,    !- Zone Name
    ,                         !- Space Name
    outdoors,                 !- Outside Boundary Condition
    ,                         !- Outside Boundary Condition Object
    NoSun,                    !- Sun Exposure
    WindExposed,              !- Wind Exposure
    autocalculate,            !- View Factor to Ground
    autocalculate,            !- Number of Vertices
    439843.18,                !- Vertex 1 Xcoordinate
    4478886.881,              !- Vertex 1 Ycoordinate
    6,                        !- Vertex 1 Zcoordinate
    439843.224,               !- Vertex 2 Xcoordinate
    4478880.82,               !- Vertex 2 Ycoordinate
    6,                        !- Vertex 2 Zcoordinate
    439843.294,               !- Vertex 3 Xcoordinate
    4478874.681,              !- Vertex 3 Ycoordinate
    6,                        !- Vertex 3 Zcoordinate
    439836.79,                !- Vertex 4 Xcoordinate
    4478875.754,              !- Vertex 4 Ycoordinate
    6,                        !- Vertex 4 Zcoordinate
    439836.633,               !- Vertex 5 Xcoordinate
    4478887.9,                !- Vertex 5 Ycoordinate
    6,                        !- Vertex 5 Zcoordinate
    439839.377,               !- Vertex 6 Xcoordinate
    4478887.478,              !- Vertex 6 Ycoordinate
    6;                        !- Vertex 6 Zcoordinate

BUILDINGSURFACE:DETAILED,
    Block fffddece4488ebfc_0 Storey 0 Ceiling 0001_1,    !- Name
    ceiling,                  !- Surface Type
    EU_floor_Construction,    !- Construction Name
    fffddece4488ebfc_F0_dwelling_0,    !- Zone Name
    ,                         !- Space Name
    Surface,                  !- Outside Boundary Condition
    Block fffddece4488ebfc_0 Storey 1 Floor 0001_1,    !- Outside Boundary Condition Object
    NoSun,                    !- Sun Exposure
    NoWind,                   !- Wind Exposure
    autocalculate,            !- View Factor to Ground
    autocalculate,            !- Number of Vertices
    439843.1799999997,        !- Vertex 1 Xcoordinate
    4478886.881,              !- Vertex 1 Ycoordinate
    3,                        !- Vertex 1 Zcoordinate
    439843.22399999993,       !- Vertex 2 Xcoordinate
    4478880.82,               !- Vertex 2 Ycoordinate
    3,                        !- Vertex 2 Zcoordinate
    439843.29399999976,       !- Vertex 3 Xcoordinate
    4478874.681,              !- Vertex 3 Ycoordinate
    3,                        !- Vertex 3 Zcoordinate
    439836.7899999996,        !- Vertex 4 Xcoordinate
    4478875.754,              !- Vertex 4 Ycoordinate
    3,                        !- Vertex 4 Zcoordinate
    439836.6329999999,        !- Vertex 5 Xcoordinate
    4478887.9,                !- Vertex 5 Ycoordinate
    3,                        !- Vertex 5 Zcoordinate
    439839.37699999986,       !- Vertex 6 Xcoordinate
    4478887.478,              !- Vertex 6 Ycoordinate
    3;                        !- Vertex 6 Zcoordinate

BUILDINGSURFACE:DETAILED,
    Block fffddece4488ebfc_0 Storey 1 Floor 0001_1,    !- Name
    floor,                    !- Surface Type
    EU_floor_Construction,    !- Construction Name
    fffddece4488ebfc_F1_dwelling_0,    !- Zone Name
    ,                         !- Space Name
    Surface,                  !- Outside Boundary Condition
    Block fffddece4488ebfc_0 Storey 0 Ceiling 0001_1,    !- Outside Boundary Condition Object
    NoSun,                    !- Sun Exposure
    NoWind,                   !- Wind Exposure
    autocalculate,            !- View Factor to Ground
    autocalculate,            !- Number of Vertices
    439843.29399999976,       !- Vertex 1 Xcoordinate
    4478874.681,              !- Vertex 1 Ycoordinate
    3,                        !- Vertex 1 Zcoordinate
    439843.22399999993,       !- Vertex 2 Xcoordinate
    4478880.82,               !- Vertex 2 Ycoordinate
    3,                        !- Vertex 2 Zcoordinate
    439843.1799999997,        !- Vertex 3 Xcoordinate
    4478886.881,              !- Vertex 3 Ycoordinate
    3,                        !- Vertex 3 Zcoordinate
    439839.37699999986,       !- Vertex 4 Xcoordinate
    4478887.478,              !- Vertex 4 Ycoordinate
    3,                        !- Vertex 4 Zcoordinate
    439836.6329999999,        !- Vertex 5 Xcoordinate
    4478887.9,                !- Vertex 5 Ycoordinate
    3,                        !- Vertex 5 Zcoordinate
    439836.7899999996,        !- Vertex 6 Xcoordinate
    4478875.754,              !- Vertex 6 Ycoordinate
    3;                        !- Vertex 6 Zcoordinate

INTERNALMASS,
    fffddece4488ebfc_F0_dwelling_0_EU_InternalMass,    !- Name
    EU_InternalMass_Construction,    !- Construction Name
    fffddece4488ebfc_F0_dwelling_0,    !- Zone or ZoneList Name
    ,                         !- Space or SpaceList Name
    79.22957754705887;        !- Surface Area

INTERNALMASS,
    fffddece4488ebfc_F1_dwelling_0_EU_InternalMass,    !- Name
    EU_InternalMass_Construction,    !- Construction Name
    fffddece4488ebfc_F1_dwelling_0,    !- Zone or ZoneList Name
    ,                         !- Space or SpaceList Name
    79.22957754705887;        !- Surface Area

SHADING:SITE:DETAILED,
    shade_way/434877456_1,    !- Name
    ,                         !- Transmittance Schedule Name
    autocalculate,            !- Number of Vertices
    439820.271696061,         !- Vertex 1 Xcoordinate
    4478815.889935583,        !- Vertex 1 Ycoordinate
    15,                       !- Vertex 1 Zcoordinate
    439820.271696061,         !- Vertex 2 Xcoordinate
    4478815.889935583,        !- Vertex 2 Ycoordinate
    0,                        !- Vertex 2 Zcoordinate
    439808.46920828044,       !- Vertex 3 Xcoordinate
    4478870.453792002,        !- Vertex 3 Ycoordinate
    0,                        !- Vertex 3 Zcoordinate
    439808.46920828044,       !- Vertex 4 Xcoordinate
    4478870.453792002,        !- Vertex 4 Ycoordinate
    15;                       !- Vertex 4 Zcoordinate

SHADING:SITE:DETAILED,
    shade_way/434877456_2,    !- Name
    ,                         !- Transmittance Schedule Name
    autocalculate,            !- Number of Vertices
    439808.46920828044,       !- Vertex 1 Xcoordinate
    4478870.453792002,        !- Vertex 1 Ycoordinate
    15,                       !- Vertex 1 Zcoordinate
    439808.46920828044,       !- Vertex 2 Xcoordinate
    4478870.453792002,        !- Vertex 2 Ycoordinate
    0,                        !- Vertex 2 Zcoordinate
    439840.84104585834,       !- Vertex 3 Xcoordinate
    4478877.4562269,          !- Vertex 3 Ycoordinate
    0,                        !- Vertex 3 Zcoordinate
    439840.84104585834,       !- Vertex 4 Xcoordinate
    4478877.4562269,          !- Vertex 4 Ycoordinate
    15;                       !- Vertex 4 Zcoordinate

SHADING:SITE:DETAILED,
    shade_way/434877456_3,    !- Name
    ,                         !- Transmittance Schedule Name
    autocalculate,            !- Number of Vertices
    439840.84104585834,       !- Vertex 1 Xcoordinate
    4478877.4562269,          !- Vertex 1 Ycoordinate
    15,                       !- Vertex 1 Zcoordinate
    439840.84104585834,       !- Vertex 2 Xcoordinate
    4478877.4562269,          !- Vertex 2 Ycoordinate
    0,                        !- Vertex 2 Zcoordinate
    439852.6438344863,        !- Vertex 3 Xcoordinate
    4478822.892405276,        !- Vertex 3 Ycoordinate
    0,                        !- Vertex 3 Zcoordinate
    439852.6438344863,        !- Vertex 4 Xcoordinate
    4478822.892405276,        !- Vertex 4 Ycoordinate
    15;                       !- Vertex 4 Zcoordinate

SHADING:SITE:DETAILED,
    shade_way/434877456_4,    !- Name
    ,                         !- Transmittance Schedule Name
    autocalculate,            !- Number of Vertices
    439852.6438344863,        !- Vertex 1 Xcoordinate
    4478822.892405276,        !- Vertex 1 Ycoordinate
    15,                       !- Vertex 1 Zcoordinate
    439852.6438344863,        !- Vertex 2 Xcoordinate
    4478822.892405276,        !- Vertex 2 Ycoordinate
    0,                        !- Vertex 2 Zcoordinate
    439820.271696061,         !- Vertex 3 Xcoordinate
    4478815.889935583,        !- Vertex 3 Ycoordinate
    0,                        !- Vertex 3 Zcoordinate
    439820.271696061,         !- Vertex 4 Xcoordinate
    4478815.889935583,        !- Vertex 4 Ycoordinate
    15;                       !- Vertex 4 Zcoordinate

SHADING:SITE:DETAILED,
    shade_way/434878270_1,    !- Name
    ,                         !- Transmittance Schedule Name
    autocalculate,            !- Number of Vertices
    439857.0294822197,        !- Vertex 1 Xcoordinate
    4478871.439995297,        !- Vertex 1 Ycoordinate
    12,                       !- Vertex 1 Zcoordinate
    439857.0294822197,        !- Vertex 2 Xcoordinate
    4478871.439995297,        !- Vertex 2 Ycoordinate
    0,                        !- Vertex 2 Zcoordinate
    439899.1662975162,        !- Vertex 3 Xcoordinate
    4478861.346447481,        !- Vertex 3 Ycoordinate
    0,                        !- Vertex 3 Zcoordinate
    439899.1662975162,        !- Vertex 4 Xcoordinate
    4478861.346447481,        !- Vertex 4 Ycoordinate
    12;                       !- Vertex 4 Zcoordinate

SHADING:SITE:DETAILED,
    shade_way/434878270_2,    !- Name
    ,                         !- Transmittance Schedule Name
    autocalculate,            !- Number of Vertices
    439899.1662975162,        !- Vertex 1 Xcoordinate
    4478861.346447481,        !- Vertex 1 Ycoordinate
    12,                       !- Vertex 1 Zcoordinate
    439899.1662975162,        !- Vertex 2 Xcoordinate
    4478861.346447481,        !- Vertex 2 Ycoordinate
    0,                        !- Vertex 2 Zcoordinate
    439895.5300713928,        !- Vertex 3 Xcoordinate
    4478846.166666227,        !- Vertex 3 Ycoordinate
    0,                        !- Vertex 3 Zcoordinate
    439895.5300713928,        !- Vertex 4 Xcoordinate
    4478846.166666227,        !- Vertex 4 Ycoordinate
    12;                       !- Vertex 4 Zcoordinate

SHADING:SITE:DETAILED,
    shade_way/434878270_3,    !- Name
    ,                         !- Transmittance Schedule Name
    autocalculate,            !- Number of Vertices
    439895.5300713928,        !- Vertex 1 Xcoordinate
    4478846.166666227,        !- Vertex 1 Ycoordinate
    12,                       !- Vertex 1 Zcoordinate
    439895.5300713928,        !- Vertex 2 Xcoordinate
    4478846.166666227,        !- Vertex 2 Ycoordinate
    0,                        !- Vertex 2 Zcoordinate
    439853.39304268215,       !- Vertex 3 Xcoordinate
    4478856.2603403,          !- Vertex 3 Ycoordinate
    0,                        !- Vertex 3 Zcoordinate
    439853.39304268215,       !- Vertex 4 Xcoordinate
    4478856.2603403,          !- Vertex 4 Ycoordinate
    12;                       !- Vertex 4 Zcoordinate

SHADING:SITE:DETAILED,
    shade_way/434878270_4,    !- Name
    ,                         !- Transmittance Schedule Name
    autocalculate,            !- Number of Vertices
    439853.39304268215,       !- Vertex 1 Xcoordinate
    4478856.2603403,          !- Vertex 1 Ycoordinate
    12,                       !- Vertex 1 Zcoordinate
    439853.39304268215,       !- Vertex 2 Xcoordinate
    4478856.2603403,          !- Vertex 2 Ycoordinate
    0,                        !- Vertex 2 Zcoordinate
    439857.0294822197,        !- Vertex 3 Xcoordinate
    4478871.439995297,        !- Vertex 3 Ycoordinate
    0,                        !- Vertex 3 Zcoordinate
    439857.0294822197,        !- Vertex 4 Xcoordinate
    4478871.439995297,        !- Vertex 4 Ycoordinate
    12;                       !- Vertex 4 Zcoordinate

SHADING:SITE:DETAILED,
    shade_way/434878283_1,    !- Name
    ,                         !- Transmittance Schedule Name
    autocalculate,            !- Number of Vertices
    439849.6923318656,        !- Vertex 1 Xcoordinate
    4478886.692234955,        !- Vertex 1 Ycoordinate
    3,                        !- Vertex 1 Zcoordinate
    439849.6923318656,        !- Vertex 2 Xcoordinate
    4478886.692234955,        !- Vertex 2 Ycoordinate
    0,                        !- Vertex 2 Zcoordinate
    439848.8433254804,        !- Vertex 3 Xcoordinate
    4478857.4743269235,       !- Vertex 3 Ycoordinate
    0,                        !- Vertex 3 Zcoordinate
    439848.8433254804,        !- Vertex 4 Xcoordinate
    4478857.4743269235,       !- Vertex 4 Ycoordinate
    3;                        !- Vertex 4 Zcoordinate

SHADING:SITE:DETAILED,
    shade_way/434878283_2,    !- Name
    ,                         !- Transmittance Schedule Name
    autocalculate,            !- Number of Vertices
    439848.8433254804,        !- Vertex 1 Xcoordinate
    4478857.4743269235,       !- Vertex 1 Ycoordinate
    3,                        !- Vertex 1 Zcoordinate
    439848.8433254804,        !- Vertex 2 Xcoordinate
    4478857.4743269235,       !- Vertex 2 Ycoordinate
    0,                        !- Vertex 2 Zcoordinate
    439842.2735182758,        !- Vertex 3 Xcoordinate
    4478857.665230675,        !- Vertex 3 Ycoordinate
    0,                        !- Vertex 3 Zcoordinate
    439842.2735182758,        !- Vertex 4 Xcoordinate
    4478857.665230675,        !- Vertex 4 Ycoordinate
    3;                        !- Vertex 4 Zcoordinate

SHADING:SITE:DETAILED,
    shade_way/434878283_3,    !- Name
    ,                         !- Transmittance Schedule Name
    autocalculate,            !- Number of Vertices
    439842.2735182758,        !- Vertex 1 Xcoordinate
    4478857.665230675,        !- Vertex 1 Ycoordinate
    3,                        !- Vertex 1 Zcoordinate
    439842.2735182758,        !- Vertex 2 Xcoordinate
    4478857.665230675,        !- Vertex 2 Ycoordinate
    0,                        !- Vertex 2 Zcoordinate
    439843.12252466095,       !- Vertex 3 Xcoordinate
    4478886.883138706,        !- Vertex 3 Ycoordinate
    0,                        !- Vertex 3 Zcoordinate
    439843.12252466095,       !- Vertex 4 Xcoordinate
    4478886.883138706,        !- Vertex 4 Ycoordinate
    3;                        !- Vertex 4 Zcoordinate

SHADING:SITE:DETAILED,
    shade_way/434878283_4,    !- Name
    ,                         !- Transmittance Schedule Name
    autocalculate,            !- Number of Vertices
    439843.12252466095,       !- Vertex 1 Xcoordinate
    4478886.883138706,        !- Vertex 1 Ycoordinate
    3,                        !- Vertex 1 Zcoordinate
    439843.12252466095,       !- Vertex 2 Xcoordinate
    4478886.883138706,        !- Vertex 2 Ycoordinate
    0,                        !- Vertex 2 Zcoordinate
    439849.6923318656,        !- Vertex 3 Xcoordinate
    4478886.692234955,        !- Vertex 3 Ycoordinate
    0,                        !- Vertex 3 Zcoordinate
    439849.6923318656,        !- Vertex 4 Xcoordinate
    4478886.692234955,        !- Vertex 4 Ycoordinate
    3;                        !- Vertex 4 Zcoordinate

SHADING:SITE:DETAILED,
    shade_way/434878287_1,    !- Name
    ,                         !- Transmittance Schedule Name
    autocalculate,            !- Number of Vertices
    439810.30507204356,       !- Vertex 1 Xcoordinate
    4478892.085508533,        !- Vertex 1 Ycoordinate
    12,                       !- Vertex 1 Zcoordinate
    439810.30507204356,       !- Vertex 2 Xcoordinate
    4478892.085508533,        !- Vertex 2 Ycoordinate
    0,                        !- Vertex 2 Zcoordinate
    439841.10413941543,       !- Vertex 3 Xcoordinate
    4478887.189003254,        !- Vertex 3 Ycoordinate
    0,                        !- Vertex 3 Zcoordinate
    439841.10413941543,       !- Vertex 4 Xcoordinate
    4478887.189003254,        !- Vertex 4 Ycoordinate
    12;                       !- Vertex 4 Zcoordinate

SHADING:SITE:DETAILED,
    shade_way/434878287_2,    !- Name
    ,                         !- Transmittance Schedule Name
    autocalculate,            !- Number of Vertices
    439841.10413941543,       !- Vertex 1 Xcoordinate
    4478887.189003254,        !- Vertex 1 Ycoordinate
    12,                       !- Vertex 1 Zcoordinate
    439841.10413941543,       !- Vertex 2 Xcoordinate
    4478887.189003254,        !- Vertex 2 Ycoordinate
    0,                        !- Vertex 2 Zcoordinate
    439837.0145423701,        !- Vertex 3 Xcoordinate
    4478861.4658311745,       !- Vertex 3 Ycoordinate
    0,                        !- Vertex 3 Zcoordinate
    439837.0145423701,        !- Vertex 4 Xcoordinate
    4478861.4658311745,       !- Vertex 4 Ycoordinate
    12;                       !- Vertex 4 Zcoordinate

SHADING:SITE:DETAILED,
    shade_way/434878287_3,    !- Name
    ,                         !- Transmittance Schedule Name
    autocalculate,            !- Number of Vertices
    439837.0145423701,        !- Vertex 1 Xcoordinate
    4478861.4658311745,       !- Vertex 1 Ycoordinate
    12,                       !- Vertex 1 Zcoordinate
    439837.0145423701,        !- Vertex 2 Xcoordinate
    4478861.4658311745,       !- Vertex 2 Ycoordinate
    0,                        !- Vertex 2 Zcoordinate
    439806.2156562527,        !- Vertex 3 Xcoordinate
    4478866.362237085,        !- Vertex 3 Ycoordinate
    0,                        !- Vertex 3 Zcoordinate
    439806.2156562527,        !- Vertex 4 Xcoordinate
    4478866.362237085,        !- Vertex 4 Ycoordinate
    12;                       !- Vertex 4 Zcoordinate

SHADING:SITE:DETAILED,
    shade_way/434878287_4,    !- Name
    ,                         !- Transmittance Schedule Name
    autocalculate,            !- Number of Vertices
    439806.2156562527,        !- Vertex 1 Xcoordinate
    4478866.362237085,        !- Vertex 1 Ycoordinate
    12,                       !- Vertex 1 Zcoordinate
    439806.2156562527,        !- Vertex 2 Xcoordinate
    4478866.362237085,        !- Vertex 2 Ycoordinate
    0,                        !- Vertex 2 Zcoordinate
    439810.30507204356,       !- Vertex 3 Xcoordinate
    4478892.085508533,        !- Vertex 3 Ycoordinate
    0,                        !- Vertex 3 Zcoordinate
    439810.30507204356,       !- Vertex 4 Xcoordinate
    4478892.085508533,        !- Vertex 4 Ycoordinate
    12;                       !- Vertex 4 Zcoordinate

SHADING:SITE:DETAILED,
    shade_way/434878279_1,    !- Name
    ,                         !- Transmittance Schedule Name
    autocalculate,            !- Number of Vertices
    439875.63449094706,       !- Vertex 1 Xcoordinate
    4478873.126699756,        !- Vertex 1 Ycoordinate
    12,                       !- Vertex 1 Zcoordinate
    439875.63449094706,       !- Vertex 2 Xcoordinate
    4478873.126699756,        !- Vertex 2 Ycoordinate
    0,                        !- Vertex 2 Zcoordinate
    439855.7886436257,        !- Vertex 3 Xcoordinate
    4478874.596686881,        !- Vertex 3 Ycoordinate
    0,                        !- Vertex 3 Zcoordinate
    439855.7886436257,        !- Vertex 4 Xcoordinate
    4478874.596686881,        !- Vertex 4 Ycoordinate
    12;                       !- Vertex 4 Zcoordinate

SHADING:SITE:DETAILED,
    shade_way/434878279_2,    !- Name
    ,                         !- Transmittance Schedule Name
    autocalculate,            !- Number of Vertices
    439855.7886436257,        !- Vertex 1 Xcoordinate
    4478874.596686881,        !- Vertex 1 Ycoordinate
    12,                       !- Vertex 1 Zcoordinate
    439855.7886436257,        !- Vertex 2 Xcoordinate
    4478874.596686881,        !- Vertex 2 Ycoordinate
    0,                        !- Vertex 2 Zcoordinate
    439856.53450228815,       !- Vertex 3 Xcoordinate
    4478884.666296883,        !- Vertex 3 Ycoordinate
    0,                        !- Vertex 3 Zcoordinate
    439856.53450228815,       !- Vertex 4 Xcoordinate
    4478884.666296883,        !- Vertex 4 Ycoordinate
    12;                       !- Vertex 4 Zcoordinate

SHADING:SITE:DETAILED,
    shade_way/434878279_3,    !- Name
    ,                         !- Transmittance Schedule Name
    autocalculate,            !- Number of Vertices
    439856.53450228815,       !- Vertex 1 Xcoordinate
    4478884.666296883,        !- Vertex 1 Ycoordinate
    12,                       !- Vertex 1 Zcoordinate
    439856.53450228815,       !- Vertex 2 Xcoordinate
    4478884.666296883,        !- Vertex 2 Ycoordinate
    0,                        !- Vertex 2 Zcoordinate
    439876.3803496095,        !- Vertex 3 Xcoordinate
    4478883.196309757,        !- Vertex 3 Ycoordinate
    0,                        !- Vertex 3 Zcoordinate
    439876.3803496095,        !- Vertex 4 Xcoordinate
    4478883.196309757,        !- Vertex 4 Ycoordinate
    12;                       !- Vertex 4 Zcoordinate

SHADING:SITE:DETAILED,
    shade_way/434878279_4,    !- Name
    ,                         !- Transmittance Schedule Name
    autocalculate,            !- Number of Vertices
    439876.3803496095,        !- Vertex 1 Xcoordinate
    4478883.196309757,        !- Vertex 1 Ycoordinate
    12,                       !- Vertex 1 Zcoordinate
    439876.3803496095,        !- Vertex 2 Xcoordinate
    4478883.196309757,        !- Vertex 2 Ycoordinate
    0,                        !- Vertex 2 Zcoordinate
    439875.63449094706,       !- Vertex 3 Xcoordinate
    4478873.126699756,        !- Vertex 3 Ycoordinate
    0,                        !- Vertex 3 Zcoordinate
    439875.63449094706,       !- Vertex 4 Xcoordinate
    4478873.126699756,        !- Vertex 4 Ycoordinate
    12;                       !- Vertex 4 Zcoordinate

SHADING:SITE:DETAILED,
    shade_way/434878281_1,    !- Name
    ,                         !- Transmittance Schedule Name
    autocalculate,            !- Number of Vertices
    439849.3417600148,        !- Vertex 1 Xcoordinate
    4478874.646258678,        !- Vertex 1 Ycoordinate
    9,                        !- Vertex 1 Zcoordinate
    439849.3417600148,        !- Vertex 2 Xcoordinate
    4478874.646258678,        !- Vertex 2 Ycoordinate
    0,                        !- Vertex 2 Zcoordinate
    439849.6660286945,        !- Vertex 3 Xcoordinate
    4478885.785830571,        !- Vertex 3 Ycoordinate
    0,                        !- Vertex 3 Zcoordinate
    439849.6660286945,        !- Vertex 4 Xcoordinate
    4478885.785830571,        !- Vertex 4 Ycoordinate
    9;                        !- Vertex 4 Zcoordinate

SHADING:SITE:DETAILED,
    shade_way/434878281_2,    !- Name
    ,                         !- Transmittance Schedule Name
    autocalculate,            !- Number of Vertices
    439849.6660286945,        !- Vertex 1 Xcoordinate
    4478885.785830571,        !- Vertex 1 Ycoordinate
    9,                        !- Vertex 1 Zcoordinate
    439849.6660286945,        !- Vertex 2 Xcoordinate
    4478885.785830571,        !- Vertex 2 Ycoordinate
    0,                        !- Vertex 2 Zcoordinate
    439856.85857066,          !- Vertex 3 Xcoordinate
    4478885.57652212,         !- Vertex 3 Ycoordinate
    0,                        !- Vertex 3 Zcoordinate
    439856.85857066,          !- Vertex 4 Xcoordinate
    4478885.57652212,         !- Vertex 4 Ycoordinate
    9;                        !- Vertex 4 Zcoordinate

SHADING:SITE:DETAILED,
    shade_way/434878281_3,    !- Name
    ,                         !- Transmittance Schedule Name
    autocalculate,            !- Number of Vertices
    439856.85857066,          !- Vertex 1 Xcoordinate
    4478885.57652212,         !- Vertex 1 Ycoordinate
    9,                        !- Vertex 1 Zcoordinate
    439856.85857066,          !- Vertex 2 Xcoordinate
    4478885.57652212,         !- Vertex 2 Ycoordinate
    0,                        !- Vertex 2 Zcoordinate
    439856.5342121123,        !- Vertex 3 Xcoordinate
    4478874.436833322,        !- Vertex 3 Ycoordinate
    0,                        !- Vertex 3 Zcoordinate
    439856.5342121123,        !- Vertex 4 Xcoordinate
    4478874.436833322,        !- Vertex 4 Ycoordinate
    9;                        !- Vertex 4 Zcoordinate

SHADING:SITE:DETAILED,
    shade_way/434878281_4,    !- Name
    ,                         !- Transmittance Schedule Name
    autocalculate,            !- Number of Vertices
    439856.5342121123,        !- Vertex 1 Xcoordinate
    4478874.436833322,        !- Vertex 1 Ycoordinate
    9,                        !- Vertex 1 Zcoordinate
    439856.5342121123,        !- Vertex 2 Xcoordinate
    4478874.436833322,        !- Vertex 2 Ycoordinate
    0,                        !- Vertex 2 Zcoordinate
    439849.3417600148,        !- Vertex 3 Xcoordinate
    4478874.646258678,        !- Vertex 3 Ycoordinate
    0,                        !- Vertex 3 Zcoordinate
    439849.3417600148,        !- Vertex 4 Xcoordinate
    4478874.646258678,        !- Vertex 4 Ycoordinate
    9;                        !- Vertex 4 Zcoordinate

SHADING:SITE:DETAILED,
    shade_way/435505191_1,    !- Name
    ,                         !- Transmittance Schedule Name
    autocalculate,            !- Number of Vertices
    439856.0862992381,        !- Vertex 1 Xcoordinate
    4478894.659021966,        !- Vertex 1 Ycoordinate
    12,                       !- Vertex 1 Zcoordinate
    439856.0862992381,        !- Vertex 2 Xcoordinate
    4478894.659021966,        !- Vertex 2 Ycoordinate
    0,                        !- Vertex 2 Zcoordinate
    439854.8946412286,        !- Vertex 3 Xcoordinate
    4478912.840767672,        !- Vertex 3 Ycoordinate
    0,                        !- Vertex 3 Zcoordinate
    439854.8946412286,        !- Vertex 4 Xcoordinate
    4478912.840767672,        !- Vertex 4 Ycoordinate
    12;                       !- Vertex 4 Zcoordinate

SHADING:SITE:DETAILED,
    shade_way/435505191_2,    !- Name
    ,                         !- Transmittance Schedule Name
    autocalculate,            !- Number of Vertices
    439854.8946412286,        !- Vertex 1 Xcoordinate
    4478912.840767672,        !- Vertex 1 Ycoordinate
    12,                       !- Vertex 1 Zcoordinate
    439854.8946412286,        !- Vertex 2 Xcoordinate
    4478912.840767672,        !- Vertex 2 Ycoordinate
    0,                        !- Vertex 2 Zcoordinate
    439863.4475358535,        !- Vertex 3 Xcoordinate
    4478913.401326585,        !- Vertex 3 Ycoordinate
    0,                        !- Vertex 3 Zcoordinate
    439863.4475358535,        !- Vertex 4 Xcoordinate
    4478913.401326585,        !- Vertex 4 Ycoordinate
    12;                       !- Vertex 4 Zcoordinate

SHADING:SITE:DETAILED,
    shade_way/435505191_3,    !- Name
    ,                         !- Transmittance Schedule Name
    autocalculate,            !- Number of Vertices
    439863.4475358535,        !- Vertex 1 Xcoordinate
    4478913.401326585,        !- Vertex 1 Ycoordinate
    12,                       !- Vertex 1 Zcoordinate
    439863.4475358535,        !- Vertex 2 Xcoordinate
    4478913.401326585,        !- Vertex 2 Ycoordinate
    0,                        !- Vertex 2 Zcoordinate
    439864.63934966293,       !- Vertex 3 Xcoordinate
    4478895.219677579,        !- Vertex 3 Ycoordinate
    0,                        !- Vertex 3 Zcoordinate
    439864.63934966293,       !- Vertex 4 Xcoordinate
    4478895.219677579,        !- Vertex 4 Ycoordinate
    12;                       !- Vertex 4 Zcoordinate

SHADING:SITE:DETAILED,
    shade_way/435505191_4,    !- Name
    ,                         !- Transmittance Schedule Name
    autocalculate,            !- Number of Vertices
    439864.63934966293,       !- Vertex 1 Xcoordinate
    4478895.219677579,        !- Vertex 1 Ycoordinate
    12,                       !- Vertex 1 Zcoordinate
    439864.63934966293,       !- Vertex 2 Xcoordinate
    4478895.219677579,        !- Vertex 2 Ycoordinate
    0,                        !- Vertex 2 Zcoordinate
    439856.0862992381,        !- Vertex 3 Xcoordinate
    4478894.659021966,        !- Vertex 3 Ycoordinate
    0,                        !- Vertex 3 Zcoordinate
    439856.0862992381,        !- Vertex 4 Xcoordinate
    4478894.659021966,        !- Vertex 4 Ycoordinate
    12;                       !- Vertex 4 Zcoordinate

SHADING:SITE:DETAILED,
    shade_way/435510861_1,    !- Name
    ,                         !- Transmittance Schedule Name
    autocalculate,            !- Number of Vertices
    439830.4708593731,        !- Vertex 1 Xcoordinate
    4478899.113128418,        !- Vertex 1 Ycoordinate
    12,                       !- Vertex 1 Zcoordinate
    439830.4708593731,        !- Vertex 2 Xcoordinate
    4478899.113128418,        !- Vertex 2 Ycoordinate
    0,                        !- Vertex 2 Zcoordinate
    439805.75768888247,       !- Vertex 3 Xcoordinate
    4478903.133297851,        !- Vertex 3 Ycoordinate
    0,                        !- Vertex 3 Zcoordinate
    439805.75768888247,       !- Vertex 4 Xcoordinate
    4478903.133297851,        !- Vertex 4 Ycoordinate
    12;                       !- Vertex 4 Zcoordinate

SHADING:SITE:DETAILED,
    shade_way/435510861_2,    !- Name
    ,                         !- Transmittance Schedule Name
    autocalculate,            !- Number of Vertices
    439805.75768888247,       !- Vertex 1 Xcoordinate
    4478903.133297851,        !- Vertex 1 Ycoordinate
    12,                       !- Vertex 1 Zcoordinate
    439805.75768888247,       !- Vertex 2 Xcoordinate
    4478903.133297851,        !- Vertex 2 Ycoordinate
    0,                        !- Vertex 2 Zcoordinate
    439807.7533014661,        !- Vertex 3 Xcoordinate
    4478915.40091862,         !- Vertex 3 Ycoordinate
    0,                        !- Vertex 3 Zcoordinate
    439807.7533014661,        !- Vertex 4 Xcoordinate
    4478915.40091862,         !- Vertex 4 Ycoordinate
    12;                       !- Vertex 4 Zcoordinate

SHADING:SITE:DETAILED,
    shade_way/435510861_3,    !- Name
    ,                         !- Transmittance Schedule Name
    autocalculate,            !- Number of Vertices
    439807.7533014661,        !- Vertex 1 Xcoordinate
    4478915.40091862,         !- Vertex 1 Ycoordinate
    12,                       !- Vertex 1 Zcoordinate
    439807.7533014661,        !- Vertex 2 Xcoordinate
    4478915.40091862,         !- Vertex 2 Ycoordinate
    0,                        !- Vertex 2 Zcoordinate
    439832.4664719567,        !- Vertex 3 Xcoordinate
    4478911.3807491865,       !- Vertex 3 Ycoordinate
    0,                        !- Vertex 3 Zcoordinate
    439832.4664719567,        !- Vertex 4 Xcoordinate
    4478911.3807491865,       !- Vertex 4 Ycoordinate
    12;                       !- Vertex 4 Zcoordinate

SHADING:SITE:DETAILED,
    shade_way/435510861_4,    !- Name
    ,                         !- Transmittance Schedule Name
    autocalculate,            !- Number of Vertices
    439832.4664719567,        !- Vertex 1 Xcoordinate
    4478911.3807491865,       !- Vertex 1 Ycoordinate
    12,                       !- Vertex 1 Zcoordinate
    439832.4664719567,        !- Vertex 2 Xcoordinate
    4478911.3807491865,       !- Vertex 2 Ycoordinate
    0,                        !- Vertex 2 Zcoordinate
    439830.4708593731,        !- Vertex 3 Xcoordinate
    4478899.113128418,        !- Vertex 3 Ycoordinate
    0,                        !- Vertex 3 Zcoordinate
    439830.4708593731,        !- Vertex 4 Xcoordinate
    4478899.113128418,        !- Vertex 4 Ycoordinate
    12;                       !- Vertex 4 Zcoordinate

SHADING:SITE:DETAILED,
    shade_way/435510862_1,    !- Name
    ,                         !- Transmittance Schedule Name
    autocalculate,            !- Number of Vertices
    439845.2004964487,        !- Vertex 1 Xcoordinate
    4478896.715863233,        !- Vertex 1 Ycoordinate
    12,                       !- Vertex 1 Zcoordinate
    439845.2004964487,        !- Vertex 2 Xcoordinate
    4478896.715863233,        !- Vertex 2 Ycoordinate
    0,                        !- Vertex 2 Zcoordinate
    439830.3812014976,        !- Vertex 3 Xcoordinate
    4478899.128509068,        !- Vertex 3 Ycoordinate
    0,                        !- Vertex 3 Zcoordinate
    439830.3812014976,        !- Vertex 4 Xcoordinate
    4478899.128509068,        !- Vertex 4 Ycoordinate
    12;                       !- Vertex 4 Zcoordinate

SHADING:SITE:DETAILED,
    shade_way/435510862_2,    !- Name
    ,                         !- Transmittance Schedule Name
    autocalculate,            !- Number of Vertices
    439830.3812014976,        !- Vertex 1 Xcoordinate
    4478899.128509068,        !- Vertex 1 Ycoordinate
    12,                       !- Vertex 1 Zcoordinate
    439830.3812014976,        !- Vertex 2 Xcoordinate
    4478899.128509068,        !- Vertex 2 Ycoordinate
    0,                        !- Vertex 2 Zcoordinate
    439833.83906339796,       !- Vertex 3 Xcoordinate
    4478920.368642676,        !- Vertex 3 Ycoordinate
    0,                        !- Vertex 3 Zcoordinate
    439833.83906339796,       !- Vertex 4 Xcoordinate
    4478920.368642676,        !- Vertex 4 Ycoordinate
    12;                       !- Vertex 4 Zcoordinate

SHADING:SITE:DETAILED,
    shade_way/435510862_3,    !- Name
    ,                         !- Transmittance Schedule Name
    autocalculate,            !- Number of Vertices
    439833.83906339796,       !- Vertex 1 Xcoordinate
    4478920.368642676,        !- Vertex 1 Ycoordinate
    12,                       !- Vertex 1 Zcoordinate
    439833.83906339796,       !- Vertex 2 Xcoordinate
    4478920.368642676,        !- Vertex 2 Ycoordinate
    0,                        !- Vertex 2 Zcoordinate
    439848.65838657244,       !- Vertex 3 Xcoordinate
    4478917.956067407,        !- Vertex 3 Ycoordinate
    0,                        !- Vertex 3 Zcoordinate
    439848.65838657244,       !- Vertex 4 Xcoordinate
    4478917.956067407,        !- Vertex 4 Ycoordinate
    12;                       !- Vertex 4 Zcoordinate

SHADING:SITE:DETAILED,
    shade_way/435510862_4,    !- Name
    ,                         !- Transmittance Schedule Name
    autocalculate,            !- Number of Vertices
    439848.65838657244,       !- Vertex 1 Xcoordinate
    4478917.956067407,        !- Vertex 1 Ycoordinate
    12,                       !- Vertex 1 Zcoordinate
    439848.65838657244,       !- Vertex 2 Xcoordinate
    4478917.956067407,        !- Vertex 2 Ycoordinate
    0,                        !- Vertex 2 Zcoordinate
    439845.2004964487,        !- Vertex 3 Xcoordinate
    4478896.715863233,        !- Vertex 3 Ycoordinate
    0,                        !- Vertex 3 Zcoordinate
    439845.2004964487,        !- Vertex 4 Xcoordinate
    4478896.715863233,        !- Vertex 4 Ycoordinate
    12;                       !- Vertex 4 Zcoordinate

OTHEREQUIPMENT,
    EU_Step8_InternalGain_fffddece4488ebfc_F0_dwelling_0_f000,    !- Name
    Electricity,              !- Fuel Type
    fffddece4488ebfc_F0_dwelling_0,    !- Zone or ZoneList or Space or SpaceList Name
    EU_Step8_GainSchedule_fffddece4488ebfc_F0_dwelling_0_f000,    !- Schedule Name
    Watts/Area,               !- Design Level Calculation Method
    ,                         !- Design Level
    1,                        !- Power per Zone Floor Area
    ,                         !- Power per Person
    0,                        !- Fraction Latent
    0,                        !- Fraction Radiant
    0,                        !- Fraction Lost
    0,                        !- Carbon Dioxide Generation Rate
    EU_Step8_InternalGains;    !- EndUse Subcategory

OTHEREQUIPMENT,
    EU_Step8_InternalGain_fffddece4488ebfc_F1_dwelling_0_f000,    !- Name
    Electricity,              !- Fuel Type
    fffddece4488ebfc_F1_dwelling_0,    !- Zone or ZoneList or Space or SpaceList Name
    EU_Step8_GainSchedule_fffddece4488ebfc_F1_dwelling_0_f000,    !- Schedule Name
    Watts/Area,               !- Design Level Calculation Method
    ,                         !- Design Level
    1,                        !- Power per Zone Floor Area
    ,                         !- Power per Person
    0,                        !- Fraction Latent
    0,                        !- Fraction Radiant
    0,                        !- Fraction Lost
    0,                        !- Carbon Dioxide Generation Rate
    EU_Step8_InternalGains;    !- EndUse Subcategory

ZONEVENTILATION:DESIGNFLOWRATE,
    EU_ConstantAir_fffddece4488ebfc_F0_dwelling_0,    !- Name
    fffddece4488ebfc_F0_dwelling_0,    !- Zone or ZoneList or Space or SpaceList Name
    EU_AlwaysOn,              !- Schedule Name
    AirChanges/Hour,          !- Design Flow Rate Calculation Method
    ,                         !- Design Flow Rate
    ,                         !- Flow Rate per Floor Area
    ,                         !- Flow Rate per Person
    0.4807043927943379,       !- Air Changes per Hour
    Natural,                  !- Ventilation Type
    0,                        !- Fan Pressure Rise
    1,                        !- Fan Total Efficiency
    1,                        !- Constant Term Coefficient
    0,                        !- Temperature Term Coefficient
    0,                        !- Velocity Term Coefficient
    0,                        !- Velocity Squared Term Coefficient
    -100,                     !- Minimum Indoor Temperature
    ,                         !- Minimum Indoor Temperature Schedule Name
    100,                      !- Maximum Indoor Temperature
    ,                         !- Maximum Indoor Temperature Schedule Name
    -100,                     !- Delta Temperature
    ,                         !- Delta Temperature Schedule Name
    -100,                     !- Minimum Outdoor Temperature
    ,                         !- Minimum Outdoor Temperature Schedule Name
    100,                      !- Maximum Outdoor Temperature
    ,                         !- Maximum Outdoor Temperature Schedule Name
    40;                       !- Maximum Wind Speed

ZONEVENTILATION:DESIGNFLOWRATE,
    EU_ConstantAir_fffddece4488ebfc_F1_dwelling_0,    !- Name
    fffddece4488ebfc_F1_dwelling_0,    !- Zone or ZoneList or Space or SpaceList Name
    EU_AlwaysOn,              !- Schedule Name
    AirChanges/Hour,          !- Design Flow Rate Calculation Method
    ,                         !- Design Flow Rate
    ,                         !- Flow Rate per Floor Area
    ,                         !- Flow Rate per Person
    0.4807043927943379,       !- Air Changes per Hour
    Natural,                  !- Ventilation Type
    0,                        !- Fan Pressure Rise
    1,                        !- Fan Total Efficiency
    1,                        !- Constant Term Coefficient
    0,                        !- Temperature Term Coefficient
    0,                        !- Velocity Term Coefficient
    0,                        !- Velocity Squared Term Coefficient
    -100,                     !- Minimum Indoor Temperature
    ,                         !- Minimum Indoor Temperature Schedule Name
    100,                      !- Maximum Indoor Temperature
    ,                         !- Maximum Indoor Temperature Schedule Name
    -100,                     !- Delta Temperature
    ,                         !- Delta Temperature Schedule Name
    -100,                     !- Minimum Outdoor Temperature
    ,                         !- Minimum Outdoor Temperature Schedule Name
    100,                      !- Maximum Outdoor Temperature
    ,                         !- Maximum Outdoor Temperature Schedule Name
    40;                       !- Maximum Wind Speed

HVACTEMPLATE:THERMOSTAT,
    EU_HeatOnly_fffddece4488ebfc_F0_dwelling_0,    !- Name
    ,                         !- Heating Setpoint Schedule Name
    20,                       !- Constant Heating Setpoint
    ,                         !- Cooling Setpoint Schedule Name
    50;                       !- Constant Cooling Setpoint

HVACTEMPLATE:THERMOSTAT,
    EU_HeatOnly_fffddece4488ebfc_F1_dwelling_0,    !- Name
    ,                         !- Heating Setpoint Schedule Name
    20,                       !- Constant Heating Setpoint
    ,                         !- Cooling Setpoint Schedule Name
    50;                       !- Constant Cooling Setpoint

HVACTEMPLATE:ZONE:IDEALLOADSAIRSYSTEM,
    fffddece4488ebfc_F0_dwelling_0,    !- Zone Name
    EU_HeatOnly_fffddece4488ebfc_F0_dwelling_0,    !- Template Thermostat Name
    EU_AlwaysOn,              !- System Availability Schedule Name
    50,                       !- Maximum Heating Supply Air Temperature
    13,                       !- Minimum Cooling Supply Air Temperature
    0.0156,                   !- Maximum Heating Supply Air Humidity Ratio
    0.0077,                   !- Minimum Cooling Supply Air Humidity Ratio
    NoLimit,                  !- Heating Limit
    ,                         !- Maximum Heating Air Flow Rate
    ,                         !- Maximum Sensible Heating Capacity
    NoLimit,                  !- Cooling Limit
    ,                         !- Maximum Cooling Air Flow Rate
    ,                         !- Maximum Total Cooling Capacity
    EU_AlwaysOn,              !- Heating Availability Schedule Name
    EU_CoolingOff,            !- Cooling Availability Schedule Name
    ConstantSensibleHeatRatio,    !- Dehumidification Control Type
    0.7,                      !- Cooling Sensible Heat Ratio
    60,                       !- Dehumidification Setpoint
    None,                     !- Humidification Control Type
    30,                       !- Humidification Setpoint
    None,                     !- Outdoor Air Method
    0.00944,                  !- Outdoor Air Flow Rate per Person
    0.0,                      !- Outdoor Air Flow Rate per Zone Floor Area
    0,                        !- Outdoor Air Flow Rate per Zone
    ,                         !- Design Specification Outdoor Air Object Name
    None,                     !- Demand Controlled Ventilation Type
    NoEconomizer,             !- Outdoor Air Economizer Type
    None,                     !- Heat Recovery Type
    0.70,                     !- Sensible Heat Recovery Effectiveness
    0.65;                     !- Latent Heat Recovery Effectiveness

HVACTEMPLATE:ZONE:IDEALLOADSAIRSYSTEM,
    fffddece4488ebfc_F1_dwelling_0,    !- Zone Name
    EU_HeatOnly_fffddece4488ebfc_F1_dwelling_0,    !- Template Thermostat Name
    EU_AlwaysOn,              !- System Availability Schedule Name
    50,                       !- Maximum Heating Supply Air Temperature
    13,                       !- Minimum Cooling Supply Air Temperature
    0.0156,                   !- Maximum Heating Supply Air Humidity Ratio
    0.0077,                   !- Minimum Cooling Supply Air Humidity Ratio
    NoLimit,                  !- Heating Limit
    ,                         !- Maximum Heating Air Flow Rate
    ,                         !- Maximum Sensible Heating Capacity
    NoLimit,                  !- Cooling Limit
    ,                         !- Maximum Cooling Air Flow Rate
    ,                         !- Maximum Total Cooling Capacity
    EU_AlwaysOn,              !- Heating Availability Schedule Name
    EU_CoolingOff,            !- Cooling Availability Schedule Name
    ConstantSensibleHeatRatio,    !- Dehumidification Control Type
    0.7,                      !- Cooling Sensible Heat Ratio
    60,                       !- Dehumidification Setpoint
    None,                     !- Humidification Control Type
    30,                       !- Humidification Setpoint
    None,                     !- Outdoor Air Method
    0.00944,                  !- Outdoor Air Flow Rate per Person
    0.0,                      !- Outdoor Air Flow Rate per Zone Floor Area
    0,                        !- Outdoor Air Flow Rate per Zone
    ,                         !- Design Specification Outdoor Air Object Name
    None,                     !- Demand Controlled Ventilation Type
    NoEconomizer,             !- Outdoor Air Economizer Type
    None,                     !- Heat Recovery Type
    0.70,                     !- Sensible Heat Recovery Effectiveness
    0.65;                     !- Latent Heat Recovery Effectiveness

SIZING:ZONE,
    fffddece4488ebfc_F0_dwelling_0,    !- Zone or ZoneList Name
    SupplyAirTemperature,     !- Zone Cooling Design Supply Air Temperature Input Method
    13,                       !- Zone Cooling Design Supply Air Temperature
    ,                         !- Zone Cooling Design Supply Air Temperature Difference
    SupplyAirTemperature,     !- Zone Heating Design Supply Air Temperature Input Method
    50,                       !- Zone Heating Design Supply Air Temperature
    ,                         !- Zone Heating Design Supply Air Temperature Difference
    0.008,                    !- Zone Cooling Design Supply Air Humidity Ratio
    0.008,                    !- Zone Heating Design Supply Air Humidity Ratio
    ,                         !- Design Specification Outdoor Air Object Name
    ,                         !- Zone Heating Sizing Factor
    ,                         !- Zone Cooling Sizing Factor
    DesignDay,                !- Cooling Design Air Flow Method
    0,                        !- Cooling Design Air Flow Rate
    0.000762,                 !- Cooling Minimum Air Flow per Zone Floor Area
    0,                        !- Cooling Minimum Air Flow
    0.2,                      !- Cooling Minimum Air Flow Fraction
    DesignDay,                !- Heating Design Air Flow Method
    0,                        !- Heating Design Air Flow Rate
    0.002032,                 !- Heating Maximum Air Flow per Zone Floor Area
    0.1415762,                !- Heating Maximum Air Flow
    0.3,                      !- Heating Maximum Air Flow Fraction
    ,                         !- Design Specification Zone Air Distribution Object Name
    No,                       !- Account for Dedicated Outdoor Air System
    NeutralSupplyAir,         !- Dedicated Outdoor Air System Control Strategy
    autosize,                 !- Dedicated Outdoor Air Low Setpoint Temperature for Design
    autosize,                 !- Dedicated Outdoor Air High Setpoint Temperature for Design
    Sensible Load Only No Latent Load,    !- Zone Load Sizing Method
    HumidityRatioDifference,    !- Zone Latent Cooling Design Supply Air Humidity Ratio Input Method
    ,                         !- Zone Dehumidification Design Supply Air Humidity Ratio
    0.005,                    !- Zone Cooling Design Supply Air Humidity Ratio Difference
    HumidityRatioDifference,    !- Zone Latent Heating Design Supply Air Humidity Ratio Input Method
    ,                         !- Zone Humidification Design Supply Air Humidity Ratio
    0.005;                    !- Zone Humidification Design Supply Air Humidity Ratio Difference

SIZING:ZONE,
    fffddece4488ebfc_F1_dwelling_0,    !- Zone or ZoneList Name
    SupplyAirTemperature,     !- Zone Cooling Design Supply Air Temperature Input Method
    13,                       !- Zone Cooling Design Supply Air Temperature
    ,                         !- Zone Cooling Design Supply Air Temperature Difference
    SupplyAirTemperature,     !- Zone Heating Design Supply Air Temperature Input Method
    50,                       !- Zone Heating Design Supply Air Temperature
    ,                         !- Zone Heating Design Supply Air Temperature Difference
    0.008,                    !- Zone Cooling Design Supply Air Humidity Ratio
    0.008,                    !- Zone Heating Design Supply Air Humidity Ratio
    ,                         !- Design Specification Outdoor Air Object Name
    ,                         !- Zone Heating Sizing Factor
    ,                         !- Zone Cooling Sizing Factor
    DesignDay,                !- Cooling Design Air Flow Method
    0,                        !- Cooling Design Air Flow Rate
    0.000762,                 !- Cooling Minimum Air Flow per Zone Floor Area
    0,                        !- Cooling Minimum Air Flow
    0.2,                      !- Cooling Minimum Air Flow Fraction
    DesignDay,                !- Heating Design Air Flow Method
    0,                        !- Heating Design Air Flow Rate
    0.002032,                 !- Heating Maximum Air Flow per Zone Floor Area
    0.1415762,                !- Heating Maximum Air Flow
    0.3,                      !- Heating Maximum Air Flow Fraction
    ,                         !- Design Specification Zone Air Distribution Object Name
    No,                       !- Account for Dedicated Outdoor Air System
    NeutralSupplyAir,         !- Dedicated Outdoor Air System Control Strategy
    autosize,                 !- Dedicated Outdoor Air Low Setpoint Temperature for Design
    autosize,                 !- Dedicated Outdoor Air High Setpoint Temperature for Design
    Sensible Load Only No Latent Load,    !- Zone Load Sizing Method
    HumidityRatioDifference,    !- Zone Latent Cooling Design Supply Air Humidity Ratio Input Method
    ,                         !- Zone Dehumidification Design Supply Air Humidity Ratio
    0.005,                    !- Zone Cooling Design Supply Air Humidity Ratio Difference
    HumidityRatioDifference,    !- Zone Latent Heating Design Supply Air Humidity Ratio Input Method
    ,                         !- Zone Humidification Design Supply Air Humidity Ratio
    0.005;                    !- Zone Humidification Design Supply Air Humidity Ratio Difference

OUTPUT:VARIABLE,
    *,                        !- Key Value
    Zone Ideal Loads Zone Total Heating Energy,    !- Variable Name
    Hourly;                   !- Reporting Frequency

OUTPUT:SQLITE,
    SimpleAndTabular,         !- Option Type
    UseOutputControlTableStyle;    !- Unit Conversion for Tabular Data